<?xml version="1.0"?>
<VTKFile type="UnstructuredGrid" version="0.1" byte_order="LittleEndian">
<UnstructuredGrid>
<Piece NumberOfPoints="31611" NumberOfCells="11060">
<Points>
<DataArray type="Float64" NumberOfComponents="3" format="ascii">
-0.5 -0.5 0 -0.46828038073245648 -0.47886534663837521 0 -0.44865810322365568 -0.48409953664285638 0 -0.5 -0.5 0 -0.49999999999999972 -0.48510845838876121 0 -0.48570950625765019 -0.47768115510604992 0 -0.5 -0.5 0 -0.48570950625765019 -0.47768115510604992 0 -0.46828038073245648 -0.47886534663837521 0 -0.5 -0.5 0 -0.44865810322365568 -0.48409953664285638 0 -0.43065798387075171 -0.5 0 -0.49999999999999972 -0.48510845838876121 0 -0.4941949942269972 -0.45916426609095218 0 -0.49999999999999972 -0.48510845838876121 0 -0.49069418980235951 -0.47133381242174988 0 -0.4941949942269972 -0.45916426609095218 0 -0.49999999999999972 -0.48510845838876121 0 -0.48570950625765019 -0.47768115510604992 0 -0.49069418980235951 -0.47133381242174988 0 -0.48570950625765019 -0.47768115510604992 0 -0.49069418980235951 -0.47133381242174988 0 -0.48287225872479073 -0.46338137010123648 0 -0.48570950625765019 -0.47768115510604992 0 -0.46828038073245648 -0.47886534663837521 0 -0.47348037271648358 -0.46746596895788939 0 -0.48570950625765019 -0.47768115510604992 0 -0.47348037271648358 -0.46746596895788939 0 -0.48287225872479073 -0.46338137010123648 0 -0.46828038073245648 -0.47886534663837521 0 -0.45685729718066292 -0.46317756925396197 0 -0.47348037271648358 -0.46746596895788939 0 -0.46828038073245648 -0.47886534663837521 0 -0.44865810322365568 -0.48409953664285638 0 -0.45685729718066292 -0.46317756925396197 0 -0.44865810322365568 -0.48409953664285638 0 -0.45685729718066292 -0.46317756925396197 0 -0.43679251415364467 -0.46810751068103917 0 -0.44227138583608377 -0.44763337228523992 0 -0.46139451200219128 -0.43849474965389679 0 -0.43321442839889329 -0.42847143344951949 0 -0.44227138583608377 -0.44763337228523992 0 -0.45685729718066292 -0.46317756925396197 0 -0.43679251415364467 -0.46810751068103917 0 -0.45685729718066292 -0.46317756925396197 0 -0.47348037271648358 -0.46746596895788939 0 -0.47368242068685817 -0.45422440368982331 0 -0.44227138583608377 -0.44763337228523992 0 -0.45685729718066292 -0.46317756925396197 0 -0.46139451200219128 -0.43849474965389679 0 -0.45685729718066292 -0.46317756925396197 0 -0.46139451200219128 -0.43849474965389679 0 -0.47368242068685817 -0.45422440368982331 0 -0.46139451200219128 -0.43849474965389679 0 -0.47368242068685817 -0.45422440368982331 0 -0.47606701927266332 -0.43679131520182141 0 -0.47368242068685817 -0.45422440368982331 0 -0.48467876016018729 -0.44770481390493477 0 -0.47606701927266332 -0.43679131520182141 0 -0.47368242068685817 -0.45422440368982331 0 -0.48385710844970842 -0.45611871344673671 0 -0.48467876016018729 -0.44770481390493477 0 -0.48467876016018729 -0.44770481390493477 0 -0.48838998845399501 -0.43322007379314309 0 -0.47606701927266332 -0.43679131520182141 0 -0.47368242068685817 -0.45422440368982331 0 -0.48385710844970842 -0.45611871344673671 0 -0.48287225872479073 -0.46338137010123648 0 -0.47348037271648358 -0.46746596895788939 0 -0.47368242068685817 -0.45422440368982331 0 -0.48287225872479073 -0.46338137010123648 0 -0.49999999999999972 -0.48510845838876121 0 -0.5 -0.45593863611047231 0 -0.4941949942269972 -0.45916426609095218 0 -0.49069418980235951 -0.47133381242174988 0 -0.48287225872479073 -0.46338137010123648 0 -0.4941949942269972 -0.45916426609095218 0 -0.48385710844970842 -0.45611871344673671 0 -0.4941949942269972 -0.45916426609095218 0 -0.48467876016018729 -0.44770481390493477 0 -0.48385710844970842 -0.45611871344673671 0 -0.48287225872479073 -0.46338137010123648 0 -0.4941949942269972 -0.45916426609095218 0 -0.4941949942269972 -0.45916426609095218 0 -0.48838998845399501 -0.43322007379314309 0 -0.5 -0.45593863611047231 0 -0.5 -0.42676881383218318 0 -0.48838998845399501 -0.43322007379314309 0 -0.4941949942269972 -0.45916426609095218 0 -0.48467876016018729 -0.44770481390493477 0 -0.48838998845399501 -0.43322007379314309 0 -0.5 -0.45593863611047231 0 -0.4941949942269972 -0.45916426609095218 0 -0.48838998845399501 -0.43322007379314309 0 -0.5 -0.42676881383218318 0 -0.48838998845399501 -0.43322007379314309 0 -0.48258498268099292 -0.40727588149533411 0 -0.48838998845399501 -0.43322007379314309 0 -0.48258498268099292 -0.40727588149533411 0 -0.5 -0.42676881383218318 0 -0.48258498268099292 -0.40727588149533411 0 -0.49999999999999889 -0.39759899155389428 0 -0.48053050573248501 -0.42147672776700368 0 -0.47795132075354452 -0.40761925728951731 0 -0.46868921987334328 -0.4251814927320644 0 -0.48838998845399501 -0.43322007379314309 0 -0.48053050573248501 -0.42147672776700368 0 -0.48258498268099292 -0.40727588149533411 0 -0.48053050573248501 -0.42147672776700368 0 -0.48258498268099292 -0.40727588149533411 0 -0.47795132075354452 -0.40761925728951731 0 -0.48053050573248501 -0.42147672776700368 0 -0.47606701927266332 -0.43679131520182141 0 -0.46868921987334328 -0.4251814927320644 0 -0.48838998845399501 -0.43322007379314309 0 -0.48053050573248501 -0.42147672776700368 0 -0.47606701927266332 -0.43679131520182141 0 -0.48601428613885628 -0.38090720245017817 0 -0.49999999999999889 -0.39759899155389428 0 -0.49999999999999861 -0.3727285205933355 0 -0.48601428613885628 -0.38090720245017817 0 -0.49999999999999861 -0.3727285205933355 0 -0.48951587853512041 -0.37205782224554212 0 -0.47795132075354452 -0.40761925728951731 0 -0.49999999999999889 -0.39759899155389428 0 -0.48258498268099292 -0.40727588149533411 0 -0.47795132075354452 -0.40761925728951731 0 -0.49999999999999889 -0.39759899155389428 0 -0.47795132075354452 -0.40761925728951731 0 -0.48601428613885628 -0.38090720245017817 0 -0.49999999999999889 -0.39759899155389428 0 -0.47795132075354452 -0.40761925728951731 0 -0.48601428613885628 -0.38090720245017817 0 -0.46701881497498549 -0.38556963815403872 0 -0.48601428613885628 -0.38090720245017817 0 -0.46701881497498549 -0.38556963815403872 0 -0.48360124133216081 -0.36452456285067619 0 -0.46701881497498549 -0.38556963815403872 0 -0.48360124133216081 -0.36452456285067619 0 -0.46701881497498549 -0.38556963815403872 0 -0.45043638861781121 -0.40661471345740208 0 -0.47795132075354452 -0.40761925728951731 0 -0.46701881497498549 -0.38556963815403872 0 -0.45043638861781121 -0.40661471345740208 0 -0.43757402427761649 -0.38321264390829712 0 -0.45043638861781121 -0.40661471345740208 0 -0.43445765052041008 -0.40013769257658671 0 -0.46701881497498549 -0.38556963815403872 0 -0.43757402427761649 -0.38321264390829712 0 -0.45043638861781121 -0.40661471345740208 0 -0.46701881497498549 -0.38556963815403872 0 -0.43757402427761649 -0.38321264390829712 0 -0.45412424375837229 -0.36522802627992829 0 -0.46139451200219128 -0.43849474965389679 0 -0.46868921987334328 -0.4251814927320644 0 -0.45590264150709009 -0.41763952302514062 0 -0.46139451200219128 -0.43849474965389679 0 -0.47606701927266332 -0.43679131520182141 0 -0.46868921987334328 -0.4251814927320644 0 -0.47795132075354452 -0.40761925728951731 0 -0.46868921987334328 -0.4251814927320644 0 -0.45590264150709009 -0.41763952302514062 0 -0.47795132075354452 -0.40761925728951731 0 -0.45590264150709009 -0.41763952302514062 0 -0.47795132075354452 -0.40761925728951731 0 -0.45590264150709009 -0.41763952302514062 0 -0.45043638861781121 -0.40661471345740208 0 -0.45590264150709009 -0.41763952302514062 0 -0.45043638861781121 -0.40661471345740208 0 -0.43321442839889329 -0.42847143344951949 0 -0.45043638861781121 -0.40661471345740208 0 -0.43321442839889329 -0.42847143344951949 0 -0.45590264150709009 -0.41763952302514062 0 -0.43321442839889329 -0.42847143344951949 0 -0.46139451200219128 -0.43849474965389679 0 -0.43321442839889329 -0.42847143344951949 0 -0.46139451200219128 -0.43849474965389679 0 -0.45590264150709009 -0.41763952302514062 0 -0.43321442839889329 -0.42847143344951949 0 -0.43321442839889329 -0.42847143344951949 0 -0.4150547181030021 -0.42201224329813569 0 -0.43321442839889329 -0.42847143344951949 0 -0.41130010695178332 -0.4379096373358819 0 -0.43321442839889329 -0.42847143344951949 0 -0.41997124084165238 -0.44527861675283092 0 -0.45043638861781121 -0.40661471345740208 0 -0.42737642030605999 -0.41510915361333012 0 -0.43445765052041008 -0.40013769257658671 0 -0.45043638861781121 -0.40661471345740208 0 -0.43321442839889329 -0.42847143344951949 0 -0.42737642030605999 -0.41510915361333012 0 -0.43321442839889329 -0.42847143344951949 0 -0.42737642030605999 -0.41510915361333012 0 -0.4150547181030021 -0.42201224329813569 0 -0.4150547181030021 -0.42201224329813569 0 -0.39753810119907962 -0.41578179371783658 0 -0.42737642030605999 -0.41510915361333012 0 -0.41032563161211538 -0.40660119821764668 0 -0.4150547181030021 -0.42201224329813569 0 -0.41032563161211538 -0.40660119821764668 0 -0.4150547181030021 -0.42201224329813569 0 -0.39753810119907962 -0.41578179371783658 0 -0.4150547181030021 -0.42201224329813569 0 -0.40213307724174607 -0.43893379688698969 0 -0.41130010695178332 -0.4379096373358819 0 -0.43321442839889329 -0.42847143344951949 0 -0.41130010695178332 -0.4379096373358819 0 -0.41997124084165238 -0.44527861675283092 0 -0.43321442839889329 -0.42847143344951949 0 -0.4150547181030021 -0.42201224329813569 0 -0.41130010695178332 -0.4379096373358819 0 -0.43757402427761649 -0.38321264390829712 0 -0.42244376888015273 -0.3956142593273177 0 -0.41815388626361671 -0.38328093199412921 0 -0.43757402427761649 -0.38321264390829712 0 -0.41815388626361671 -0.38328093199412921 0 -0.41789923135236701 -0.3671592219858863 0 -0.42737642030605999 -0.41510915361333012 0 -0.43445765052041008 -0.40013769257658671 0 -0.42244376888015273 -0.3956142593273177 0 -0.43757402427761649 -0.38321264390829712 0 -0.43445765052041008 -0.40013769257658671 0 -0.42244376888015273 -0.3956142593273177 0 -0.42737642030605999 -0.41510915361333012 0 -0.41032563161211538 -0.40660119821764668 0 -0.42244376888015273 -0.3956142593273177 0 -0.41032563161211538 -0.40660119821764668 0 -0.42244376888015273 -0.3956142593273177 0 -0.40782779998459739 -0.39126724871651919 0 -0.41815388626361671 -0.38328093199412921 0 -0.40502460682334968 -0.37915128603262571 0 -0.41789923135236701 -0.3671592219858863 0 -0.42244376888015273 -0.3956142593273177 0 -0.40782779998459739 -0.39126724871651919 0 -0.41815388626361671 -0.38328093199412921 0 -0.40782779998459739 -0.39126724871651919 0 -0.41815388626361671 -0.38328093199412921 0 -0.40502460682334968 -0.37915128603262571 0 -0.39266853255410172 -0.37808603827981441 0 -0.40502460682334968 -0.37915128603262571 0 -0.39746554615158508 -0.38654950759924872 0 -0.39266853255410172 -0.37808603827981441 0 -0.40502460682334968 -0.37915128603262571 0 -0.40028023094057202 -0.3699734792735111 0 -0.40782779998459739 -0.39126724871651919 0 -0.40502460682334968 -0.37915128603262571 0 -0.39746554615158508 -0.38654950759924872 0 -0.39266853255410172 -0.37808603827981441 0 -0.39746554615158508 -0.38654950759924872 0 -0.38885445286266312 -0.38976002594220183 0 -0.41032563161211538 -0.40660119821764668 0 -0.40782779998459739 -0.39126724871651919 0 -0.39418114190203463 -0.39886759621990592 0 -0.39746554615158508 -0.38654950759924872 0 -0.39418114190203463 -0.39886759621990592 0 -0.38885445286266312 -0.38976002594220183 0 -0.40782779998459739 -0.39126724871651919 0 -0.39746554615158508 -0.38654950759924872 0 -0.39418114190203463 -0.39886759621990592 0 -0.38885445286266312 -0.38976002594220183 0 -0.36930797127598503 -0.40732753710696867 0 -0.39418114190203463 -0.39886759621990592 0 -0.38885445286266312 -0.38976002594220183 0 -0.36930797127598503 -0.40732753710696867 0 -0.38885445286266312 -0.38976002594220183 0 -0.36930797127598503 -0.40732753710696867 0 -0.37294335233419318 -0.38910311623310501 0 -0.38885445286266312 -0.38976002594220183 0 -0.37976219896696839 -0.37713098054591881 0 -0.37294335233419318 -0.38910311623310501 0 -0.39266853255410172 -0.37808603827981441 0 -0.38885445286266312 -0.38976002594220183 0 -0.37976219896696839 -0.37713098054591881 0 -0.39331838900900662 -0.43407251036102151 0 -0.39753810119907962 -0.41578179371783658 0 -0.3885941774883277 -0.42307056805102261 0 -0.4150547181030021 -0.42201224329813569 0 -0.39753810119907962 -0.41578179371783658 0 -0.40213307724174607 -0.43893379688698969 0 -0.39753810119907962 -0.41578179371783658 0 -0.40213307724174607 -0.43893379688698969 0 -0.39331838900900662 -0.43407251036102151 0 -0.39753810119907962 -0.41578179371783658 0 -0.40213307724174607 -0.43893379688698969 0 -0.41032563161211538 -0.40660119821764668 0 -0.39418114190203463 -0.39886759621990592 0 -0.39753810119907962 -0.41578179371783658 0 -0.39418114190203463 -0.39886759621990592 0 -0.39753810119907962 -0.41578179371783658 0 -0.39418114190203463 -0.39886759621990592 0 -0.39753810119907962 -0.41578179371783658 0 -0.38941386818386547 -0.41289210192075498 0 -0.39753810119907962 -0.41578179371783658 0 -0.38941386818386547 -0.41289210192075498 0 -0.39753810119907962 -0.41578179371783658 0 -0.38941386818386547 -0.41289210192075498 0 -0.3885941774883277 -0.42307056805102261 0 -0.38941386818386547 -0.41289210192075498 0 -0.3885941774883277 -0.42307056805102261 0 -0.36930797127598503 -0.40732753710696867 0 -0.39418114190203463 -0.39886759621990592 0 -0.38941386818386547 -0.41289210192075498 0 -0.36930797127598503 -0.40732753710696867 0 -0.3885941774883277 -0.42307056805102261 0 -0.38254485346395473 -0.43330131008540912 0 -0.36930797127598503 -0.40732753710696867 0 -0.38254485346395473 -0.43330131008540912 0 -0.36930797127598503 -0.40732753710696867 0 -0.39331838900900662 -0.43407251036102151 0 -0.3885941774883277 -0.42307056805102261 0 -0.38254485346395473 -0.43330131008540912 0 -0.38254485346395473 -0.43330131008540912 0 -0.37790747141822401 -0.45066121505040729 0 -0.3718111466315091 -0.42916012514221041 0 -0.38254485346395473 -0.43330131008540912 0 -0.39578173565192498 -0.4592750830638494 0 -0.39331838900900662 -0.43407251036102151 0 -0.38254485346395473 -0.43330131008540912 0 -0.39578173565192498 -0.4592750830638494 0 -0.38254485346395473 -0.43330131008540912 0 -0.37790747141822401 -0.45066121505040729 0 -0.39578173565192498 -0.4592750830638494 0 -0.40213307724174607 -0.43893379688698969 0 -0.40672805328441197 -0.4620858000561428 0 -0.39331838900900662 -0.43407251036102151 0 -0.40213307724174607 -0.43893379688698969 0 -0.39578173565192498 -0.4592750830638494 0 -0.40213307724174607 -0.43893379688698969 0 -0.39578173565192498 -0.4592750830638494 0 -0.40672805328441197 -0.4620858000561428 0 -0.40282597299224271 -0.4670380049880184 0 -0.39578173565192498 -0.4592750830638494 0 -0.40672805328441197 -0.4620858000561428 0 -0.40282597299224271 -0.4670380049880184 0 -0.40672805328441197 -0.4620858000561428 0 -0.39578173565192498 -0.4592750830638494 0 -0.38381987284522667 -0.46501486217037291 0 -0.39270245124346198 -0.46914679492877193 0 -0.40282597299224271 -0.4670380049880184 0 -0.39578173565192498 -0.4592750830638494 0 -0.39270245124346198 -0.46914679492877193 0 -0.37790747141822401 -0.45066121505040729 0 -0.39578173565192498 -0.4592750830638494 0 -0.38381987284522667 -0.46501486217037291 0 -0.37790747141822401 -0.45066121505040729 0 -0.38381987284522667 -0.46501486217037291 0 -0.37253297241535249 -0.46451740972283989 0 -0.38119284069107479 -0.5 0 -0.40355866179319883 -0.48175392949759838 0 -0.43065798387075171 -0.5 0 -0.38381987284522667 -0.46501486217037291 0 -0.38322057614176092 -0.47775084625121039 0 -0.37253297241535249 -0.46451740972283989 0 -0.38381987284522667 -0.46501486217037291 0 -0.38322057614176092 -0.47775084625121039 0 -0.39270245124346198 -0.46914679492877193 0 -0.38322057614176092 -0.47775084625121039 0 -0.38119284069107479 -0.5 0 -0.40355866179319883 -0.48175392949759838 0 -0.38322057614176092 -0.47775084625121039 0 -0.39270245124346198 -0.46914679492877193 0 -0.40355866179319883 -0.48175392949759838 0 -0.40282597299224271 -0.4670380049880184 0 -0.39270245124346198 -0.46914679492877193 0 -0.40355866179319883 -0.48175392949759838 0 -0.40282597299224271 -0.4670380049880184 0 -0.40355866179319883 -0.48175392949759838 0 -0.40930994832916101 -0.47509479982097319 0 -0.40355866179319883 -0.48175392949759838 0 -0.40930994832916101 -0.47509479982097319 0 -0.42500085928393833 -0.48324706049421479 0 -0.40930994832916101 -0.47509479982097319 0 -0.42500085928393833 -0.48324706049421479 0 -0.42144446586510248 -0.46489412285529169 0 -0.40355866179319883 -0.48175392949759838 0 -0.43065798387075171 -0.5 0 -0.42500085928393833 -0.48324706049421479 0 -0.44865810322365568 -0.48409953664285638 0 -0.43065798387075171 -0.5 0 -0.42500085928393833 -0.48324706049421479 0 -0.42500085928393833 -0.48324706049421479 0 -0.43679251415364467 -0.46810751068103917 0 -0.42144446586510248 -0.46489412285529169 0 -0.44865810322365568 -0.48409953664285638 0 -0.42500085928393833 -0.48324706049421479 0 -0.43679251415364467 -0.46810751068103917 0 -0.44227138583608377 -0.44763337228523992 0 -0.43679251415364467 -0.46810751068103917 0 -0.4308641792978069 -0.45555094932654999 0 -0.4308641792978069 -0.45555094932654999 0 -0.41997124084165238 -0.44527861675283092 0 -0.42144446586510248 -0.46489412285529169 0 -0.43679251415364467 -0.46810751068103917 0 -0.4308641792978069 -0.45555094932654999 0 -0.42144446586510248 -0.46489412285529169 0 -0.44227138583608377 -0.44763337228523992 0 -0.4308641792978069 -0.45555094932654999 0 -0.43166111889509379 -0.44211809517386258 0 -0.44227138583608377 -0.44763337228523992 0 -0.43321442839889329 -0.42847143344951949 0 -0.43166111889509379 -0.44211809517386258 0 -0.43321442839889329 -0.42847143344951949 0 -0.43166111889509379 -0.44211809517386258 0 -0.41997124084165238 -0.44527861675283092 0 -0.4308641792978069 -0.45555094932654999 0 -0.43166111889509379 -0.44211809517386258 0 -0.41997124084165238 -0.44527861675283092 0 -0.41130010695178332 -0.4379096373358819 0 -0.41997124084165238 -0.44527861675283092 0 -0.40672805328441197 -0.4620858000561428 0 -0.40213307724174607 -0.43893379688698969 0 -0.41130010695178332 -0.4379096373358819 0 -0.40672805328441197 -0.4620858000561428 0 -0.41997124084165238 -0.44527861675283092 0 -0.40672805328441197 -0.4620858000561428 0 -0.41997124084165238 -0.44527861675283092 0 -0.40672805328441197 -0.4620858000561428 0 -0.42144446586510248 -0.46489412285529169 0 -0.40930994832916101 -0.47509479982097319 0 -0.40672805328441197 -0.4620858000561428 0 -0.42144446586510248 -0.46489412285529169 0 -0.40282597299224271 -0.4670380049880184 0 -0.40930994832916101 -0.47509479982097319 0 -0.40672805328441197 -0.4620858000561428 0 -0.40930994832916101 -0.47509479982097319 0 -0.40672805328441197 -0.4620858000561428 0 -0.44654527977615688 -0.26269252391549519 0 -0.43389645052110831 -0.25250213825564749 0 -0.4507037835954032 -0.24589632149042839 0 -0.44654527977615688 -0.26269252391549519 0 -0.43275288537494971 -0.26605967700558308 0 -0.43389645052110831 -0.25250213825564749 0 -0.44654527977615688 -0.26269252391549519 0 -0.44058928147511472 -0.27539389852291618 0 -0.43275288537494971 -0.26605967700558308 0 -0.44058928147511472 -0.27539389852291618 0 -0.45517367854317242 -0.27698976963335092 0 -0.44614328460128277 -0.28954760608686841 0 -0.44654527977615688 -0.26269252391549519 0 -0.44058928147511472 -0.27539389852291618 0 -0.45517367854317242 -0.27698976963335092 0 -0.44654527977615688 -0.26269252391549519 0 -0.45517367854317242 -0.27698976963335092 0 -0.46713585573027022 -0.26026357074689799 0 -0.45517367854317242 -0.27698976963335092 0 -0.46713585573027022 -0.26026357074689799 0 -0.46958648552583632 -0.28046518955013999 0 -0.46713585573027022 -0.26026357074689799 0 -0.4507037835954032 -0.24589632149042839 0 -0.44654527977615688 -0.26269252391549519 0 -0.46713585573027022 -0.26026357074689799 0 -0.4507037835954032 -0.24589632149042839 0 -0.46713585573027022 -0.26026357074689799 0 -0.48356792786513592 -0.27463082000336891 0 -0.48431189365409638 -0.2488967277830833 0 -0.5 -0.25894026581088281 0 -0.48356792786513592 -0.27463082000336891 0 -0.48431189365409638 -0.2488967277830833 0 -0.5 -0.25894026581088281 0 -0.48356792786513592 -0.27463082000336891 0 -0.50000000000000122 -0.2889980692598404 0 -0.46713585573027022 -0.26026357074689799 0 -0.48356792786513592 -0.27463082000336891 0 -0.46713585573027022 -0.26026357074689799 0 -0.48356792786513592 -0.27463082000336891 0 -0.46958648552583632 -0.28046518955013999 0 -0.46958648552583632 -0.28046518955013999 0 -0.47997421633502979 -0.29547857206078598 0 -0.46000301914517411 -0.29218844264927912 0 -0.48356792786513592 -0.27463082000336891 0 -0.46958648552583632 -0.28046518955013999 0 -0.47997421633502979 -0.29547857206078598 0 -0.48356792786513592 -0.27463082000336891 0 -0.50000000000000122 -0.2889980692598404 0 -0.48356792786513592 -0.27463082000336891 0 -0.47997421633502979 -0.29547857206078598 0 -0.50000000000000122 -0.2889980692598404 0 -0.47997421633502979 -0.29547857206078598 0 -0.50000000000000122 -0.2889980692598404 0 -0.5 -0.3169082197043388 0 -0.47997421633502979 -0.29547857206078598 0 -0.47701408024303149 -0.31535669994994658 0 -0.5 -0.3169082197043388 0 -0.47997421633502979 -0.29547857206078598 0 -0.46123690260457068 -0.30997212066036772 0 -0.47701408024303149 -0.31535669994994658 0 -0.46123690260457068 -0.30997212066036772 0 -0.44988600248534649 -0.30236000231903848 0 -0.45033017499313482 -0.3199375169035078 0 -0.46123690260457068 -0.30997212066036772 0 -0.46000301914517411 -0.29218844264927912 0 -0.44988600248534649 -0.30236000231903848 0 -0.47997421633502979 -0.29547857206078598 0 -0.46123690260457068 -0.30997212066036772 0 -0.46000301914517411 -0.29218844264927912 0 -0.45517367854317242 -0.27698976963335092 0 -0.46958648552583632 -0.28046518955013999 0 -0.46000301914517411 -0.29218844264927912 0 -0.45517367854317242 -0.27698976963335092 0 -0.46000301914517411 -0.29218844264927912 0 -0.44614328460128277 -0.28954760608686841 0 -0.46000301914517411 -0.29218844264927912 0 -0.44614328460128277 -0.28954760608686841 0 -0.44988600248534649 -0.30236000231903848 0 -0.44614328460128277 -0.28954760608686841 0 -0.44988600248534649 -0.30236000231903848 0 -0.43171663108257008 -0.30015432529516961 0 -0.44988600248534649 -0.30236000231903848 0 -0.45033017499313482 -0.3199375169035078 0 -0.43171663108257008 -0.30015432529516961 0 -0.45033017499313482 -0.3199375169035078 0 -0.43171663108257008 -0.30015432529516961 0 -0.45033017499313482 -0.3199375169035078 0 -0.43774143185113712 -0.3302241584482758 0 -0.43171663108257008 -0.30015432529516961 0 -0.43774143185113712 -0.3302241584482758 0 -0.46067133659164888 -0.34737436064947602 0 -0.43774143185113712 -0.3302241584482758 0 -0.46067133659164888 -0.34737436064947602 0 -0.44042544316274052 -0.34834793162398803 0 -0.45033017499313482 -0.3199375169035078 0 -0.43774143185113712 -0.3302241584482758 0 -0.46067133659164888 -0.34737436064947602 0 -0.45033017499313482 -0.3199375169035078 0 -0.4689437189036994 -0.3397207085118461 0 -0.46067133659164888 -0.34737436064947602 0 -0.45033017499313482 -0.3199375169035078 0 -0.4689437189036994 -0.3397207085118461 0 -0.46123690260457068 -0.30997212066036772 0 -0.45033017499313482 -0.3199375169035078 0 -0.46800269988651028 -0.32329039264155629 0 -0.45033017499313482 -0.3199375169035078 0 -0.46800269988651028 -0.32329039264155629 0 -0.4689437189036994 -0.3397207085118461 0 -0.46123690260457068 -0.30997212066036772 0 -0.46800269988651028 -0.32329039264155629 0 -0.47701408024303149 -0.31535669994994658 0 -0.46800269988651028 -0.32329039264155629 0 -0.47701408024303149 -0.31535669994994658 0 -0.48248862268811538 -0.33146491718211363 0 -0.47701408024303149 -0.31535669994994658 0 -0.5 -0.3169082197043388 0 -0.48248862268811538 -0.33146491718211363 0 -0.5 -0.3169082197043388 0 -0.48248862268811538 -0.33146491718211363 0 -0.5 -0.34481837014883709 0 -0.48248862268811538 -0.33146491718211363 0 -0.48485378816532881 -0.34637453222082931 0 -0.5 -0.34481837014883709 0 -0.48248862268811538 -0.33146491718211363 0 -0.4689437189036994 -0.3397207085118461 0 -0.48485378816532881 -0.34637453222082931 0 -0.46800269988651028 -0.32329039264155629 0 -0.48248862268811538 -0.33146491718211363 0 -0.4689437189036994 -0.3397207085118461 0 -0.4689437189036994 -0.3397207085118461 0 -0.48485378816532881 -0.34637453222082931 0 -0.48755726281426393 -0.35950390012018429 0 -0.4689437189036994 -0.3397207085118461 0 -0.48755726281426393 -0.35950390012018429 0 -0.48360124133216081 -0.36452456285067619 0 -0.4689437189036994 -0.3397207085118461 0 -0.48360124133216081 -0.36452456285067619 0 -0.46067133659164888 -0.34737436064947602 0 -0.4689437189036994 -0.3397207085118461 0 -0.48755726281426393 -0.35950390012018429 0 -0.48360124133216081 -0.36452456285067619 0 -0.46067133659164888 -0.34737436064947602 0 -0.5 -0.34481837014883709 0 -0.49999999999999861 -0.3727285205933355 0 -0.48755726281426393 -0.35950390012018429 0 -0.48485378816532881 -0.34637453222082931 0 -0.5 -0.34481837014883709 0 -0.48755726281426393 -0.35950390012018429 0 -0.48601428613885628 -0.38090720245017817 0 -0.48951587853512041 -0.37205782224554212 0 -0.48360124133216081 -0.36452456285067619 0 -0.49999999999999861 -0.3727285205933355 0 -0.48755726281426393 -0.35950390012018429 0 -0.48951587853512041 -0.37205782224554212 0 -0.49999999999999861 -0.3727285205933355 0 -0.48755726281426393 -0.35950390012018429 0 -0.48755726281426393 -0.35950390012018429 0 -0.48951587853512041 -0.37205782224554212 0 -0.48360124133216081 -0.36452456285067619 0 -0.48755726281426393 -0.35950390012018429 0 -0.48360124133216081 -0.36452456285067619 0 -0.46701881497498549 -0.38556963815403872 0 -0.48360124133216081 -0.36452456285067619 0 -0.45412424375837229 -0.36522802627992829 0 -0.48360124133216081 -0.36452456285067619 0 -0.45412424375837229 -0.36522802627992829 0 -0.46067133659164888 -0.34737436064947602 0 -0.45412424375837229 -0.36522802627992829 0 -0.46067133659164888 -0.34737436064947602 0 -0.44042544316274052 -0.34834793162398803 0 -0.45412424375837229 -0.36522802627992829 0 -0.44042544316274052 -0.34834793162398803 0 -0.43545460221108218 -0.36233902049309441 0 -0.43757402427761649 -0.38321264390829712 0 -0.45412424375837229 -0.36522802627992829 0 -0.43545460221108218 -0.36233902049309441 0 -0.43757402427761649 -0.38321264390829712 0 -0.43545460221108218 -0.36233902049309441 0 -0.41789923135236701 -0.3671592219858863 0 -0.43545460221108218 -0.36233902049309441 0 -0.42326725198169213 -0.34909421697012821 0 -0.41789923135236701 -0.3671592219858863 0 -0.44042544316274052 -0.34834793162398803 0 -0.43545460221108218 -0.36233902049309441 0 -0.42326725198169213 -0.34909421697012821 0 -0.44042544316274052 -0.34834793162398803 0 -0.42326725198169213 -0.34909421697012821 0 -0.42927373708781508 -0.33941745081925218 0 -0.42326725198169213 -0.34909421697012821 0 -0.40708859454345792 -0.34925432437331461 0 -0.413135508675334 -0.35649862749028599 0 -0.42326725198169213 -0.34909421697012821 0 -0.413135508675334 -0.35649862749028599 0 -0.41789923135236701 -0.3671592219858863 0 -0.42326725198169213 -0.34909421697012821 0 -0.40708859454345792 -0.34925432437331461 0 -0.41127821905149192 -0.34208818859875428 0 -0.40708859454345792 -0.34925432437331461 0 -0.413135508675334 -0.35649862749028599 0 -0.40428695682381932 -0.36048674663181518 0 -0.41789923135236701 -0.3671592219858863 0 -0.40028023094057202 -0.3699734792735111 0 -0.40428695682381932 -0.36048674663181518 0 -0.413135508675334 -0.35649862749028599 0 -0.41789923135236701 -0.3671592219858863 0 -0.40428695682381932 -0.36048674663181518 0 -0.40502460682334968 -0.37915128603262571 0 -0.41789923135236701 -0.3671592219858863 0 -0.40028023094057202 -0.3699734792735111 0 -0.40028023094057202 -0.3699734792735111 0 -0.40428695682381932 -0.36048674663181518 0 -0.39093762902572687 -0.366301777827022 0 -0.40428695682381932 -0.36048674663181518 0 -0.39093762902572687 -0.366301777827022 0 -0.39573280001806621 -0.35511590925957209 0 -0.39266853255410172 -0.37808603827981441 0 -0.40028023094057202 -0.3699734792735111 0 -0.39093762902572687 -0.366301777827022 0 -0.39266853255410172 -0.37808603827981441 0 -0.37976219896696839 -0.37713098054591881 0 -0.39093762902572687 -0.366301777827022 0 -0.37976219896696839 -0.37713098054591881 0 -0.39093762902572687 -0.366301777827022 0 -0.37930372380650229 -0.36547688239778742 0 -0.39093762902572687 -0.366301777827022 0 -0.38497256959962889 -0.35678136057209758 0 -0.39573280001806621 -0.35511590925957209 0 -0.39093762902572687 -0.366301777827022 0 -0.37930372380650229 -0.36547688239778742 0 -0.38497256959962889 -0.35678136057209758 0 -0.37976219896696839 -0.37713098054591881 0 -0.37930372380650229 -0.36547688239778742 0 -0.36742545467469251 -0.3676459075998566 0 -0.39137825009769772 -0.34275533689361087 0 -0.36847526157608179 -0.3543504891053138 0 -0.38497256959962889 -0.35678136057209758 0 -0.39137825009769772 -0.34275533689361087 0 -0.36847526157608179 -0.3543504891053138 0 -0.39137825009769772 -0.34275533689361087 0 -0.37908097214207531 -0.34144857673128642 0 -0.36847526157608179 -0.3543504891053138 0 -0.37930372380650229 -0.36547688239778742 0 -0.38497256959962889 -0.35678136057209758 0 -0.36847526157608179 -0.3543504891053138 0 -0.40708859454345792 -0.34925432437331461 0 -0.39137825009769772 -0.34275533689361087 0 -0.41127821905149192 -0.34208818859875428 0 -0.38497256959962889 -0.35678136057209758 0 -0.39573280001806621 -0.35511590925957209 0 -0.39137825009769772 -0.34275533689361087 0 -0.40708859454345792 -0.34925432437331461 0 -0.39573280001806621 -0.35511590925957209 0 -0.39137825009769772 -0.34275533689361087 0 -0.40708859454345792 -0.34925432437331461 0 -0.40428695682381932 -0.36048674663181518 0 -0.39573280001806621 -0.35511590925957209 0 -0.39137825009769772 -0.34275533689361087 0 -0.41127821905149192 -0.34208818859875428 0 -0.41428123861931399 -0.33116018468190878 0 -0.39672067963188112 -0.32912860907556901 0 -0.39137825009769772 -0.34275533689361087 0 -0.41428123861931399 -0.33116018468190878 0 -0.39137825009769772 -0.34275533689361087 0 -0.41428123861931399 -0.33116018468190878 0 -0.39672067963188112 -0.32912860907556901 0 -0.39137825009769772 -0.34275533689361087 0 -0.38669399122191561 -0.33081625020701549 0 -0.38669399122191561 -0.33081625020701549 0 -0.36977638567260612 -0.33787223071920558 0 -0.38669399122191561 -0.33081625020701549 0 -0.37908097214207531 -0.34144857673128642 0 -0.36977638567260612 -0.33787223071920558 0 -0.38669399122191561 -0.33081625020701549 0 -0.38022369196157763 -0.32403794866055319 0 -0.36977638567260612 -0.33787223071920558 0 -0.39137825009769772 -0.34275533689361087 0 -0.38669399122191561 -0.33081625020701549 0 -0.37908097214207531 -0.34144857673128642 0 -0.3789924780201141 -0.31474847846018889 0 -0.38022369196157763 -0.32403794866055319 0 -0.38342934416815538 -0.31823422331293039 0 -0.3789924780201141 -0.31474847846018889 0 -0.38342934416815538 -0.31823422331293039 0 -0.38146100487945822 -0.31114317025860622 0 -0.3789924780201141 -0.31474847846018889 0 -0.38146100487945822 -0.31114317025860622 0 -0.3789924780201141 -0.31474847846018889 0 -0.38022369196157763 -0.32403794866055319 0 -0.37099873218516449 -0.32239166147519188 0 -0.38669399122191561 -0.33081625020701549 0 -0.38022369196157763 -0.32403794866055319 0 -0.39033895215656289 -0.32085961730076989 0 -0.38022369196157763 -0.32403794866055319 0 -0.39033895215656289 -0.32085961730076989 0 -0.38342934416815538 -0.31823422331293039 0 -0.39033895215656289 -0.32085961730076989 0 -0.38342934416815538 -0.31823422331293039 0 -0.38146100487945822 -0.31114317025860622 0 -0.40091096606391519 -0.32005165629453969 0 -0.4148115271106253 -0.31307395624707562 0 -0.39726628010602832 -0.31004813421152427 0 -0.39672067963188112 -0.32912860907556901 0 -0.40091096606391519 -0.32005165629453969 0 -0.41428123861931399 -0.33116018468190878 0 -0.39033895215656289 -0.32085961730076989 0 -0.40091096606391519 -0.32005165629453969 0 -0.38146100487945822 -0.31114317025860622 0 -0.40091096606391519 -0.32005165629453969 0 -0.38146100487945822 -0.31114317025860622 0 -0.40091096606391519 -0.32005165629453969 0 -0.39726628010602832 -0.31004813421152427 0 -0.38146100487945822 -0.31114317025860622 0 -0.39672067963188112 -0.32912860907556901 0 -0.38669399122191561 -0.33081625020701549 0 -0.39033895215656289 -0.32085961730076989 0 -0.39672067963188112 -0.32912860907556901 0 -0.39033895215656289 -0.32085961730076989 0 -0.40091096606391519 -0.32005165629453969 0 -0.40091096606391519 -0.32005165629453969 0 -0.4203609272483721 -0.32896014233047299 0 -0.41428123861931399 -0.33116018468190878 0 -0.40091096606391519 -0.32005165629453969 0 -0.4203609272483721 -0.32896014233047299 0 -0.40091096606391519 -0.32005165629453969 0 -0.4148115271106253 -0.31307395624707562 0 -0.4203609272483721 -0.32896014233047299 0 -0.42326725198169213 -0.34909421697012821 0 -0.41127821905149192 -0.34208818859875428 0 -0.42037576001529769 -0.33817688007480878 0 -0.41127821905149192 -0.34208818859875428 0 -0.42037576001529769 -0.33817688007480878 0 -0.41428123861931399 -0.33116018468190878 0 -0.42037576001529769 -0.33817688007480878 0 -0.4203609272483721 -0.32896014233047299 0 -0.41428123861931399 -0.33116018468190878 0 -0.42037576001529769 -0.33817688007480878 0 -0.4203609272483721 -0.32896014233047299 0 -0.42927373708781508 -0.33941745081925218 0 -0.43774143185113712 -0.3302241584482758 0 -0.4203609272483721 -0.32896014233047299 0 -0.42927373708781508 -0.33941745081925218 0 -0.43774143185113712 -0.3302241584482758 0 -0.44042544316274052 -0.34834793162398803 0 -0.42927373708781508 -0.33941745081925218 0 -0.42326725198169213 -0.34909421697012821 0 -0.42037576001529769 -0.33817688007480878 0 -0.42927373708781508 -0.33941745081925218 0 -0.43774143185113712 -0.3302241584482758 0 -0.4148115271106253 -0.31307395624707562 0 -0.4203609272483721 -0.32896014233047299 0 -0.43774143185113712 -0.3302241584482758 0 -0.4148115271106253 -0.31307395624707562 0 -0.43774143185113712 -0.3302241584482758 0 -0.4148115271106253 -0.31307395624707562 0 -0.43171663108257008 -0.30015432529516961 0 -0.43171663108257008 -0.30015432529516961 0 -0.41370788962546612 -0.2934539518868966 0 -0.42564429765555362 -0.28060186931298869 0 -0.44058928147511472 -0.27539389852291618 0 -0.44614328460128277 -0.28954760608686841 0 -0.42564429765555362 -0.28060186931298869 0 -0.44614328460128277 -0.28954760608686841 0 -0.43171663108257008 -0.30015432529516961 0 -0.42564429765555362 -0.28060186931298869 0 -0.41370788962546612 -0.2934539518868966 0 -0.4044853699084654 -0.27751585453337252 0 -0.42564429765555362 -0.28060186931298869 0 -0.4148115271106253 -0.31307395624707562 0 -0.43171663108257008 -0.30015432529516961 0 -0.41370788962546612 -0.2934539518868966 0 -0.4148115271106253 -0.31307395624707562 0 -0.41370788962546612 -0.2934539518868966 0 -0.39188162237011359 -0.29592375404587518 0 -0.4148115271106253 -0.31307395624707562 0 -0.39726628010602832 -0.31004813421152427 0 -0.39188162237011359 -0.29592375404587518 0 -0.4148115271106253 -0.31307395624707562 0 -0.39188162237011359 -0.29592375404587518 0 -0.39726628010602832 -0.31004813421152427 0 -0.38146100487945822 -0.31114317025860622 0 -0.39188162237011359 -0.29592375404587518 0 -0.38146100487945822 -0.31114317025860622 0 -0.39188162237011359 -0.29592375404587518 0 -0.38043548388706422 -0.29894495503382529 0 -0.38146100487945822 -0.31114317025860622 0 -0.39188162237011359 -0.29592375404587518 0 -0.38043548388706422 -0.29894495503382529 0 -0.37345028143882653 -0.29134369137300392 0 -0.37222107869772081 -0.30691109223117802 0 -0.38146100487945822 -0.31114317025860622 0 -0.37222107869772081 -0.30691109223117802 0 -0.38043548388706422 -0.29894495503382529 0 -0.38146100487945822 -0.31114317025860622 0 -0.37222107869772081 -0.30691109223117802 0 -0.3789924780201141 -0.31474847846018889 0 -0.38146100487945822 -0.31114317025860622 0 -0.37222107869772081 -0.30691109223117802 0 -0.38316343204919889 -0.2894030672604625 0 -0.3860591934614932 -0.27882190896394299 0 -0.37467948417992919 -0.27577629051482949 0 -0.38316343204919889 -0.2894030672604625 0 -0.37467948417992919 -0.27577629051482949 0 -0.37345028143882653 -0.29134369137300392 0 -0.38043548388706422 -0.29894495503382529 0 -0.38316343204919889 -0.2894030672604625 0 -0.37345028143882653 -0.29134369137300392 0 -0.38316343204919889 -0.2894030672604625 0 -0.39188162237011359 -0.29592375404587518 0 -0.38316343204919889 -0.2894030672604625 0 -0.39261487325791328 -0.2824372228884805 0 -0.39188162237011359 -0.29592375404587518 0 -0.38043548388706422 -0.29894495503382529 0 -0.38316343204919889 -0.2894030672604625 0 -0.39188162237011359 -0.29592375404587518 0 -0.38316343204919889 -0.2894030672604625 0 -0.39261487325791328 -0.2824372228884805 0 -0.3860591934614932 -0.27882190896394299 0 -0.41370788962546612 -0.2934539518868966 0 -0.39188162237011359 -0.29592375404587518 0 -0.4044853699084654 -0.27751585453337252 0 -0.39261487325791328 -0.2824372228884805 0 -0.39188162237011359 -0.29592375404587518 0 -0.4044853699084654 -0.27751585453337252 0 -0.39188162237011359 -0.29592375404587518 0 -0.4044853699084654 -0.27751585453337252 0 -0.4044853699084654 -0.27751585453337252 0 -0.39588430081337111 -0.2674421227678474 0 -0.41708911744681348 -0.25910795502086709 0 -0.39261487325791328 -0.2824372228884805 0 -0.4044853699084654 -0.27751585453337252 0 -0.39588430081337111 -0.2674421227678474 0 -0.39261487325791328 -0.2824372228884805 0 -0.39588430081337111 -0.2674421227678474 0 -0.3860591934614932 -0.27882190896394299 0 -0.39588430081337111 -0.2674421227678474 0 -0.38348577188552008 -0.26553919972822843 0 -0.37467948417992919 -0.27577629051482949 0 -0.39588430081337111 -0.2674421227678474 0 -0.3860591934614932 -0.27882190896394299 0 -0.37467948417992919 -0.27577629051482949 0 -0.39588430081337111 -0.2674421227678474 0 -0.37467948417992919 -0.27577629051482949 0 -0.37512589737599011 -0.27012263148930188 0 -0.38348577188552008 -0.26553919972822843 0 -0.37467948417992919 -0.27577629051482949 0 -0.38279029993493541 -0.25521283213244289 0 -0.37452619856098252 -0.25983336737841528 0 -0.37329009336983582 -0.24701193440318839 0 -0.38279029993493541 -0.25521283213244289 0 -0.38348577188552008 -0.26553919972822843 0 -0.37452619856098252 -0.25983336737841528 0 -0.37512589737599011 -0.27012263148930188 0 -0.38348577188552008 -0.26553919972822843 0 -0.37452619856098252 -0.25983336737841528 0 -0.39588430081337111 -0.2674421227678474 0 -0.38348577188552008 -0.26553919972822843 0 -0.39217757666982078 -0.25435668718018062 0 -0.38279029993493541 -0.25521283213244289 0 -0.38348577188552008 -0.26553919972822843 0 -0.39217757666982078 -0.25435668718018062 0 -0.38279029993493541 -0.25521283213244289 0 -0.39217757666982078 -0.25435668718018062 0 -0.3857421214741299 -0.24761256388671449 0 -0.39217757666982078 -0.25435668718018062 0 -0.40336899173835827 -0.25317939998793071 0 -0.39427694324533219 -0.24468440519333171 0 -0.39588430081337111 -0.2674421227678474 0 -0.40336899173835827 -0.25317939998793071 0 -0.41708911744681348 -0.25910795502086709 0 -0.39588430081337111 -0.2674421227678474 0 -0.39217757666982078 -0.25435668718018062 0 -0.40336899173835827 -0.25317939998793071 0 -0.39588430081337111 -0.2674421227678474 0 -0.41708911744681348 -0.25910795502086709 0 -0.40336899173835827 -0.25317939998793071 0 -0.41708911744681348 -0.25910795502086709 0 -0.41137459664158882 -0.2413977865800809 0 -0.4044853699084654 -0.27751585453337252 0 -0.41708911744681348 -0.25910795502086709 0 -0.4044853699084654 -0.27751585453337252 0 -0.41708911744681348 -0.25910795502086709 0 -0.42564429765555362 -0.28060186931298869 0 -0.41708911744681348 -0.25910795502086709 0 -0.42564429765555362 -0.28060186931298869 0 -0.43275288537494971 -0.26605967700558308 0 -0.44058928147511472 -0.27539389852291618 0 -0.42564429765555362 -0.28060186931298869 0 -0.43275288537494971 -0.26605967700558308 0 -0.41708911744681348 -0.25910795502086709 0 -0.43275288537494971 -0.26605967700558308 0 -0.43389645052110831 -0.25250213825564749 0 -0.41708911744681348 -0.25910795502086709 0 -0.43389645052110831 -0.25250213825564749 0 -0.32578959289503467 -0.26950517022481801 0 -0.34047067558443911 -0.2514149711421132 0 -0.31088160300180567 -0.25564055683012482 0 -0.34047067558443911 -0.2514149711421132 0 -0.31088160300180567 -0.25564055683012482 0 -0.32578959289503467 -0.26950517022481801 0 -0.31323823511508492 -0.2798957252886754 0 -0.32646035918359051 -0.2859517326252799 0 -0.32578959289503467 -0.26950517022481801 0 -0.31323823511508492 -0.2798957252886754 0 -0.31088160300180567 -0.25564055683012482 0 -0.32578959289503467 -0.26950517022481801 0 -0.34019681668896318 -0.26568598075743022 0 -0.32646035918359051 -0.2859517326252799 0 -0.34019681668896318 -0.26568598075743022 0 -0.32646035918359051 -0.2859517326252799 0 -0.34019681668896318 -0.26568598075743022 0 -0.3481259111426494 -0.27361576212878952 0 -0.32646035918359051 -0.2859517326252799 0 -0.32578959289503467 -0.26950517022481801 0 -0.34019681668896318 -0.26568598075743022 0 -0.34047067558443911 -0.2514149711421132 0 -0.34019681668896318 -0.26568598075743022 0 -0.35539479894934922 -0.26143017368191379 0 -0.3539332741943354 -0.24542022888958009 0 -0.34019681668896318 -0.26568598075743022 0 -0.3539332741943354 -0.24542022888958009 0 -0.34019681668896318 -0.26568598075743022 0 -0.34047067558443911 -0.2514149711421132 0 -0.3539332741943354 -0.24542022888958009 0 -0.35539479894934922 -0.26143017368191379 0 -0.36547778398137482 -0.25600809124793539 0 -0.3539332741943354 -0.24542022888958009 0 -0.35539479894934922 -0.26143017368191379 0 -0.36547778398137482 -0.25600809124793539 0 -0.36613862832461669 -0.26492163826623971 0 -0.36547778398137482 -0.25600809124793539 0 -0.36613862832461669 -0.26492163826623971 0 -0.37452619856098252 -0.25983336737841528 0 -0.37512589737599011 -0.27012263148930188 0 -0.36613862832461669 -0.26492163826623971 0 -0.37452619856098252 -0.25983336737841528 0 -0.36547778398137482 -0.25600809124793539 0 -0.37452619856098252 -0.25983336737841528 0 -0.37329009336983582 -0.24701193440318839 0 -0.37467948417992919 -0.27577629051482949 0 -0.35222022146651932 -0.28460349549201758 0 -0.37467948417992919 -0.27577629051482949 0 -0.3652863382002397 -0.27331277661919823 0 -0.35222022146651932 -0.28460349549201758 0 -0.37512589737599011 -0.27012263148930188 0 -0.37467948417992919 -0.27577629051482949 0 -0.3652863382002397 -0.27331277661919823 0 -0.37512589737599011 -0.27012263148930188 0 -0.37467948417992919 -0.27577629051482949 0 -0.37512589737599011 -0.27012263148930188 0 -0.36613862832461669 -0.26492163826623971 0 -0.3652863382002397 -0.27331277661919823 0 -0.36613862832461669 -0.26492163826623971 0 -0.3652863382002397 -0.27331277661919823 0 -0.35826745965414247 -0.27113982733360198 0 -0.35539479894934922 -0.26143017368191379 0 -0.36613862832461669 -0.26492163826623971 0 -0.35826745965414247 -0.27113982733360198 0 -0.3652863382002397 -0.27331277661919823 0 -0.35826745965414247 -0.27113982733360198 0 -0.35222022146651932 -0.28460349549201758 0 -0.35826745965414247 -0.27113982733360198 0 -0.3481259111426494 -0.27361576212878952 0 -0.35222022146651932 -0.28460349549201758 0 -0.35539479894934922 -0.26143017368191379 0 -0.35826745965414247 -0.27113982733360198 0 -0.3481259111426494 -0.27361576212878952 0 -0.34019681668896318 -0.26568598075743022 0 -0.35539479894934922 -0.26143017368191379 0 -0.3481259111426494 -0.27361576212878952 0 -0.34934071894065638 -0.29643141242822751 0 -0.35222022146651932 -0.28460349549201758 0 -0.36283378061068627 -0.29201528128501458 0 -0.37467948417992919 -0.27577629051482949 0 -0.35222022146651932 -0.28460349549201758 0 -0.36283378061068627 -0.29201528128501458 0 -0.37467948417992919 -0.27577629051482949 0 -0.36283378061068627 -0.29201528128501458 0 -0.37345028143882653 -0.29134369137300392 0 -0.36283378061068627 -0.29201528128501458 0 -0.37345028143882653 -0.29134369137300392 0 -0.37222107869772081 -0.30691109223117802 0 -0.37467948417992919 -0.27577629051482949 0 -0.37345028143882653 -0.29134369137300392 0 -0.34934071894065638 -0.29643141242822751 0 -0.37222107869772081 -0.30691109223117802 0 -0.34934071894065638 -0.29643141242822751 0 -0.37222107869772081 -0.30691109223117802 0 -0.35862532849121859 -0.31421241673407202 0 -0.34934071894065638 -0.29643141242822751 0 -0.36283378061068627 -0.29201528128501458 0 -0.37222107869772081 -0.30691109223117802 0 -0.37345028143882653 -0.29134369137300392 0 -0.37222107869772081 -0.30691109223117802 0 -0.34934071894065638 -0.29643141242822751 0 -0.34399066607456519 -0.31851925407302722 0 -0.35862532849121859 -0.31421241673407202 0 -0.34934071894065638 -0.29643141242822751 0 -0.33411454884277458 -0.30175618637728518 0 -0.34399066607456519 -0.31851925407302722 0 -0.33411454884277458 -0.30175618637728518 0 -0.3290576898669581 -0.31539002770769659 0 -0.34399066607456519 -0.31851925407302722 0 -0.33411454884277458 -0.30175618637728518 0 -0.32582565319458912 -0.3038797483246628 0 -0.3290576898669581 -0.31539002770769659 0 -0.33411454884277458 -0.30175618637728518 0 -0.32653385445719951 -0.29621070988789677 0 -0.32582565319458912 -0.3038797483246628 0 -0.33411454884277458 -0.30175618637728518 0 -0.32653385445719951 -0.29621070988789677 0 -0.32646035918359051 -0.2859517326252799 0 -0.34934071894065638 -0.29643141242822751 0 -0.33411454884277458 -0.30175618637728518 0 -0.32646035918359051 -0.2859517326252799 0 -0.34934071894065638 -0.29643141242822751 0 -0.32646035918359051 -0.2859517326252799 0 -0.34934071894065638 -0.29643141242822751 0 -0.35222022146651932 -0.28460349549201758 0 -0.32646035918359051 -0.2859517326252799 0 -0.3481259111426494 -0.27361576212878952 0 -0.35222022146651932 -0.28460349549201758 0 -0.32646035918359051 -0.2859517326252799 0 -0.32653385445719951 -0.29621070988789677 0 -0.32646035918359051 -0.2859517326252799 0 -0.3245537161370306 -0.28876465254055278 0 -0.32653385445719951 -0.29621070988789677 0 -0.32241212561357357 -0.2936528653266714 0 -0.3245537161370306 -0.28876465254055278 0 -0.32241212561357357 -0.2936528653266714 0 -0.3245537161370306 -0.28876465254055278 0 -0.31741417123713339 -0.29067236249880252 0 -0.32653385445719951 -0.29621070988789677 0 -0.32241212561357357 -0.2936528653266714 0 -0.31983068578879142 -0.29789155537658202 0 -0.31323823511508492 -0.2798957252886754 0 -0.32646035918359051 -0.2859517326252799 0 -0.3245537161370306 -0.28876465254055278 0 -0.32646035918359051 -0.2859517326252799 0 -0.3245537161370306 -0.28876465254055278 0 -0.31323823511508492 -0.2798957252886754 0 -0.31741417123713339 -0.29067236249880252 0 -0.31068142912224589 -0.29481077381828441 0 -0.31323823511508492 -0.2798957252886754 0 -0.32646035918359051 -0.2859517326252799 0 -0.31323823511508492 -0.2798957252886754 0 -0.3245537161370306 -0.28876465254055278 0 -0.31741417123713339 -0.29067236249880252 0 -0.31741417123713339 -0.29067236249880252 0 -0.31983068578879142 -0.29789155537658202 0 -0.31068142912224589 -0.29481077381828441 0 -0.32241212561357357 -0.2936528653266714 0 -0.31741417123713339 -0.29067236249880252 0 -0.31983068578879142 -0.29789155537658202 0 -0.31313903055878711 -0.30265247665852402 0 -0.31983068578879142 -0.29789155537658202 0 -0.31068142912224589 -0.29481077381828441 0 -0.31313903055878711 -0.30265247665852402 0 -0.31983068578879142 -0.29789155537658202 0 -0.31959148701722201 -0.30815026227385339 0 -0.31313903055878711 -0.30265247665852402 0 -0.31959148701722201 -0.30815026227385339 0 -0.3102070358997836 -0.31047417944304612 0 -0.31959148701722201 -0.30815026227385339 0 -0.31772013218925882 -0.31657869104279268 0 -0.3102070358997836 -0.31047417944304612 0 -0.31959148701722201 -0.30815026227385339 0 -0.32582565319458912 -0.3038797483246628 0 -0.3290576898669581 -0.31539002770769659 0 -0.31983068578879142 -0.29789155537658202 0 -0.31959148701722201 -0.30815026227385339 0 -0.32582565319458912 -0.3038797483246628 0 -0.32653385445719951 -0.29621070988789677 0 -0.31983068578879142 -0.29789155537658202 0 -0.32582565319458912 -0.3038797483246628 0 -0.31772013218925882 -0.31657869104279268 0 -0.32605104388716932 -0.32941727028517748 0 -0.30369340427516073 -0.31946171550418961 0 -0.32605104388716932 -0.32941727028517748 0 -0.30369340427516073 -0.31946171550418961 0 -0.31772013218925882 -0.31657869104279268 0 -0.32605104388716932 -0.32941727028517748 0 -0.3290576898669581 -0.31539002770769659 0 -0.31959148701722201 -0.30815026227385339 0 -0.31772013218925882 -0.31657869104279268 0 -0.3290576898669581 -0.31539002770769659 0 -0.31417906229765052 -0.34287117485509888 0 -0.32605104388716932 -0.32941727028517748 0 -0.34006021631284039 -0.34518436854177048 0 -0.31417906229765052 -0.34287117485509888 0 -0.32605104388716932 -0.32941727028517748 0 -0.30369340427516073 -0.31946171550418961 0 -0.32605104388716932 -0.32941727028517748 0 -0.34840868349917747 -0.33937282506616612 0 -0.34006021631284039 -0.34518436854177048 0 -0.32605104388716932 -0.32941727028517748 0 -0.33816353653184911 -0.32659229972562209 0 -0.34840868349917747 -0.33937282506616612 0 -0.32605104388716932 -0.32941727028517748 0 -0.34840868349917747 -0.33937282506616612 0 -0.33816353653184911 -0.32659229972562209 0 -0.34399066607456519 -0.31851925407302722 0 -0.3467370282568028 -0.32896302859789389 0 -0.32605104388716932 -0.32941727028517748 0 -0.33816353653184911 -0.32659229972562209 0 -0.3290576898669581 -0.31539002770769659 0 -0.33816353653184911 -0.32659229972562209 0 -0.3290576898669581 -0.31539002770769659 0 -0.34399066607456519 -0.31851925407302722 0 -0.34399066607456519 -0.31851925407302722 0 -0.35657544655798368 -0.32680866346273502 0 -0.3467370282568028 -0.32896302859789389 0 -0.34399066607456519 -0.31851925407302722 0 -0.35657544655798368 -0.32680866346273502 0 -0.35862532849121859 -0.31421241673407202 0 -0.35657544655798368 -0.32680866346273502 0 -0.35862532849121859 -0.31421241673407202 0 -0.37099873218516449 -0.32239166147519188 0 -0.38022369196157763 -0.32403794866055319 0 -0.37099873218516449 -0.32239166147519188 0 -0.36977638567260612 -0.33787223071920558 0 -0.37222107869772081 -0.30691109223117802 0 -0.37099873218516449 -0.32239166147519188 0 -0.37222107869772081 -0.30691109223117802 0 -0.35862532849121859 -0.31421241673407202 0 -0.37099873218516449 -0.32239166147519188 0 -0.3789924780201141 -0.31474847846018889 0 -0.37222107869772081 -0.30691109223117802 0 -0.37099873218516449 -0.32239166147519188 0 -0.37099873218516449 -0.32239166147519188 0 -0.36977638567260612 -0.33787223071920558 0 -0.35657544655798368 -0.32680866346273502 0 -0.37099873218516449 -0.32239166147519188 0 -0.36977638567260612 -0.33787223071920558 0 -0.35657544655798368 -0.32680866346273502 0 -0.36977638567260612 -0.33787223071920558 0 -0.34840868349917747 -0.33937282506616612 0 -0.36977638567260612 -0.33787223071920558 0 -0.34840868349917747 -0.33937282506616612 0 -0.34541022967195212 -0.34803484630901133 0 -0.36977638567260612 -0.33787223071920558 0 -0.34541022967195212 -0.34803484630901133 0 -0.33816353653184911 -0.32659229972562209 0 -0.3467370282568028 -0.32896302859789389 0 -0.34840868349917747 -0.33937282506616612 0 -0.35657544655798368 -0.32680866346273502 0 -0.3467370282568028 -0.32896302859789389 0 -0.34840868349917747 -0.33937282506616612 0 -0.356246644014312 -0.35373486433768808 0 -0.36847526157608179 -0.3543504891053138 0 -0.34950394614634361 -0.36395514353093122 0 -0.36977638567260612 -0.33787223071920558 0 -0.34541022967195212 -0.34803484630901133 0 -0.356246644014312 -0.35373486433768808 0 -0.34840868349917747 -0.33937282506616612 0 -0.34541022967195212 -0.34803484630901133 0 -0.34006021631284039 -0.34518436854177048 0 -0.34541022967195212 -0.34803484630901133 0 -0.34950394614634361 -0.36395514353093122 0 -0.33662272005155008 -0.36093681242382708 0 -0.36847526157608179 -0.3543504891053138 0 -0.34950394614634361 -0.36395514353093122 0 -0.34541022967195212 -0.34803484630901133 0 -0.356246644014312 -0.35373486433768808 0 -0.34950394614634361 -0.36395514353093122 0 -0.37908097214207531 -0.34144857673128642 0 -0.36977638567260612 -0.33787223071920558 0 -0.36847526157608179 -0.3543504891053138 0 -0.36977638567260612 -0.33787223071920558 0 -0.356246644014312 -0.35373486433768808 0 -0.36847526157608179 -0.3543504891053138 0 -0.36977638567260612 -0.33787223071920558 0 -0.36847526157608179 -0.3543504891053138 0 -0.36847526157608179 -0.3543504891053138 0 -0.36742545467469251 -0.3676459075998566 0 -0.34950394614634361 -0.36395514353093122 0 -0.37976219896696839 -0.37713098054591881 0 -0.36742545467469251 -0.3676459075998566 0 -0.36933661851741278 -0.3800994361278619 0 -0.37930372380650229 -0.36547688239778742 0 -0.36847526157608179 -0.3543504891053138 0 -0.36742545467469251 -0.3676459075998566 0 -0.36847526157608179 -0.3543504891053138 0 -0.36742545467469251 -0.3676459075998566 0 -0.36742545467469251 -0.3676459075998566 0 -0.34950394614634361 -0.36395514353093122 0 -0.35810822852911051 -0.38535109496649161 0 -0.34950394614634361 -0.36395514353093122 0 -0.33053263071660588 -0.37355979795654931 0 -0.33662272005155008 -0.36093681242382708 0 -0.34950394614634361 -0.36395514353093122 0 -0.33053263071660588 -0.37355979795654931 0 -0.34950394614634361 -0.36395514353093122 0 -0.33053263071660588 -0.37355979795654931 0 -0.34358557285563779 -0.38001980394704421 0 -0.33053263071660588 -0.37355979795654931 0 -0.33662272005155008 -0.36093681242382708 0 -0.32104407367129811 -0.35819746189881713 0 -0.34541022967195212 -0.34803484630901133 0 -0.34006021631284039 -0.34518436854177048 0 -0.32104407367129811 -0.35819746189881713 0 -0.34541022967195212 -0.34803484630901133 0 -0.33662272005155008 -0.36093681242382708 0 -0.32104407367129811 -0.35819746189881713 0 -0.34541022967195212 -0.34803484630901133 0 -0.32104407367129811 -0.35819746189881713 0 -0.31417906229765052 -0.34287117485509888 0 -0.34006021631284039 -0.34518436854177048 0 -0.31417906229765052 -0.34287117485509888 0 -0.32104407367129811 -0.35819746189881713 0 -0.30464637595492011 -0.35292163741916749 0 -0.31417906229765052 -0.34287117485509888 0 -0.34006021631284039 -0.34518436854177048 0 -0.32104407367129811 -0.35819746189881713 0 -0.31417906229765052 -0.34287117485509888 0 -0.32104407367129811 -0.35819746189881713 0 -0.32104407367129811 -0.35819746189881713 0 -0.33263342769329263 -0.38407094654796808 0 -0.32104407367129811 -0.35819746189881713 0 -0.31588958576831472 -0.37484088716642749 0 -0.30352898256157701 -0.36550264117960901 0 -0.33053263071660588 -0.37355979795654931 0 -0.32104407367129811 -0.35819746189881713 0 -0.33263342769329263 -0.38407094654796808 0 -0.32104407367129811 -0.35819746189881713 0 -0.31588958576831472 -0.37484088716642749 0 -0.33263342769329263 -0.38407094654796808 0 -0.31588958576831472 -0.37484088716642749 0 -0.30352898256157701 -0.36550264117960901 0 -0.30592647319921618 -0.38178253104015392 0 -0.32104407367129811 -0.35819746189881713 0 -0.30352898256157701 -0.36550264117960901 0 -0.32104407367129811 -0.35819746189881713 0 -0.30352898256157701 -0.36550264117960901 0 -0.30464637595492011 -0.35292163741916749 0 -0.31417906229765052 -0.34287117485509888 0 -0.30464637595492011 -0.35292163741916749 0 -0.29298673066318331 -0.34097705654360722 0 -0.30352898256157701 -0.36550264117960901 0 -0.30464637595492011 -0.35292163741916749 0 -0.29149303058089049 -0.35705985261870571 0 -0.30464637595492011 -0.35292163741916749 0 -0.29149303058089049 -0.35705985261870571 0 -0.29298673066318331 -0.34097705654360722 0 -0.29149303058089049 -0.35705985261870571 0 -0.28064204563500872 -0.34902575399504249 0 -0.29298673066318331 -0.34097705654360722 0 -0.29149303058089049 -0.35705985261870571 0 -0.28154412808691048 -0.36202910388750098 0 -0.28064204563500872 -0.34902575399504249 0 -0.28601389145185602 -0.3728078204604009 0 -0.26997968939302708 -0.3660173985467875 0 -0.29177216161437308 -0.38151348323529072 0 -0.30352898256157701 -0.36550264117960901 0 -0.28601389145185602 -0.3728078204604009 0 -0.30352898256157701 -0.36550264117960901 0 -0.29149303058089049 -0.35705985261870571 0 -0.28601389145185602 -0.3728078204604009 0 -0.30352898256157701 -0.36550264117960901 0 -0.28601389145185602 -0.3728078204604009 0 -0.29177216161437308 -0.38151348323529072 0 -0.29149303058089049 -0.35705985261870571 0 -0.28154412808691048 -0.36202910388750098 0 -0.28601389145185602 -0.3728078204604009 0 -0.28154412808691048 -0.36202910388750098 0 -0.28601389145185602 -0.3728078204604009 0 -0.26997968939302708 -0.3660173985467875 0 -0.26997968939302708 -0.3660173985467875 0 -0.29177216161437308 -0.38151348323529072 0 -0.26997968939302708 -0.3660173985467875 0 -0.26210413338494798 -0.37210736184484278 0 -0.27333333048026448 -0.37753569437505669 0 -0.26997968939302708 -0.3660173985467875 0 -0.26210413338494798 -0.37210736184484278 0 -0.25325273149551991 -0.36644090651784578 0 -0.26997968939302708 -0.3660173985467875 0 -0.25325273149551991 -0.36644090651784578 0 -0.24818721717168121 -0.35052131385828428 0 -0.25325273149551991 -0.36644090651784578 0 -0.25338974013739751 -0.37479073521783091 0 -0.24643703795879759 -0.37108148237203897 0 -0.26210413338494798 -0.37210736184484278 0 -0.25325273149551991 -0.36644090651784578 0 -0.25338974013739751 -0.37479073521783091 0 -0.26607309774057969 -0.34960896190406249 0 -0.25060206739424878 -0.33718881992062411 0 -0.24818721717168121 -0.35052131385828428 0 -0.26997968939302708 -0.3660173985467875 0 -0.26607309774057969 -0.34960896190406249 0 -0.24818721717168121 -0.35052131385828428 0 -0.26997968939302708 -0.3660173985467875 0 -0.24818721717168121 -0.35052131385828428 0 -0.26607309774057969 -0.34960896190406249 0 -0.28064204563500872 -0.34902575399504249 0 -0.27179439902871599 -0.33908293823211572 0 -0.28154412808691048 -0.36202910388750098 0 -0.26997968939302708 -0.3660173985467875 0 -0.26607309774057969 -0.34960896190406249 0 -0.28154412808691048 -0.36202910388750098 0 -0.26607309774057969 -0.34960896190406249 0 -0.28064204563500872 -0.34902575399504249 0 -0.28154412808691048 -0.36202910388750098 0 -0.26607309774057969 -0.34960896190406249 0 -0.27179439902871599 -0.33908293823211572 0 -0.26585280108131498 -0.32060405135262182 0 -0.28713551885953342 -0.32538626693317102 0 -0.26607309774057969 -0.34960896190406249 0 -0.25060206739424878 -0.33718881992062411 0 -0.27179439902871599 -0.33908293823211572 0 -0.25060206739424878 -0.33718881992062411 0 -0.26585280108131498 -0.32060405135262182 0 -0.27179439902871599 -0.33908293823211572 0 -0.25060206739424878 -0.33718881992062411 0 -0.26607309774057969 -0.34960896190406249 0 -0.27179439902871599 -0.33908293823211572 0 -0.25060206739424878 -0.33718881992062411 0 -0.25060206739424878 -0.33718881992062411 0 -0.26585280108131498 -0.32060405135262182 0 -0.24666961817122871 -0.31346571522936922 0 -0.26585280108131498 -0.32060405135262182 0 -0.28713551885953342 -0.32538626693317102 0 -0.28126744737491899 -0.30947573995798089 0 -0.28713551885953342 -0.32538626693317102 0 -0.30369340427516073 -0.31946171550418961 0 -0.28126744737491899 -0.30947573995798089 0 -0.30369340427516073 -0.31946171550418961 0 -0.29984510407510329 -0.31087030169781749 0 -0.28126744737491899 -0.30947573995798089 0 -0.30369340427516073 -0.31946171550418961 0 -0.28126744737491899 -0.30947573995798089 0 -0.28713551885953342 -0.32538626693317102 0 -0.299498679023882 -0.33217405345901668 0 -0.30369340427516073 -0.31946171550418961 0 -0.27179439902871599 -0.33908293823211572 0 -0.28713551885953342 -0.32538626693317102 0 -0.29298673066318331 -0.34097705654360722 0 -0.28064204563500872 -0.34902575399504249 0 -0.27179439902871599 -0.33908293823211572 0 -0.29298673066318331 -0.34097705654360722 0 -0.27179439902871599 -0.33908293823211572 0 -0.29298673066318331 -0.34097705654360722 0 -0.28713551885953342 -0.32538626693317102 0 -0.29298673066318331 -0.34097705654360722 0 -0.299498679023882 -0.33217405345901668 0 -0.31417906229765052 -0.34287117485509888 0 -0.30369340427516073 -0.31946171550418961 0 -0.31417906229765052 -0.34287117485509888 0 -0.299498679023882 -0.33217405345901668 0 -0.30369340427516073 -0.31946171550418961 0 -0.31417906229765052 -0.34287117485509888 0 -0.29298673066318331 -0.34097705654360722 0 -0.299498679023882 -0.33217405345901668 0 -0.31417906229765052 -0.34287117485509888 0 -0.29298673066318331 -0.34097705654360722 0 -0.31772013218925882 -0.31657869104279268 0 -0.30369340427516073 -0.31946171550418961 0 -0.3102070358997836 -0.31047417944304612 0 -0.30369340427516073 -0.31946171550418961 0 -0.29984510407510329 -0.31087030169781749 0 -0.3102070358997836 -0.31047417944304612 0 -0.30369340427516073 -0.31946171550418961 0 -0.29984510407510329 -0.31087030169781749 0 -0.29984510407510329 -0.31087030169781749 0 -0.30538451496589281 -0.30193561238085409 0 -0.29560350577492978 -0.30093914059700011 0 -0.30538451496589281 -0.30193561238085409 0 -0.30157920614258849 -0.28926007905483919 0 -0.29560350577492978 -0.30093914059700011 0 -0.31313903055878711 -0.30265247665852402 0 -0.3102070358997836 -0.31047417944304612 0 -0.30538451496589281 -0.30193561238085409 0 -0.29984510407510329 -0.31087030169781749 0 -0.3102070358997836 -0.31047417944304612 0 -0.30538451496589281 -0.30193561238085409 0 -0.31313903055878711 -0.30265247665852402 0 -0.30538451496589281 -0.30193561238085409 0 -0.31068142912224589 -0.29481077381828441 0 -0.30538451496589281 -0.30193561238085409 0 -0.31068142912224589 -0.29481077381828441 0 -0.30157920614258849 -0.28926007905483919 0 -0.31323823511508492 -0.2798957252886754 0 -0.30157920614258849 -0.28926007905483919 0 -0.29464735139065817 -0.27491141327805368 0 -0.31323823511508492 -0.2798957252886754 0 -0.31068142912224589 -0.29481077381828441 0 -0.30157920614258849 -0.28926007905483919 0 -0.30157920614258849 -0.28926007905483919 0 -0.2892074086796263 -0.29055742265417223 0 -0.29560350577492978 -0.30093914059700011 0 -0.30157920614258849 -0.28926007905483919 0 -0.2892074086796263 -0.29055742265417223 0 -0.29464735139065817 -0.27491141327805368 0 -0.2892074086796263 -0.29055742265417223 0 -0.27261494343457432 -0.2811216313153837 0 -0.29464735139065817 -0.27491141327805368 0 -0.2892074086796263 -0.29055742265417223 0 -0.28126744737491899 -0.30947573995798089 0 -0.29560350577492978 -0.30093914059700011 0 -0.29984510407510329 -0.31087030169781749 0 -0.28126744737491899 -0.30947573995798089 0 -0.29560350577492978 -0.30093914059700011 0 -0.25884149047467703 -0.29948976441177289 0 -0.27261494343457432 -0.2811216313153837 0 -0.25170345783653902 -0.26409172820614801 0 -0.28126744737491899 -0.30947573995798089 0 -0.25884149047467703 -0.29948976441177289 0 -0.26585280108131498 -0.32060405135262182 0 -0.28126744737491899 -0.30947573995798089 0 -0.25884149047467703 -0.29948976441177289 0 -0.26585280108131498 -0.32060405135262182 0 -0.25884149047467703 -0.29948976441177289 0 -0.24666961817122871 -0.31346571522936922 0 -0.28126744737491899 -0.30947573995798089 0 -0.25884149047467703 -0.29948976441177289 0 -0.27261494343457432 -0.2811216313153837 0 -0.2892074086796263 -0.29055742265417223 0 -0.28126744737491899 -0.30947573995798089 0 -0.27261494343457432 -0.2811216313153837 0 -0.27261494343457432 -0.2811216313153837 0 -0.25170345783653902 -0.26409172820614801 0 -0.2812925304191724 -0.25986614251813639 0 -0.25170345783653902 -0.26409172820614801 0 -0.2812925304191724 -0.25986614251813639 0 -0.26467237822917622 -0.242367723876314 0 -0.25170345783653902 -0.26409172820614801 0 -0.2812925304191724 -0.25986614251813639 0 -0.2812925304191724 -0.25986614251813639 0 -0.29464735139065817 -0.27491141327805368 0 -0.31088160300180567 -0.25564055683012482 0 -0.2812925304191724 -0.25986614251813639 0 -0.31088160300180567 -0.25564055683012482 0 -0.27261494343457432 -0.2811216313153837 0 -0.2812925304191724 -0.25986614251813639 0 -0.29464735139065817 -0.27491141327805368 0 -0.31323823511508492 -0.2798957252886754 0 -0.29464735139065817 -0.27491141327805368 0 -0.31088160300180567 -0.25564055683012482 0 -0.2812925304191724 -0.25986614251813639 0 -0.31088160300180567 -0.25564055683012482 0 -0.3032200744027207 -0.23846922127844189 0 -0.32339175278068061 -0.45331813882363442 0 -0.33052339812506382 -0.47746110059285751 0 -0.34415556660374091 -0.45705261545823778 0 -0.32339175278068061 -0.45331813882363442 0 -0.33640862104900771 -0.43689601467993738 0 -0.33099359053368749 -0.44176280406162799 0 -0.32339175278068061 -0.45331813882363442 0 -0.33640862104900771 -0.43689601467993738 0 -0.34176245890799878 -0.44527125583192839 0 -0.32339175278068061 -0.45331813882363442 0 -0.34415556660374091 -0.45705261545823778 0 -0.34176245890799878 -0.44527125583192839 0 -0.32339175278068061 -0.45331813882363442 0 -0.33640862104900771 -0.43689601467993738 0 -0.34176245890799878 -0.44527125583192839 0 -0.34633732341043671 -0.43575973287829223 0 -0.33640862104900771 -0.43689601467993738 0 -0.33099359053368749 -0.44176280406162799 0 -0.33640862104900771 -0.43689601467993738 0 -0.3229196479366197 -0.44097674932536962 0 -0.31503147533802139 -0.44376113674322171 0 -0.32339175278068061 -0.45331813882363442 0 -0.31503147533802139 -0.44376113674322171 0 -0.32339175278068061 -0.45331813882363442 0 -0.30515279313527371 -0.45375777491010771 0 -0.33099359053368749 -0.44176280406162799 0 -0.3229196479366197 -0.44097674932536962 0 -0.32339175278068061 -0.45331813882363442 0 -0.33099359053368749 -0.44176280406162799 0 -0.3229196479366197 -0.44097674932536962 0 -0.32862907754937098 -0.4336860199510168 0 -0.3229196479366197 -0.44097674932536962 0 -0.31503147533802139 -0.44376113674322171 0 -0.3167653920845277 -0.43253915212292621 0 -0.32339175278068061 -0.45331813882363442 0 -0.30515279313527371 -0.45375777491010771 0 -0.31037488451235329 -0.46974026296733129 0 -0.32339175278068061 -0.45331813882363442 0 -0.31037488451235329 -0.46974026296733129 0 -0.32339175278068061 -0.45331813882363442 0 -0.33052339812506382 -0.47746110059285751 0 -0.31037488451235329 -0.46974026296733129 0 -0.33052339812506382 -0.47746110059285751 0 -0.31207930079406848 -0.48640338681590611 0 -0.31037488451235329 -0.46974026296733129 0 -0.32161485031421427 -0.5 0 -0.33052339812506382 -0.47746110059285751 0 -0.31207930079406848 -0.48640338681590611 0 -0.32161485031421427 -0.5 0 -0.33052339812506382 -0.47746110059285751 0 -0.34590579504004237 -0.49999999999999911 0 -0.33052339812506382 -0.47746110059285751 0 -0.35454091223719769 -0.47638670838073621 0 -0.34590579504004237 -0.49999999999999911 0 -0.33052339812506382 -0.47746110059285751 0 -0.35454091223719769 -0.47638670838073621 0 -0.34415556660374091 -0.45705261545823778 0 -0.38119284069107479 -0.5 0 -0.35454091223719769 -0.47638670838073621 0 -0.34590579504004237 -0.49999999999999911 0 -0.35454091223719769 -0.47638670838073621 0 -0.34590579504004237 -0.49999999999999911 0 -0.38322057614176092 -0.47775084625121039 0 -0.38119284069107479 -0.5 0 -0.35454091223719769 -0.47638670838073621 0 -0.38322057614176092 -0.47775084625121039 0 -0.35454091223719769 -0.47638670838073621 0 -0.37253297241535249 -0.46451740972283989 0 -0.35454091223719769 -0.47638670838073621 0 -0.37253297241535249 -0.46451740972283989 0 -0.3631760294343534 -0.45277341676147342 0 -0.37790747141822401 -0.45066121505040729 0 -0.37253297241535249 -0.46451740972283989 0 -0.3631760294343534 -0.45277341676147342 0 -0.35454091223719769 -0.47638670838073621 0 -0.34415556660374091 -0.45705261545823778 0 -0.3631760294343534 -0.45277341676147342 0 -0.35454091223719769 -0.47638670838073621 0 -0.3631760294343534 -0.45277341676147342 0 -0.34415556660374091 -0.45705261545823778 0 -0.35086611419175529 -0.44169203243335697 0 -0.3631760294343534 -0.45277341676147342 0 -0.35086611419175529 -0.44169203243335697 0 -0.3631760294343534 -0.45277341676147342 0 -0.36041152392150649 -0.43047308774241572 0 -0.34176245890799878 -0.44527125583192839 0 -0.35086611419175529 -0.44169203243335697 0 -0.34633732341043671 -0.43575973287829223 0 -0.34176245890799878 -0.44527125583192839 0 -0.34415556660374091 -0.45705261545823778 0 -0.35086611419175529 -0.44169203243335697 0 -0.3631760294343534 -0.45277341676147342 0 -0.3718111466315091 -0.42916012514221041 0 -0.37790747141822401 -0.45066121505040729 0 -0.3631760294343534 -0.45277341676147342 0 -0.3718111466315091 -0.42916012514221041 0 -0.38254485346395473 -0.43330131008540912 0 -0.3718111466315091 -0.42916012514221041 0 -0.36930797127598503 -0.40732753710696867 0 -0.3718111466315091 -0.42916012514221041 0 -0.36041152392150649 -0.43047308774241572 0 -0.36930797127598503 -0.40732753710696867 0 -0.3631760294343534 -0.45277341676147342 0 -0.3718111466315091 -0.42916012514221041 0 -0.36041152392150649 -0.43047308774241572 0 -0.36930797127598503 -0.40732753710696867 0 -0.35285829616249698 -0.42211177589345372 0 -0.36930797127598503 -0.40732753710696867 0 -0.35602619359630361 -0.4089061293831151 0 -0.35285829616249698 -0.42211177589345372 0 -0.36041152392150649 -0.43047308774241572 0 -0.36930797127598503 -0.40732753710696867 0 -0.35285829616249698 -0.42211177589345372 0 -0.35602619359630361 -0.4089061293831151 0 -0.34827900363081749 -0.41630270579575451 0 -0.35285829616249698 -0.42211177589345372 0 -0.35602619359630361 -0.4089061293831151 0 -0.34422278171528642 -0.40994443119711949 0 -0.34827900363081749 -0.41630270579575451 0 -0.34422278171528642 -0.40994443119711949 0 -0.34827900363081749 -0.41630270579575451 0 -0.34069423188813658 -0.41776607683656081 0 -0.34827900363081749 -0.41630270579575451 0 -0.34759351479186429 -0.42278511566852323 0 -0.35285829616249698 -0.42211177589345372 0 -0.34827900363081749 -0.41630270579575451 0 -0.34759351479186429 -0.42278511566852323 0 -0.34069423188813658 -0.41776607683656081 0 -0.35285829616249698 -0.42211177589345372 0 -0.33640862104900771 -0.43689601467993738 0 -0.34759351479186429 -0.42278511566852323 0 -0.35285829616249698 -0.42211177589345372 0 -0.33640862104900771 -0.43689601467993738 0 -0.34633732341043671 -0.43575973287829223 0 -0.35285829616249698 -0.42211177589345372 0 -0.33640862104900771 -0.43689601467993738 0 -0.34633732341043671 -0.43575973287829223 0 -0.35230418245703499 -0.43254453816086902 0 -0.35285829616249698 -0.42211177589345372 0 -0.35086611419175529 -0.44169203243335697 0 -0.34633732341043671 -0.43575973287829223 0 -0.35230418245703499 -0.43254453816086902 0 -0.35086611419175529 -0.44169203243335697 0 -0.36041152392150649 -0.43047308774241572 0 -0.35230418245703499 -0.43254453816086902 0 -0.36041152392150649 -0.43047308774241572 0 -0.35230418245703499 -0.43254453816086902 0 -0.35285829616249698 -0.42211177589345372 0 -0.36742545467469251 -0.3676459075998566 0 -0.36933661851741278 -0.3800994361278619 0 -0.35810822852911051 -0.38535109496649161 0 -0.37976219896696839 -0.37713098054591881 0 -0.36933661851741278 -0.3800994361278619 0 -0.37294335233419318 -0.38910311623310501 0 -0.36933661851741278 -0.3800994361278619 0 -0.37294335233419318 -0.38910311623310501 0 -0.35810822852911051 -0.38535109496649161 0 -0.36930797127598503 -0.40732753710696867 0 -0.35602619359630361 -0.4089061293831151 0 -0.35810822852911051 -0.38535109496649161 0 -0.36930797127598503 -0.40732753710696867 0 -0.37294335233419318 -0.38910311623310501 0 -0.35810822852911051 -0.38535109496649161 0 -0.36930797127598503 -0.40732753710696867 0 -0.35810822852911051 -0.38535109496649161 0 -0.35602619359630361 -0.4089061293831151 0 -0.34422278171528642 -0.40994443119711949 0 -0.34714963119283609 -0.39316203673328071 0 -0.35602619359630361 -0.4089061293831151 0 -0.34714963119283609 -0.39316203673328071 0 -0.35810822852911051 -0.38535109496649161 0 -0.34950394614634361 -0.36395514353093122 0 -0.35810822852911051 -0.38535109496649161 0 -0.34358557285563779 -0.38001980394704421 0 -0.34714963119283609 -0.39316203673328071 0 -0.35810822852911051 -0.38535109496649161 0 -0.34358557285563779 -0.38001980394704421 0 -0.33053263071660588 -0.37355979795654931 0 -0.34358557285563779 -0.38001980394704421 0 -0.33263342769329263 -0.38407094654796808 0 -0.34714963119283609 -0.39316203673328071 0 -0.34358557285563779 -0.38001980394704421 0 -0.33263342769329263 -0.38407094654796808 0 -0.34422278171528642 -0.40994443119711949 0 -0.33263342769329263 -0.38407094654796808 0 -0.3267151446880513 -0.40303186538163088 0 -0.34422278171528642 -0.40994443119711949 0 -0.34714963119283609 -0.39316203673328071 0 -0.33263342769329263 -0.38407094654796808 0 -0.34422278171528642 -0.40994443119711949 0 -0.33263342769329263 -0.38407094654796808 0 -0.33263342769329263 -0.38407094654796808 0 -0.3267151446880513 -0.40303186538163088 0 -0.32359125366649538 -0.39197827191968743 0 -0.3267151446880513 -0.40303186538163088 0 -0.31490218187009672 -0.4038211334693787 0 -0.31962766348226679 -0.41126758518744377 0 -0.3267151446880513 -0.40303186538163088 0 -0.31490218187009672 -0.4038211334693787 0 -0.31780730346090341 -0.39684360875902458 0 -0.31780730346090341 -0.39684360875902458 0 -0.3173928243099976 -0.38577236781030377 0 -0.31067237925689101 -0.39276374086348259 0 -0.31780730346090341 -0.39684360875902458 0 -0.32359125366649538 -0.39197827191968743 0 -0.3173928243099976 -0.38577236781030377 0 -0.31490218187009672 -0.4038211334693787 0 -0.31780730346090341 -0.39684360875902458 0 -0.31067237925689101 -0.39276374086348259 0 -0.3267151446880513 -0.40303186538163088 0 -0.31780730346090341 -0.39684360875902458 0 -0.32359125366649538 -0.39197827191968743 0 -0.31588958576831472 -0.37484088716642749 0 -0.33263342769329263 -0.38407094654796808 0 -0.3173928243099976 -0.38577236781030377 0 -0.33263342769329263 -0.38407094654796808 0 -0.32359125366649538 -0.39197827191968743 0 -0.3173928243099976 -0.38577236781030377 0 -0.31588958576831472 -0.37484088716642749 0 -0.3173928243099976 -0.38577236781030377 0 -0.30592647319921618 -0.38178253104015392 0 -0.3351411334425643 -0.42425057568182928 0 -0.33364027237479482 -0.43021481666749861 0 -0.33865708330087962 -0.42747395627937512 0 -0.3351411334425643 -0.42425057568182928 0 -0.32976102099138138 -0.42751166352868197 0 -0.33364027237479482 -0.43021481666749861 0 -0.3351411334425643 -0.42425057568182928 0 -0.32976102099138138 -0.42751166352868197 0 -0.32787843651726872 -0.42200937466312632 0 -0.32976102099138138 -0.42751166352868197 0 -0.32862907754937098 -0.4336860199510168 0 -0.33364027237479482 -0.43021481666749861 0 -0.33099359053368749 -0.44176280406162799 0 -0.32862907754937098 -0.4336860199510168 0 -0.33640862104900771 -0.43689601467993738 0 -0.32862907754937098 -0.4336860199510168 0 -0.33364027237479482 -0.43021481666749861 0 -0.33640862104900771 -0.43689601467993738 0 -0.34759351479186429 -0.42278511566852323 0 -0.33640862104900771 -0.43689601467993738 0 -0.33364027237479482 -0.43021481666749861 0 -0.33640862104900771 -0.43689601467993738 0 -0.33865708330087962 -0.42747395627937512 0 -0.34759351479186429 -0.42278511566852323 0 -0.33640862104900771 -0.43689601467993738 0 -0.33865708330087962 -0.42747395627937512 0 -0.34759351479186429 -0.42278511566852323 0 -0.33865708330087962 -0.42747395627937512 0 -0.34050187484616679 -0.42322325869908678 0 -0.3351411334425643 -0.42425057568182928 0 -0.33865708330087962 -0.42747395627937512 0 -0.34050187484616679 -0.42322325869908678 0 -0.34759351479186429 -0.42278511566852323 0 -0.34050187484616679 -0.42322325869908678 0 -0.34069423188813658 -0.41776607683656081 0 -0.34422278171528642 -0.40994443119711949 0 -0.3267151446880513 -0.40303186538163088 0 -0.33434086259717571 -0.41255017748077921 0 -0.34069423188813658 -0.41776607683656081 0 -0.33434086259717571 -0.41255017748077921 0 -0.33298788567090309 -0.41815521648610582 0 -0.3351411334425643 -0.42425057568182928 0 -0.34050187484616679 -0.42322325869908678 0 -0.34069423188813658 -0.41776607683656081 0 -0.3351411334425643 -0.42425057568182928 0 -0.34069423188813658 -0.41776607683656081 0 -0.33298788567090309 -0.41815521648610582 0 -0.34422278171528642 -0.40994443119711949 0 -0.34069423188813658 -0.41776607683656081 0 -0.33434086259717571 -0.41255017748077921 0 -0.3267151446880513 -0.40303186538163088 0 -0.33434086259717571 -0.41255017748077921 0 -0.32688476390937021 -0.41419987776823308 0 -0.33434086259717571 -0.41255017748077921 0 -0.33298788567090309 -0.41815521648610582 0 -0.32688476390937021 -0.41419987776823308 0 -0.3351411334425643 -0.42425057568182928 0 -0.33298788567090309 -0.41815521648610582 0 -0.32787843651726872 -0.42200937466312632 0 -0.33298788567090309 -0.41815521648610582 0 -0.32688476390937021 -0.41419987776823308 0 -0.32787843651726872 -0.42200937466312632 0 -0.32688476390937021 -0.41419987776823308 0 -0.31909723532280682 -0.42024942121312991 0 -0.32787843651726872 -0.42200937466312632 0 -0.32688476390937021 -0.41419987776823308 0 -0.31962766348226679 -0.41126758518744377 0 -0.31909723532280682 -0.42024942121312991 0 -0.3267151446880513 -0.40303186538163088 0 -0.32688476390937021 -0.41419987776823308 0 -0.31962766348226679 -0.41126758518744377 0 -0.31490218187009672 -0.4038211334693787 0 -0.31962766348226679 -0.41126758518744377 0 -0.3105389916210089 -0.41503562810484629 0 -0.31962766348226679 -0.41126758518744377 0 -0.31909723532280682 -0.42024942121312991 0 -0.3105389916210089 -0.41503562810484629 0 -0.31909723532280682 -0.42024942121312991 0 -0.32351618507290841 -0.42739753067993891 0 -0.3167653920845277 -0.43253915212292621 0 -0.31909723532280682 -0.42024942121312991 0 -0.3167653920845277 -0.43253915212292621 0 -0.30757926098307498 -0.42610910316271211 0 -0.31909723532280682 -0.42024942121312991 0 -0.32351618507290841 -0.42739753067993891 0 -0.32787843651726872 -0.42200937466312632 0 -0.32976102099138138 -0.42751166352868197 0 -0.32862907754937098 -0.4336860199510168 0 -0.32351618507290841 -0.42739753067993891 0 -0.32976102099138138 -0.42751166352868197 0 -0.32351618507290841 -0.42739753067993891 0 -0.32787843651726872 -0.42200937466312632 0 -0.32862907754937098 -0.4336860199510168 0 -0.32351618507290841 -0.42739753067993891 0 -0.3167653920845277 -0.43253915212292621 0 -0.3229196479366197 -0.44097674932536962 0 -0.32862907754937098 -0.4336860199510168 0 -0.3167653920845277 -0.43253915212292621 0 -0.3167653920845277 -0.43253915212292621 0 -0.30757926098307498 -0.42610910316271211 0 -0.30482265476465931 -0.43924423994446132 0 -0.29733811801665783 -0.43137100292749531 0 -0.30757926098307498 -0.42610910316271211 0 -0.30482265476465931 -0.43924423994446132 0 -0.29733811801665783 -0.43137100292749531 0 -0.30757926098307498 -0.42610910316271211 0 -0.29688129563032262 -0.41917145436794262 0 -0.31909723532280682 -0.42024942121312991 0 -0.30757926098307498 -0.42610910316271211 0 -0.3105389916210089 -0.41503562810484629 0 -0.30757926098307498 -0.42610910316271211 0 -0.3105389916210089 -0.41503562810484629 0 -0.29688129563032262 -0.41917145436794262 0 -0.31490218187009672 -0.4038211334693787 0 -0.3105389916210089 -0.41503562810484629 0 -0.30379927120182532 -0.40781960677091023 0 -0.30379927120182532 -0.40781960677091023 0 -0.29688129563032262 -0.41917145436794262 0 -0.29209172546032403 -0.40426381416864882 0 -0.3105389916210089 -0.41503562810484629 0 -0.30379927120182532 -0.40781960677091023 0 -0.29688129563032262 -0.41917145436794262 0 -0.29209172546032403 -0.40426381416864882 0 -0.27817582580569788 -0.40185916217325712 0 -0.27423920082649128 -0.41822274905209889 0 -0.29688129563032262 -0.41917145436794262 0 -0.29209172546032403 -0.40426381416864882 0 -0.27423920082649128 -0.41822274905209889 0 -0.29688129563032262 -0.41917145436794262 0 -0.28450154256450949 -0.42969215778920672 0 -0.27423920082649128 -0.41822274905209889 0 -0.29733811801665783 -0.43137100292749531 0 -0.28450154256450949 -0.42969215778920672 0 -0.29290583614072269 -0.4426380593731537 0 -0.29733811801665783 -0.43137100292749531 0 -0.29688129563032262 -0.41917145436794262 0 -0.28450154256450949 -0.42969215778920672 0 -0.30352898256157701 -0.36550264117960901 0 -0.30592647319921618 -0.38178253104015392 0 -0.29177216161437308 -0.38151348323529072 0 -0.30592647319921618 -0.38178253104015392 0 -0.29855642614430461 -0.39194884257261631 0 -0.31067237925689101 -0.39276374086348259 0 -0.3173928243099976 -0.38577236781030377 0 -0.30592647319921618 -0.38178253104015392 0 -0.31067237925689101 -0.39276374086348259 0 -0.30592647319921618 -0.38178253104015392 0 -0.29855642614430461 -0.39194884257261631 0 -0.29177216161437308 -0.38151348323529072 0 -0.29855642614430461 -0.39194884257261631 0 -0.31067237925689101 -0.39276374086348259 0 -0.30468231181894762 -0.39902474854899722 0 -0.29855642614430461 -0.39194884257261631 0 -0.30468231181894762 -0.39902474854899722 0 -0.29209172546032403 -0.40426381416864882 0 -0.31490218187009672 -0.4038211334693787 0 -0.31067237925689101 -0.39276374086348259 0 -0.30468231181894762 -0.39902474854899722 0 -0.31490218187009672 -0.4038211334693787 0 -0.30379927120182532 -0.40781960677091023 0 -0.30468231181894762 -0.39902474854899722 0 -0.30379927120182532 -0.40781960677091023 0 -0.30468231181894762 -0.39902474854899722 0 -0.29209172546032403 -0.40426381416864882 0 -0.29209172546032403 -0.40426381416864882 0 -0.28580479276822079 -0.39297471408142431 0 -0.27817582580569788 -0.40185916217325712 0 -0.29855642614430461 -0.39194884257261631 0 -0.29209172546032403 -0.40426381416864882 0 -0.28580479276822079 -0.39297471408142431 0 -0.29177216161437308 -0.38151348323529072 0 -0.27333333048026448 -0.37753569437505669 0 -0.28102439873172891 -0.38538882054633411 0 -0.29855642614430461 -0.39194884257261631 0 -0.28580479276822079 -0.39297471408142431 0 -0.29177216161437308 -0.38151348323529072 0 -0.28580479276822079 -0.39297471408142431 0 -0.29177216161437308 -0.38151348323529072 0 -0.28102439873172891 -0.38538882054633411 0 -0.26997968939302708 -0.3660173985467875 0 -0.29177216161437308 -0.38151348323529072 0 -0.27333333048026448 -0.37753569437505669 0 -0.27333333048026448 -0.37753569437505669 0 -0.27318731006405711 -0.3895313904935645 0 -0.26153897367393392 -0.37940853061269131 0 -0.26210413338494798 -0.37210736184484278 0 -0.27333333048026448 -0.37753569437505669 0 -0.26153897367393392 -0.37940853061269131 0 -0.27333333048026448 -0.37753569437505669 0 -0.28102439873172891 -0.38538882054633411 0 -0.27318731006405711 -0.3895313904935645 0 -0.28580479276822079 -0.39297471408142431 0 -0.28102439873172891 -0.38538882054633411 0 -0.27318731006405711 -0.3895313904935645 0 -0.28580479276822079 -0.39297471408142431 0 -0.27318731006405711 -0.3895313904935645 0 -0.27817582580569788 -0.40185916217325712 0 -0.27318731006405711 -0.3895313904935645 0 -0.27817582580569788 -0.40185916217325712 0 -0.26555609990939649 -0.40430314307054921 0 -0.25073010241706101 -0.39045336445211543 0 -0.25158065001821922 -0.41861590824496703 0 -0.26555609990939649 -0.40430314307054921 0 -0.25073010241706101 -0.39045336445211543 0 -0.25158065001821922 -0.41861590824496703 0 -0.27318731006405711 -0.3895313904935645 0 -0.26555609990939649 -0.40430314307054921 0 -0.25073010241706101 -0.39045336445211543 0 -0.27318731006405711 -0.3895313904935645 0 -0.24668967468649011 -0.38329288049428689 0 -0.27318731006405711 -0.3895313904935645 0 -0.26153897367393392 -0.37940853061269131 0 -0.24668967468649011 -0.38329288049428689 0 -0.27318731006405711 -0.3895313904935645 0 -0.25073010241706101 -0.39045336445211543 0 -0.24668967468649011 -0.38329288049428689 0 -0.25338974013739751 -0.37479073521783091 0 -0.26153897367393392 -0.37940853061269131 0 -0.24668967468649011 -0.38329288049428689 0 -0.26210413338494798 -0.37210736184484278 0 -0.25338974013739751 -0.37479073521783091 0 -0.26153897367393392 -0.37940853061269131 0 -0.28450154256450949 -0.42969215778920672 0 -0.26628251127645192 -0.43209555459421989 0 -0.27423920082649128 -0.41822274905209889 0 -0.28450154256450949 -0.42969215778920672 0 -0.26628251127645192 -0.43209555459421989 0 -0.27493663932138518 -0.44752049571545349 0 -0.27817582580569788 -0.40185916217325712 0 -0.26555609990939649 -0.40430314307054921 0 -0.27423920082649128 -0.41822274905209889 0 -0.26555609990939649 -0.40430314307054921 0 -0.27423920082649128 -0.41822274905209889 0 -0.25158065001821922 -0.41861590824496703 0 -0.26628251127645192 -0.43209555459421989 0 -0.25158065001821922 -0.41861590824496703 0 -0.25243119761937749 -0.44677845203781857 0 -0.25158065001821922 -0.41861590824496703 0 -0.25243119761937749 -0.44677845203781857 0 -0.26628251127645192 -0.43209555459421989 0 -0.27423920082649128 -0.41822274905209889 0 -0.25158065001821922 -0.41861590824496703 0 -0.26628251127645192 -0.43209555459421989 0 -0.25243119761937749 -0.44677845203781857 0 -0.27493663932138518 -0.44752049571545349 0 -0.25243119761937749 -0.44677845203781857 0 -0.26529007469312432 -0.4620053208386109 0 -0.27493663932138518 -0.44752049571545349 0 -0.25243119761937749 -0.44677845203781857 0 -0.26529007469312432 -0.4620053208386109 0 -0.25328174522053581 -0.47494099583067018 0 -0.25243119761937749 -0.44677845203781857 0 -0.25328174522053581 -0.47494099583067018 0 -0.26529007469312432 -0.4620053208386109 0 -0.27793823412794172 -0.46554699998673948 0 -0.27493663932138518 -0.44752049571545349 0 -0.27793823412794172 -0.46554699998673948 0 -0.27493663932138518 -0.44752049571545349 0 -0.28906489214598541 -0.45598079602013142 0 -0.26529007469312432 -0.4620053208386109 0 -0.27793823412794172 -0.46554699998673948 0 -0.26788497059470828 -0.47484634210229548 0 -0.28450154256450949 -0.42969215778920672 0 -0.27493663932138518 -0.44752049571545349 0 -0.29290583614072269 -0.4426380593731537 0 -0.27493663932138518 -0.44752049571545349 0 -0.29290583614072269 -0.4426380593731537 0 -0.28906489214598541 -0.45598079602013142 0 -0.29290583614072269 -0.4426380593731537 0 -0.28906489214598541 -0.45598079602013142 0 -0.30515279313527371 -0.45375777491010771 0 -0.28906489214598541 -0.45598079602013142 0 -0.30515279313527371 -0.45375777491010771 0 -0.29439095800460391 -0.47044065011520242 0 -0.27793823412794172 -0.46554699998673948 0 -0.28906489214598541 -0.45598079602013142 0 -0.29439095800460391 -0.47044065011520242 0 -0.30515279313527371 -0.45375777491010771 0 -0.31037488451235329 -0.46974026296733129 0 -0.29439095800460391 -0.47044065011520242 0 -0.31503147533802139 -0.44376113674322171 0 -0.30515279313527371 -0.45375777491010771 0 -0.30482265476465931 -0.43924423994446132 0 -0.31503147533802139 -0.44376113674322171 0 -0.3167653920845277 -0.43253915212292621 0 -0.30482265476465931 -0.43924423994446132 0 -0.29290583614072269 -0.4426380593731537 0 -0.30515279313527371 -0.45375777491010771 0 -0.30482265476465931 -0.43924423994446132 0 -0.29733811801665783 -0.43137100292749531 0 -0.29290583614072269 -0.4426380593731537 0 -0.30482265476465931 -0.43924423994446132 0 -0.32161485031421427 -0.5 0 -0.29732390558838639 -0.5 0 -0.31207930079406848 -0.48640338681590611 0 -0.29735801624402608 -0.48616238711102833 0 -0.29732390558838639 -0.5 0 -0.31207930079406848 -0.48640338681590611 0 -0.29735801624402608 -0.48616238711102833 0 -0.31037488451235329 -0.46974026296733129 0 -0.29735801624402608 -0.48616238711102833 0 -0.31037488451235329 -0.46974026296733129 0 -0.29439095800460391 -0.47044065011520242 0 -0.29735801624402608 -0.48616238711102833 0 -0.31207930079406848 -0.48640338681590611 0 -0.31037488451235329 -0.46974026296733129 0 -0.27793823412794172 -0.46554699998673948 0 -0.29439095800460391 -0.47044065011520242 0 -0.28125630292907738 -0.48403839377308161 0 -0.29735801624402608 -0.48616238711102833 0 -0.29439095800460391 -0.47044065011520242 0 -0.28125630292907738 -0.48403839377308161 0 -0.29735801624402608 -0.48616238711102833 0 -0.29732390558838639 -0.5 0 -0.28125630292907738 -0.48403839377308161 0 -0.29732390558838639 -0.5 0 -0.28125630292907738 -0.48403839377308161 0 -0.27303296086255829 -0.5 0 -0.28125630292907738 -0.48403839377308161 0 -0.27303296086255829 -0.5 0 -0.26165849600286212 -0.48770000008237557 0 -0.27793823412794172 -0.46554699998673948 0 -0.28125630292907738 -0.48403839377308161 0 -0.26788497059470828 -0.47484634210229548 0 -0.28125630292907738 -0.48403839377308161 0 -0.26788497059470828 -0.47484634210229548 0 -0.26165849600286212 -0.48770000008237557 0 -0.26529007469312432 -0.4620053208386109 0 -0.26788497059470828 -0.47484634210229548 0 -0.25328174522053581 -0.47494099583067018 0 -0.26788497059470828 -0.47484634210229548 0 -0.25328174522053581 -0.47494099583067018 0 -0.26165849600286212 -0.48770000008237557 0 -0.25328174522053581 -0.47494099583067018 0 -0.26165849600286212 -0.48770000008237557 0 -0.24762581169961301 -0.48435120988288338 0 -0.27303296086255829 -0.5 0 -0.26165849600286212 -0.48770000008237557 0 -0.24874201613673019 -0.50000000000000244 0 -0.26165849600286212 -0.48770000008237557 0 -0.24874201613673019 -0.50000000000000244 0 -0.24762581169961301 -0.48435120988288338 0 -0.24874201613673019 -0.50000000000000244 0 -0.23349384398924161 -0.48206012071295629 0 -0.24874201613673019 -0.50000000000000244 0 -0.24762581169961301 -0.48435120988288338 0 -0.23349384398924161 -0.48206012071295629 0 -0.2401852152942657 -0.49999999999999872 0 -0.24874201613673019 -0.50000000000000244 0 -0.23349384398924161 -0.48206012071295629 0 -0.25328174522053581 -0.47494099583067018 0 -0.24762581169961301 -0.48435120988288338 0 -0.24078509984688631 -0.47529130240825818 0 -0.25328174522053581 -0.47494099583067018 0 -0.24078509984688631 -0.47529130240825818 0 -0.23834504974483139 -0.46360208440513417 0 -0.24078509984688631 -0.47529130240825818 0 -0.23349384398924161 -0.48206012071295629 0 -0.23160042543519141 -0.46972895697388461 0 -0.24078509984688631 -0.47529130240825818 0 -0.23160042543519141 -0.46972895697388461 0 -0.23834504974483139 -0.46360208440513417 0 -0.24762581169961301 -0.48435120988288338 0 -0.24078509984688631 -0.47529130240825818 0 -0.23349384398924161 -0.48206012071295629 0 -0.23349384398924161 -0.48206012071295629 0 -0.23160042543519141 -0.46972895697388461 0 -0.2182456718417542 -0.46412024142590919 0 -0.23349384398924161 -0.48206012071295629 0 -0.22666027717466969 -0.48087393098390352 0 -0.2182456718417542 -0.46412024142590919 0 -0.22666027717466969 -0.48087393098390352 0 -0.21313533905507329 -0.46174786196780893 0 -0.23349384398924161 -0.48206012071295629 0 -0.2182456718417542 -0.46412024142590919 0 -0.22666027717466969 -0.48087393098390352 0 -0.2182456718417542 -0.46412024142590919 0 -0.21313533905507329 -0.46174786196780893 0 -0.22666027717466969 -0.48087393098390352 0 -0.21903976352125279 -0.4890009125744853 0 -0.21513919263416389 -0.47727804195808982 0 -0.2401852152942657 -0.49999999999999872 0 -0.23349384398924161 -0.48206012071295629 0 -0.22666027717466969 -0.48087393098390352 0 -0.2401852152942657 -0.49999999999999872 0 -0.22666027717466969 -0.48087393098390352 0 -0.2401852152942657 -0.49999999999999872 0 -0.21903976352125279 -0.4890009125744853 0 -0.21202537190306089 -0.5 0 -0.2401852152942657 -0.49999999999999872 0 -0.22666027717466969 -0.48087393098390352 0 -0.21903976352125279 -0.4890009125744853 0 -0.25243119761937749 -0.44677845203781857 0 -0.22860913547413531 -0.45495495185416401 0 -0.22332793404478521 -0.44077831438793358 0 -0.25243119761937749 -0.44677845203781857 0 -0.23834504974483139 -0.46360208440513417 0 -0.22860913547413531 -0.45495495185416401 0 -0.25243119761937749 -0.44677845203781857 0 -0.25328174522053581 -0.47494099583067018 0 -0.23834504974483139 -0.46360208440513417 0 -0.23160042543519141 -0.46972895697388461 0 -0.23834504974483139 -0.46360208440513417 0 -0.2292000706239781 -0.46310155866477298 0 -0.23160042543519141 -0.46972895697388461 0 -0.2292000706239781 -0.46310155866477298 0 -0.2182456718417542 -0.46412024142590919 0 -0.2292000706239781 -0.46310155866477298 0 -0.22860913547413531 -0.45495495185416401 0 -0.2182456718417542 -0.46412024142590919 0 -0.22860913547413531 -0.45495495185416401 0 -0.21829506026373541 -0.45150846745171719 0 -0.2182456718417542 -0.46412024142590919 0 -0.23834504974483139 -0.46360208440513417 0 -0.2292000706239781 -0.46310155866477298 0 -0.22860913547413531 -0.45495495185416401 0 -0.22860913547413531 -0.45495495185416401 0 -0.22332793404478521 -0.44077831438793358 0 -0.21829506026373541 -0.45150846745171719 0 -0.22332793404478521 -0.44077831438793358 0 -0.21829506026373541 -0.45150846745171719 0 -0.20299749969426689 -0.44618036213886209 0 -0.2182456718417542 -0.46412024142590919 0 -0.20299749969426689 -0.44618036213886209 0 -0.2182456718417542 -0.46412024142590919 0 -0.21313533905507329 -0.46174786196780893 0 -0.20299749969426689 -0.44618036213886209 0 -0.21829506026373541 -0.45150846745171719 0 -0.2182456718417542 -0.46412024142590919 0 -0.20299749969426689 -0.44618036213886209 0 -0.21313533905507329 -0.46174786196780893 0 -0.20194265541979881 -0.45762213015220188 0 -0.20299749969426689 -0.44618036213886209 0 -0.21313533905507329 -0.46174786196780893 0 -0.2054173464931015 -0.46449089405109723 0 -0.2077833528705384 -0.4711748939507327 0 -0.21313533905507329 -0.46174786196780893 0 -0.2054173464931015 -0.46449089405109723 0 -0.20194265541979881 -0.45762213015220188 0 -0.2054173464931015 -0.46449089405109723 0 -0.19880803862699559 -0.46741869013364529 0 -0.2077833528705384 -0.4711748939507327 0 -0.18917013796846571 -0.46322739018195858 0 -0.20194265541979881 -0.45762213015220188 0 -0.1835737936672682 -0.45108090179194688 0 -0.2054173464931015 -0.46449089405109723 0 -0.19880803862699559 -0.46741869013364529 0 -0.20194265541979881 -0.45762213015220188 0 -0.19880803862699559 -0.46741869013364529 0 -0.18917013796846571 -0.46322739018195858 0 -0.20194265541979881 -0.45762213015220188 0 -0.19880803862699559 -0.46741869013364529 0 -0.18917013796846571 -0.46322739018195858 0 -0.18482170387210689 -0.47388493090916772 0 -0.20299749969426689 -0.44618036213886209 0 -0.1835737936672682 -0.45108090179194688 0 -0.17860031537212451 -0.43980242521127932 0 -0.20194265541979881 -0.45762213015220188 0 -0.20299749969426689 -0.44618036213886209 0 -0.1835737936672682 -0.45108090179194688 0 -0.20299749969426689 -0.44618036213886209 0 -0.17860031537212451 -0.43980242521127932 0 -0.1877493275467795 -0.42824048285181499 0 -0.21903976352125279 -0.4890009125744853 0 -0.21202537190306089 -0.5 0 -0.21009905308156279 -0.48317033316106872 0 -0.21202537190306089 -0.5 0 -0.21009905308156279 -0.48317033316106872 0 -0.1969081072650451 -0.47991482098435712 0 -0.21513919263416389 -0.47727804195808982 0 -0.2077833528705384 -0.4711748939507327 0 -0.21009905308156279 -0.48317033316106872 0 -0.21903976352125279 -0.4890009125744853 0 -0.21513919263416389 -0.47727804195808982 0 -0.21009905308156279 -0.48317033316106872 0 -0.22666027717466969 -0.48087393098390352 0 -0.21313533905507329 -0.46174786196780893 0 -0.21513919263416389 -0.47727804195808982 0 -0.21313533905507329 -0.46174786196780893 0 -0.21513919263416389 -0.47727804195808982 0 -0.2077833528705384 -0.4711748939507327 0 -0.2077833528705384 -0.4711748939507327 0 -0.21009905308156279 -0.48317033316106872 0 -0.1969081072650451 -0.47991482098435712 0 -0.19880803862699559 -0.46741869013364529 0 -0.2077833528705384 -0.4711748939507327 0 -0.1969081072650451 -0.47991482098435712 0 -0.19880803862699559 -0.46741869013364529 0 -0.1969081072650451 -0.47991482098435712 0 -0.18482170387210689 -0.47388493090916772 0 -0.1969081072650451 -0.47991482098435712 0 -0.183865528511856 -0.5 0 -0.18482170387210689 -0.47388493090916772 0 -0.21202537190306089 -0.5 0 -0.1969081072650451 -0.47991482098435712 0 -0.183865528511856 -0.5 0 -0.183865528511856 -0.5 0 -0.15993436672964151 -0.48522047578628452 0 -0.17269921379581221 -0.47773209650806669 0 -0.183865528511856 -0.5 0 -0.15993436672964151 -0.48522047578628452 0 -0.15570568512065119 -0.5 0 -0.15993436672964151 -0.48522047578628452 0 -0.1622353866187575 -0.47050272795998782 0 -0.14826262320825051 -0.47567660465094652 0 -0.15993436672964151 -0.48522047578628452 0 -0.1622353866187575 -0.47050272795998782 0 -0.17269921379581221 -0.47773209650806669 0 -0.1622353866187575 -0.47050272795998782 0 -0.17269921379581221 -0.47773209650806669 0 -0.17670449825615911 -0.46613029792283089 0 -0.17269921379581221 -0.47773209650806669 0 -0.18482170387210689 -0.47388493090916772 0 -0.17670449825615911 -0.46613029792283089 0 -0.183865528511856 -0.5 0 -0.17269921379581221 -0.47773209650806669 0 -0.18482170387210689 -0.47388493090916772 0 -0.18917013796846571 -0.46322739018195858 0 -0.18482170387210689 -0.47388493090916772 0 -0.17670449825615911 -0.46613029792283089 0 -0.1835737936672682 -0.45108090179194688 0 -0.16990818781339179 -0.46107849793848588 0 -0.164872961518512 -0.45583813400081402 0 -0.18917013796846571 -0.46322739018195858 0 -0.17670449825615911 -0.46613029792283089 0 -0.1835737936672682 -0.45108090179194688 0 -0.17670449825615911 -0.46613029792283089 0 -0.1835737936672682 -0.45108090179194688 0 -0.16990818781339179 -0.46107849793848588 0 -0.1835737936672682 -0.45108090179194688 0 -0.17860031537212451 -0.43980242521127932 0 -0.16970778886229229 -0.44745133584280378 0 -0.17860031537212451 -0.43980242521127932 0 -0.16970778886229229 -0.44745133584280378 0 -0.1677976373499056 -0.43635173008887301 0 -0.1835737936672682 -0.45108090179194688 0 -0.16970778886229229 -0.44745133584280378 0 -0.15932374805725319 -0.45589008007446102 0 -0.16970778886229229 -0.44745133584280378 0 -0.1617365637108289 -0.44765910170980422 0 -0.1677976373499056 -0.43635173008887301 0 -0.1617365637108289 -0.44765910170980422 0 -0.15932374805725319 -0.45589008007446102 0 -0.15495141728298531 -0.44863206240752129 0 -0.16970778886229229 -0.44745133584280378 0 -0.1617365637108289 -0.44765910170980422 0 -0.15932374805725319 -0.45589008007446102 0 -0.1617365637108289 -0.44765910170980422 0 -0.15601876113085369 -0.44214238558604962 0 -0.15495141728298531 -0.44863206240752129 0 -0.1617365637108289 -0.44765910170980422 0 -0.15601876113085369 -0.44214238558604962 0 -0.1677976373499056 -0.43635173008887301 0 -0.1835737936672682 -0.45108090179194688 0 -0.15932374805725319 -0.45589008007446102 0 -0.1835737936672682 -0.45108090179194688 0 -0.164872961518512 -0.45583813400081402 0 -0.15932374805725319 -0.45589008007446102 0 -0.1622353866187575 -0.47050272795998782 0 -0.16990818781339179 -0.46107849793848588 0 -0.16215429900626249 -0.46184042801684971 0 -0.1622353866187575 -0.47050272795998782 0 -0.17670449825615911 -0.46613029792283089 0 -0.16990818781339179 -0.46107849793848588 0 -0.16990818781339179 -0.46107849793848588 0 -0.164872961518512 -0.45583813400081402 0 -0.16215429900626249 -0.46184042801684971 0 -0.164872961518512 -0.45583813400081402 0 -0.15932374805725319 -0.45589008007446102 0 -0.16215429900626249 -0.46184042801684971 0 -0.15932374805725319 -0.45589008007446102 0 -0.1567672166521262 -0.46406952562517001 0 -0.16215429900626249 -0.46184042801684971 0 -0.164872961518512 -0.45583813400081402 0 -0.15932374805725319 -0.45589008007446102 0 -0.1622353866187575 -0.47050272795998782 0 -0.1567672166521262 -0.46406952562517001 0 -0.16215429900626249 -0.46184042801684971 0 -0.1622353866187575 -0.47050272795998782 0 -0.1567672166521262 -0.46406952562517001 0 -0.15251673950024919 -0.46855416541959621 0 -0.15932374805725319 -0.45589008007446102 0 -0.13048762499189229 -0.46160875207318752 0 -0.15932374805725319 -0.45589008007446102 0 -0.13241923322612539 -0.45614193268719888 0 -0.13048762499189229 -0.46160875207318752 0 -0.15932374805725319 -0.45589008007446102 0 -0.1567672166521262 -0.46406952562517001 0 -0.14965049835223279 -0.46388104964274279 0 -0.15932374805725319 -0.45589008007446102 0 -0.14716711735397059 -0.45048520193211411 0 -0.13241923322612539 -0.45614193268719888 0 -0.15932374805725319 -0.45589008007446102 0 -0.13241923322612539 -0.45614193268719888 0 -0.15932374805725319 -0.45589008007446102 0 -0.14259348925416671 -0.46386008098029807 0 -0.13048762499189229 -0.46160875207318752 0 -0.15932374805725319 -0.45589008007446102 0 -0.14965049835223279 -0.46388104964274279 0 -0.14259348925416671 -0.46386008098029807 0 -0.1567672166521262 -0.46406952562517001 0 -0.15251673950024919 -0.46855416541959621 0 -0.14965049835223279 -0.46388104964274279 0 -0.15251673950024919 -0.46855416541959621 0 -0.14965049835223279 -0.46388104964274279 0 -0.14566797266987891 -0.46864091921913342 0 -0.14259348925416671 -0.46386008098029807 0 -0.14566797266987891 -0.46864091921913342 0 -0.13736110130861909 -0.4715535183898707 0 -0.14965049835223279 -0.46388104964274279 0 -0.14259348925416671 -0.46386008098029807 0 -0.14566797266987891 -0.46864091921913342 0 -0.15601876113085369 -0.44214238558604962 0 -0.14618844748882481 -0.44001954558519663 0 -0.15440800631846699 -0.43109459008894568 0 -0.15601876113085369 -0.44214238558604962 0 -0.148632283066082 -0.44516624059079429 0 -0.14618844748882481 -0.44001954558519663 0 -0.15932374805725319 -0.45589008007446102 0 -0.15495141728298531 -0.44863206240752129 0 -0.14716711735397059 -0.45048520193211411 0 -0.148632283066082 -0.44516624059079429 0 -0.15495141728298531 -0.44863206240752129 0 -0.14716711735397059 -0.45048520193211411 0 -0.15601876113085369 -0.44214238558604962 0 -0.148632283066082 -0.44516624059079429 0 -0.15495141728298531 -0.44863206240752129 0 -0.148632283066082 -0.44516624059079429 0 -0.14716711735397059 -0.45048520193211411 0 -0.13883567207377581 -0.4445520074430897 0 -0.14618844748882481 -0.44001954558519663 0 -0.13883567207377581 -0.4445520074430897 0 -0.13763627407778001 -0.42991556818764642 0 -0.148632283066082 -0.44516624059079429 0 -0.14618844748882481 -0.44001954558519663 0 -0.13883567207377581 -0.4445520074430897 0 -0.13883567207377581 -0.4445520074430897 0 -0.12781773141979991 -0.44001948796047591 0 -0.13763627407778001 -0.42991556818764642 0 -0.13883567207377581 -0.4445520074430897 0 -0.13015930364297151 -0.44725536930510129 0 -0.13241923322612539 -0.45614193268719888 0 -0.14716711735397059 -0.45048520193211411 0 -0.13883567207377581 -0.4445520074430897 0 -0.13241923322612539 -0.45614193268719888 0 -0.13015930364297151 -0.44725536930510129 0 -0.13241923322612539 -0.45614193268719888 0 -0.12156457785218459 -0.4483080491296404 0 -0.13015930364297151 -0.44725536930510129 0 -0.12781773141979991 -0.44001948796047591 0 -0.12156457785218459 -0.4483080491296404 0 -0.13883567207377581 -0.4445520074430897 0 -0.13015930364297151 -0.44725536930510129 0 -0.12781773141979991 -0.44001948796047591 0 -0.14259348925416671 -0.46386008098029807 0 -0.13048762499189229 -0.46160875207318752 0 -0.13736110130861909 -0.4715535183898707 0 -0.13048762499189229 -0.46160875207318752 0 -0.12568774758226359 -0.47361990141218541 0 -0.13736110130861909 -0.4715535183898707 0 -0.12568774758226359 -0.47361990141218541 0 -0.13736110130861909 -0.4715535183898707 0 -0.13864853893102841 -0.48587636301229309 0 -0.12568774758226359 -0.47361990141218541 0 -0.12540164004618509 -0.48559118387036998 0 -0.13864853893102841 -0.48587636301229309 0 -0.12540164004618509 -0.48559118387036998 0 -0.12754584172944641 -0.5 0 -0.13864853893102841 -0.48587636301229309 0 -0.15993436672964151 -0.48522047578628452 0 -0.13864853893102841 -0.48587636301229309 0 -0.15570568512065119 -0.5 0 -0.12754584172944641 -0.5 0 -0.13864853893102841 -0.48587636301229309 0 -0.15570568512065119 -0.5 0 -0.15993436672964151 -0.48522047578628452 0 -0.13864853893102841 -0.48587636301229309 0 -0.14826262320825051 -0.47567660465094652 0 -0.1622353866187575 -0.47050272795998782 0 -0.15251673950024919 -0.46855416541959621 0 -0.14826262320825051 -0.47567660465094652 0 -0.15251673950024919 -0.46855416541959621 0 -0.14566797266987891 -0.46864091921913342 0 -0.14826262320825051 -0.47567660465094652 0 -0.14566797266987891 -0.46864091921913342 0 -0.13736110130861909 -0.4715535183898707 0 -0.14826262320825051 -0.47567660465094652 0 -0.13736110130861909 -0.4715535183898707 0 -0.13864853893102841 -0.48587636301229309 0 -0.14826262320825051 -0.47567660465094652 0 -0.15271635663099381 -0.40551252670419868 0 -0.14342576483157091 -0.39233604756456208 0 -0.13519059213181819 -0.40979141842070149 0 -0.15271635663099381 -0.40551252670419868 0 -0.14342576483157091 -0.39233604756456208 0 -0.16492665850560939 -0.39285723622703839 0 -0.14342576483157091 -0.39233604756456208 0 -0.13258590425827241 -0.38150913525831909 0 -0.14922753474349509 -0.37432543009427388 0 -0.14342576483157091 -0.39233604756456208 0 -0.16492665850560939 -0.39285723622703839 0 -0.14922753474349509 -0.37432543009427388 0 -0.14342576483157091 -0.39233604756456208 0 -0.13258590425827241 -0.38150913525831909 0 -0.1295680225859088 -0.39517526054694602 0 -0.13258590425827241 -0.38150913525831909 0 -0.1295680225859088 -0.39517526054694602 0 -0.11662556475979249 -0.3889689481425978 0 -0.1295680225859088 -0.39517526054694602 0 -0.13519059213181819 -0.40979141842070149 0 -0.1183466706969695 -0.4046897122757972 0 -0.14342576483157091 -0.39233604756456208 0 -0.1295680225859088 -0.39517526054694602 0 -0.13519059213181819 -0.40979141842070149 0 -0.13519059213181819 -0.40979141842070149 0 -0.13763627407778001 -0.42991556818764642 0 -0.14643890077555571 -0.41901995926967839 0 -0.13519059213181819 -0.40979141842070149 0 -0.13763627407778001 -0.42991556818764642 0 -0.11933750183346691 -0.42371728314685853 0 -0.12781773141979991 -0.44001948796047591 0 -0.13763627407778001 -0.42991556818764642 0 -0.11933750183346691 -0.42371728314685853 0 -0.15440800631846699 -0.43109459008894568 0 -0.14643890077555571 -0.41901995926967839 0 -0.16629087090109879 -0.41688725339925181 0 -0.14618844748882481 -0.44001954558519663 0 -0.13763627407778001 -0.42991556818764642 0 -0.15440800631846699 -0.43109459008894568 0 -0.13763627407778001 -0.42991556818764642 0 -0.15440800631846699 -0.43109459008894568 0 -0.14643890077555571 -0.41901995926967839 0 -0.15271635663099381 -0.40551252670419868 0 -0.14643890077555571 -0.41901995926967839 0 -0.16629087090109879 -0.41688725339925181 0 -0.15271635663099381 -0.40551252670419868 0 -0.13519059213181819 -0.40979141842070149 0 -0.14643890077555571 -0.41901995926967839 0 -0.15440800631846699 -0.43109459008894568 0 -0.16629087090109879 -0.41688725339925181 0 -0.1677976373499056 -0.43635173008887301 0 -0.15601876113085369 -0.44214238558604962 0 -0.15440800631846699 -0.43109459008894568 0 -0.1677976373499056 -0.43635173008887301 0 -0.17860031537212451 -0.43980242521127932 0 -0.1677976373499056 -0.43635173008887301 0 -0.1877493275467795 -0.42824048285181499 0 -0.16629087090109879 -0.41688725339925181 0 -0.1677976373499056 -0.43635173008887301 0 -0.1877493275467795 -0.42824048285181499 0 -0.16629087090109879 -0.41688725339925181 0 -0.18204123566896091 -0.40621737687928189 0 -0.1877493275467795 -0.42824048285181499 0 -0.18204123566896091 -0.40621737687928189 0 -0.16492665850560939 -0.39285723622703839 0 -0.18798659128601511 -0.38858883091937352 0 -0.16629087090109879 -0.41688725339925181 0 -0.18204123566896091 -0.40621737687928189 0 -0.16492665850560939 -0.39285723622703839 0 -0.15271635663099381 -0.40551252670419868 0 -0.16629087090109879 -0.41688725339925181 0 -0.16492665850560939 -0.39285723622703839 0 -0.16492665850560939 -0.39285723622703839 0 -0.16719676855378879 -0.36457735049645401 0 -0.14922753474349509 -0.37432543009427388 0 -0.16492665850560939 -0.39285723622703839 0 -0.18798659128601511 -0.38858883091937352 0 -0.16719676855378879 -0.36457735049645401 0 -0.18798659128601511 -0.38858883091937352 0 -0.20325273010530179 -0.40451308099893118 0 -0.22019203930892309 -0.37705437049500928 0 -0.18798659128601511 -0.38858883091937352 0 -0.22019203930892309 -0.37705437049500928 0 -0.19369440393135601 -0.37081586049573162 0 -0.18204123566896091 -0.40621737687928189 0 -0.18798659128601511 -0.38858883091937352 0 -0.20325273010530179 -0.40451308099893118 0 -0.20325273010530179 -0.40451308099893118 0 -0.22019203930892309 -0.37705437049500928 0 -0.2292826606360138 -0.39783527403463942 0 -0.20299749969426689 -0.44618036213886209 0 -0.1877493275467795 -0.42824048285181499 0 -0.20299749969426689 -0.44618036213886209 0 -0.1877493275467795 -0.42824048285181499 0 -0.2109191015151432 -0.42399721624263897 0 -0.18204123566896091 -0.40621737687928189 0 -0.20325273010530179 -0.40451308099893118 0 -0.1877493275467795 -0.42824048285181499 0 -0.20325273010530179 -0.40451308099893118 0 -0.1877493275467795 -0.42824048285181499 0 -0.2109191015151432 -0.42399721624263897 0 -0.20325273010530179 -0.40451308099893118 0 -0.2109191015151432 -0.42399721624263897 0 -0.2292826606360138 -0.39783527403463942 0 -0.22332793404478521 -0.44077831438793358 0 -0.20299749969426689 -0.44618036213886209 0 -0.2109191015151432 -0.42399721624263897 0 -0.22332793404478521 -0.44077831438793358 0 -0.2109191015151432 -0.42399721624263897 0 -0.23127372188715181 -0.42148674523733182 0 -0.2109191015151432 -0.42399721624263897 0 -0.23127372188715181 -0.42148674523733182 0 -0.2292826606360138 -0.39783527403463942 0 -0.25158065001821922 -0.41861590824496703 0 -0.23127372188715181 -0.42148674523733182 0 -0.2292826606360138 -0.39783527403463942 0 -0.25243119761937749 -0.44677845203781857 0 -0.22332793404478521 -0.44077831438793358 0 -0.23127372188715181 -0.42148674523733182 0 -0.25158065001821922 -0.41861590824496703 0 -0.25243119761937749 -0.44677845203781857 0 -0.23127372188715181 -0.42148674523733182 0 -0.22019203930892309 -0.37705437049500928 0 -0.24668967468649011 -0.38329288049428689 0 -0.23583820077882409 -0.36999107527126363 0 -0.22019203930892309 -0.37705437049500928 0 -0.2292826606360138 -0.39783527403463942 0 -0.24668967468649011 -0.38329288049428689 0 -0.22019203930892309 -0.37705437049500928 0 -0.24668967468649011 -0.38329288049428689 0 -0.25073010241706101 -0.39045336445211543 0 -0.25158065001821922 -0.41861590824496703 0 -0.2292826606360138 -0.39783527403463942 0 -0.25073010241706101 -0.39045336445211543 0 -0.2292826606360138 -0.39783527403463942 0 -0.24668967468649011 -0.38329288049428689 0 -0.25338974013739751 -0.37479073521783091 0 -0.24668967468649011 -0.38329288049428689 0 -0.24643703795879759 -0.37108148237203897 0 -0.24668967468649011 -0.38329288049428689 0 -0.24643703795879759 -0.37108148237203897 0 -0.23583820077882409 -0.36999107527126363 0 -0.24301484269575641 -0.36089181435896811 0 -0.23583820077882409 -0.36999107527126363 0 -0.23553665096475751 -0.35181195722521269 0 -0.25325273149551991 -0.36644090651784578 0 -0.24643703795879759 -0.37108148237203897 0 -0.24301484269575641 -0.36089181435896811 0 -0.24643703795879759 -0.37108148237203897 0 -0.24301484269575641 -0.36089181435896811 0 -0.23583820077882409 -0.36999107527126363 0 -0.23583820077882409 -0.36999107527126363 0 -0.22286703346707601 -0.35755236338959301 0 -0.23553665096475751 -0.35181195722521269 0 -0.22019203930892309 -0.37705437049500928 0 -0.23583820077882409 -0.36999107527126363 0 -0.22286703346707601 -0.35755236338959301 0 -0.2246226841813509 -0.34388451065603859 0 -0.22286703346707601 -0.35755236338959301 0 -0.21435222238293641 -0.34299747063018499 0 -0.2246226841813509 -0.34388451065603859 0 -0.22286703346707601 -0.35755236338959301 0 -0.23553665096475751 -0.35181195722521269 0 -0.23553665096475751 -0.35181195722521269 0 -0.24818721717168121 -0.35052131385828428 0 -0.22639474495033621 -0.33502522916978 0 -0.25325273149551991 -0.36644090651784578 0 -0.24301484269575641 -0.36089181435896811 0 -0.24818721717168121 -0.35052131385828428 0 -0.24301484269575641 -0.36089181435896811 0 -0.23553665096475751 -0.35181195722521269 0 -0.24818721717168121 -0.35052131385828428 0 -0.25060206739424878 -0.33718881992062411 0 -0.22639474495033621 -0.33502522916978 0 -0.25060206739424878 -0.33718881992062411 0 -0.24818721717168121 -0.35052131385828428 0 -0.22639474495033621 -0.33502522916978 0 -0.24818721717168121 -0.35052131385828428 0 -0.22639474495033621 -0.33502522916978 0 -0.25060206739424878 -0.33718881992062411 0 -0.2272716900726571 -0.31845919478417761 0 -0.22639474495033621 -0.33502522916978 0 -0.25060206739424878 -0.33718881992062411 0 -0.24666961817122871 -0.31346571522936922 0 -0.2272716900726571 -0.31845919478417761 0 -0.25060206739424878 -0.33718881992062411 0 -0.2272716900726571 -0.31845919478417761 0 -0.2272716900726571 -0.31845919478417761 0 -0.22639474495033621 -0.33502522916978 0 -0.2139860101417119 -0.32365054651871461 0 -0.2246226841813509 -0.34388451065603859 0 -0.23553665096475751 -0.35181195722521269 0 -0.22639474495033621 -0.33502522916978 0 -0.22639474495033621 -0.33502522916978 0 -0.22449911420062521 -0.33485580237065171 0 -0.20668504768599441 -0.32101015392311788 0 -0.22639474495033621 -0.33502522916978 0 -0.22449911420062521 -0.33485580237065171 0 -0.2246226841813509 -0.34388451065603859 0 -0.22449911420062521 -0.33485580237065171 0 -0.21435222238293641 -0.34299747063018499 0 -0.2246226841813509 -0.34388451065603859 0 -0.22639474495033621 -0.33502522916978 0 -0.22449911420062521 -0.33485580237065171 0 -0.22449911420062521 -0.33485580237065171 0 -0.21435222238293641 -0.34299747063018499 0 -0.20668504768599441 -0.32101015392311788 0 -0.21435222238293641 -0.34299747063018499 0 -0.20668504768599441 -0.32101015392311788 0 -0.20012420737611269 -0.33989082470969328 0 -0.2139860101417119 -0.32365054651871461 0 -0.20668504768599441 -0.32101015392311788 0 -0.2039413127510655 -0.29972956964773079 0 -0.2272716900726571 -0.31845919478417761 0 -0.2139860101417119 -0.32365054651871461 0 -0.2039413127510655 -0.29972956964773079 0 -0.22639474495033621 -0.33502522916978 0 -0.2139860101417119 -0.32365054651871461 0 -0.20668504768599441 -0.32101015392311788 0 -0.22639474495033621 -0.33502522916978 0 -0.20668504768599441 -0.32101015392311788 0 -0.20668504768599441 -0.32101015392311788 0 -0.18697535042165339 -0.30699507867645448 0 -0.1868820220200407 -0.3276550968471395 0 -0.20668504768599441 -0.32101015392311788 0 -0.18697535042165339 -0.30699507867645448 0 -0.20668504768599441 -0.32101015392311788 0 -0.20012420737611269 -0.33989082470969328 0 -0.1868820220200407 -0.3276550968471395 0 -0.20012420737611269 -0.33989082470969328 0 -0.18528198072097371 -0.35146251036026849 0 -0.1868820220200407 -0.3276550968471395 0 -0.20012420737611269 -0.33989082470969328 0 -0.20608531453122961 -0.35662890001341341 0 -0.18528198072097371 -0.35146251036026849 0 -0.19369440393135601 -0.37081586049573162 0 -0.20608531453122961 -0.35662890001341341 0 -0.18528198072097371 -0.35146251036026849 0 -0.22019203930892309 -0.37705437049500928 0 -0.19369440393135601 -0.37081586049573162 0 -0.20608531453122961 -0.35662890001341341 0 -0.22019203930892309 -0.37705437049500928 0 -0.19369440393135601 -0.37081586049573162 0 -0.22019203930892309 -0.37705437049500928 0 -0.22286703346707601 -0.35755236338959301 0 -0.20608531453122961 -0.35662890001341341 0 -0.21435222238293641 -0.34299747063018499 0 -0.20012420737611269 -0.33989082470969328 0 -0.20608531453122961 -0.35662890001341341 0 -0.22286703346707601 -0.35755236338959301 0 -0.21435222238293641 -0.34299747063018499 0 -0.20608531453122961 -0.35662890001341341 0 -0.25170345783653902 -0.26409172820614801 0 -0.22211438525390581 -0.26831731389415958 0 -0.22719251964397941 -0.23902000411637531 0 -0.25170345783653902 -0.26409172820614801 0 -0.22211438525390581 -0.26831731389415958 0 -0.23316751146410999 -0.2925166188162559 0 -0.25170345783653902 -0.26409172820614801 0 -0.22211438525390581 -0.26831731389415958 0 -0.25884149047467703 -0.29948976441177289 0 -0.25170345783653902 -0.26409172820614801 0 -0.23316751146410999 -0.2925166188162559 0 -0.22211438525390581 -0.26831731389415958 0 -0.23316751146410999 -0.2925166188162559 0 -0.2039413127510655 -0.29972956964773079 0 -0.24666961817122871 -0.31346571522936922 0 -0.2272716900726571 -0.31845919478417761 0 -0.23316751146410999 -0.2925166188162559 0 -0.25884149047467703 -0.29948976441177289 0 -0.24666961817122871 -0.31346571522936922 0 -0.23316751146410999 -0.2925166188162559 0 -0.2272716900726571 -0.31845919478417761 0 -0.23316751146410999 -0.2925166188162559 0 -0.2039413127510655 -0.29972956964773079 0 -0.2272716900726571 -0.31845919478417761 0 -0.2039413127510655 -0.29972956964773079 0 -0.2139860101417119 -0.32365054651871461 0 -0.2039413127510655 -0.29972956964773079 0 -0.20668504768599441 -0.32101015392311788 0 -0.2039413127510655 -0.29972956964773079 0 -0.19711120307616939 -0.30504324985252879 0 -0.20668504768599441 -0.32101015392311788 0 -0.19711120307616939 -0.30504324985252879 0 -0.18697535042165339 -0.30699507867645448 0 -0.19711120307616939 -0.30504324985252879 0 -0.19058148174592729 -0.29751159770483743 0 -0.18697535042165339 -0.30699507867645448 0 -0.19711120307616939 -0.30504324985252879 0 -0.19058148174592729 -0.29751159770483743 0 -0.20059963665390679 -0.29704687233150401 0 -0.2039413127510655 -0.29972956964773079 0 -0.19711120307616939 -0.30504324985252879 0 -0.20059963665390679 -0.29704687233150401 0 -0.2039413127510655 -0.29972956964773079 0 -0.20059963665390679 -0.29704687233150401 0 -0.2039413127510655 -0.29972956964773079 0 -0.20059963665390679 -0.29704687233150401 0 -0.19252531267127251 -0.27254289958217098 0 -0.20059963665390679 -0.29704687233150401 0 -0.19252531267127251 -0.27254289958217098 0 -0.18461097401513049 -0.28945353125751988 0 -0.19058148174592729 -0.29751159770483743 0 -0.20059963665390679 -0.29704687233150401 0 -0.18461097401513049 -0.28945353125751988 0 -0.2039413127510655 -0.29972956964773079 0 -0.19252531267127251 -0.27254289958217098 0 -0.22211438525390581 -0.26831731389415958 0 -0.2039413127510655 -0.29972956964773079 0 -0.19252531267127251 -0.27254289958217098 0 -0.22211438525390581 -0.26831731389415958 0 -0.19252531267127251 -0.27254289958217098 0 -0.19252531267127251 -0.27254289958217098 0 -0.1811833936331812 -0.24553265005136821 0 -0.20599693829385629 -0.2419653887585361 0 -0.22211438525390581 -0.26831731389415958 0 -0.19252531267127251 -0.27254289958217098 0 -0.20599693829385629 -0.2419653887585361 0 -0.19252531267127251 -0.27254289958217098 0 -0.16530193415478339 -0.25707584513117598 0 -0.1811833936331812 -0.24553265005136821 0 -0.19252531267127251 -0.27254289958217098 0 -0.1811833936331812 -0.24553265005136821 0 -0.19252531267127251 -0.27254289958217098 0 -0.17004063428212199 -0.27575391388264991 0 -0.18461097401513049 -0.28945353125751988 0 -0.19252531267127251 -0.27254289958217098 0 -0.17004063428212199 -0.27575391388264991 0 -0.19252531267127251 -0.27254289958217098 0 -0.16530193415478339 -0.25707584513117598 0 -0.17004063428212199 -0.27575391388264991 0 -0.17004063428212199 -0.27575391388264991 0 -0.1526100913130124 -0.26673142784814963 0 -0.14755595589297141 -0.27896492818312801 0 -0.16530193415478339 -0.25707584513117598 0 -0.17004063428212199 -0.27575391388264991 0 -0.1526100913130124 -0.26673142784814963 0 -0.17004063428212199 -0.27575391388264991 0 -0.14755595589297141 -0.27896492818312801 0 -0.17004063428212199 -0.27575391388264991 0 -0.16726565315731259 -0.29298000342979108 0 -0.14755595589297141 -0.27896492818312801 0 -0.16726565315731259 -0.29298000342979108 0 -0.14755595589297141 -0.27896492818312801 0 -0.17004063428212199 -0.27575391388264991 0 -0.16726565315731259 -0.29298000342979108 0 -0.18461097401513049 -0.28945353125751988 0 -0.16726565315731259 -0.29298000342979108 0 -0.18461097401513049 -0.28945353125751988 0 -0.18697535042165339 -0.30699507867645448 0 -0.19058148174592729 -0.29751159770483743 0 -0.18461097401513049 -0.28945353125751988 0 -0.18697535042165339 -0.30699507867645448 0 -0.16726565315731259 -0.29298000342979108 0 -0.18697535042165339 -0.30699507867645448 0 -0.1670837535765175 -0.31601332304558599 0 -0.16726565315731259 -0.29298000342979108 0 -0.18697535042165339 -0.30699507867645448 0 -0.16726565315731259 -0.29298000342979108 0 -0.1458433281273645 -0.30507267541247612 0 -0.1670837535765175 -0.31601332304558599 0 -0.1458433281273645 -0.30507267541247612 0 -0.1345039384160536 -0.29547900280067507 0 -0.14355576635054049 -0.29070871927088537 0 -0.12754619973900011 -0.31030823668443558 0 -0.1345039384160536 -0.29547900280067507 0 -0.1191461166897551 -0.29075132242055929 0 -0.1458433281273645 -0.30507267541247612 0 -0.12754619973900011 -0.31030823668443558 0 -0.1345039384160536 -0.29547900280067507 0 -0.1345039384160536 -0.29547900280067507 0 -0.136428281173608 -0.28055406021501889 0 -0.1191461166897551 -0.29075132242055929 0 -0.1345039384160536 -0.29547900280067507 0 -0.14355576635054049 -0.29070871927088537 0 -0.136428281173608 -0.28055406021501889 0 -0.16726565315731259 -0.29298000342979108 0 -0.1458433281273645 -0.30507267541247612 0 -0.14355576635054049 -0.29070871927088537 0 -0.16726565315731259 -0.29298000342979108 0 -0.14355576635054049 -0.29070871927088537 0 -0.14755595589297141 -0.27896492818312801 0 -0.14355576635054049 -0.29070871927088537 0 -0.14755595589297141 -0.27896492818312801 0 -0.136428281173608 -0.28055406021501889 0 -0.1526100913130124 -0.26673142784814963 0 -0.14755595589297141 -0.27896492818312801 0 -0.13412286442209201 -0.26941299112216383 0 -0.14755595589297141 -0.27896492818312801 0 -0.13412286442209201 -0.26941299112216383 0 -0.14755595589297141 -0.27896492818312801 0 -0.136428281173608 -0.28055406021501889 0 -0.136428281173608 -0.28055406021501889 0 -0.13412286442209201 -0.26941299112216383 0 -0.1191461166897551 -0.29075132242055929 0 -0.13412286442209201 -0.26941299112216383 0 -0.1191461166897551 -0.29075132242055929 0 -0.14755595589297141 -0.27896492818312801 0 -0.136428281173608 -0.28055406021501889 0 -0.13412286442209201 -0.26941299112216383 0 -0.1325799788678669 -0.25567001283357299 0 -0.14602906781309299 -0.2524494609216309 0 -0.12970658661291981 -0.24250230616980631 0 -0.13412286442209201 -0.26941299112216383 0 -0.14602906781309299 -0.2524494609216309 0 -0.13412286442209201 -0.26941299112216383 0 -0.1325799788678669 -0.25567001283357299 0 -0.14602906781309299 -0.2524494609216309 0 -0.1325799788678669 -0.25567001283357299 0 -0.11909235651462161 -0.25872517098502051 0 -0.12970658661291981 -0.24250230616980631 0 -0.13412286442209201 -0.26941299112216383 0 -0.11909235651462161 -0.25872517098502051 0 -0.13412286442209201 -0.26941299112216383 0 -0.1325799788678669 -0.25567001283357299 0 -0.11909235651462161 -0.25872517098502051 0 -0.16530193415478339 -0.25707584513117598 0 -0.1526100913130124 -0.26673142784814963 0 -0.14602906781309299 -0.2524494609216309 0 -0.1526100913130124 -0.26673142784814963 0 -0.13412286442209201 -0.26941299112216383 0 -0.14602906781309299 -0.2524494609216309 0 -0.16719676855378879 -0.36457735049645401 0 -0.17000992425515921 -0.3369649013633122 0 -0.1498805689060082 -0.3513183438190205 0 -0.19369440393135601 -0.37081586049573162 0 -0.16719676855378879 -0.36457735049645401 0 -0.19369440393135601 -0.37081586049573162 0 -0.16719676855378879 -0.36457735049645401 0 -0.18528198072097371 -0.35146251036026849 0 -0.18798659128601511 -0.38858883091937352 0 -0.19369440393135601 -0.37081586049573162 0 -0.16719676855378879 -0.36457735049645401 0 -0.16719676855378879 -0.36457735049645401 0 -0.18528198072097371 -0.35146251036026849 0 -0.17000992425515921 -0.3369649013633122 0 -0.18528198072097371 -0.35146251036026849 0 -0.1868820220200407 -0.3276550968471395 0 -0.17000992425515921 -0.3369649013633122 0 -0.1868820220200407 -0.3276550968471395 0 -0.1670837535765175 -0.31601332304558599 0 -0.17000992425515921 -0.3369649013633122 0 -0.18697535042165339 -0.30699507867645448 0 -0.1868820220200407 -0.3276550968471395 0 -0.1670837535765175 -0.31601332304558599 0 -0.1670837535765175 -0.31601332304558599 0 -0.17000992425515921 -0.3369649013633122 0 -0.1433879651093109 -0.32908143712584131 0 -0.17000992425515921 -0.3369649013633122 0 -0.1433879651093109 -0.32908143712584131 0 -0.1498805689060082 -0.3513183438190205 0 -0.1458433281273645 -0.30507267541247612 0 -0.1670837535765175 -0.31601332304558599 0 -0.1433879651093109 -0.32908143712584131 0 -0.1458433281273645 -0.30507267541247612 0 -0.12754619973900011 -0.31030823668443558 0 -0.1433879651093109 -0.32908143712584131 0 -0.12754619973900011 -0.31030823668443558 0 -0.1433879651093109 -0.32908143712584131 0 -0.1213777932486355 -0.33315900817521382 0 -0.1433879651093109 -0.32908143712584131 0 -0.12515431825997089 -0.35195385293515208 0 -0.1213777932486355 -0.33315900817521382 0 -0.12515431825997089 -0.35195385293515208 0 -0.1498805689060082 -0.3513183438190205 0 -0.13568392715460051 -0.36477342612749719 0 -0.1433879651093109 -0.32908143712584131 0 -0.12515431825997089 -0.35195385293515208 0 -0.1498805689060082 -0.3513183438190205 0 -0.1498805689060082 -0.3513183438190205 0 -0.14922753474349509 -0.37432543009427388 0 -0.13568392715460051 -0.36477342612749719 0 -0.16719676855378879 -0.36457735049645401 0 -0.1498805689060082 -0.3513183438190205 0 -0.14922753474349509 -0.37432543009427388 0 -0.13258590425827241 -0.38150913525831909 0 -0.14922753474349509 -0.37432543009427388 0 -0.13568392715460051 -0.36477342612749719 0 -0.12515431825997089 -0.35195385293515208 0 -0.13568392715460051 -0.36477342612749719 0 -0.1209846114742668 -0.37347569907403821 0 -0.13258590425827241 -0.38150913525831909 0 -0.13568392715460051 -0.36477342612749719 0 -0.1209846114742668 -0.37347569907403821 0 -0.12515431825997089 -0.35195385293515208 0 -0.1209846114742668 -0.37347569907403821 0 -0.1053702347052006 -0.36687799583399339 0 -0.1053702347052006 -0.36687799583399339 0 -0.091317240238340897 -0.37481046074657443 0 -0.1017118879446318 -0.38310948283211771 0 -0.1053702347052006 -0.36687799583399339 0 -0.091317240238340897 -0.37481046074657443 0 -0.091600236588382414 -0.35709864970113969 0 -0.1209846114742668 -0.37347569907403821 0 -0.1053702347052006 -0.36687799583399339 0 -0.1017118879446318 -0.38310948283211771 0 -0.1055823733684382 -0.34902024904115519 0 -0.089192621225080954 -0.33342798501734988 0 -0.091600236588382414 -0.35709864970113969 0 -0.1053702347052006 -0.36687799583399339 0 -0.1055823733684382 -0.34902024904115519 0 -0.091600236588382414 -0.35709864970113969 0 -0.12515431825997089 -0.35195385293515208 0 -0.1053702347052006 -0.36687799583399339 0 -0.1055823733684382 -0.34902024904115519 0 -0.12515431825997089 -0.35195385293515208 0 -0.1055823733684382 -0.34902024904115519 0 -0.1213777932486355 -0.33315900817521382 0 -0.1055823733684382 -0.34902024904115519 0 -0.1213777932486355 -0.33315900817521382 0 -0.1050805391998932 -0.3319242239881684 0 -0.1213777932486355 -0.33315900817521382 0 -0.1050805391998932 -0.3319242239881684 0 -0.1041693689574182 -0.31208965371895481 0 -0.12754619973900011 -0.31030823668443558 0 -0.1213777932486355 -0.33315900817521382 0 -0.1041693689574182 -0.31208965371895481 0 -0.1050805391998932 -0.3319242239881684 0 -0.089192621225080954 -0.33342798501734988 0 -0.1041693689574182 -0.31208965371895481 0 -0.089192621225080954 -0.33342798501734988 0 -0.1041693689574182 -0.31208965371895481 0 -0.1055823733684382 -0.34902024904115519 0 -0.1050805391998932 -0.3319242239881684 0 -0.089192621225080954 -0.33342798501734988 0 -0.1055823733684382 -0.34902024904115519 0 -0.089192621225080954 -0.33342798501734988 0 -0.089192621225080954 -0.33342798501734988 0 -0.077765623426185315 -0.34970876033230108 0 -0.089192621225080954 -0.33342798501734988 0 -0.1041693689574182 -0.31208965371895481 0 -0.086657791193898756 -0.30805251980723242 0 -0.089192621225080954 -0.33342798501734988 0 -0.07060600577420921 -0.31574575206569139 0 -0.086657791193898756 -0.30805251980723242 0 -0.089192621225080954 -0.33342798501734988 0 -0.07060600577420921 -0.31574575206569139 0 -0.089192621225080954 -0.33342798501734988 0 -0.07060600577420921 -0.31574575206569139 0 -0.064121613040022507 -0.33466747713452288 0 -0.089192621225080954 -0.33342798501734988 0 -0.064121613040022507 -0.33466747713452288 0 -0.077765623426185315 -0.34970876033230108 0 -0.064121613040022507 -0.33466747713452288 0 -0.077765623426185315 -0.34970876033230108 0 -0.060812792032516633 -0.35007619191394879 0 -0.077765623426185315 -0.34970876033230108 0 -0.067849407017920832 -0.36139284934496518 0 -0.060812792032516633 -0.35007619191394879 0 -0.069395642857062997 -0.37258465187085521 0 -0.053612092178520573 -0.36398236059787442 0 -0.066508959857107197 -0.38733520903566881 0 -0.077765623426185315 -0.34970876033230108 0 -0.067849407017920832 -0.36139284934496518 0 -0.079705618939622705 -0.36760814190273239 0 -0.067849407017920832 -0.36139284934496518 0 -0.069395642857062997 -0.37258465187085521 0 -0.053612092178520573 -0.36398236059787442 0 -0.067849407017920832 -0.36139284934496518 0 -0.069395642857062997 -0.37258465187085521 0 -0.079705618939622705 -0.36760814190273239 0 -0.069395642857062997 -0.37258465187085521 0 -0.079705618939622705 -0.36760814190273239 0 -0.07930213629214368 -0.38260469847303491 0 -0.079705618939622705 -0.36760814190273239 0 -0.091317240238340897 -0.37481046074657443 0 -0.091600236588382414 -0.35709864970113969 0 -0.077765623426185315 -0.34970876033230108 0 -0.079705618939622705 -0.36760814190273239 0 -0.091600236588382414 -0.35709864970113969 0 -0.089192621225080954 -0.33342798501734988 0 -0.077765623426185315 -0.34970876033230108 0 -0.091600236588382414 -0.35709864970113969 0 -0.098290683877032076 -0.26249284091006192 0 -0.11909235651462161 -0.25872517098502051 0 -0.1040618486071499 -0.24803735084787901 0 -0.098290683877032076 -0.26249284091006192 0 -0.11909235651462161 -0.25872517098502051 0 -0.10756592309362489 -0.2749659878685129 0 -0.098290683877032076 -0.26249284091006192 0 -0.085946164471186026 -0.25424244442140992 0 -0.1040618486071499 -0.24803735084787901 0 -0.11909235651462161 -0.25872517098502051 0 -0.1040618486071499 -0.24803735084787901 0 -0.11909235651462161 -0.25872517098502051 0 -0.1199818151800234 -0.27346386809906409 0 -0.10756592309362489 -0.2749659878685129 0 -0.1199818151800234 -0.27346386809906409 0 -0.10756592309362489 -0.2749659878685129 0 -0.1191461166897551 -0.29075132242055929 0 -0.13412286442209201 -0.26941299112216383 0 -0.1199818151800234 -0.27346386809906409 0 -0.1191461166897551 -0.29075132242055929 0 -0.13412286442209201 -0.26941299112216383 0 -0.11909235651462161 -0.25872517098502051 0 -0.1199818151800234 -0.27346386809906409 0 -0.098290683877032076 -0.26249284091006192 0 -0.10756592309362489 -0.2749659878685129 0 -0.088310655947722 -0.2744371524352282 0 -0.10756592309362489 -0.2749659878685129 0 -0.096521434432794498 -0.29154988489976241 0 -0.088310655947722 -0.2744371524352282 0 -0.10756592309362489 -0.2749659878685129 0 -0.096521434432794498 -0.29154988489976241 0 -0.1191461166897551 -0.29075132242055929 0 -0.1191461166897551 -0.29075132242055929 0 -0.1041693689574182 -0.31208965371895481 0 -0.12754619973900011 -0.31030823668443558 0 -0.1191461166897551 -0.29075132242055929 0 -0.1041693689574182 -0.31208965371895481 0 -0.096521434432794498 -0.29154988489976241 0 -0.1041693689574182 -0.31208965371895481 0 -0.086657791193898756 -0.30805251980723242 0 -0.096521434432794498 -0.29154988489976241 0 -0.1191461166897551 -0.29075132242055929 0 -0.1041693689574182 -0.31208965371895481 0 -0.07060600577420921 -0.31574575206569139 0 -0.086657791193898756 -0.30805251980723242 0 -0.073757975848705123 -0.2905560229617703 0 -0.07060600577420921 -0.31574575206569139 0 -0.073757975848705123 -0.2905560229617703 0 -0.052019390323339521 -0.29806351911403067 0 -0.096521434432794498 -0.29154988489976241 0 -0.073757975848705123 -0.2905560229617703 0 -0.088310655947722 -0.2744371524352282 0 -0.096521434432794498 -0.29154988489976241 0 -0.086657791193898756 -0.30805251980723242 0 -0.073757975848705123 -0.2905560229617703 0 -0.088310655947722 -0.2744371524352282 0 -0.068866202069689852 -0.26633394354485129 0 -0.073757975848705123 -0.2905560229617703 0 -0.068866202069689852 -0.26633394354485129 0 -0.052526843465688408 -0.28020549378312382 0 -0.073757975848705123 -0.2905560229617703 0 -0.088310655947722 -0.2744371524352282 0 -0.068866202069689852 -0.26633394354485129 0 -0.068866202069689852 -0.26633394354485129 0 -0.085946164471186026 -0.25424244442140992 0 -0.063933618743594392 -0.23909247179508131 0 -0.098290683877032076 -0.26249284091006192 0 -0.088310655947722 -0.2744371524352282 0 -0.085946164471186026 -0.25424244442140992 0 -0.088310655947722 -0.2744371524352282 0 -0.068866202069689852 -0.26633394354485129 0 -0.085946164471186026 -0.25424244442140992 0 -0.031780871404022477 -0.26468181583675893 0 -0.049421748191657872 -0.25823073465447438 0 -0.030258962198398999 -0.25024490698356061 0 -0.031780871404022477 -0.26468181583675893 0 -0.049421748191657872 -0.25823073465447438 0 -0.03766000642806374 -0.27374212615637078 0 -0.049421748191657872 -0.25823073465447438 0 -0.030258962198398999 -0.25024490698356061 0 -0.068866202069689852 -0.26633394354485129 0 -0.049421748191657872 -0.25823073465447438 0 -0.048788462108414421 -0.26996548910403168 0 -0.068866202069689852 -0.26633394354485129 0 -0.049421748191657872 -0.25823073465447438 0 -0.063933618743594392 -0.23909247179508131 0 -0.068866202069689852 -0.26633394354485129 0 -0.049421748191657872 -0.25823073465447438 0 -0.068866202069689852 -0.26633394354485129 0 -0.048788462108414421 -0.26996548910403168 0 -0.052526843465688408 -0.28020549378312382 0 -0.048788462108414421 -0.26996548910403168 0 -0.052526843465688408 -0.28020549378312382 0 -0.03766000642806374 -0.27374212615637078 0 -0.052526843465688408 -0.28020549378312382 0 -0.03766000642806374 -0.27374212615637078 0 -0.03343277487246981 -0.28038128616237001 0 -0.031780871404022477 -0.26468181583675893 0 -0.03766000642806374 -0.27374212615637078 0 -0.03343277487246981 -0.28038128616237001 0 -0.049421748191657872 -0.25823073465447438 0 -0.048788462108414421 -0.26996548910403168 0 -0.03766000642806374 -0.27374212615637078 0 -0.049421748191657872 -0.25823073465447438 0 -0.03766000642806374 -0.27374212615637078 0 -0.03343277487246981 -0.28038128616237001 0 -0.052019390323339521 -0.29806351911403067 0 -0.03343277487246981 -0.28038128616237001 0 -0.034418270840495709 -0.29458417578757812 0 -0.052019390323339521 -0.29806351911403067 0 -0.052526843465688408 -0.28020549378312382 0 -0.03343277487246981 -0.28038128616237001 0 -0.052019390323339521 -0.29806351911403067 0 -0.03343277487246981 -0.28038128616237001 0 -0.034418270840495709 -0.29458417578757812 0 -0.028575611291580951 -0.2871646376695316 0 -0.073757975848705123 -0.2905560229617703 0 -0.052526843465688408 -0.28020549378312382 0 -0.052019390323339521 -0.29806351911403067 0 -0.07060600577420921 -0.31574575206569139 0 -0.052019390323339521 -0.29806351911403067 0 -0.047755636667727447 -0.31884534252385133 0 -0.07060600577420921 -0.31574575206569139 0 -0.052019390323339521 -0.29806351911403067 0 -0.034418270840495709 -0.29458417578757812 0 -0.052019390323339521 -0.29806351911403067 0 -0.036741299128673383 -0.30594839205664881 0 -0.052019390323339521 -0.29806351911403067 0 -0.036741299128673383 -0.30594839205664881 0 -0.047755636667727447 -0.31884534252385133 0 -0.01343142706436235 -0.30966182866597269 0 -0.014921489142761001 -0.29392381528449107 0 -0.027818356821347309 -0.31727666372228552 0 -0.021694840990456921 -0.30097225913549819 0 -0.014921489142761001 -0.29392381528449107 0 -0.027818356821347309 -0.31727666372228552 0 -0.014921489142761001 -0.29392381528449107 0 -0.027818356821347309 -0.31727666372228552 0 -0.036741299128673383 -0.30594839205664881 0 -0.021694840990456921 -0.30097225913549819 0 -0.027818356821347309 -0.31727666372228552 0 -0.034418270840495709 -0.29458417578757812 0 -0.036741299128673383 -0.30594839205664881 0 -0.021694840990456921 -0.30097225913549819 0 -0.021694840990456921 -0.30097225913549819 0 -0.014921489142761001 -0.29392381528449107 0 -0.01343142706436235 -0.30966182866597269 0 -0.001844919636969205 -0.30056216117952528 0 -0.014921489142761001 -0.29392381528449107 0 -0.01343142706436235 -0.30966182866597269 0 -0.001844919636969205 -0.30056216117952528 0 -0.0065825586867332827 -0.31374811121071122 0 -0.001844919636969205 -0.30056216117952528 0 -0.0065825586867332827 -0.31374811121071122 0 0.0073378752671417373 -0.31461425796533637 0 -0.014921489142761001 -0.29392381528449107 0 -0.00099987093679730155 -0.2886206222808092 0 0.0030807261057536478 -0.2751904604808319 0 -0.014921489142761001 -0.29392381528449107 0 -0.01326070663123961 -0.28217825954393272 0 -0.003490582175888074 -0.27322543761972468 0 -0.014921489142761001 -0.29392381528449107 0 -0.003490582175888074 -0.27322543761972468 0 -0.014921489142761001 -0.29392381528449107 0 0.0030807261057536478 -0.2751904604808319 0 -0.001844919636969205 -0.30056216117952528 0 -0.014921489142761001 -0.29392381528449107 0 -0.00099987093679730155 -0.2886206222808092 0 -0.014921489142761001 -0.29392381528449107 0 -0.01326070663123961 -0.28217825954393272 0 -0.02224569747113346 -0.28580739064927918 0 -0.01326070663123961 -0.28217825954393272 0 -0.02224569747113346 -0.28580739064927918 0 -0.017851260314263921 -0.2786282286340297 0 -0.02224569747113346 -0.28580739064927918 0 -0.022380907406941521 -0.28031278889406952 0 -0.017851260314263921 -0.2786282286340297 0 -0.021694840990456921 -0.30097225913549819 0 -0.014921489142761001 -0.29392381528449107 0 -0.024808463206474219 -0.29259797559730599 0 -0.014921489142761001 -0.29392381528449107 0 -0.02224569747113346 -0.28580739064927918 0 -0.024808463206474219 -0.29259797559730599 0 -0.034418270840495709 -0.29458417578757812 0 -0.024808463206474219 -0.29259797559730599 0 -0.028575611291580951 -0.2871646376695316 0 -0.034418270840495709 -0.29458417578757812 0 -0.021694840990456921 -0.30097225913549819 0 -0.024808463206474219 -0.29259797559730599 0 -0.03343277487246981 -0.28038128616237001 0 -0.028575611291580951 -0.2871646376695316 0 -0.02711458202655204 -0.28214386734948271 0 -0.02224569747113346 -0.28580739064927918 0 -0.02711458202655204 -0.28214386734948271 0 -0.022380907406941521 -0.28031278889406952 0 -0.02224569747113346 -0.28580739064927918 0 -0.028575611291580951 -0.2871646376695316 0 -0.02711458202655204 -0.28214386734948271 0 -0.02224569747113346 -0.28580739064927918 0 -0.024808463206474219 -0.29259797559730599 0 -0.028575611291580951 -0.2871646376695316 0 -0.03343277487246981 -0.28038128616237001 0 -0.01484615942159757 -0.26269905321071191 0 -0.03343277487246981 -0.28038128616237001 0 -0.021453821775037182 -0.27436317614184458 0 -0.01484615942159757 -0.26269905321071191 0 -0.031780871404022477 -0.26468181583675893 0 -0.03343277487246981 -0.28038128616237001 0 -0.01484615942159757 -0.26269905321071191 0 -0.03343277487246981 -0.28038128616237001 0 -0.02711458202655204 -0.28214386734948271 0 -0.021453821775037182 -0.27436317614184458 0 -0.02711458202655204 -0.28214386734948271 0 -0.021453821775037182 -0.27436317614184458 0 -0.022380907406941521 -0.28031278889406952 0 -0.016665881798942291 -0.26922702589885039 0 -0.021453821775037182 -0.27436317614184458 0 -0.01484615942159757 -0.26269905321071191 0 -0.016665881798942291 -0.26922702589885039 0 -0.016938490113890581 -0.27364418864600171 0 -0.021453821775037182 -0.27436317614184458 0 -0.016938490113890581 -0.27364418864600171 0 -0.017851260314263921 -0.2786282286340297 0 -0.01266581277024598 -0.27515891446470198 0 -0.016938490113890581 -0.27364418864600171 0 -0.021453821775037182 -0.27436317614184458 0 -0.017851260314263921 -0.2786282286340297 0 -0.021453821775037182 -0.27436317614184458 0 -0.022380907406941521 -0.28031278889406952 0 -0.017851260314263921 -0.2786282286340297 0 -0.014921489142761001 -0.29392381528449107 0 -0.003490582175888074 -0.27322543761972468 0 0.0030807261057536478 -0.2751904604808319 0 -0.01326070663123961 -0.28217825954393272 0 -0.01266581277024598 -0.27515891446470198 0 -0.009524053472869675 -0.27522766642530772 0 -0.01326070663123961 -0.28217825954393272 0 -0.017851260314263921 -0.2786282286340297 0 -0.01266581277024598 -0.27515891446470198 0 -0.01326070663123961 -0.28217825954393272 0 -0.009524053472869675 -0.27522766642530772 0 -0.003490582175888074 -0.27322543761972468 0 -0.01266581277024598 -0.27515891446470198 0 -0.009524053472869675 -0.27522766642530772 0 -0.0086791123141050398 -0.27034805407287121 0 -0.003490582175888074 -0.27322543761972468 0 -0.0086791123141050398 -0.27034805407287121 0 -0.0039288027152376082 -0.26392206421746622 0 -0.009524053472869675 -0.27522766642530772 0 -0.003490582175888074 -0.27322543761972468 0 -0.0086791123141050398 -0.27034805407287121 0 -0.0086791123141050398 -0.27034805407287121 0 -0.01143717147221596 -0.26545364853143599 0 -0.0039288027152376082 -0.26392206421746622 0 -0.0086791123141050398 -0.27034805407287121 0 -0.01299648441704002 -0.26991465219048122 0 -0.01143717147221596 -0.26545364853143599 0 -0.01266581277024598 -0.27515891446470198 0 -0.0086791123141050398 -0.27034805407287121 0 -0.01299648441704002 -0.26991465219048122 0 -0.016938490113890581 -0.27364418864600171 0 -0.01266581277024598 -0.27515891446470198 0 -0.01299648441704002 -0.26991465219048122 0 -0.016665881798942291 -0.26922702589885039 0 -0.016938490113890581 -0.27364418864600171 0 -0.01299648441704002 -0.26991465219048122 0 -0.016665881798942291 -0.26922702589885039 0 -0.01398642427744896 -0.26682359495786978 0 -0.01484615942159757 -0.26269905321071191 0 -0.01299648441704002 -0.26991465219048122 0 -0.01398642427744896 -0.26682359495786978 0 -0.01143717147221596 -0.26545364853143599 0 -0.016665881798942291 -0.26922702589885039 0 -0.01299648441704002 -0.26991465219048122 0 -0.01398642427744896 -0.26682359495786978 0 -0.01484615942159757 -0.26269905321071191 0 0.001002636242770817 -0.2476214239520933 0 -0.01484615942159757 -0.26269905321071191 0 -0.01143717147221596 -0.26545364853143599 0 -0.0059738021883775456 -0.25928744571137102 0 -0.01484615942159757 -0.26269905321071191 0 -0.015096143413475319 -0.24392601066732389 0 0.001002636242770817 -0.2476214239520933 0 -0.01484615942159757 -0.26269905321071191 0 -0.0059738021883775456 -0.25928744571137102 0 0.001002636242770817 -0.2476214239520933 0 -0.01398642427744896 -0.26682359495786978 0 -0.01484615942159757 -0.26269905321071191 0 -0.01143717147221596 -0.26545364853143599 0 -0.01484615942159757 -0.26269905321071191 0 -0.01143717147221596 -0.26545364853143599 0 -0.01143717147221596 -0.26545364853143599 0 -0.0039288027152376082 -0.26392206421746622 0 -0.0059738021883775456 -0.25928744571137102 0 -0.0039288027152376082 -0.26392206421746622 0 -0.0059738021883775456 -0.25928744571137102 0 -0.00065951357560741657 -0.25674103864514758 0 -0.0059738021883775456 -0.25928744571137102 0 -0.00065951357560741657 -0.25674103864514758 0 0.001002636242770817 -0.2476214239520933 0 -0.01484615942159757 -0.26269905321071191 0 -0.030258962198398999 -0.25024490698356061 0 -0.031780871404022477 -0.26468181583675893 0 -0.01484615942159757 -0.26269905321071191 0 -0.030258962198398999 -0.25024490698356061 0 -0.01484615942159757 -0.26269905321071191 0 -0.030258962198398999 -0.25024490698356061 0 -0.015096143413475319 -0.24392601066732389 0 -0.053612092178520573 -0.36398236059787442 0 -0.040715224499933943 -0.34062951216007992 0 -0.030954882755072719 -0.35332406589797422 0 -0.032903907754751549 -0.36778078217633681 0 -0.053612092178520573 -0.36398236059787442 0 -0.048189311580064828 -0.37701466809092099 0 -0.032903907754751549 -0.36778078217633681 0 -0.053612092178520573 -0.36398236059787442 0 -0.030954882755072719 -0.35332406589797422 0 -0.067849407017920832 -0.36139284934496518 0 -0.053612092178520573 -0.36398236059787442 0 -0.060812792032516633 -0.35007619191394879 0 -0.053612092178520573 -0.36398236059787442 0 -0.060812792032516633 -0.35007619191394879 0 -0.040715224499933943 -0.34062951216007992 0 -0.053612092178520573 -0.36398236059787442 0 -0.040715224499933943 -0.34062951216007992 0 -0.064121613040022507 -0.33466747713452288 0 -0.060812792032516633 -0.35007619191394879 0 -0.040715224499933943 -0.34062951216007992 0 -0.064121613040022507 -0.33466747713452288 0 -0.047755636667727447 -0.31884534252385133 0 -0.040715224499933943 -0.34062951216007992 0 -0.07060600577420921 -0.31574575206569139 0 -0.064121613040022507 -0.33466747713452288 0 -0.047755636667727447 -0.31884534252385133 0 -0.047755636667727447 -0.31884534252385133 0 -0.040715224499933943 -0.34062951216007992 0 -0.027818356821347309 -0.31727666372228552 0 -0.036741299128673383 -0.30594839205664881 0 -0.047755636667727447 -0.31884534252385133 0 -0.027818356821347309 -0.31727666372228552 0 -0.040715224499933943 -0.34062951216007992 0 -0.027818356821347309 -0.31727666372228552 0 -0.040715224499933943 -0.34062951216007992 0 -0.019985641671468799 -0.33726520044478669 0 -0.030954882755072719 -0.35332406589797422 0 -0.040715224499933943 -0.34062951216007992 0 -0.019985641671468799 -0.33726520044478669 0 -0.027818356821347309 -0.31727666372228552 0 -0.019985641671468799 -0.33726520044478669 0 -0.027818356821347309 -0.31727666372228552 0 -0.01549529543730071 -0.3227384604622196 0 -0.01343142706436235 -0.30966182866597269 0 -0.027818356821347309 -0.31727666372228552 0 -0.01549529543730071 -0.3227384604622196 0 -0.01549529543730071 -0.3227384604622196 0 -0.0065825586867332827 -0.31374811121071122 0 -0.0026324153446744621 -0.33488899193262089 0 -0.0065825586867332827 -0.31374811121071122 0 -0.0026324153446744621 -0.33488899193262089 0 0.0073378752671417373 -0.31461425796533637 0 -0.01343142706436235 -0.30966182866597269 0 -0.01549529543730071 -0.3227384604622196 0 -0.0065825586867332827 -0.31374811121071122 0 -0.019985641671468799 -0.33726520044478669 0 -0.01549529543730071 -0.3227384604622196 0 -0.0026324153446744621 -0.33488899193262089 0 -0.019985641671468799 -0.33726520044478669 0 -0.0026324153446744621 -0.33488899193262089 0 -0.0033282650061358548 -0.34830785935861719 0 -0.019985641671468799 -0.33726520044478669 0 -0.01450711526845286 -0.35142209395343549 0 -0.0033282650061358548 -0.34830785935861719 0 -0.01450711526845286 -0.35142209395343549 0 -0.018519924664961419 -0.36112741795293618 0 0.0053989168704140986 -0.35852483083951292 0 -0.01450711526845286 -0.35142209395343549 0 -0.0033282650061358548 -0.34830785935861719 0 0.0053989168704140986 -0.35852483083951292 0 -0.019985641671468799 -0.33726520044478669 0 -0.01450711526845286 -0.35142209395343549 0 -0.030954882755072719 -0.35332406589797422 0 -0.01450711526845286 -0.35142209395343549 0 -0.030954882755072719 -0.35332406589797422 0 -0.018519924664961419 -0.36112741795293618 0 -0.032903907754751549 -0.36778078217633681 0 -0.018519924664961419 -0.36112741795293618 0 -0.019632634416944052 -0.37458531689742142 0 -0.032903907754751549 -0.36778078217633681 0 -0.030954882755072719 -0.35332406589797422 0 -0.018519924664961419 -0.36112741795293618 0 -0.019632634416944052 -0.37458531689742142 0 -0.0050094893333455454 -0.37543182389169721 0 0.0053989168704140986 -0.35852483083951292 0 -0.018519924664961419 -0.36112741795293618 0 -0.019632634416944052 -0.37458531689742142 0 0.0053989168704140986 -0.35852483083951292 0 -0.019632634416944052 -0.37458531689742142 0 0.0053989168704140986 -0.35852483083951292 0 -0.019632634416944052 -0.37458531689742142 0 -0.0050094893333455454 -0.37543182389169721 0 -0.01191254570850837 -0.39187154892547149 0 -0.0050094893333455454 -0.37543182389169721 0 -0.01191254570850837 -0.39187154892547149 0 0.0031839916891533652 -0.3828139800537087 0 -0.01191254570850837 -0.39187154892547149 0 0.0031839916891533652 -0.3828139800537087 0 0.001202580214239484 -0.39360862266658431 0 -0.01191254570850837 -0.39187154892547149 0 -0.01762566480126157 -0.41252084574447628 0 0.0031083600501382591 -0.40643032647008359 0 -0.01191254570850837 -0.39187154892547149 0 0.001202580214239484 -0.39360862266658431 0 0.0031083600501382591 -0.40643032647008359 0 -0.01191254570850837 -0.39187154892547149 0 -0.0313800054243175 -0.40224123377783932 0 -0.01762566480126157 -0.41252084574447628 0 -0.01191254570850837 -0.39187154892547149 0 -0.026897342813518171 -0.38983597563901518 0 -0.0313800054243175 -0.40224123377783932 0 -0.019632634416944052 -0.37458531689742142 0 -0.01191254570850837 -0.39187154892547149 0 -0.026897342813518171 -0.38983597563901518 0 -0.019632634416944052 -0.37458531689742142 0 -0.026897342813518171 -0.38983597563901518 0 -0.044664185704302778 -0.39064580295532902 0 -0.032903907754751549 -0.36778078217633681 0 -0.044664185704302778 -0.39064580295532902 0 -0.048189311580064828 -0.37701466809092099 0 -0.032903907754751549 -0.36778078217633681 0 -0.019632634416944052 -0.37458531689742142 0 -0.044664185704302778 -0.39064580295532902 0 -0.032903907754751549 -0.36778078217633681 0 -0.044664185704302778 -0.39064580295532902 0 -0.019632634416944052 -0.37458531689742142 0 -0.044664185704302778 -0.39064580295532902 0 -0.044664185704302778 -0.39064580295532902 0 -0.053347920016148423 -0.40752922750798742 0 -0.041938640513373961 -0.40777516392123331 0 -0.026897342813518171 -0.38983597563901518 0 -0.044664185704302778 -0.39064580295532902 0 -0.0313800054243175 -0.40224123377783932 0 -0.044664185704302778 -0.39064580295532902 0 -0.0313800054243175 -0.40224123377783932 0 -0.041938640513373961 -0.40777516392123331 0 -0.044664185704302778 -0.39064580295532902 0 -0.061498029099403037 -0.40144656012951968 0 -0.044664185704302778 -0.39064580295532902 0 -0.053347920016148423 -0.40752922750798742 0 -0.044664185704302778 -0.39064580295532902 0 -0.061498029099403037 -0.40144656012951968 0 -0.066508959857107197 -0.38733520903566881 0 -0.044664185704302778 -0.39064580295532902 0 -0.061498029099403037 -0.40144656012951968 0 -0.053347920016148423 -0.40752922750798742 0 -0.053612092178520573 -0.36398236059787442 0 -0.048189311580064828 -0.37701466809092099 0 -0.066508959857107197 -0.38733520903566881 0 -0.053612092178520573 -0.36398236059787442 0 -0.066508959857107197 -0.38733520903566881 0 -0.044664185704302778 -0.39064580295532902 0 -0.048189311580064828 -0.37701466809092099 0 -0.066508959857107197 -0.38733520903566881 0 -0.051818108178887413 -0.43197622713323369 0 -0.059093714504061173 -0.42470188429326222 0 -0.037699103324548087 -0.42680812592118239 0 -0.059093714504061173 -0.42470188429326222 0 -0.037699103324548087 -0.42680812592118239 0 -0.051818108178887413 -0.43197622713323369 0 -0.060562771359902123 -0.43664540201961122 0 -0.049916843527038117 -0.43974949629887972 0 -0.051818108178887413 -0.43197622713323369 0 -0.060562771359902123 -0.43664540201961122 0 -0.059093714504061173 -0.42470188429326222 0 -0.060562771359902123 -0.43664540201961122 0 -0.059093714504061173 -0.42470188429326222 0 -0.062729763063910038 -0.42576995592890221 0 -0.059093714504061173 -0.42470188429326222 0 -0.062729763063910038 -0.42576995592890221 0 -0.059093714504061173 -0.42470188429326222 0 -0.053347920016148423 -0.40752922750798742 0 -0.048184991171561248 -0.41465441018533811 0 -0.053347920016148423 -0.40752922750798742 0 -0.062729763063910038 -0.42576995592890221 0 -0.059093714504061173 -0.42470188429326222 0 -0.038359689652661427 -0.41861136501886897 0 -0.059093714504061173 -0.42470188429326222 0 -0.048184991171561248 -0.41465441018533811 0 -0.038359689652661427 -0.41861136501886897 0 -0.060838633236123568 -0.41167235732992691 0 -0.053347920016148423 -0.40752922750798742 0 -0.062729763063910038 -0.42576995592890221 0 -0.059093714504061173 -0.42470188429326222 0 -0.053347920016148423 -0.40752922750798742 0 -0.062729763063910038 -0.42576995592890221 0 -0.061498029099403037 -0.40144656012951968 0 -0.060838633236123568 -0.41167235732992691 0 -0.053347920016148423 -0.40752922750798742 0 -0.053347920016148423 -0.40752922750798742 0 -0.048184991171561248 -0.41465441018533811 0 -0.041938640513373961 -0.40777516392123331 0 -0.0313800054243175 -0.40224123377783932 0 -0.041938640513373961 -0.40777516392123331 0 -0.038359689652661427 -0.41861136501886897 0 -0.048184991171561248 -0.41465441018533811 0 -0.041938640513373961 -0.40777516392123331 0 -0.038359689652661427 -0.41861136501886897 0 -0.059093714504061173 -0.42470188429326222 0 -0.038359689652661427 -0.41861136501886897 0 -0.037699103324548087 -0.42680812592118239 0 -0.038359689652661427 -0.41861136501886897 0 -0.037699103324548087 -0.42680812592118239 0 -0.026402397987955031 -0.42177271237389691 0 -0.051818108178887413 -0.43197622713323369 0 -0.037699103324548087 -0.42680812592118239 0 -0.049916843527038117 -0.43974949629887972 0 -0.037699103324548087 -0.42680812592118239 0 -0.016304492145034929 -0.42891436754910212 0 -0.026769507632525821 -0.44925154386396399 0 -0.037699103324548087 -0.42680812592118239 0 -0.016304492145034929 -0.42891436754910212 0 -0.026402397987955031 -0.42177271237389691 0 -0.037699103324548087 -0.42680812592118239 0 -0.016304492145034929 -0.42891436754910212 0 -0.016304492145034929 -0.42891436754910212 0 -0.01762566480126157 -0.41252084574447628 0 -0.026402397987955031 -0.42177271237389691 0 -0.0313800054243175 -0.40224123377783932 0 -0.038359689652661427 -0.41861136501886897 0 -0.01762566480126157 -0.41252084574447628 0 -0.038359689652661427 -0.41861136501886897 0 -0.01762566480126157 -0.41252084574447628 0 -0.038359689652661427 -0.41861136501886897 0 -0.01762566480126157 -0.41252084574447628 0 -0.026402397987955031 -0.42177271237389691 0 -0.01762566480126157 -0.41252084574447628 0 -0.0043417194721140882 -0.41940573435658168 0 0.0031083600501382591 -0.40643032647008359 0 -0.01762566480126157 -0.41252084574447628 0 0.0031083600501382591 -0.40643032647008359 0 -0.016304492145034929 -0.42891436754910212 0 -0.01762566480126157 -0.41252084574447628 0 -0.0043417194721140882 -0.41940573435658168 0 -0.016304492145034929 -0.42891436754910212 0 0.0050901190344784866 -0.43102060917701968 0 -0.016304492145034929 -0.42891436754910212 0 -0.0043417194721140882 -0.41940573435658168 0 0.0050901190344784866 -0.43102060917701968 0 -0.016304492145034929 -0.42891436754910212 0 -0.004343828094517492 -0.45401373945134632 0 0.0050901190344784866 -0.43102060917701968 0 -0.004343828094517492 -0.45401373945134632 0 -0.02302170318674357 -0.46410687745233747 0 -0.01377777522351295 -0.47700686972567308 0 -0.004343828094517492 -0.45401373945134632 0 -0.01377777522351295 -0.47700686972567308 0 -0.004343828094517492 -0.45401373945134632 0 -0.02302170318674357 -0.46410687745233747 0 -0.026769507632525821 -0.44925154386396399 0 -0.02302170318674357 -0.46410687745233747 0 -0.026769507632525821 -0.44925154386396399 0 -0.037368175190649271 -0.47089206321859889 0 -0.016304492145034929 -0.42891436754910212 0 -0.004343828094517492 -0.45401373945134632 0 -0.026769507632525821 -0.44925154386396399 0 -0.01377777522351295 -0.47700686972567308 0 0.0042708629438973321 -0.477985506460534 0 0.002743633780377341 -0.5 0 -0.01377777522351295 -0.47700686972567308 0 -0.023211722352508391 -0.49999999999999989 0 0.002743633780377341 -0.5 0 -0.004343828094517492 -0.45401373945134632 0 -0.01377777522351295 -0.47700686972567308 0 0.0042708629438973321 -0.477985506460534 0 -0.02302170318674357 -0.46410687745233747 0 -0.031918670286664452 -0.48521640448569109 0 -0.037368175190649271 -0.47089206321859889 0 -0.02302170318674357 -0.46410687745233747 0 -0.01377777522351295 -0.47700686972567308 0 -0.031918670286664452 -0.48521640448569109 0 -0.01377777522351295 -0.47700686972567308 0 -0.023211722352508391 -0.49999999999999989 0 -0.01377777522351295 -0.47700686972567308 0 -0.023211722352508391 -0.49999999999999989 0 -0.031918670286664452 -0.48521640448569109 0 -0.023211722352508391 -0.49999999999999989 0 -0.031918670286664452 -0.48521640448569109 0 -0.048603147681086027 -0.5 0 -0.031918670286664452 -0.48521640448569109 0 -0.048264086091323058 -0.48320222046902528 0 -0.048603147681086027 -0.5 0 -0.031918670286664452 -0.48521640448569109 0 -0.037368175190649271 -0.47089206321859889 0 -0.048264086091323058 -0.48320222046902528 0 -0.037368175190649271 -0.47089206321859889 0 -0.048264086091323058 -0.48320222046902528 0 -0.05903201091586583 -0.47156117241954471 0 -0.037368175190649271 -0.47089206321859889 0 -0.05903201091586583 -0.47156117241954471 0 -0.048264086091323058 -0.48320222046902528 0 -0.05903201091586583 -0.47156117241954471 0 -0.066697504473696462 -0.48558120924060738 0 -0.048264086091323058 -0.48320222046902528 0 -0.048603147681086027 -0.5 0 -0.066697504473696462 -0.48558120924060738 0 -0.037699103324548087 -0.42680812592118239 0 -0.041879743853661618 -0.45077408959121679 0 -0.049916843527038117 -0.43974949629887972 0 -0.037699103324548087 -0.42680812592118239 0 -0.026769507632525821 -0.44925154386396399 0 -0.041879743853661618 -0.45077408959121679 0 -0.037368175190649271 -0.47089206321859889 0 -0.041879743853661618 -0.45077408959121679 0 -0.054082718980523609 -0.45687523919390832 0 -0.026769507632525821 -0.44925154386396399 0 -0.037368175190649271 -0.47089206321859889 0 -0.041879743853661618 -0.45077408959121679 0 -0.054082718980523609 -0.45687523919390832 0 -0.062222613041307342 -0.46230896610992561 0 -0.070259359563511481 -0.45672380999246232 0 -0.054082718980523609 -0.45687523919390832 0 -0.070259359563511481 -0.45672380999246232 0 -0.037368175190649271 -0.47089206321859889 0 -0.05903201091586583 -0.47156117241954471 0 -0.054082718980523609 -0.45687523919390832 0 -0.05903201091586583 -0.47156117241954471 0 -0.054082718980523609 -0.45687523919390832 0 -0.062222613041307342 -0.46230896610992561 0 -0.054082718980523609 -0.45687523919390832 0 -0.055554550451921612 -0.44744766214873838 0 -0.064986722106106537 -0.44888975601142039 0 -0.041879743853661618 -0.45077408959121679 0 -0.055554550451921612 -0.44744766214873838 0 -0.049916843527038117 -0.43974949629887972 0 -0.041879743853661618 -0.45077408959121679 0 -0.054082718980523609 -0.45687523919390832 0 -0.055554550451921612 -0.44744766214873838 0 -0.060562771359902123 -0.43664540201961122 0 -0.055554550451921612 -0.44744766214873838 0 -0.064986722106106537 -0.44888975601142039 0 -0.060562771359902123 -0.43664540201961122 0 -0.055554550451921612 -0.44744766214873838 0 -0.049916843527038117 -0.43974949629887972 0 -0.060562771359902123 -0.43664540201961122 0 -0.070669983313889045 -0.44120779692078971 0 -0.064986722106106537 -0.44888975601142039 0 -0.070669983313889045 -0.44120779692078971 0 -0.078610203563870343 -0.45664563791267587 0 -0.070669983313889045 -0.44120779692078971 0 -0.070259359563511481 -0.45672380999246232 0 -0.078610203563870343 -0.45664563791267587 0 -0.064986722106106537 -0.44888975601142039 0 -0.070259359563511481 -0.45672380999246232 0 -0.070669983313889045 -0.44120779692078971 0 -0.064986722106106537 -0.44888975601142039 0 -0.070259359563511481 -0.45672380999246232 0 -0.062222613041307342 -0.46230896610992561 0 -0.070259359563511481 -0.45672380999246232 0 -0.080695846641082425 -0.47223028162049019 0 -0.05903201091586583 -0.47156117241954471 0 -0.062222613041307342 -0.46230896610992561 0 -0.080695846641082425 -0.47223028162049019 0 -0.054082718980523609 -0.45687523919390832 0 -0.064986722106106537 -0.44888975601142039 0 -0.070259359563511481 -0.45672380999246232 0 -0.070259359563511481 -0.45672380999246232 0 -0.080695846641082425 -0.47223028162049019 0 -0.070259359563511481 -0.45672380999246232 0 -0.078610203563870343 -0.45664563791267587 0 -0.080695846641082425 -0.47223028162049019 0 -0.070259359563511481 -0.45672380999246232 0 -0.078610203563870343 -0.45664563791267587 0 -0.078610203563870343 -0.45664563791267587 0 -0.080695846641082425 -0.47223028162049019 0 -0.086721654022465539 -0.47241639469913288 0 -0.078610203563870343 -0.45664563791267587 0 -0.1055147183949979 -0.45639378529993668 0 -0.078610203563870343 -0.45664563791267587 0 -0.086721654022465539 -0.47241639469913288 0 -0.1016515019265313 -0.46732742407191402 0 -0.078610203563870343 -0.45664563791267587 0 -0.086721654022465539 -0.47241639469913288 0 -0.078610203563870343 -0.45664563791267587 0 -0.091985459690815868 -0.44829393904392317 0 -0.1055147183949979 -0.45639378529993668 0 -0.070669983313889045 -0.44120779692078971 0 -0.078610203563870343 -0.45664563791267587 0 -0.091985459690815868 -0.44829393904392317 0 -0.070669983313889045 -0.44120779692078971 0 -0.091985459690815868 -0.44829393904392317 0 -0.0877243580640341 -0.43311199702776582 0 -0.091985459690815868 -0.44829393904392317 0 -0.099485872303501283 -0.44456343987456443 0 -0.0877243580640341 -0.43311199702776582 0 -0.048603147681086027 -0.5 0 -0.073994573009663722 -0.5 0 -0.066697504473696462 -0.48558120924060738 0 -0.073994573009663722 -0.5 0 -0.066697504473696462 -0.48558120924060738 0 -0.090040922489662292 -0.48611514081024448 0 -0.05903201091586583 -0.47156117241954471 0 -0.066697504473696462 -0.48558120924060738 0 -0.080695846641082425 -0.47223028162049019 0 -0.05903201091586583 -0.47156117241954471 0 -0.080695846641082425 -0.47223028162049019 0 -0.086721654022465539 -0.47241639469913288 0 -0.095328523623344041 -0.48915037438144832 0 -0.096297808542152336 -0.47807144082295072 0 -0.086721654022465539 -0.47241639469913288 0 -0.090040922489662292 -0.48611514081024448 0 -0.095328523623344041 -0.48915037438144832 0 -0.086721654022465539 -0.47241639469913288 0 -0.095328523623344041 -0.48915037438144832 0 -0.066697504473696462 -0.48558120924060738 0 -0.080695846641082425 -0.47223028162049019 0 -0.090040922489662292 -0.48611514081024448 0 -0.080695846641082425 -0.47223028162049019 0 -0.086721654022465539 -0.47241639469913288 0 -0.080695846641082425 -0.47223028162049019 0 -0.086721654022465539 -0.47241639469913288 0 -0.090040922489662292 -0.48611514081024448 0 -0.080695846641082425 -0.47223028162049019 0 -0.090040922489662292 -0.48611514081024448 0 -0.073994573009663722 -0.5 0 -0.090040922489662292 -0.48611514081024448 0 -0.09938599833824141 -0.49999999999999928 0 -0.09938599833824141 -0.49999999999999928 0 -0.1022037623160411 -0.49019119802159411 0 -0.11242120805489859 -0.48894166705752973 0 -0.090040922489662292 -0.48611514081024448 0 -0.09938599833824141 -0.49999999999999928 0 -0.09938599833824141 -0.49999999999999928 0 -0.095328523623344041 -0.48915037438144832 0 -0.1022037623160411 -0.49019119802159411 0 -0.090040922489662292 -0.48611514081024448 0 -0.09938599833824141 -0.49999999999999928 0 -0.095328523623344041 -0.48915037438144832 0 -0.095328523623344041 -0.48915037438144832 0 -0.1022037623160411 -0.49019119802159411 0 -0.1002655924228823 -0.48429834472149252 0 -0.10465325033550379 -0.48442557571321149 0 -0.1022037623160411 -0.49019119802159411 0 -0.11242120805489859 -0.48894166705752973 0 -0.10465325033550379 -0.48442557571321149 0 -0.1022037623160411 -0.49019119802159411 0 -0.1002655924228823 -0.48429834472149252 0 -0.10465325033550379 -0.48442557571321149 0 -0.1087671261018907 -0.48002938484433572 0 -0.11242120805489859 -0.48894166705752973 0 -0.086721654022465539 -0.47241639469913288 0 -0.096297808542152336 -0.47807144082295072 0 -0.1062047008023646 -0.47301814805565889 0 -0.086721654022465539 -0.47241639469913288 0 -0.1062047008023646 -0.47301814805565889 0 -0.1016515019265313 -0.46732742407191402 0 -0.086721654022465539 -0.47241639469913288 0 -0.1062047008023646 -0.47301814805565889 0 -0.1028446172973702 -0.47965313466825782 0 -0.096297808542152336 -0.47807144082295072 0 -0.1062047008023646 -0.47301814805565889 0 -0.1087671261018907 -0.48002938484433572 0 -0.1028446172973702 -0.47965313466825782 0 -0.1062047008023646 -0.47301814805565889 0 -0.10465325033550379 -0.48442557571321149 0 -0.1087671261018907 -0.48002938484433572 0 -0.1028446172973702 -0.47965313466825782 0 -0.10465325033550379 -0.48442557571321149 0 -0.1028446172973702 -0.47965313466825782 0 -0.1002655924228823 -0.48429834472149252 0 -0.095328523623344041 -0.48915037438144832 0 -0.1002655924228823 -0.48429834472149252 0 -0.096297808542152336 -0.47807144082295072 0 -0.1028446172973702 -0.47965313466825782 0 -0.1002655924228823 -0.48429834472149252 0 -0.096297808542152336 -0.47807144082295072 0 -0.12568774758226359 -0.47361990141218541 0 -0.1062047008023646 -0.47301814805565889 0 -0.12568774758226359 -0.47361990141218541 0 -0.1062047008023646 -0.47301814805565889 0 -0.11578217443489371 -0.47925495805264839 0 -0.13048762499189229 -0.46160875207318752 0 -0.12568774758226359 -0.47361990141218541 0 -0.1062047008023646 -0.47301814805565889 0 -0.12568774758226359 -0.47361990141218541 0 -0.12540164004618509 -0.48559118387036998 0 -0.11578217443489371 -0.47925495805264839 0 -0.1087671261018907 -0.48002938484433572 0 -0.1062047008023646 -0.47301814805565889 0 -0.11578217443489371 -0.47925495805264839 0 -0.1087671261018907 -0.48002938484433572 0 -0.11578217443489371 -0.47925495805264839 0 -0.11242120805489859 -0.48894166705752973 0 -0.12754584172944641 -0.5 0 -0.09938599833824141 -0.49999999999999928 0 -0.11242120805489859 -0.48894166705752973 0 -0.12540164004618509 -0.48559118387036998 0 -0.12754584172944641 -0.5 0 -0.11242120805489859 -0.48894166705752973 0 -0.12540164004618509 -0.48559118387036998 0 -0.11578217443489371 -0.47925495805264839 0 -0.11242120805489859 -0.48894166705752973 0 -0.099485872303501283 -0.44456343987456443 0 -0.1055147183949979 -0.45639378529993668 0 -0.1127189530641572 -0.44045403812663192 0 -0.099485872303501283 -0.44456343987456443 0 -0.1127189530641572 -0.44045403812663192 0 -0.0877243580640341 -0.43311199702776582 0 -0.091985459690815868 -0.44829393904392317 0 -0.099485872303501283 -0.44456343987456443 0 -0.1055147183949979 -0.45639378529993668 0 -0.078610203563870343 -0.45664563791267587 0 -0.1016515019265313 -0.46732742407191402 0 -0.1055147183949979 -0.45639378529993668 0 -0.13048762499189229 -0.46160875207318752 0 -0.1016515019265313 -0.46732742407191402 0 -0.13048762499189229 -0.46160875207318752 0 -0.1016515019265313 -0.46732742407191402 0 -0.1055147183949979 -0.45639378529993668 0 -0.13048762499189229 -0.46160875207318752 0 -0.1062047008023646 -0.47301814805565889 0 -0.1016515019265313 -0.46732742407191402 0 -0.13241923322612539 -0.45614193268719888 0 -0.13048762499189229 -0.46160875207318752 0 -0.1055147183949979 -0.45639378529993668 0 -0.13241923322612539 -0.45614193268719888 0 -0.1055147183949979 -0.45639378529993668 0 -0.13241923322612539 -0.45614193268719888 0 -0.1055147183949979 -0.45639378529993668 0 -0.12156457785218459 -0.4483080491296404 0 -0.1055147183949979 -0.45639378529993668 0 -0.12156457785218459 -0.4483080491296404 0 -0.1127189530641572 -0.44045403812663192 0 -0.12781773141979991 -0.44001948796047591 0 -0.12156457785218459 -0.4483080491296404 0 -0.1127189530641572 -0.44045403812663192 0 -0.1127189530641572 -0.44045403812663192 0 -0.11933750183346691 -0.42371728314685853 0 -0.1033114980840817 -0.42584262853453592 0 -0.12781773141979991 -0.44001948796047591 0 -0.1127189530641572 -0.44045403812663192 0 -0.11933750183346691 -0.42371728314685853 0 -0.1127189530641572 -0.44045403812663192 0 -0.1033114980840817 -0.42584262853453592 0 -0.0877243580640341 -0.43311199702776582 0 -0.1127189530641572 -0.44045403812663192 0 -0.0877243580640341 -0.43311199702776582 0 -0.1033114980840817 -0.42584262853453592 0 -0.0877243580640341 -0.43311199702776582 0 -0.091361521347947519 -0.41813543878373122 0 -0.11933750183346691 -0.42371728314685853 0 -0.1033114980840817 -0.42584262853453592 0 -0.1054151561108029 -0.4137943855876921 0 -0.1054151561108029 -0.4137943855876921 0 -0.093355061288683941 -0.40490126328414477 0 -0.091361521347947519 -0.41813543878373122 0 -0.1033114980840817 -0.42584262853453592 0 -0.1054151561108029 -0.4137943855876921 0 -0.091361521347947519 -0.41813543878373122 0 -0.13519059213181819 -0.40979141842070149 0 -0.11933750183346691 -0.42371728314685853 0 -0.1183466706969695 -0.4046897122757972 0 -0.11933750183346691 -0.42371728314685853 0 -0.1054151561108029 -0.4137943855876921 0 -0.1183466706969695 -0.4046897122757972 0 -0.1295680225859088 -0.39517526054694602 0 -0.1183466706969695 -0.4046897122757972 0 -0.11662556475979249 -0.3889689481425978 0 -0.1183466706969695 -0.4046897122757972 0 -0.11662556475979249 -0.3889689481425978 0 -0.103580640528648 -0.3975953864000461 0 -0.1209846114742668 -0.37347569907403821 0 -0.11662556475979249 -0.3889689481425978 0 -0.1017118879446318 -0.38310948283211771 0 -0.13258590425827241 -0.38150913525831909 0 -0.1209846114742668 -0.37347569907403821 0 -0.11662556475979249 -0.3889689481425978 0 -0.091317240238340897 -0.37481046074657443 0 -0.1017118879446318 -0.38310948283211771 0 -0.090213326960064316 -0.39156379573642808 0 -0.11662556475979249 -0.3889689481425978 0 -0.1017118879446318 -0.38310948283211771 0 -0.103580640528648 -0.3975953864000461 0 -0.1054151561108029 -0.4137943855876921 0 -0.103580640528648 -0.3975953864000461 0 -0.093355061288683941 -0.40490126328414477 0 -0.1054151561108029 -0.4137943855876921 0 -0.1183466706969695 -0.4046897122757972 0 -0.103580640528648 -0.3975953864000461 0 -0.103580640528648 -0.3975953864000461 0 -0.093355061288683941 -0.40490126328414477 0 -0.090213326960064316 -0.39156379573642808 0 -0.1017118879446318 -0.38310948283211771 0 -0.103580640528648 -0.3975953864000461 0 -0.090213326960064316 -0.39156379573642808 0 -0.093355061288683941 -0.40490126328414477 0 -0.085660528017511811 -0.40230150216812999 0 -0.08639885026482659 -0.41020240825840881 0 -0.093355061288683941 -0.40490126328414477 0 -0.090213326960064316 -0.39156379573642808 0 -0.085660528017511811 -0.40230150216812999 0 -0.090213326960064316 -0.39156379573642808 0 -0.079792732703948738 -0.39519430059342592 0 -0.085660528017511811 -0.40230150216812999 0 -0.079792732703948738 -0.39519430059342592 0 -0.085660528017511811 -0.40230150216812999 0 -0.079405827535693835 -0.41068805747346332 0 -0.091317240238340897 -0.37481046074657443 0 -0.090213326960064316 -0.39156379573642808 0 -0.07930213629214368 -0.38260469847303491 0 -0.090213326960064316 -0.39156379573642808 0 -0.079792732703948738 -0.39519430059342592 0 -0.07930213629214368 -0.38260469847303491 0 -0.079705618939622705 -0.36760814190273239 0 -0.091317240238340897 -0.37481046074657443 0 -0.07930213629214368 -0.38260469847303491 0 -0.069395642857062997 -0.37258465187085521 0 -0.07930213629214368 -0.38260469847303491 0 -0.066508959857107197 -0.38733520903566881 0 -0.079792732703948738 -0.39519430059342592 0 -0.07930213629214368 -0.38260469847303491 0 -0.066508959857107197 -0.38733520903566881 0 -0.079792732703948738 -0.39519430059342592 0 -0.066508959857107197 -0.38733520903566881 0 -0.079405827535693835 -0.41068805747346332 0 -0.061498029099403037 -0.40144656012951968 0 -0.066508959857107197 -0.38733520903566881 0 -0.079405827535693835 -0.41068805747346332 0 -0.066508959857107197 -0.38733520903566881 0 -0.079405827535693835 -0.41068805747346332 0 -0.061498029099403037 -0.40144656012951968 0 -0.060838633236123568 -0.41167235732992691 0 -0.066476929500949897 -0.41330098962155409 0 -0.061498029099403037 -0.40144656012951968 0 -0.078331872494503962 -0.41224731730370939 0 -0.061498029099403037 -0.40144656012951968 0 -0.066476929500949897 -0.41330098962155409 0 -0.078331872494503962 -0.41224731730370939 0 -0.061498029099403037 -0.40144656012951968 0 -0.078331872494503962 -0.41224731730370939 0 -0.079405827535693835 -0.41068805747346332 0 -0.066476929500949897 -0.41330098962155409 0 -0.073113899269608096 -0.41519399587168998 0 -0.078331872494503962 -0.41224731730370939 0 -0.076651993276886154 -0.41756136856457682 0 -0.070294716910648244 -0.42359917588948631 0 -0.081387361624505813 -0.42194268690131231 0 -0.076651993276886154 -0.41756136856457682 0 -0.073113899269608096 -0.41519399587168998 0 -0.078331872494503962 -0.41224731730370939 0 -0.076651993276886154 -0.41756136856457682 0 -0.073113899269608096 -0.41519399587168998 0 -0.070994801806092397 -0.41766630799691967 0 -0.076651993276886154 -0.41756136856457682 0 -0.070994801806092397 -0.41766630799691967 0 -0.070294716910648244 -0.42359917588948631 0 -0.060838633236123568 -0.41167235732992691 0 -0.066476929500949897 -0.41330098962155409 0 -0.062729763063910038 -0.42576995592890221 0 -0.070994801806092397 -0.41766630799691967 0 -0.067449525636420857 -0.41974478139215171 0 -0.070294716910648244 -0.42359917588948631 0 -0.066476929500949897 -0.41330098962155409 0 -0.067449525636420857 -0.41974478139215171 0 -0.062729763063910038 -0.42576995592890221 0 -0.066476929500949897 -0.41330098962155409 0 -0.073113899269608096 -0.41519399587168998 0 -0.070994801806092397 -0.41766630799691967 0 -0.066476929500949897 -0.41330098962155409 0 -0.070994801806092397 -0.41766630799691967 0 -0.067449525636420857 -0.41974478139215171 0 -0.062729763063910038 -0.42576995592890221 0 -0.0877243580640341 -0.43311199702776582 0 -0.062729763063910038 -0.42576995592890221 0 -0.070294716910648244 -0.42359917588948631 0 -0.0877243580640341 -0.43311199702776582 0 -0.070669983313889045 -0.44120779692078971 0 -0.062729763063910038 -0.42576995592890221 0 -0.0877243580640341 -0.43311199702776582 0 -0.062729763063910038 -0.42576995592890221 0 -0.070294716910648244 -0.42359917588948631 0 -0.067449525636420857 -0.41974478139215171 0 -0.062729763063910038 -0.42576995592890221 0 -0.070294716910648244 -0.42359917588948631 0 -0.060562771359902123 -0.43664540201961122 0 -0.070669983313889045 -0.44120779692078971 0 -0.062729763063910038 -0.42576995592890221 0 -0.070669983313889045 -0.44120779692078971 0 -0.062729763063910038 -0.42576995592890221 0 -0.070294716910648244 -0.42359917588948631 0 -0.081387361624505813 -0.42194268690131231 0 -0.0877243580640341 -0.43311199702776582 0 -0.081387361624505813 -0.42194268690131231 0 -0.0877243580640341 -0.43311199702776582 0 -0.091361521347947519 -0.41813543878373122 0 -0.091361521347947519 -0.41813543878373122 0 -0.08639885026482659 -0.41020240825840881 0 -0.082211313134295819 -0.41498577958257399 0 -0.093355061288683941 -0.40490126328414477 0 -0.091361521347947519 -0.41813543878373122 0 -0.08639885026482659 -0.41020240825840881 0 -0.085660528017511811 -0.40230150216812999 0 -0.08639885026482659 -0.41020240825840881 0 -0.079405827535693835 -0.41068805747346332 0 -0.08639885026482659 -0.41020240825840881 0 -0.079405827535693835 -0.41068805747346332 0 -0.082211313134295819 -0.41498577958257399 0 -0.078331872494503962 -0.41224731730370939 0 -0.079405827535693835 -0.41068805747346332 0 -0.082211313134295819 -0.41498577958257399 0 -0.076651993276886154 -0.41756136856457682 0 -0.078331872494503962 -0.41224731730370939 0 -0.082211313134295819 -0.41498577958257399 0 -0.081387361624505813 -0.42194268690131231 0 -0.091361521347947519 -0.41813543878373122 0 -0.082211313134295819 -0.41498577958257399 0 -0.076651993276886154 -0.41756136856457682 0 -0.081387361624505813 -0.42194268690131231 0 -0.082211313134295819 -0.41498577958257399 0 -0.073001572421288213 -0.08400824822856201 0 -0.095314539659743222 -0.093443859849604252 0 -0.09632221981006335 -0.078655209532709991 0 -0.073001572421288213 -0.08400824822856201 0 -0.09632221981006335 -0.078655209532709991 0 -0.071003619973766433 -0.073022860316535904 0 -0.073001572421288213 -0.08400824822856201 0 -0.09632221981006335 -0.078655209532709991 0 -0.071003619973766433 -0.073022860316535904 0 -0.096634809900872393 -0.069978605875025177 0 -0.071003619973766433 -0.073022860316535904 0 -0.09632221981006335 -0.078655209532709991 0 -0.096634809900872393 -0.069978605875025177 0 -0.08472154316162972 -0.063549968540847851 0 -0.071003619973766433 -0.073022860316535904 0 -0.096634809900872393 -0.069978605875025177 0 -0.08472154316162972 -0.063549968540847851 0 -0.096634809900872393 -0.069978605875025177 0 -0.093075972177240465 -0.058947424059673181 0 -0.08472154316162972 -0.063549968540847851 0 -0.071003619973766433 -0.073022860316535904 0 -0.071439044093043857 -0.066825830691815094 0 -0.071439044093043857 -0.066825830691815094 0 -0.065742443399236961 -0.067574582697172147 0 -0.063002185432843305 -0.061487649908456538 0 -0.071003619973766433 -0.073022860316535904 0 -0.065742443399236961 -0.067574582697172147 0 -0.057524924097294247 -0.068961989871881041 0 -0.071003619973766433 -0.073022860316535904 0 -0.071439044093043857 -0.066825830691815094 0 -0.065742443399236961 -0.067574582697172147 0 -0.073001572421288213 -0.08400824822856201 0 -0.069185343766926505 -0.10237375167914541 0 -0.049680925032513167 -0.08936128692441439 0 -0.071003619973766433 -0.073022860316535904 0 -0.073001572421288213 -0.08400824822856201 0 -0.059968474837979791 -0.080704243685852259 0 -0.073001572421288213 -0.08400824822856201 0 -0.069185343766926505 -0.10237375167914541 0 -0.085533453113827485 -0.10458163087714969 0 -0.069185343766926505 -0.10237375167914541 0 -0.078265588891665988 -0.1183520873834991 0 -0.085533453113827485 -0.10458163087714969 0 -0.078265588891665988 -0.1183520873834991 0 -0.058259027341881688 -0.1158296405690406 0 -0.072203733128623937 -0.13100593580747641 0 -0.069185343766926505 -0.10237375167914541 0 -0.078265588891665988 -0.1183520873834991 0 -0.058259027341881688 -0.1158296405690406 0 -0.078265588891665988 -0.1183520873834991 0 -0.098357256145280986 -0.1249743301371234 0 -0.086054719853455378 -0.13134723523105879 0 -0.078265588891665988 -0.1183520873834991 0 -0.085533453113827485 -0.10458163087714969 0 -0.098357256145280986 -0.1249743301371234 0 -0.073001572421288213 -0.08400824822856201 0 -0.085533453113827485 -0.10458163087714969 0 -0.095314539659743222 -0.093443859849604252 0 -0.085533453113827485 -0.10458163087714969 0 -0.1090000616720591 -0.099138250486989626 0 -0.095314539659743222 -0.093443859849604252 0 -0.085533453113827485 -0.10458163087714969 0 -0.1090000616720591 -0.099138250486989626 0 -0.098357256145280986 -0.1249743301371234 0 -0.1090000616720591 -0.099138250486989626 0 -0.098357256145280986 -0.1249743301371234 0 -0.1163299610319649 -0.123559176195451 0 -0.1090000616720591 -0.099138250486989626 0 -0.098357256145280986 -0.1249743301371234 0 -0.1090000616720591 -0.099138250486989626 0 -0.1163299610319649 -0.123559176195451 0 -0.1209594764258113 -0.10818761065369201 0 -0.1163299610319649 -0.123559176195451 0 -0.1209594764258113 -0.10818761065369201 0 -0.13170401298238199 -0.1142150949500024 0 -0.1090000616720591 -0.099138250486989626 0 -0.1209594764258113 -0.10818761065369201 0 -0.1224440299586441 -0.090322099331281741 0 -0.1090000616720591 -0.099138250486989626 0 -0.1224440299586441 -0.090322099331281741 0 -0.119642867198838 -0.073302170836856362 0 -0.1090000616720591 -0.099138250486989626 0 -0.119642867198838 -0.073302170836856362 0 -0.1224440299586441 -0.090322099331281741 0 -0.119642867198838 -0.073302170836856362 0 -0.127429446573081 -0.082462269219444884 0 -0.1090000616720591 -0.099138250486989626 0 -0.09632221981006335 -0.078655209532709991 0 -0.119642867198838 -0.073302170836856362 0 -0.1090000616720591 -0.099138250486989626 0 -0.095314539659743222 -0.093443859849604252 0 -0.09632221981006335 -0.078655209532709991 0 -0.09632221981006335 -0.078655209532709991 0 -0.096634809900872393 -0.069978605875025177 0 -0.119642867198838 -0.073302170836856362 0 -0.09632221981006335 -0.078655209532709991 0 -0.119642867198838 -0.073302170836856362 0 -0.096634809900872393 -0.069978605875025177 0 -0.1222659998279787 -0.066934351433516059 0 -0.1107437765417419 -0.058165493353871521 0 -0.096634809900872393 -0.069978605875025177 0 -0.119642867198838 -0.073302170836856362 0 -0.1222659998279787 -0.066934351433516059 0 -0.096634809900872393 -0.069978605875025177 0 -0.1222659998279787 -0.066934351433516059 0 -0.119642867198838 -0.073302170836856362 0 -0.1222659998279787 -0.066934351433516059 0 -0.1222659998279787 -0.066934351433516059 0 -0.1107437765417419 -0.058165493353871521 0 -0.1190072837466777 -0.054101168097751819 0 -0.1222659998279787 -0.066934351433516059 0 -0.1190072837466777 -0.054101168097751819 0 -0.1281145509328212 -0.052736625861778713 0 -0.1107437765417419 -0.058165493353871521 0 -0.1102168128399985 -0.050958595907632007 0 -0.1190072837466777 -0.054101168097751819 0 -0.1102168128399985 -0.050958595907632007 0 -0.1190072837466777 -0.054101168097751819 0 -0.1175079881229442 -0.046424089695533917 0 -0.1102168128399985 -0.050958595907632007 0 -0.1175079881229442 -0.046424089695533917 0 -0.1114203269237781 -0.044652475660634627 0 -0.1190072837466777 -0.054101168097751819 0 -0.1175079881229442 -0.046424089695533917 0 -0.1281145509328212 -0.052736625861778713 0 -0.1238325117896016 -0.041547804325526752 0 -0.1175079881229442 -0.046424089695533917 0 -0.1281145509328212 -0.052736625861778713 0 -0.1238325117896016 -0.041547804325526752 0 -0.1175079881229442 -0.046424089695533917 0 -0.1160034724869929 -0.040180211785070967 0 -0.1238325117896016 -0.041547804325526752 0 -0.1190551344852407 -0.036229189638846977 0 -0.1160034724869929 -0.040180211785070967 0 -0.1238325117896016 -0.041547804325526752 0 -0.1190551344852407 -0.036229189638846977 0 -0.12556548126247061 -0.032941768348231711 0 -0.1190551344852407 -0.036229189638846977 0 -0.1142587870320074 -0.031924150647621073 0 -0.12556548126247061 -0.032941768348231711 0 -0.11425775405139491 -0.035432304702313802 0 -0.1123418035652386 -0.032474747122959391 0 -0.1083947361954009 -0.041647644134725811 0 -0.1190551344852407 -0.036229189638846977 0 -0.1142587870320074 -0.031924150647621073 0 -0.11425775405139491 -0.035432304702313802 0 -0.1142587870320074 -0.031924150647621073 0 -0.1123418035652386 -0.032474747122959391 0 -0.1142587870320074 -0.031924150647621073 0 -0.11425775405139491 -0.035432304702313802 0 -0.1123418035652386 -0.032474747122959391 0 -0.1190551344852407 -0.036229189638846977 0 -0.11425775405139491 -0.035432304702313802 0 -0.1160034724869929 -0.040180211785070967 0 -0.1175079881229442 -0.046424089695533917 0 -0.1160034724869929 -0.040180211785070967 0 -0.1114203269237781 -0.044652475660634627 0 -0.11425775405139491 -0.035432304702313802 0 -0.1160034724869929 -0.040180211785070967 0 -0.1083947361954009 -0.041647644134725811 0 -0.1160034724869929 -0.040180211785070967 0 -0.1114203269237781 -0.044652475660634627 0 -0.1083947361954009 -0.041647644134725811 0 -0.1123418035652386 -0.032474747122959391 0 -0.1012930514348037 -0.031353613443955368 0 -0.087611434624970924 -0.039577809934080853 0 -0.1114203269237781 -0.044652475660634627 0 -0.1083947361954009 -0.041647644134725811 0 -0.10445463631586011 -0.047495836629989102 0 -0.1123418035652386 -0.032474747122959391 0 -0.091890423829141143 -0.04965028890738702 0 -0.087611434624970924 -0.039577809934080853 0 -0.1123418035652386 -0.032474747122959391 0 -0.1083947361954009 -0.041647644134725811 0 -0.091890423829141143 -0.04965028890738702 0 -0.1123418035652386 -0.032474747122959391 0 -0.091890423829141143 -0.04965028890738702 0 -0.1083947361954009 -0.041647644134725811 0 -0.10445463631586011 -0.047495836629989102 0 -0.091890423829141143 -0.04965028890738702 0 -0.1123418035652386 -0.032474747122959391 0 -0.087611434624970924 -0.039577809934080853 0 -0.1012930514348037 -0.031353613443955368 0 -0.096067906318219293 -0.030125742195540931 0 -0.087611434624970924 -0.039577809934080853 0 -0.1007319438144349 -0.055203474756829622 0 -0.093075972177240465 -0.058947424059673181 0 -0.091890423829141143 -0.04965028890738702 0 -0.1007319438144349 -0.055203474756829622 0 -0.10445463631586011 -0.047495836629989102 0 -0.091890423829141143 -0.04965028890738702 0 -0.096634809900872393 -0.069978605875025177 0 -0.1007319438144349 -0.055203474756829622 0 -0.093075972177240465 -0.058947424059673181 0 -0.1107437765417419 -0.058165493353871521 0 -0.1102168128399985 -0.050958595907632007 0 -0.1007319438144349 -0.055203474756829622 0 -0.096634809900872393 -0.069978605875025177 0 -0.1107437765417419 -0.058165493353871521 0 -0.1007319438144349 -0.055203474756829622 0 -0.1102168128399985 -0.050958595907632007 0 -0.1007319438144349 -0.055203474756829622 0 -0.10445463631586011 -0.047495836629989102 0 -0.1102168128399985 -0.050958595907632007 0 -0.1114203269237781 -0.044652475660634627 0 -0.10445463631586011 -0.047495836629989102 0 -0.11702144746713999 -0.012253183510905759 0 -0.1092426205505718 -0.001834213791223281 0 -0.12684239433194619 -0.0024106449572988912 0 -0.11702144746713999 -0.012253183510905759 0 -0.12684239433194619 -0.0024106449572988912 0 -0.12656208370071809 -0.020532226921150191 0 -0.11702144746713999 -0.012253183510905759 0 -0.11035698058035 -0.018405557555846431 0 -0.1051346162555214 -0.01157316281476325 0 -0.11702144746713999 -0.012253183510905759 0 -0.1051346162555214 -0.01157316281476325 0 -0.1092426205505718 -0.001834213791223281 0 -0.11702144746713999 -0.012253183510905759 0 -0.11035698058035 -0.018405557555846431 0 -0.1160690283741105 -0.021476064884214659 0 -0.11035698058035 -0.018405557555846431 0 -0.1160690283741105 -0.021476064884214659 0 -0.1102543452063682 -0.025004040498027558 0 -0.11702144746713999 -0.012253183510905759 0 -0.1160690283741105 -0.021476064884214659 0 -0.12656208370071809 -0.020532226921150191 0 -0.1142587870320074 -0.031924150647621073 0 -0.1123418035652386 -0.032474747122959391 0 -0.12656208370071809 -0.020532226921150191 0 -0.1142587870320074 -0.031924150647621073 0 -0.12656208370071809 -0.020532226921150191 0 -0.12556548126247061 -0.032941768348231711 0 -0.1123418035652386 -0.032474747122959391 0 -0.1160690283741105 -0.021476064884214659 0 -0.12656208370071809 -0.020532226921150191 0 -0.1123418035652386 -0.032474747122959391 0 -0.12656208370071809 -0.020532226921150191 0 -0.1123418035652386 -0.032474747122959391 0 -0.1160690283741105 -0.021476064884214659 0 -0.1102543452063682 -0.025004040498027558 0 -0.1123418035652386 -0.032474747122959391 0 -0.1102543452063682 -0.025004040498027558 0 -0.1072188864938787 -0.028158395326441491 0 -0.1123418035652386 -0.032474747122959391 0 -0.1012930514348037 -0.031353613443955368 0 -0.1072188864938787 -0.028158395326441491 0 -0.1102543452063682 -0.025004040498027558 0 -0.1072188864938787 -0.028158395326441491 0 -0.1067823498554259 -0.02553919760427498 0 -0.1072188864938787 -0.028158395326441491 0 -0.1067823498554259 -0.02553919760427498 0 -0.1032252261717113 -0.026431372640754139 0 -0.1102543452063682 -0.025004040498027558 0 -0.1067823498554259 -0.02553919760427498 0 -0.1064309415497454 -0.02256298195187675 0 -0.1067823498554259 -0.02553919760427498 0 -0.1032252261717113 -0.026431372640754139 0 -0.1064309415497454 -0.02256298195187675 0 -0.1012930514348037 -0.031353613443955368 0 -0.1072188864938787 -0.028158395326441491 0 -0.1032252261717113 -0.026431372640754139 0 -0.1012930514348037 -0.031353613443955368 0 -0.1032252261717113 -0.026431372640754139 0 -0.096067906318219293 -0.030125742195540931 0 -0.096067906318219293 -0.030125742195540931 0 -0.096559027056621921 -0.024774143163355359 0 -0.089622125559431109 -0.029067765208732239 0 -0.1032252261717113 -0.026431372640754139 0 -0.096067906318219293 -0.030125742195540931 0 -0.096559027056621921 -0.024774143163355359 0 -0.1032252261717113 -0.026431372640754139 0 -0.096559027056621921 -0.024774143163355359 0 -0.1025727106701535 -0.019000068478592251 0 -0.096559027056621921 -0.024774143163355359 0 -0.094158401810381265 -0.019152878499301629 0 -0.1025727106701535 -0.019000068478592251 0 -0.094158401810381265 -0.019152878499301629 0 -0.1025727106701535 -0.019000068478592251 0 -0.098208361105241476 -0.013367013628020541 0 -0.096559027056621921 -0.024774143163355359 0 -0.094158401810381265 -0.019152878499301629 0 -0.090963205928309004 -0.023737483100127171 0 -0.1032252261717113 -0.026431372640754139 0 -0.1025727106701535 -0.019000068478592251 0 -0.1064309415497454 -0.02256298195187675 0 -0.11035698058035 -0.018405557555846431 0 -0.1102543452063682 -0.025004040498027558 0 -0.1064309415497454 -0.02256298195187675 0 -0.11035698058035 -0.018405557555846431 0 -0.1025727106701535 -0.019000068478592251 0 -0.1064309415497454 -0.02256298195187675 0 -0.11035698058035 -0.018405557555846431 0 -0.1025727106701535 -0.019000068478592251 0 -0.1051346162555214 -0.01157316281476325 0 -0.1025727106701535 -0.019000068478592251 0 -0.1051346162555214 -0.01157316281476325 0 -0.098208361105241476 -0.013367013628020541 0 -0.098208361105241476 -0.013367013628020541 0 -0.098915291074047326 -0.0063860750211698521 0 -0.090260785716103867 -0.010722883326275721 0 -0.094158401810381265 -0.019152878499301629 0 -0.098208361105241476 -0.013367013628020541 0 -0.090260785716103867 -0.010722883326275721 0 -0.1051346162555214 -0.01157316281476325 0 -0.098208361105241476 -0.013367013628020541 0 -0.098915291074047326 -0.0063860750211698521 0 -0.098915291074047326 -0.0063860750211698521 0 -0.097921128137241215 0.0020243512805800138 0 -0.08924030644861769 0.001862120829466571 0 -0.098915291074047326 -0.0063860750211698521 0 -0.1092426205505718 -0.001834213791223281 0 -0.097921128137241215 0.0020243512805800138 0 -0.1051346162555214 -0.01157316281476325 0 -0.098915291074047326 -0.0063860750211698521 0 -0.1092426205505718 -0.001834213791223281 0 -0.098915291074047326 -0.0063860750211698521 0 -0.090260785716103867 -0.010722883326275721 0 -0.08924030644861769 0.001862120829466571 0 -0.07999044300750352 -0.003657782716673298 0 -0.090260785716103867 -0.010722883326275721 0 -0.08924030644861769 0.001862120829466571 0 -0.090260785716103867 -0.010722883326275721 0 -0.080763211176913846 -0.01295231132663285 0 -0.085601266141746721 -0.021467108794363601 0 -0.07999044300750352 -0.003657782716673298 0 -0.090260785716103867 -0.010722883326275721 0 -0.080763211176913846 -0.01295231132663285 0 -0.080763211176913846 -0.01295231132663285 0 -0.085601266141746721 -0.021467108794363601 0 -0.073581800989694454 -0.021944454217785271 0 -0.094158401810381265 -0.019152878499301629 0 -0.085601266141746721 -0.021467108794363601 0 -0.090963205928309004 -0.023737483100127171 0 -0.094158401810381265 -0.019152878499301629 0 -0.090260785716103867 -0.010722883326275721 0 -0.085601266141746721 -0.021467108794363601 0 -0.085601266141746721 -0.021467108794363601 0 -0.090963205928309004 -0.023737483100127171 0 -0.089622125559431109 -0.029067765208732239 0 -0.096559027056621921 -0.024774143163355359 0 -0.090963205928309004 -0.023737483100127171 0 -0.089622125559431109 -0.029067765208732239 0 -0.085601266141746721 -0.021467108794363601 0 -0.073581800989694454 -0.021944454217785271 0 -0.077500660287789763 -0.032073767809408828 0 -0.085601266141746721 -0.021467108794363601 0 -0.089622125559431109 -0.029067765208732239 0 -0.077500660287789763 -0.032073767809408828 0 -0.064846832595175471 -0.031195953332099971 0 -0.073581800989694454 -0.021944454217785271 0 -0.077500660287789763 -0.032073767809408828 0 -0.064846832595175471 -0.031195953332099971 0 -0.073581800989694454 -0.021944454217785271 0 -0.061769702261262147 -0.0218061252971775 0 -0.073581800989694454 -0.021944454217785271 0 -0.069592722772413601 -0.011363571298059479 0 -0.061769702261262147 -0.0218061252971775 0 -0.069592722772413601 -0.011363571298059479 0 -0.053835296384681958 -0.011036601727367109 0 -0.067907753424216635 0.002033453052028423 0 -0.080763211176913846 -0.01295231132663285 0 -0.073581800989694454 -0.021944454217785271 0 -0.069592722772413601 -0.011363571298059479 0 -0.07999044300750352 -0.003657782716673298 0 -0.080763211176913846 -0.01295231132663285 0 -0.069592722772413601 -0.011363571298059479 0 -0.07999044300750352 -0.003657782716673298 0 -0.069592722772413601 -0.011363571298059479 0 -0.067907753424216635 0.002033453052028423 0 -0.071439044093043857 -0.066825830691815094 0 -0.091890423829141143 -0.04965028890738702 0 -0.071439044093043857 -0.066825830691815094 0 -0.091890423829141143 -0.04965028890738702 0 -0.076747695332570351 -0.052911839901043492 0 -0.08472154316162972 -0.063549968540847851 0 -0.071439044093043857 -0.066825830691815094 0 -0.091890423829141143 -0.04965028890738702 0 -0.079782654867846386 -0.047205202871928302 0 -0.091890423829141143 -0.04965028890738702 0 -0.076747695332570351 -0.052911839901043492 0 -0.08472154316162972 -0.063549968540847851 0 -0.093075972177240465 -0.058947424059673181 0 -0.091890423829141143 -0.04965028890738702 0 -0.079782654867846386 -0.047205202871928302 0 -0.091890423829141143 -0.04965028890738702 0 -0.087611434624970924 -0.039577809934080853 0 -0.096067906318219293 -0.030125742195540931 0 -0.089622125559431109 -0.029067765208732239 0 -0.087611434624970924 -0.039577809934080853 0 -0.089622125559431109 -0.029067765208732239 0 -0.087611434624970924 -0.039577809934080853 0 -0.077500660287789763 -0.032073767809408828 0 -0.087611434624970924 -0.039577809934080853 0 -0.062881065684703169 -0.046680872745201857 0 -0.079782654867846386 -0.047205202871928302 0 -0.087611434624970924 -0.039577809934080853 0 -0.062881065684703169 -0.046680872745201857 0 -0.087611434624970924 -0.039577809934080853 0 -0.077500660287789763 -0.032073767809408828 0 -0.062881065684703169 -0.046680872745201857 0 -0.064846832595175471 -0.031195953332099971 0 -0.077500660287789763 -0.032073767809408828 0 -0.062881065684703169 -0.046680872745201857 0 -0.062881065684703169 -0.046680872745201857 0 -0.076747695332570351 -0.052911839901043492 0 -0.069868862205096485 -0.05776718396497578 0 -0.079782654867846386 -0.047205202871928302 0 -0.062881065684703169 -0.046680872745201857 0 -0.076747695332570351 -0.052911839901043492 0 -0.071439044093043857 -0.066825830691815094 0 -0.076747695332570351 -0.052911839901043492 0 -0.069868862205096485 -0.05776718396497578 0 -0.062881065684703169 -0.046680872745201857 0 -0.069868862205096485 -0.05776718396497578 0 -0.063002185432843305 -0.061487649908456538 0 -0.071439044093043857 -0.066825830691815094 0 -0.069868862205096485 -0.05776718396497578 0 -0.063002185432843305 -0.061487649908456538 0 -0.062881065684703169 -0.046680872745201857 0 -0.063002185432843305 -0.061487649908456538 0 -0.054006185005840028 -0.059667565887694111 0 -0.062881065684703169 -0.046680872745201857 0 -0.054006185005840028 -0.059667565887694111 0 -0.038150696744434789 -0.053783935556320592 0 -0.062881065684703169 -0.046680872745201857 0 -0.038150696744434789 -0.053783935556320592 0 -0.054006185005840028 -0.059667565887694111 0 -0.038150696744434789 -0.053783935556320592 0 -0.048763558973557393 -0.064620151518485602 0 -0.062881065684703169 -0.046680872745201857 0 -0.050010008940510532 -0.033459047271277097 0 -0.038150696744434789 -0.053783935556320592 0 -0.064846832595175471 -0.031195953332099971 0 -0.062881065684703169 -0.046680872745201857 0 -0.050010008940510532 -0.033459047271277097 0 -0.050010008940510532 -0.033459047271277097 0 -0.034333151248951553 -0.042004623467853573 0 -0.038150696744434789 -0.053783935556320592 0 -0.050010008940510532 -0.033459047271277097 0 -0.034333151248951553 -0.042004623467853573 0 -0.038308567323490583 -0.022548664485676339 0 -0.034333151248951553 -0.042004623467853573 0 -0.038150696744434789 -0.053783935556320592 0 -0.034333151248951553 -0.042004623467853573 0 -0.038150696744434789 -0.053783935556320592 0 -0.025264376599132721 -0.048291600418356888 0 -0.069592722772413601 -0.011363571298059479 0 -0.053835296384681958 -0.011036601727367109 0 -0.061769702261262147 -0.0218061252971775 0 -0.053835296384681958 -0.011036601727367109 0 -0.035192282316726747 -0.002915282895884485 0 -0.055028287529294832 0.0036901326515541141 0 -0.053835296384681958 -0.011036601727367109 0 -0.067907753424216635 0.002033453052028423 0 -0.055028287529294832 0.0036901326515541141 0 -0.050010008940510532 -0.033459047271277097 0 -0.053835296384681958 -0.011036601727367109 0 -0.038308567323490583 -0.022548664485676339 0 -0.050010008940510532 -0.033459047271277097 0 -0.053835296384681958 -0.011036601727367109 0 -0.061769702261262147 -0.0218061252971775 0 -0.064846832595175471 -0.031195953332099971 0 -0.050010008940510532 -0.033459047271277097 0 -0.061769702261262147 -0.0218061252971775 0 -0.053835296384681958 -0.011036601727367109 0 -0.038308567323490583 -0.022548664485676339 0 -0.035192282316726747 -0.002915282895884485 0 -0.035192282316726747 -0.002915282895884485 0 -0.018172097726582109 -0.023327767065999459 0 -0.01107981885403149 0.0016360662863579461 0 -0.034333151248951553 -0.042004623467853573 0 -0.038308567323490583 -0.022548664485676339 0 -0.018172097726582109 -0.023327767065999459 0 -0.038308567323490583 -0.022548664485676339 0 -0.035192282316726747 -0.002915282895884485 0 -0.018172097726582109 -0.023327767065999459 0 -0.018172097726582109 -0.023327767065999459 0 -0.001002805299617866 -0.025814161131358621 0 -0.01107981885403149 0.0016360662863579461 0 -0.018172097726582109 -0.023327767065999459 0 -0.001002805299617866 -0.025814161131358621 0 -0.0074553692504295398 -0.03968401933578676 0 -0.018172097726582109 -0.023327767065999459 0 -0.01107981885403149 0.0016360662863579461 0 -0.038150696744434789 -0.053783935556320592 0 -0.025264376599132721 -0.048291600418356888 0 -0.012525151283420429 -0.061144111193753362 0 -0.038150696744434789 -0.053783935556320592 0 -0.012525151283420429 -0.061144111193753362 0 -0.026488452136547599 -0.067637679485120727 0 -0.038150696744434789 -0.053783935556320592 0 -0.012525151283420429 -0.061144111193753362 0 -0.025264376599132721 -0.048291600418356888 0 -0.010575400648911061 -0.050743287774334588 0 -0.012525151283420429 -0.061144111193753362 0 -0.018172097726582109 -0.023327767065999459 0 -0.025264376599132721 -0.048291600418356888 0 -0.018172097726582109 -0.023327767065999459 0 -0.025264376599132721 -0.048291600418356888 0 -0.0074553692504295398 -0.03968401933578676 0 -0.034333151248951553 -0.042004623467853573 0 -0.018172097726582109 -0.023327767065999459 0 -0.025264376599132721 -0.048291600418356888 0 -0.025264376599132721 -0.048291600418356888 0 -0.0074553692504295398 -0.03968401933578676 0 -0.010575400648911061 -0.050743287774334588 0 -0.0074553692504295398 -0.03968401933578676 0 -0.010575400648911061 -0.050743287774334588 0 0.002943294537338474 -0.053853420149441403 0 -0.010575400648911061 -0.050743287774334588 0 -0.012525151283420429 -0.061144111193753362 0 0.002943294537338474 -0.053853420149441403 0 -0.012525151283420429 -0.061144111193753362 0 -0.0036820921910391412 -0.074779930311672529 0 -0.018476046152773339 -0.078537623573902662 0 -0.012525151283420429 -0.061144111193753362 0 -0.0036820921910391412 -0.074779930311672529 0 0.013100394177594579 -0.068504286831183855 0 -0.018476046152773339 -0.078537623573902662 0 -0.01194636801717355 -0.10010589385246919 0 0.0031724344944426231 -0.090933699647850266 0 -0.0036820921910391412 -0.074779930311672529 0 -0.018476046152773339 -0.078537623573902662 0 0.0031724344944426231 -0.090933699647850266 0 -0.018476046152773339 -0.078537623573902662 0 -0.036801914365561829 -0.077085047616506322 0 -0.031636402924981058 -0.084676455489959557 0 -0.018476046152773339 -0.078537623573902662 0 -0.027791939411752498 -0.094385700916337717 0 -0.01194636801717355 -0.10010589385246919 0 -0.018476046152773339 -0.078537623573902662 0 -0.031636402924981058 -0.084676455489959557 0 -0.027791939411752498 -0.094385700916337717 0 -0.012525151283420429 -0.061144111193753362 0 -0.018476046152773339 -0.078537623573902662 0 -0.026488452136547599 -0.067637679485120727 0 -0.018476046152773339 -0.078537623573902662 0 -0.026488452136547599 -0.067637679485120727 0 -0.036801914365561829 -0.077085047616506322 0 -0.038150696744434789 -0.053783935556320592 0 -0.045372430046660438 -0.076067114758046547 0 -0.036801914365561829 -0.077085047616506322 0 -0.038150696744434789 -0.053783935556320592 0 -0.045372430046660438 -0.076067114758046547 0 -0.048763558973557393 -0.064620151518485602 0 -0.038150696744434789 -0.053783935556320592 0 -0.026488452136547599 -0.067637679485120727 0 -0.036801914365561829 -0.077085047616506322 0 -0.038150696744434789 -0.053783935556320592 0 -0.045372430046660438 -0.076067114758046547 0 -0.045372430046660438 -0.076067114758046547 0 -0.036801914365561829 -0.077085047616506322 0 -0.036801914365561829 -0.077085047616506322 0 -0.031636402924981058 -0.084676455489959557 0 -0.040706113532750193 -0.08450976113680872 0 -0.049680925032513167 -0.08936128692441439 0 -0.027791939411752498 -0.094385700916337717 0 -0.040706113532750193 -0.08450976113680872 0 -0.049680925032513167 -0.08936128692441439 0 -0.027791939411752498 -0.094385700916337717 0 -0.031636402924981058 -0.084676455489959557 0 -0.040706113532750193 -0.08450976113680872 0 -0.027791939411752498 -0.094385700916337717 0 -0.045372430046660438 -0.076067114758046547 0 -0.036801914365561829 -0.077085047616506322 0 -0.040706113532750193 -0.08450976113680872 0 -0.045372430046660438 -0.076067114758046547 0 -0.040706113532750193 -0.08450976113680872 0 -0.049680925032513167 -0.08936128692441439 0 -0.073001572421288213 -0.08400824822856201 0 -0.049680925032513167 -0.08936128692441439 0 -0.059968474837979791 -0.080704243685852259 0 -0.045372430046660438 -0.076067114758046547 0 -0.049680925032513167 -0.08936128692441439 0 -0.059968474837979791 -0.080704243685852259 0 -0.073001572421288213 -0.08400824822856201 0 -0.049680925032513167 -0.08936128692441439 0 -0.045372430046660438 -0.076067114758046547 0 -0.049680925032513167 -0.08936128692441439 0 -0.071003619973766433 -0.073022860316535904 0 -0.045372430046660438 -0.076067114758046547 0 -0.059968474837979791 -0.080704243685852259 0 -0.071003619973766433 -0.073022860316535904 0 -0.045372430046660438 -0.076067114758046547 0 -0.071003619973766433 -0.073022860316535904 0 -0.045372430046660438 -0.076067114758046547 0 -0.057524924097294247 -0.068961989871881041 0 -0.063002185432843305 -0.061487649908456538 0 -0.054006185005840028 -0.059667565887694111 0 -0.057524924097294247 -0.068961989871881041 0 -0.065742443399236961 -0.067574582697172147 0 -0.063002185432843305 -0.061487649908456538 0 -0.057524924097294247 -0.068961989871881041 0 -0.054006185005840028 -0.059667565887694111 0 -0.057524924097294247 -0.068961989871881041 0 -0.048763558973557393 -0.064620151518485602 0 -0.045372430046660438 -0.076067114758046547 0 -0.057524924097294247 -0.068961989871881041 0 -0.048763558973557393 -0.064620151518485602 0 -0.058259027341881688 -0.1158296405690406 0 -0.040399076260744883 -0.1095887869708518 0 -0.042970154091505113 -0.1307372619221103 0 -0.049680925032513167 -0.08936128692441439 0 -0.058259027341881688 -0.1158296405690406 0 -0.049680925032513167 -0.08936128692441439 0 -0.058259027341881688 -0.1158296405690406 0 -0.040399076260744883 -0.1095887869708518 0 -0.069185343766926505 -0.10237375167914541 0 -0.049680925032513167 -0.08936128692441439 0 -0.058259027341881688 -0.1158296405690406 0 -0.049680925032513167 -0.08936128692441439 0 -0.040399076260744883 -0.1095887869708518 0 -0.027791939411752498 -0.094385700916337717 0 -0.040399076260744883 -0.1095887869708518 0 -0.023293335426071982 -0.11763004452235649 0 -0.042970154091505113 -0.1307372619221103 0 -0.023293335426071982 -0.11763004452235649 0 -0.027791939411752498 -0.094385700916337717 0 -0.01194636801717355 -0.10010589385246919 0 -0.040399076260744883 -0.1095887869708518 0 -0.023293335426071982 -0.11763004452235649 0 -0.027791939411752498 -0.094385700916337717 0 -0.01194636801717355 -0.10010589385246919 0 -0.0011764143374023801 -0.11412863934658821 0 0.0031724344944426231 -0.090933699647850266 0 -0.023293335426071982 -0.11763004452235649 0 -0.0011764143374023801 -0.11412863934658821 0 -0.0088617873603559459 -0.13056791950759369 0 -0.023293335426071982 -0.11763004452235649 0 -0.01194636801717355 -0.10010589385246919 0 -0.0011764143374023801 -0.11412863934658821 0 -0.023293335426071982 -0.11763004452235649 0 -0.0088617873603559459 -0.13056791950759369 0 -0.028776094212841389 -0.146690803341917 0 -0.028776094212841389 -0.146690803341917 0 -0.018472838120386938 -0.16450941630276031 0 0.000430259749712468 -0.14745823775527289 0 -0.0088617873603559459 -0.13056791950759369 0 -0.028776094212841389 -0.146690803341917 0 0.000430259749712468 -0.14745823775527289 0 -0.028776094212841389 -0.146690803341917 0 0.000430259749712468 -0.14745823775527289 0 -0.018472838120386938 -0.16450941630276031 0 0.0079046543420133591 -0.16440801616877129 0 0.000430259749712468 -0.14745823775527289 0 -0.0026331348495214381 -0.17964338822667961 0 -0.018472838120386938 -0.16450941630276031 0 0.0079046543420133591 -0.16440801616877129 0 -0.0026331348495214381 -0.17964338822667961 0 -0.028110825796704739 -0.18392609401925711 0 -0.028110825796704739 -0.18392609401925711 0 -0.018472838120386938 -0.16450941630276031 0 -0.040135079069643753 -0.17179534645977651 0 -0.0026331348495214381 -0.17964338822667961 0 -0.028110825796704739 -0.18392609401925711 0 -0.018472838120386938 -0.16450941630276031 0 -0.0026331348495214381 -0.17964338822667961 0 -0.028110825796704739 -0.18392609401925711 0 -0.017600433510891082 -0.1945295728945102 0 -0.028776094212841389 -0.146690803341917 0 -0.018472838120386938 -0.16450941630276031 0 -0.03950515838417009 -0.1577167067866623 0 -0.018472838120386938 -0.16450941630276031 0 -0.040135079069643753 -0.17179534645977651 0 -0.03950515838417009 -0.1577167067866623 0 -0.040135079069643753 -0.17179534645977651 0 -0.052159332342583208 -0.1596645989002963 0 -0.040135079069643753 -0.17179534645977651 0 -0.03950515838417009 -0.1577167067866623 0 -0.052159332342583208 -0.1596645989002963 0 -0.028110825796704739 -0.18392609401925711 0 -0.054068469804083308 -0.18828947814941949 0 -0.028110825796704739 -0.18392609401925711 0 -0.040135079069643753 -0.17179534645977651 0 -0.054068469804083308 -0.18828947814941949 0 -0.028110825796704739 -0.18392609401925711 0 -0.040135079069643753 -0.17179534645977651 0 -0.040135079069643753 -0.17179534645977651 0 -0.061820852391367018 -0.17181966013959499 0 -0.054068469804083308 -0.18828947814941949 0 -0.040135079069643753 -0.17179534645977651 0 -0.052159332342583208 -0.1596645989002963 0 -0.061820852391367018 -0.17181966013959499 0 -0.052159332342583208 -0.1596645989002963 0 -0.061820852391367018 -0.17181966013959499 0 -0.061418771746677432 -0.1578521400882166 0 -0.052159332342583208 -0.1596645989002963 0 -0.061418771746677432 -0.1578521400882166 0 -0.058399815617928903 -0.14681249464509261 0 -0.03950515838417009 -0.1577167067866623 0 -0.052159332342583208 -0.1596645989002963 0 -0.058399815617928903 -0.14681249464509261 0 -0.058399815617928903 -0.14681249464509261 0 -0.057582960438171793 -0.13130499554637179 0 -0.065698609619951526 -0.13778827336378421 0 -0.058399815617928903 -0.14681249464509261 0 -0.057582960438171793 -0.13130499554637179 0 -0.042970154091505113 -0.1307372619221103 0 -0.058259027341881688 -0.1158296405690406 0 -0.057582960438171793 -0.13130499554637179 0 -0.042970154091505113 -0.1307372619221103 0 -0.023293335426071982 -0.11763004452235649 0 -0.028776094212841389 -0.146690803341917 0 -0.042970154091505113 -0.1307372619221103 0 -0.028776094212841389 -0.146690803341917 0 -0.058399815617928903 -0.14681249464509261 0 -0.042970154091505113 -0.1307372619221103 0 -0.028776094212841389 -0.146690803341917 0 -0.03950515838417009 -0.1577167067866623 0 -0.058399815617928903 -0.14681249464509261 0 -0.028776094212841389 -0.146690803341917 0 -0.058399815617928903 -0.14681249464509261 0 -0.030258962198398999 -0.25024490698356061 0 -0.015096143413475319 -0.24392601066732389 0 -0.024454971105695091 -0.23112094332367011 0 -0.030258962198398999 -0.25024490698356061 0 -0.015096143413475319 -0.24392601066732389 0 -0.015096143413475319 -0.24392601066732389 0 0.001002636242770817 -0.2476214239520933 0 6.6675371447742771e-05 -0.2376071143510857 0 -0.015096143413475319 -0.24392601066732389 0 -0.0049798415012361477 -0.2285224919532845 0 -0.024454971105695091 -0.23112094332367011 0 -0.015096143413475319 -0.24392601066732389 0 6.6675371447742771e-05 -0.2376071143510857 0 -0.015096143413475319 -0.24392601066732389 0 -0.0049798415012361477 -0.2285224919532845 0 6.6675371447742771e-05 -0.2376071143510857 0 -0.0049798415012361477 -0.2285224919532845 0 -0.024454971105695091 -0.23112094332367011 0 -0.009562854976084556 -0.21821496082468619 0 -0.0049798415012361477 -0.2285224919532845 0 6.6675371447742771e-05 -0.2376071143510857 0 0.0034097270499151649 -0.23211242673024021 0 -0.0049798415012361477 -0.2285224919532845 0 -0.001800744778070993 -0.2222387047670854 0 0.0037958381253691388 -0.226356213423825 0 -0.0049798415012361477 -0.2285224919532845 0 -0.001800744778070993 -0.2222387047670854 0 -0.009562854976084556 -0.21821496082468619 0 -0.001800744778070993 -0.2222387047670854 0 -0.009562854976084556 -0.21821496082468619 0 0.0035438792396675911 -0.215861152866546 0 -0.024454971105695091 -0.23112094332367011 0 -0.009562854976084556 -0.21821496082468619 0 -0.036674901946808711 -0.21255843818173509 0 -0.009562854976084556 -0.21821496082468619 0 -0.012283473278518401 -0.19989362344290129 0 -0.027931788179426771 -0.19957659596617849 0 -0.009562854976084556 -0.21821496082468619 0 -0.027931788179426771 -0.19957659596617849 0 -0.036674901946808711 -0.21255843818173509 0 -0.009562854976084556 -0.21821496082468619 0 -0.036674901946808711 -0.21255843818173509 0 -0.012283473278518401 -0.19989362344290129 0 0.0035438792396675911 -0.215861152866546 0 -0.009562854976084556 -0.21821496082468619 0 -0.012283473278518401 -0.19989362344290129 0 0.0035438792396675911 -0.215861152866546 0 -0.012283473278518401 -0.19989362344290129 0 0.0051413943394210959 -0.20564009610296011 0 0.0035438792396675911 -0.215861152866546 0 -0.00223065776861801 -0.1943155930565372 0 -0.017600433510891082 -0.1945295728945102 0 0.0051413943394210959 -0.20564009610296011 0 -0.012283473278518401 -0.19989362344290129 0 -0.017600433510891082 -0.1945295728945102 0 0.0051413943394210959 -0.20564009610296011 0 -0.017600433510891082 -0.1945295728945102 0 0.0051413943394210959 -0.20564009610296011 0 -0.012283473278518401 -0.19989362344290129 0 -0.017600433510891082 -0.1945295728945102 0 -0.0026331348495214381 -0.17964338822667961 0 -0.00223065776861801 -0.1943155930565372 0 -0.017600433510891082 -0.1945295728945102 0 -0.012283473278518401 -0.19989362344290129 0 -0.017600433510891082 -0.1945295728945102 0 -0.027931788179426771 -0.19957659596617849 0 -0.028110825796704739 -0.18392609401925711 0 -0.017600433510891082 -0.1945295728945102 0 -0.027931788179426771 -0.19957659596617849 0 -0.028110825796704739 -0.18392609401925711 0 -0.017600433510891082 -0.1945295728945102 0 -0.028110825796704739 -0.18392609401925711 0 -0.042114586928911291 -0.1982505043710748 0 -0.054068469804083308 -0.18828947814941949 0 -0.028110825796704739 -0.18392609401925711 0 -0.027931788179426771 -0.19957659596617849 0 -0.042114586928911291 -0.1982505043710748 0 -0.042114586928911291 -0.1982505043710748 0 -0.054068469804083308 -0.18828947814941949 0 -0.063786948917532962 -0.20690191553878401 0 -0.036674901946808711 -0.21255843818173509 0 -0.063786948917532962 -0.20690191553878401 0 -0.036674901946808711 -0.21255843818173509 0 -0.055618211095426487 -0.2191882704538993 0 -0.063786948917532962 -0.20690191553878401 0 -0.042114586928911291 -0.1982505043710748 0 -0.036674901946808711 -0.21255843818173509 0 -0.063786948917532962 -0.20690191553878401 0 -0.027931788179426771 -0.19957659596617849 0 -0.042114586928911291 -0.1982505043710748 0 -0.036674901946808711 -0.21255843818173509 0 -0.024454971105695091 -0.23112094332367011 0 -0.036674901946808711 -0.21255843818173509 0 -0.050472306761683662 -0.23391173562098311 0 -0.036674901946808711 -0.21255843818173509 0 -0.050472306761683662 -0.23391173562098311 0 -0.055618211095426487 -0.2191882704538993 0 -0.050472306761683662 -0.23391173562098311 0 -0.070685651324970525 -0.21757856425840821 0 -0.050472306761683662 -0.23391173562098311 0 -0.055618211095426487 -0.2191882704538993 0 -0.070685651324970525 -0.21757856425840821 0 -0.050472306761683662 -0.23391173562098311 0 -0.063933618743594392 -0.23909247179508131 0 -0.070685651324970525 -0.21757856425840821 0 -0.049421748191657872 -0.25823073465447438 0 -0.063933618743594392 -0.23909247179508131 0 -0.049421748191657872 -0.25823073465447438 0 -0.050472306761683662 -0.23391173562098311 0 -0.063933618743594392 -0.23909247179508131 0 -0.030258962198398999 -0.25024490698356061 0 -0.050472306761683662 -0.23391173562098311 0 -0.030258962198398999 -0.25024490698356061 0 -0.024454971105695091 -0.23112094332367011 0 -0.050472306761683662 -0.23391173562098311 0 -0.049421748191657872 -0.25823073465447438 0 -0.030258962198398999 -0.25024490698356061 0 -0.050472306761683662 -0.23391173562098311 0 -0.085946164471186026 -0.25424244442140992 0 -0.091429839638279581 -0.23626048501933339 0 -0.063933618743594392 -0.23909247179508131 0 -0.063933618743594392 -0.23909247179508131 0 -0.078445489295531565 -0.21995420893568879 0 -0.063933618743594392 -0.23909247179508131 0 -0.078445489295531565 -0.21995420893568879 0 -0.070685651324970525 -0.21757856425840821 0 -0.091429839638279581 -0.23626048501933339 0 -0.063933618743594392 -0.23909247179508131 0 -0.078445489295531565 -0.21995420893568879 0 -0.091429839638279581 -0.23626048501933339 0 -0.078445489295531565 -0.21995420893568879 0 -0.099793012416592219 -0.2234217956546998 0 -0.078445489295531565 -0.21995420893568879 0 -0.092957359847468585 -0.20081594607629619 0 -0.099626914383013992 -0.21086592318999131 0 -0.078445489295531565 -0.21995420893568879 0 -0.099626914383013992 -0.21086592318999131 0 -0.099793012416592219 -0.2234217956546998 0 -0.078445489295531565 -0.21995420893568879 0 -0.09089899588825727 -0.20124539289583299 0 -0.092957359847468585 -0.20081594607629619 0 -0.078445489295531565 -0.21995420893568879 0 -0.092957359847468585 -0.20081594607629619 0 -0.078445489295531565 -0.21995420893568879 0 -0.070685651324970525 -0.21757856425840821 0 -0.09089899588825727 -0.20124539289583299 0 -0.070685651324970525 -0.21757856425840821 0 -0.09089899588825727 -0.20124539289583299 0 -0.063786948917532962 -0.20690191553878401 0 -0.09089899588825727 -0.20124539289583299 0 -0.070685651324970525 -0.21757856425840821 0 -0.063786948917532962 -0.20690191553878401 0 -0.09089899588825727 -0.20124539289583299 0 -0.055618211095426487 -0.2191882704538993 0 -0.070685651324970525 -0.21757856425840821 0 -0.063786948917532962 -0.20690191553878401 0 -0.063786948917532962 -0.20690191553878401 0 -0.075048195930898023 -0.1930746551107394 0 -0.09089899588825727 -0.20124539289583299 0 -0.054068469804083308 -0.18828947814941949 0 -0.063786948917532962 -0.20690191553878401 0 -0.075048195930898023 -0.1930746551107394 0 -0.075048195930898023 -0.1930746551107394 0 -0.085343947221851957 -0.1934300606576497 0 -0.09089899588825727 -0.20124539289583299 0 -0.085343947221851957 -0.1934300606576497 0 -0.09089899588825727 -0.20124539289583299 0 -0.092661102325423683 -0.1932310749331175 0 -0.09089899588825727 -0.20124539289583299 0 -0.092957359847468585 -0.20081594607629619 0 -0.092661102325423683 -0.1932310749331175 0 -0.09089899588825727 -0.20124539289583299 0 -0.092957359847468585 -0.20081594607629619 0 -0.085343947221851957 -0.1934300606576497 0 -0.092661102325423683 -0.1932310749331175 0 -0.088822991632564741 -0.1836029539575155 0 -0.092957359847468585 -0.20081594607629619 0 -0.092661102325423683 -0.1932310749331175 0 -0.10576439063765709 -0.18392602683165149 0 -0.092957359847468585 -0.20081594607629619 0 -0.10576439063765709 -0.18392602683165149 0 -0.092957359847468585 -0.20081594607629619 0 -0.10627517643349051 -0.1895158333490122 0 -0.10576439063765709 -0.18392602683165149 0 -0.092957359847468585 -0.20081594607629619 0 -0.1032568518600548 -0.1986671112855109 0 -0.092957359847468585 -0.20081594607629619 0 -0.1032568518600548 -0.1986671112855109 0 -0.10627517643349051 -0.1895158333490122 0 -0.1032568518600548 -0.1986671112855109 0 -0.11399839955051259 -0.19698127294328871 0 -0.1100984799513402 -0.206092288943827 0 -0.1032568518600548 -0.1986671112855109 0 -0.10627517643349051 -0.1895158333490122 0 -0.11399839955051259 -0.19698127294328871 0 -0.11433042648821309 -0.1895876984183705 0 -0.1207267468035822 -0.18875657531459769 0 -0.11399839955051259 -0.19698127294328871 0 -0.10627517643349051 -0.1895158333490122 0 -0.11433042648821309 -0.1895876984183705 0 -0.11399839955051259 -0.19698127294328871 0 -0.1207267468035822 -0.18875657531459769 0 -0.11399839955051259 -0.19698127294328871 0 -0.12593165599190059 -0.19965710542283349 0 -0.11399839955051259 -0.19698127294328871 0 -0.1208038108430409 -0.20820852192257669 0 -0.12593165599190059 -0.19965710542283349 0 -0.1100984799513402 -0.206092288943827 0 -0.1208038108430409 -0.20820852192257669 0 -0.1128892284524087 -0.21715406913128091 0 -0.11399839955051259 -0.19698127294328871 0 -0.1100984799513402 -0.206092288943827 0 -0.1208038108430409 -0.20820852192257669 0 -0.1208038108430409 -0.20820852192257669 0 -0.1128892284524087 -0.21715406913128091 0 -0.12559206385880539 -0.22291903087034021 0 -0.1100984799513402 -0.206092288943827 0 -0.1128892284524087 -0.21715406913128091 0 -0.099626914383013992 -0.21086592318999131 0 -0.1128892284524087 -0.21715406913128091 0 -0.099626914383013992 -0.21086592318999131 0 -0.099793012416592219 -0.2234217956546998 0 -0.1032568518600548 -0.1986671112855109 0 -0.1100984799513402 -0.206092288943827 0 -0.099626914383013992 -0.21086592318999131 0 -0.092957359847468585 -0.20081594607629619 0 -0.1032568518600548 -0.1986671112855109 0 -0.099626914383013992 -0.21086592318999131 0 -0.091429839638279581 -0.23626048501933339 0 -0.099793012416592219 -0.2234217956546998 0 -0.1138353769378945 -0.2356475333400759 0 -0.1128892284524087 -0.21715406913128091 0 -0.099793012416592219 -0.2234217956546998 0 -0.1138353769378945 -0.2356475333400759 0 -0.1128892284524087 -0.21715406913128091 0 -0.1138353769378945 -0.2356475333400759 0 -0.12559206385880539 -0.22291903087034021 0 -0.1138353769378945 -0.2356475333400759 0 -0.12970658661291981 -0.24250230616980631 0 -0.12559206385880539 -0.22291903087034021 0 -0.11909235651462161 -0.25872517098502051 0 -0.1138353769378945 -0.2356475333400759 0 -0.1040618486071499 -0.24803735084787901 0 -0.11909235651462161 -0.25872517098502051 0 -0.1138353769378945 -0.2356475333400759 0 -0.12970658661291981 -0.24250230616980631 0 -0.085946164471186026 -0.25424244442140992 0 -0.091429839638279581 -0.23626048501933339 0 -0.1040618486071499 -0.24803735084787901 0 -0.091429839638279581 -0.23626048501933339 0 -0.1138353769378945 -0.2356475333400759 0 -0.1040618486071499 -0.24803735084787901 0 -0.087188802137949134 -0.14515593451520539 0 -0.081842935405833914 -0.1379062742199523 0 -0.073232502483120299 -0.13968304861446171 0 -0.098357256145280986 -0.1249743301371234 0 -0.087188802137949134 -0.14515593451520539 0 -0.086054719853455378 -0.13134723523105879 0 -0.098357256145280986 -0.1249743301371234 0 -0.087714450618503192 -0.15081040978725729 0 -0.087188802137949134 -0.14515593451520539 0 -0.098357256145280986 -0.1249743301371234 0 -0.087714450618503192 -0.15081040978725729 0 -0.078265588891665988 -0.1183520873834991 0 -0.086054719853455378 -0.13134723523105879 0 -0.072203733128623937 -0.13100593580747641 0 -0.086054719853455378 -0.13134723523105879 0 -0.081842935405833914 -0.1379062742199523 0 -0.072203733128623937 -0.13100593580747641 0 -0.087188802137949134 -0.14515593451520539 0 -0.086054719853455378 -0.13134723523105879 0 -0.081842935405833914 -0.1379062742199523 0 -0.073232502483120299 -0.13968304861446171 0 -0.072203733128623937 -0.13100593580747641 0 -0.065698609619951526 -0.13778827336378421 0 -0.081842935405833914 -0.1379062742199523 0 -0.073232502483120299 -0.13968304861446171 0 -0.072203733128623937 -0.13100593580747641 0 -0.058259027341881688 -0.1158296405690406 0 -0.057582960438171793 -0.13130499554637179 0 -0.072203733128623937 -0.13100593580747641 0 -0.057582960438171793 -0.13130499554637179 0 -0.072203733128623937 -0.13100593580747641 0 -0.065698609619951526 -0.13778827336378421 0 -0.058399815617928903 -0.14681249464509261 0 -0.087714450618503192 -0.15081040978725729 0 -0.058399815617928903 -0.14681249464509261 0 -0.073232502483120299 -0.13968304861446171 0 -0.065698609619951526 -0.13778827336378421 0 -0.058399815617928903 -0.14681249464509261 0 -0.087188802137949134 -0.14515593451520539 0 -0.073232502483120299 -0.13968304861446171 0 -0.058399815617928903 -0.14681249464509261 0 -0.087714450618503192 -0.15081040978725729 0 -0.071816090021077084 -0.15791137658148111 0 -0.058399815617928903 -0.14681249464509261 0 -0.087714450618503192 -0.15081040978725729 0 -0.087188802137949134 -0.14515593451520539 0 -0.058399815617928903 -0.14681249464509261 0 -0.087188802137949134 -0.14515593451520539 0 -0.061418771746677432 -0.1578521400882166 0 -0.058399815617928903 -0.14681249464509261 0 -0.071816090021077084 -0.15791137658148111 0 -0.061820852391367018 -0.17181966013959499 0 -0.061418771746677432 -0.1578521400882166 0 -0.071816090021077084 -0.15791137658148111 0 -0.061820852391367018 -0.17181966013959499 0 -0.071816090021077084 -0.15791137658148111 0 -0.078100027824606399 -0.174150025687236 0 -0.061820852391367018 -0.17181966013959499 0 -0.075048195930898023 -0.1930746551107394 0 -0.078100027824606399 -0.174150025687236 0 -0.061820852391367018 -0.17181966013959499 0 -0.054068469804083308 -0.18828947814941949 0 -0.075048195930898023 -0.1930746551107394 0 -0.075048195930898023 -0.1930746551107394 0 -0.085343947221851957 -0.1934300606576497 0 -0.078100027824606399 -0.174150025687236 0 -0.085343947221851957 -0.1934300606576497 0 -0.078100027824606399 -0.174150025687236 0 -0.088822991632564741 -0.1836029539575155 0 -0.078100027824606399 -0.174150025687236 0 -0.08979447329133855 -0.17483323097556239 0 -0.088822991632564741 -0.1836029539575155 0 -0.092661102325423683 -0.1932310749331175 0 -0.088822991632564741 -0.1836029539575155 0 -0.095626443648086368 -0.18216237399726681 0 -0.08979447329133855 -0.17483323097556239 0 -0.088822991632564741 -0.1836029539575155 0 -0.095626443648086368 -0.18216237399726681 0 -0.087714450618503192 -0.15081040978725729 0 -0.071816090021077084 -0.15791137658148111 0 -0.078100027824606399 -0.174150025687236 0 -0.087714450618503192 -0.15081040978725729 0 -0.078100027824606399 -0.174150025687236 0 -0.087714450618503192 -0.15081040978725729 0 -0.078100027824606399 -0.174150025687236 0 -0.091501519531596229 -0.16568344529978701 0 -0.078100027824606399 -0.174150025687236 0 -0.08979447329133855 -0.17483323097556239 0 -0.091501519531596229 -0.16568344529978701 0 -0.08979447329133855 -0.17483323097556239 0 -0.091501519531596229 -0.16568344529978701 0 -0.098583698942545761 -0.16857126245218079 0 -0.087714450618503192 -0.15081040978725729 0 -0.091501519531596229 -0.16568344529978701 0 -0.1002331349810444 -0.16095070808087311 0 -0.098583698942545761 -0.16857126245218079 0 -0.10463475483845611 -0.1660644098959167 0 -0.1010892603534477 -0.17521858328848711 0 -0.091501519531596229 -0.16568344529978701 0 -0.1002331349810444 -0.16095070808087311 0 -0.098583698942545761 -0.16857126245218079 0 -0.1002331349810444 -0.16095070808087311 0 -0.098583698942545761 -0.16857126245218079 0 -0.10463475483845611 -0.1660644098959167 0 -0.1078247963758978 -0.16704294146427659 0 -0.1010892603534477 -0.17521858328848711 0 -0.11511452479080569 -0.16595969427384799 0 -0.10463475483845611 -0.1660644098959167 0 -0.1078247963758978 -0.16704294146427659 0 -0.1010892603534477 -0.17521858328848711 0 -0.1010892603534477 -0.17521858328848711 0 -0.11511452479080569 -0.16595969427384799 0 -0.10463475483845611 -0.1660644098959167 0 -0.1078247963758978 -0.16704294146427659 0 -0.1104606455208815 -0.16092907839885459 0 -0.1002331349810444 -0.16095070808087311 0 -0.10463475483845611 -0.1660644098959167 0 -0.1104606455208815 -0.16092907839885459 0 -0.1002331349810444 -0.16095070808087311 0 -0.1104606455208815 -0.16092907839885459 0 -0.1085037404342835 -0.15364564265124259 0 -0.1010892603534477 -0.17521858328848711 0 -0.10576439063765709 -0.18392602683165149 0 -0.11511452479080569 -0.16595969427384799 0 -0.092661102325423683 -0.1932310749331175 0 -0.095626443648086368 -0.18216237399726681 0 -0.10576439063765709 -0.18392602683165149 0 -0.095626443648086368 -0.18216237399726681 0 -0.1010892603534477 -0.17521858328848711 0 -0.10576439063765709 -0.18392602683165149 0 -0.08979447329133855 -0.17483323097556239 0 -0.095626443648086368 -0.18216237399726681 0 -0.1010892603534477 -0.17521858328848711 0 -0.08979447329133855 -0.17483323097556239 0 -0.098583698942545761 -0.16857126245218079 0 -0.1010892603534477 -0.17521858328848711 0 -0.10576439063765709 -0.18392602683165149 0 -0.11511452479080569 -0.16595969427384799 0 -0.11857142142784539 -0.1670361075870066 0 -0.10576439063765709 -0.18392602683165149 0 -0.11770748283082701 -0.17310831930411039 0 -0.11857142142784539 -0.1670361075870066 0 -0.10576439063765709 -0.18392602683165149 0 -0.11857142142784539 -0.1670361075870066 0 -0.10627517643349051 -0.1895158333490122 0 -0.10576439063765709 -0.18392602683165149 0 -0.11770748283082701 -0.17310831930411039 0 -0.10627517643349051 -0.1895158333490122 0 -0.1163213831652673 -0.18309711206658369 0 -0.11770748283082701 -0.17310831930411039 0 -0.10627517643349051 -0.1895158333490122 0 -0.11770748283082701 -0.17310831930411039 0 -0.10627517643349051 -0.1895158333490122 0 -0.11433042648821309 -0.1895876984183705 0 -0.1163213831652673 -0.18309711206658369 0 -0.11433042648821309 -0.1895876984183705 0 -0.1207267468035822 -0.18875657531459769 0 -0.1163213831652673 -0.18309711206658369 0 -0.11770748283082701 -0.17310831930411039 0 -0.12343237556044651 -0.1791236618178097 0 -0.12897329576219391 -0.17161489535535629 0 -0.1163213831652673 -0.18309711206658369 0 -0.11770748283082701 -0.17310831930411039 0 -0.12343237556044651 -0.1791236618178097 0 -0.1207267468035822 -0.18875657531459769 0 -0.1163213831652673 -0.18309711206658369 0 -0.12343237556044651 -0.1791236618178097 0 -0.11770748283082701 -0.17310831930411039 0 -0.11857142142784539 -0.1670361075870066 0 -0.12928055312758621 -0.15656846092296081 0 -0.1104606455208815 -0.16092907839885459 0 -0.1085037404342835 -0.15364564265124259 0 -0.12928055312758621 -0.15656846092296081 0 -0.11770748283082701 -0.17310831930411039 0 -0.12928055312758621 -0.15656846092296081 0 -0.1104606455208815 -0.16092907839885459 0 -0.11511452479080569 -0.16595969427384799 0 -0.12928055312758621 -0.15656846092296081 0 -0.1078247963758978 -0.16704294146427659 0 -0.1104606455208815 -0.16092907839885459 0 -0.11511452479080569 -0.16595969427384799 0 -0.11511452479080569 -0.16595969427384799 0 -0.11857142142784539 -0.1670361075870066 0 -0.12928055312758621 -0.15656846092296081 0 -0.11511452479080569 -0.16595969427384799 0 -0.12928055312758621 -0.15656846092296081 0 -0.1206686247853231 -0.1416060808675581 0 -0.1085037404342835 -0.15364564265124259 0 -0.12928055312758621 -0.15656846092296081 0 -0.1085037404342835 -0.15364564265124259 0 -0.12928055312758621 -0.15656846092296081 0 -0.1206686247853231 -0.1416060808675581 0 -0.1085037404342835 -0.15364564265124259 0 -0.1101036066335533 -0.13468096795638701 0 -0.087714450618503192 -0.15081040978725729 0 -0.1085037404342835 -0.15364564265124259 0 -0.087714450618503192 -0.15081040978725729 0 -0.1085037404342835 -0.15364564265124259 0 -0.1011697634579052 -0.14102783763300261 0 -0.087714450618503192 -0.15081040978725729 0 -0.1002331349810444 -0.16095070808087311 0 -0.1085037404342835 -0.15364564265124259 0 -0.1085037404342835 -0.15364564265124259 0 -0.1011697634579052 -0.14102783763300261 0 -0.1101036066335533 -0.13468096795638701 0 -0.098357256145280986 -0.1249743301371234 0 -0.087714450618503192 -0.15081040978725729 0 -0.1011697634579052 -0.14102783763300261 0 -0.098357256145280986 -0.1249743301371234 0 -0.1011697634579052 -0.14102783763300261 0 -0.1101036066335533 -0.13468096795638701 0 -0.098357256145280986 -0.1249743301371234 0 -0.1163299610319649 -0.123559176195451 0 -0.1101036066335533 -0.13468096795638701 0 -0.1163299610319649 -0.123559176195451 0 -0.1206686247853231 -0.1416060808675581 0 -0.1101036066335533 -0.13468096795638701 0 -0.1163299610319649 -0.123559176195451 0 -0.1206686247853231 -0.1416060808675581 0 -0.12989010731622691 -0.13518549962976181 0 -0.12989010731622691 -0.13518549962976181 0 -0.13994524882091439 -0.14119293450523829 0 -0.13307603398775869 -0.124728085141914 0 -0.1163299610319649 -0.123559176195451 0 -0.12989010731622691 -0.13518549962976181 0 -0.13307603398775869 -0.124728085141914 0 -0.1206686247853231 -0.1416060808675581 0 -0.12989010731622691 -0.13518549962976181 0 -0.12994613351251269 -0.14363824398137981 0 -0.12989010731622691 -0.13518549962976181 0 -0.13994524882091439 -0.14119293450523829 0 -0.12994613351251269 -0.14363824398137981 0 -0.15059746739176519 -0.12590499349524931 0 -0.13994524882091439 -0.14119293450523829 0 -0.13307603398775869 -0.124728085141914 0 -0.15059746739176519 -0.12590499349524931 0 -0.15258203782876109 -0.14122521982437231 0 -0.1625300074857437 -0.1237110143843189 0 -0.15059746739176519 -0.12590499349524931 0 -0.13994524882091439 -0.14119293450523829 0 -0.15059746739176519 -0.12590499349524931 0 -0.15258203782876109 -0.14122521982437231 0 -0.13994524882091439 -0.14119293450523829 0 -0.14978309452402039 -0.15176397400257799 0 -0.12928055312758621 -0.15656846092296081 0 -0.15427733994330539 -0.1598882230751475 0 -0.14978309452402039 -0.15176397400257799 0 -0.15258203782876109 -0.14122521982437231 0 -0.12928055312758621 -0.15656846092296081 0 -0.15258203782876109 -0.14122521982437231 0 -0.12928055312758621 -0.15656846092296081 0 -0.14978309452402039 -0.15176397400257799 0 -0.15427733994330539 -0.1598882230751475 0 -0.16299244719642869 -0.1493739921878314 0 -0.14978309452402039 -0.15176397400257799 0 -0.15258203782876109 -0.14122521982437231 0 -0.16299244719642869 -0.1493739921878314 0 -0.13994524882091439 -0.14119293450523829 0 -0.12928055312758621 -0.15656846092296081 0 -0.15258203782876109 -0.14122521982437231 0 -0.13994524882091439 -0.14119293450523829 0 -0.12928055312758621 -0.15656846092296081 0 -0.13994524882091439 -0.14119293450523829 0 -0.12994613351251269 -0.14363824398137981 0 -0.12928055312758621 -0.15656846092296081 0 -0.1206686247853231 -0.1416060808675581 0 -0.12994613351251269 -0.14363824398137981 0 -0.12928055312758621 -0.15656846092296081 0 -0.11770748283082701 -0.17310831930411039 0 -0.12928055312758621 -0.15656846092296081 0 -0.12897329576219391 -0.17161489535535629 0 -0.12928055312758621 -0.15656846092296081 0 -0.12897329576219391 -0.17161489535535629 0 -0.13996265082933801 -0.16892615601871619 0 -0.1207267468035822 -0.18875657531459769 0 -0.12343237556044651 -0.1791236618178097 0 -0.1334261763581156 -0.1806486634438946 0 -0.12343237556044651 -0.1791236618178097 0 -0.12897329576219391 -0.17161489535535629 0 -0.1334261763581156 -0.1806486634438946 0 -0.12897329576219391 -0.17161489535535629 0 -0.13996265082933801 -0.16892615601871619 0 -0.1334261763581156 -0.1806486634438946 0 -0.13996265082933801 -0.16892615601871619 0 -0.1334261763581156 -0.1806486634438946 0 -0.14522263497675539 -0.18351705652622799 0 -0.1334261763581156 -0.1806486634438946 0 -0.14522263497675539 -0.18351705652622799 0 -0.14197073321563339 -0.1957488344643141 0 -0.13996265082933801 -0.16892615601871619 0 -0.14522263497675539 -0.18351705652622799 0 -0.15046896911535651 -0.17238768510890451 0 -0.15046896911535651 -0.17238768510890451 0 -0.1604539079308234 -0.1771212672353849 0 -0.15684184437151949 -0.1875643893614688 0 -0.14522263497675539 -0.18351705652622799 0 -0.15046896911535651 -0.17238768510890451 0 -0.15684184437151949 -0.1875643893614688 0 -0.15046896911535651 -0.17238768510890451 0 -0.15684184437151949 -0.1875643893614688 0 -0.12928055312758621 -0.15656846092296081 0 -0.13996265082933801 -0.16892615601871619 0 -0.15427733994330539 -0.1598882230751475 0 -0.12928055312758621 -0.15656846092296081 0 -0.15427733994330539 -0.1598882230751475 0 -0.13996265082933801 -0.16892615601871619 0 -0.15046896911535651 -0.17238768510890451 0 -0.15427733994330539 -0.1598882230751475 0 -0.15427733994330539 -0.1598882230751475 0 -0.1654727862997698 -0.16957197889308359 0 -0.1791125461850146 -0.16327523598151919 0 -0.15427733994330539 -0.1598882230751475 0 -0.1791125461850146 -0.16327523598151919 0 -0.15427733994330539 -0.1598882230751475 0 -0.1791125461850146 -0.16327523598151919 0 -0.16299244719642869 -0.1493739921878314 0 -0.1791125461850146 -0.16327523598151919 0 -0.16299244719642869 -0.1493739921878314 0 -0.15046896911535651 -0.17238768510890451 0 -0.15427733994330539 -0.1598882230751475 0 -0.1654727862997698 -0.16957197889308359 0 -0.17329189698004011 -0.17891234852347421 0 -0.15684184437151949 -0.1875643893614688 0 -0.17235621589061789 -0.19377782027673929 0 -0.1604539079308234 -0.1771212672353849 0 -0.17329189698004011 -0.17891234852347421 0 -0.15684184437151949 -0.1875643893614688 0 -0.15046896911535651 -0.17238768510890451 0 -0.1654727862997698 -0.16957197889308359 0 -0.1604539079308234 -0.1771212672353849 0 -0.1654727862997698 -0.16957197889308359 0 -0.17329189698004011 -0.17891234852347421 0 -0.17423584195823849 -0.17082098636968571 0 -0.1654727862997698 -0.16957197889308359 0 -0.1604539079308234 -0.1771212672353849 0 -0.17329189698004011 -0.17891234852347421 0 -0.17329189698004011 -0.17891234852347421 0 -0.18685526255632079 -0.19428176759774091 0 -0.18783881611278549 -0.17080037622795011 0 -0.18685526255632079 -0.19428176759774091 0 -0.18783881611278549 -0.17080037622795011 0 -0.17329189698004011 -0.17891234852347421 0 -0.17423584195823849 -0.17082098636968571 0 -0.1786197753090201 -0.1709522367756573 0 -0.17329189698004011 -0.17891234852347421 0 -0.1786197753090201 -0.1709522367756573 0 -0.18783881611278549 -0.17080037622795011 0 -0.18049009114655909 -0.15511192419795999 0 -0.18897883784324179 -0.14358345830127461 0 -0.18783881611278549 -0.17080037622795011 0 -0.18075501651061349 -0.16349923525645921 0 -0.18049009114655909 -0.15511192419795999 0 -0.18783881611278549 -0.17080037622795011 0 -0.1791125461850146 -0.16327523598151919 0 -0.18049009114655909 -0.15511192419795999 0 -0.1736264551639865 -0.15123721049010519 0 -0.1654727862997698 -0.16957197889308359 0 -0.1791125461850146 -0.16327523598151919 0 -0.17423584195823849 -0.17082098636968571 0 -0.1791125461850146 -0.16327523598151919 0 -0.17423584195823849 -0.17082098636968571 0 -0.1786197753090201 -0.1709522367756573 0 -0.1791125461850146 -0.16327523598151919 0 -0.18783881611278549 -0.17080037622795011 0 -0.1791125461850146 -0.16327523598151919 0 -0.1786197753090201 -0.1709522367756573 0 -0.18783881611278549 -0.17080037622795011 0 -0.1791125461850146 -0.16327523598151919 0 -0.18075501651061349 -0.16349923525645921 0 -0.18783881611278549 -0.17080037622795011 0 -0.1791125461850146 -0.16327523598151919 0 -0.18075501651061349 -0.16349923525645921 0 -0.18049009114655909 -0.15511192419795999 0 -0.1791125461850146 -0.16327523598151919 0 -0.18075501651061349 -0.16349923525645921 0 -0.1791125461850146 -0.16327523598151919 0 -0.1736264551639865 -0.15123721049010519 0 -0.16299244719642869 -0.1493739921878314 0 -0.18049009114655909 -0.15511192419795999 0 -0.1736264551639865 -0.15123721049010519 0 -0.17382577328999141 -0.14008992782601989 0 -0.18049009114655909 -0.15511192419795999 0 -0.17382577328999141 -0.14008992782601989 0 -0.18897883784324179 -0.14358345830127461 0 -0.17572194195592569 -0.12594922947996751 0 -0.17382577328999141 -0.14008992782601989 0 -0.18897883784324179 -0.14358345830127461 0 -0.17572194195592569 -0.12594922947996751 0 -0.18897883784324179 -0.14358345830127461 0 -0.19011885957369681 -0.11636654037459911 0 -0.15258203782876109 -0.14122521982437231 0 -0.17572194195592569 -0.12594922947996751 0 -0.1625300074857437 -0.1237110143843189 0 -0.15258203782876109 -0.14122521982437231 0 -0.17572194195592569 -0.12594922947996751 0 -0.15258203782876109 -0.14122521982437231 0 -0.17572194195592569 -0.12594922947996751 0 -0.17382577328999141 -0.14008992782601989 0 -0.15258203782876109 -0.14122521982437231 0 -0.17382577328999141 -0.14008992782601989 0 -0.16299244719642869 -0.1493739921878314 0 -0.1736264551639865 -0.15123721049010519 0 -0.17382577328999141 -0.14008992782601989 0 -0.16299244719642869 -0.1493739921878314 0 -0.14602906781309299 -0.2524494609216309 0 -0.14144006320921201 -0.2332810964588844 0 -0.15793527120409401 -0.23548593072109811 0 -0.14602906781309299 -0.2524494609216309 0 -0.15793527120409401 -0.23548593072109811 0 -0.14602906781309299 -0.2524494609216309 0 -0.12970658661291981 -0.24250230616980631 0 -0.14144006320921201 -0.2332810964588844 0 -0.12970658661291981 -0.24250230616980631 0 -0.12559206385880539 -0.22291903087034021 0 -0.14144006320921201 -0.2332810964588844 0 -0.12559206385880539 -0.22291903087034021 0 -0.14144006320921201 -0.2332810964588844 0 -0.14435919701013089 -0.2178113753076179 0 -0.14144006320921201 -0.2332810964588844 0 -0.14435919701013089 -0.2178113753076179 0 -0.15793527120409401 -0.23548593072109811 0 -0.14435919701013089 -0.2178113753076179 0 -0.1569892281374167 -0.21401700170662991 0 -0.15793527120409401 -0.23548593072109811 0 -0.14435919701013089 -0.2178113753076179 0 -0.14197073321563339 -0.1957488344643141 0 -0.1569892281374167 -0.21401700170662991 0 -0.14197073321563339 -0.1957488344643141 0 -0.16321471962768391 -0.20274109361403261 0 -0.1569892281374167 -0.21401700170662991 0 -0.14435919701013089 -0.2178113753076179 0 -0.13215858954673371 -0.20859032246939049 0 -0.14197073321563339 -0.1957488344643141 0 -0.12559206385880539 -0.22291903087034021 0 -0.14435919701013089 -0.2178113753076179 0 -0.13215858954673371 -0.20859032246939049 0 -0.1208038108430409 -0.20820852192257669 0 -0.12559206385880539 -0.22291903087034021 0 -0.13215858954673371 -0.20859032246939049 0 -0.1208038108430409 -0.20820852192257669 0 -0.13215858954673371 -0.20859032246939049 0 -0.12593165599190059 -0.19965710542283349 0 -0.1207267468035822 -0.18875657531459769 0 -0.14197073321563339 -0.1957488344643141 0 -0.1207267468035822 -0.18875657531459769 0 -0.1334261763581156 -0.1806486634438946 0 -0.14197073321563339 -0.1957488344643141 0 -0.1207267468035822 -0.18875657531459769 0 -0.12593165599190059 -0.19965710542283349 0 -0.14197073321563339 -0.1957488344643141 0 -0.13215858954673371 -0.20859032246939049 0 -0.12593165599190059 -0.19965710542283349 0 -0.14197073321563339 -0.1957488344643141 0 -0.14522263497675539 -0.18351705652622799 0 -0.14197073321563339 -0.1957488344643141 0 -0.15684184437151949 -0.1875643893614688 0 -0.14197073321563339 -0.1957488344643141 0 -0.15684184437151949 -0.1875643893614688 0 -0.16321471962768391 -0.20274109361403261 0 -0.14197073321563339 -0.1957488344643141 0 -0.16321471962768391 -0.20274109361403261 0 -0.15684184437151949 -0.1875643893614688 0 -0.16321471962768391 -0.20274109361403261 0 -0.16321471962768391 -0.20274109361403261 0 -0.17235621589061789 -0.19377782027673929 0 -0.17759570031793059 -0.20747445871146761 0 -0.15684184437151949 -0.1875643893614688 0 -0.16321471962768391 -0.20274109361403261 0 -0.17235621589061789 -0.19377782027673929 0 -0.17329189698004011 -0.17891234852347421 0 -0.17235621589061789 -0.19377782027673929 0 -0.18685526255632079 -0.19428176759774091 0 -0.18685526255632079 -0.19428176759774091 0 -0.18618426012284719 -0.21030130272812561 0 -0.18685526255632079 -0.19428176759774091 0 -0.17759570031793059 -0.20747445871146761 0 -0.17235621589061789 -0.19377782027673929 0 -0.18685526255632079 -0.19428176759774091 0 -0.17759570031793059 -0.20747445871146761 0 -0.18685526255632079 -0.19428176759774091 0 -0.17759570031793059 -0.20747445871146761 0 -0.18618426012284719 -0.21030130272812561 0 -0.18020897452078519 -0.21449975562020851 0 -0.16984147459509341 -0.2185224005205641 0 -0.18681554231970851 -0.2193565134265931 0 -0.17759570031793059 -0.20747445871146761 0 -0.18618426012284719 -0.21030130272812561 0 -0.17759570031793059 -0.20747445871146761 0 -0.18618426012284719 -0.21030130272812561 0 -0.18020897452078519 -0.21449975562020851 0 -0.18618426012284719 -0.21030130272812561 0 -0.18020897452078519 -0.21449975562020851 0 -0.18681554231970851 -0.2193565134265931 0 -0.17759570031793059 -0.20747445871146761 0 -0.16984147459509341 -0.2185224005205641 0 -0.17759570031793059 -0.20747445871146761 0 -0.18020897452078519 -0.21449975562020851 0 -0.16984147459509341 -0.2185224005205641 0 -0.16321471962768391 -0.20274109361403261 0 -0.17759570031793059 -0.20747445871146761 0 -0.16984147459509341 -0.2185224005205641 0 -0.16321471962768391 -0.20274109361403261 0 -0.16984147459509341 -0.2185224005205641 0 -0.16321471962768391 -0.20274109361403261 0 -0.16984147459509341 -0.2185224005205641 0 -0.1569892281374167 -0.21401700170662991 0 -0.16321471962768391 -0.20274109361403261 0 -0.17759570031793059 -0.20747445871146761 0 -0.16984147459509341 -0.2185224005205641 0 -0.15793527120409401 -0.23548593072109811 0 -0.16984147459509341 -0.2185224005205641 0 -0.1811833936331812 -0.24553265005136821 0 -0.15793527120409401 -0.23548593072109811 0 -0.16984147459509341 -0.2185224005205641 0 -0.1569892281374167 -0.21401700170662991 0 -0.15793527120409401 -0.23548593072109811 0 -0.16984147459509341 -0.2185224005205641 0 -0.18681554231970851 -0.2193565134265931 0 -0.19108884221009359 -0.22947310169577079 0 -0.16984147459509341 -0.2185224005205641 0 -0.1811833936331812 -0.24553265005136821 0 -0.19108884221009359 -0.22947310169577079 0 -0.16984147459509341 -0.2185224005205641 0 -0.1811833936331812 -0.24553265005136821 0 -0.16530193415478339 -0.25707584513117598 0 -0.1811833936331812 -0.24553265005136821 0 -0.15793527120409401 -0.23548593072109811 0 -0.16530193415478339 -0.25707584513117598 0 -0.14602906781309299 -0.2524494609216309 0 -0.15793527120409401 -0.23548593072109811 0 -0.22211438525390581 -0.26831731389415958 0 -0.20599693829385629 -0.2419653887585361 0 -0.22719251964397941 -0.23902000411637531 0 -0.1811833936331812 -0.24553265005136821 0 -0.20599693829385629 -0.2419653887585361 0 -0.19108884221009359 -0.22947310169577079 0 -0.20599693829385629 -0.2419653887585361 0 -0.19108884221009359 -0.22947310169577079 0 -0.20468612492246979 -0.21639101823267759 0 -0.18681554231970851 -0.2193565134265931 0 -0.19108884221009359 -0.22947310169577079 0 -0.20468612492246979 -0.21639101823267759 0 -0.20468612492246979 -0.21639101823267759 0 -0.22318798972209211 -0.22248073373723029 0 -0.20599693829385629 -0.2419653887585361 0 -0.20468612492246979 -0.21639101823267759 0 -0.22318798972209211 -0.22248073373723029 0 -0.20468612492246979 -0.21639101823267759 0 -0.22272096324176591 -0.200881161192771 0 -0.22318798972209211 -0.22248073373723029 0 -0.20468612492246979 -0.21639101823267759 0 -0.2007340842187503 -0.2011390809651481 0 -0.22272096324176591 -0.200881161192771 0 -0.18618426012284719 -0.21030130272812561 0 -0.18681554231970851 -0.2193565134265931 0 -0.20468612492246979 -0.21639101823267759 0 -0.18618426012284719 -0.21030130272812561 0 -0.20468612492246979 -0.21639101823267759 0 -0.2007340842187503 -0.2011390809651481 0 -0.18618426012284719 -0.21030130272812561 0 -0.20468612492246979 -0.21639101823267759 0 -0.18685526255632079 -0.19428176759774091 0 -0.18618426012284719 -0.21030130272812561 0 -0.2007340842187503 -0.2011390809651481 0 -0.18685526255632079 -0.19428176759774091 0 -0.2007340842187503 -0.2011390809651481 0 -0.1987972984150258 -0.19113746854611779 0 -0.18685526255632079 -0.19428176759774091 0 -0.1987972984150258 -0.19113746854611779 0 -0.1974929101760991 -0.17912563001679691 0 -0.2007340842187503 -0.2011390809651481 0 -0.1987972984150258 -0.19113746854611779 0 -0.21010693670893199 -0.19000339560478449 0 -0.2007340842187503 -0.2011390809651481 0 -0.21010693670893199 -0.19000339560478449 0 -0.22272096324176591 -0.200881161192771 0 -0.21010693670893199 -0.19000339560478449 0 -0.22272096324176591 -0.200881161192771 0 -0.21010693670893199 -0.19000339560478449 0 -0.22272096324176591 -0.200881161192771 0 -0.22234546179417211 -0.18694646352342981 0 -0.22272096324176591 -0.200881161192771 0 -0.2346937578683187 -0.19096007793409209 0 -0.23546499137590221 -0.20615095869496661 0 -0.22272096324176591 -0.200881161192771 0 -0.2346937578683187 -0.19096007793409209 0 -0.22234546179417211 -0.18694646352342981 0 -0.2346937578683187 -0.19096007793409209 0 -0.23546499137590221 -0.20615095869496661 0 -0.25068167248394618 -0.20133368871448479 0 -0.2346937578683187 -0.19096007793409209 0 -0.24847591378357781 -0.17821474295514911 0 -0.25068167248394618 -0.20133368871448479 0 -0.23546499137590221 -0.20615095869496661 0 -0.24121165492318089 -0.22016302729097401 0 -0.25068167248394618 -0.20133368871448479 0 -0.23546499137590221 -0.20615095869496661 0 -0.22318798972209211 -0.22248073373723029 0 -0.24121165492318089 -0.22016302729097401 0 -0.22272096324176591 -0.200881161192771 0 -0.23546499137590221 -0.20615095869496661 0 -0.22318798972209211 -0.22248073373723029 0 -0.22318798972209211 -0.22248073373723029 0 -0.24121165492318089 -0.22016302729097401 0 -0.22719251964397941 -0.23902000411637531 0 -0.24121165492318089 -0.22016302729097401 0 -0.24671946227842109 -0.23717817740282399 0 -0.26132111345228481 -0.21974888114761029 0 -0.24121165492318089 -0.22016302729097401 0 -0.24671946227842109 -0.23717817740282399 0 -0.22719251964397941 -0.23902000411637531 0 -0.25170345783653902 -0.26409172820614801 0 -0.24671946227842109 -0.23717817740282399 0 -0.22719251964397941 -0.23902000411637531 0 -0.20599693829385629 -0.2419653887585361 0 -0.22318798972209211 -0.22248073373723029 0 -0.22719251964397941 -0.23902000411637531 0 -0.20463816197534029 -0.1509420615954099 0 -0.23068225001878381 -0.14533397017488461 0 -0.20463816197534029 -0.1509420615954099 0 -0.21278612484664569 -0.1384884947808889 0 -0.23068225001878381 -0.14533397017488461 0 -0.20463816197534029 -0.1509420615954099 0 -0.21945219155247089 -0.15952661045252639 0 -0.23068225001878381 -0.14533397017488461 0 -0.20463816197534029 -0.1509420615954099 0 -0.21278612484664569 -0.1384884947808889 0 -0.19805874900468809 -0.14409050228006731 0 -0.21278612484664569 -0.1384884947808889 0 -0.22107728411407179 -0.13268782650796351 0 -0.20947417912034141 -0.11938811334611769 0 -0.21278612484664569 -0.1384884947808889 0 -0.19805874900468809 -0.14409050228006731 0 -0.20947417912034141 -0.11938811334611769 0 -0.19805874900468809 -0.14409050228006731 0 -0.20947417912034141 -0.11938811334611769 0 -0.1980452530449463 -0.12909543054589351 0 -0.19805874900468809 -0.14409050228006731 0 -0.20947417912034141 -0.11938811334611769 0 -0.18897883784324179 -0.14358345830127461 0 -0.19011885957369681 -0.11636654037459911 0 -0.1980452530449463 -0.12909543054589351 0 -0.18897883784324179 -0.14358345830127461 0 -0.19011885957369681 -0.11636654037459911 0 -0.1980452530449463 -0.12909543054589351 0 -0.18897883784324179 -0.14358345830127461 0 -0.19805874900468809 -0.14409050228006731 0 -0.18897883784324179 -0.14358345830127461 0 -0.19804270760591031 -0.15156616921746399 0 -0.19502343951579279 -0.15984333524465011 0 -0.18897883784324179 -0.14358345830127461 0 -0.19805874900468809 -0.14409050228006731 0 -0.19804270760591031 -0.15156616921746399 0 -0.20463816197534029 -0.1509420615954099 0 -0.19804270760591031 -0.15156616921746399 0 -0.20351434969048829 -0.15937148866591819 0 -0.20463816197534029 -0.1509420615954099 0 -0.19805874900468809 -0.14409050228006731 0 -0.19804270760591031 -0.15156616921746399 0 -0.18897883784324179 -0.14358345830127461 0 -0.18783881611278549 -0.17080037622795011 0 -0.19502343951579279 -0.15984333524465011 0 -0.18783881611278549 -0.17080037622795011 0 -0.20556521803231589 -0.16762449622880629 0 -0.18897883784324179 -0.14358345830127461 0 -0.19502343951579279 -0.15984333524465011 0 -0.18783881611278549 -0.17080037622795011 0 -0.19502343951579279 -0.15984333524465011 0 -0.20351434969048829 -0.15937148866591819 0 -0.20556521803231589 -0.16762449622880629 0 -0.19804270760591031 -0.15156616921746399 0 -0.19502343951579279 -0.15984333524465011 0 -0.20351434969048829 -0.15937148866591819 0 -0.18783881611278549 -0.17080037622795011 0 -0.1974929101760991 -0.17912563001679691 0 -0.20556521803231589 -0.16762449622880629 0 -0.18685526255632079 -0.19428176759774091 0 -0.18783881611278549 -0.17080037622795011 0 -0.1974929101760991 -0.17912563001679691 0 -0.18685526255632079 -0.19428176759774091 0 -0.1974929101760991 -0.17912563001679691 0 -0.18783881611278549 -0.17080037622795011 0 -0.1974929101760991 -0.17912563001679691 0 -0.1974929101760991 -0.17912563001679691 0 -0.20556521803231589 -0.16762449622880629 0 -0.1987972984150258 -0.19113746854611779 0 -0.21010693670893199 -0.19000339560478449 0 -0.1974929101760991 -0.17912563001679691 0 -0.1974929101760991 -0.17912563001679691 0 -0.21449801818360989 -0.17746192853182399 0 -0.20556521803231589 -0.16762449622880629 0 -0.21010693670893199 -0.19000339560478449 0 -0.1974929101760991 -0.17912563001679691 0 -0.21449801818360989 -0.17746192853182399 0 -0.21010693670893199 -0.19000339560478449 0 -0.1974929101760991 -0.17912563001679691 0 -0.21010693670893199 -0.19000339560478449 0 -0.21449801818360989 -0.17746192853182399 0 -0.22234546179417211 -0.18694646352342981 0 -0.20351434969048829 -0.15937148866591819 0 -0.20556521803231589 -0.16762449622880629 0 -0.21945219155247089 -0.15952661045252639 0 -0.21449801818360989 -0.17746192853182399 0 -0.20556521803231589 -0.16762449622880629 0 -0.21945219155247089 -0.15952661045252639 0 -0.20463816197534029 -0.1509420615954099 0 -0.20351434969048829 -0.15937148866591819 0 -0.21945219155247089 -0.15952661045252639 0 -0.21449801818360989 -0.17746192853182399 0 -0.21945219155247089 -0.15952661045252639 0 -0.22970763296823421 -0.1754257543536776 0 -0.21945219155247089 -0.15952661045252639 0 -0.22970763296823421 -0.1754257543536776 0 -0.23666172883935799 -0.16309053370841109 0 -0.21449801818360989 -0.17746192853182399 0 -0.22234546179417211 -0.18694646352342981 0 -0.22970763296823421 -0.1754257543536776 0 -0.2346937578683187 -0.19096007793409209 0 -0.22234546179417211 -0.18694646352342981 0 -0.22970763296823421 -0.1754257543536776 0 -0.2346937578683187 -0.19096007793409209 0 -0.22970763296823421 -0.1754257543536776 0 -0.24847591378357781 -0.17821474295514911 0 -0.22970763296823421 -0.1754257543536776 0 -0.24847591378357781 -0.17821474295514911 0 -0.23666172883935799 -0.16309053370841109 0 -0.24847591378357781 -0.17821474295514911 0 -0.23666172883935799 -0.16309053370841109 0 -0.25499065587372288 -0.15695159060581779 0 -0.23068225001878381 -0.14533397017488461 0 -0.25672633806222739 -0.13972587875435921 0 -0.23068225001878381 -0.14533397017488461 0 -0.25499065587372288 -0.15695159060581779 0 -0.25672633806222739 -0.13972587875435921 0 -0.23666172883935799 -0.16309053370841109 0 -0.23068225001878381 -0.14533397017488461 0 -0.25499065587372288 -0.15695159060581779 0 -0.21945219155247089 -0.15952661045252639 0 -0.23666172883935799 -0.16309053370841109 0 -0.23068225001878381 -0.14533397017488461 0 -0.23068225001878381 -0.14533397017488461 0 -0.22107728411407179 -0.13268782650796351 0 -0.23735960205357631 -0.12374132694359261 0 -0.22107728411407179 -0.13268782650796351 0 -0.23735960205357631 -0.12374132694359261 0 -0.20947417912034141 -0.11938811334611769 0 -0.21278612484664569 -0.1384884947808889 0 -0.23068225001878381 -0.14533397017488461 0 -0.22107728411407179 -0.13268782650796351 0 -0.23068225001878381 -0.14533397017488461 0 -0.23735960205357631 -0.12374132694359261 0 -0.25672633806222739 -0.13972587875435921 0 -0.23735960205357631 -0.12374132694359261 0 -0.24336404637896769 -0.1023238364360409 0 -0.25263928511127681 -0.1162041113613589 0 -0.23735960205357631 -0.12374132694359261 0 -0.24336404637896769 -0.1023238364360409 0 -0.2251010986971323 -0.1107761717752148 0 -0.24336404637896769 -0.1023238364360409 0 -0.2251010986971323 -0.1107761717752148 0 -0.2355036697073622 -0.090422455667487633 0 -0.2251010986971323 -0.1107761717752148 0 -0.2355036697073622 -0.090422455667487633 0 -0.22153284880108931 -0.093293787905746162 0 -0.23735960205357631 -0.12374132694359261 0 -0.2251010986971323 -0.1107761717752148 0 -0.20947417912034141 -0.11938811334611769 0 -0.23735960205357631 -0.12374132694359261 0 -0.20947417912034141 -0.11938811334611769 0 -0.24681093409504121 -0.081729115821102774 0 -0.25025782181110651 -0.061134395206163393 0 -0.2335915184818308 -0.067199462465371645 0 -0.25025782181110651 -0.061134395206163393 0 -0.24681093409504121 -0.081729115821102774 0 -0.2335915184818308 -0.067199462465371645 0 -0.25025782181110651 -0.061134395206163393 0 -0.24336404637896769 -0.1023238364360409 0 -0.24681093409504121 -0.081729115821102774 0 -0.25584364201564819 -0.087195777053497042 0 -0.24336404637896769 -0.1023238364360409 0 -0.24681093409504121 -0.081729115821102774 0 -0.24336404637896769 -0.1023238364360409 0 -0.2355036697073622 -0.090422455667487633 0 -0.24681093409504121 -0.081729115821102774 0 -0.2355036697073622 -0.090422455667487633 0 -0.24681093409504121 -0.081729115821102774 0 -0.2335915184818308 -0.067199462465371645 0 -0.2355036697073622 -0.090422455667487633 0 -0.22153284880108931 -0.093293787905746162 0 -0.2335915184818308 -0.067199462465371645 0 -0.22153284880108931 -0.093293787905746162 0 -0.2335915184818308 -0.067199462465371645 0 -0.22153284880108931 -0.093293787905746162 0 -0.2335915184818308 -0.067199462465371645 0 -0.20616894796332499 -0.077178864095660896 0 -0.2335915184818308 -0.067199462465371645 0 -0.20616894796332499 -0.077178864095660896 0 -0.21780939350966139 -0.061200981588623783 0 -0.2335915184818308 -0.067199462465371645 0 -0.20616894796332499 -0.077178864095660896 0 -0.20616894796332499 -0.077178864095660896 0 -0.2029652857560785 -0.058447192183165637 0 -0.21780939350966139 -0.061200981588623783 0 -0.20616894796332499 -0.077178864095660896 0 -0.2029652857560785 -0.058447192183165637 0 -0.22153284880108931 -0.093293787905746162 0 -0.20616894796332499 -0.077178864095660896 0 -0.21106347758017369 -0.1057969633266176 0 -0.20616894796332499 -0.077178864095660896 0 -0.21106347758017369 -0.1057969633266176 0 -0.20616894796332499 -0.077178864095660896 0 -0.191537263804158 -0.082503509086670368 0 -0.19082806168892691 -0.099435024730634702 0 -0.191537263804158 -0.082503509086670368 0 -0.19082806168892691 -0.099435024730634702 0 -0.20616894796332499 -0.077178864095660896 0 -0.191537263804158 -0.082503509086670368 0 -0.191537263804158 -0.082503509086670368 0 -0.19221591706992761 -0.066301317723375261 0 -0.20616894796332499 -0.077178864095660896 0 -0.19221591706992761 -0.066301317723375261 0 -0.2029652857560785 -0.058447192183165637 0 -0.20616894796332499 -0.077178864095660896 0 -0.191537263804158 -0.082503509086670368 0 -0.19221591706992761 -0.066301317723375261 0 -0.20947417912034141 -0.11938811334611769 0 -0.21106347758017369 -0.1057969633266176 0 -0.20079448570501751 -0.1114846439968628 0 -0.2251010986971323 -0.1107761717752148 0 -0.22153284880108931 -0.093293787905746162 0 -0.20947417912034141 -0.11938811334611769 0 -0.22153284880108931 -0.093293787905746162 0 -0.20947417912034141 -0.11938811334611769 0 -0.21106347758017369 -0.1057969633266176 0 -0.22153284880108931 -0.093293787905746162 0 -0.20947417912034141 -0.11938811334611769 0 -0.20616894796332499 -0.077178864095660896 0 -0.21106347758017369 -0.1057969633266176 0 -0.19082806168892691 -0.099435024730634702 0 -0.19082806168892691 -0.099435024730634702 0 -0.19011885957369681 -0.11636654037459911 0 -0.20079448570501751 -0.1114846439968628 0 -0.19082806168892691 -0.099435024730634702 0 -0.19011885957369681 -0.11636654037459911 0 -0.21106347758017369 -0.1057969633266176 0 -0.19082806168892691 -0.099435024730634702 0 -0.20079448570501751 -0.1114846439968628 0 -0.1980452530449463 -0.12909543054589351 0 -0.20947417912034141 -0.11938811334611769 0 -0.19011885957369681 -0.11636654037459911 0 -0.20947417912034141 -0.11938811334611769 0 -0.19011885957369681 -0.11636654037459911 0 -0.20079448570501751 -0.1114846439968628 0 -0.20947417912034141 -0.11938811334611769 0 -0.19011885957369681 -0.11636654037459911 0 -0.17572194195592569 -0.12594922947996751 0 -0.19011885957369681 -0.11636654037459911 0 -0.17462248327532121 -0.11394738983220069 0 -0.19011885957369681 -0.11636654037459911 0 -0.17462248327532121 -0.11394738983220069 0 -0.19011885957369681 -0.11636654037459911 0 -0.17462248327532121 -0.11394738983220069 0 -0.17821331330297779 -0.1009424286546271 0 -0.17572194195592569 -0.12594922947996751 0 -0.17462248327532121 -0.11394738983220069 0 -0.1625300074857437 -0.1237110143843189 0 -0.17462248327532121 -0.11394738983220069 0 -0.15912610697694529 -0.111528239289805 0 -0.1648917287570428 -0.1034218355033994 0 -0.17462248327532121 -0.11394738983220069 0 -0.15912610697694529 -0.111528239289805 0 -0.1625300074857437 -0.1237110143843189 0 -0.17462248327532121 -0.11394738983220069 0 -0.15912610697694529 -0.111528239289805 0 -0.15059746739176519 -0.12590499349524931 0 -0.15912610697694529 -0.111528239289805 0 -0.1625300074857437 -0.1237110143843189 0 -0.1648917287570428 -0.1034218355033994 0 -0.1680113346780428 -0.091064876275678733 0 -0.14448540555192699 -0.099626243464685391 0 -0.1648917287570428 -0.1034218355033994 0 -0.17821331330297779 -0.1009424286546271 0 -0.1680113346780428 -0.091064876275678733 0 -0.191537263804158 -0.082503509086670368 0 -0.19082806168892691 -0.099435024730634702 0 -0.17821331330297779 -0.1009424286546271 0 -0.19082806168892691 -0.099435024730634702 0 -0.19011885957369681 -0.11636654037459911 0 -0.17821331330297779 -0.1009424286546271 0 -0.17462248327532121 -0.11394738983220069 0 -0.1648917287570428 -0.1034218355033994 0 -0.17821331330297779 -0.1009424286546271 0 -0.191537263804158 -0.082503509086670368 0 -0.17690106900868399 -0.073775141062900368 0 -0.1680113346780428 -0.091064876275678733 0 -0.191537263804158 -0.082503509086670368 0 -0.1680113346780428 -0.091064876275678733 0 -0.191537263804158 -0.082503509086670368 0 -0.17821331330297779 -0.1009424286546271 0 -0.1680113346780428 -0.091064876275678733 0 -0.191537263804158 -0.082503509086670368 0 -0.19221591706992761 -0.066301317723375261 0 -0.17690106900868399 -0.073775141062900368 0 -0.19221591706992761 -0.066301317723375261 0 -0.17690106900868399 -0.073775141062900368 0 -0.1798874554803527 -0.055604559087165842 0 -0.17690106900868399 -0.073775141062900368 0 -0.16001328741186241 -0.071493597903663872 0 -0.1798874554803527 -0.055604559087165842 0 -0.16001328741186241 -0.071493597903663872 0 -0.1798874554803527 -0.055604559087165842 0 -0.16001328741186241 -0.071493597903663872 0 -0.1680113346780428 -0.091064876275678733 0 -0.148785910555081 -0.082637391040642494 0 -0.17690106900868399 -0.073775141062900368 0 -0.16001328741186241 -0.071493597903663872 0 -0.1680113346780428 -0.091064876275678733 0 -0.1680113346780428 -0.091064876275678733 0 -0.148785910555081 -0.082637391040642494 0 -0.14448540555192699 -0.099626243464685391 0 -0.148785910555081 -0.082637391040642494 0 -0.13495518705303231 -0.09005689600765894 0 -0.14448540555192699 -0.099626243464685391 0 -0.16001328741186241 -0.071493597903663872 0 -0.14646089017053021 -0.067146341956103445 0 -0.15353786659420129 -0.057829090106786371 0 -0.16001328741186241 -0.071493597903663872 0 -0.148785910555081 -0.082637391040642494 0 -0.14646089017053021 -0.067146341956103445 0 -0.148785910555081 -0.082637391040642494 0 -0.14646089017053021 -0.067146341956103445 0 -0.13559606247384451 -0.078630614297465831 0 -0.119642867198838 -0.073302170836856362 0 -0.14646089017053021 -0.067146341956103445 0 -0.119642867198838 -0.073302170836856362 0 -0.14646089017053021 -0.067146341956103445 0 -0.13351321382320669 -0.065598503146448148 0 -0.119642867198838 -0.073302170836856362 0 -0.14646089017053021 -0.067146341956103445 0 -0.13559606247384451 -0.078630614297465831 0 -0.1222659998279787 -0.066934351433516059 0 -0.13351321382320669 -0.065598503146448148 0 -0.119642867198838 -0.073302170836856362 0 -0.1222659998279787 -0.066934351433516059 0 -0.13351321382320669 -0.065598503146448148 0 -0.119642867198838 -0.073302170836856362 0 -0.13559606247384451 -0.078630614297465831 0 -0.127429446573081 -0.082462269219444884 0 -0.148785910555081 -0.082637391040642494 0 -0.13495518705303231 -0.09005689600765894 0 -0.13559606247384451 -0.078630614297465831 0 -0.13495518705303231 -0.09005689600765894 0 -0.13559606247384451 -0.078630614297465831 0 -0.127429446573081 -0.082462269219444884 0 -0.1224440299586441 -0.090322099331281741 0 -0.13495518705303231 -0.09005689600765894 0 -0.127429446573081 -0.082462269219444884 0 -0.1209594764258113 -0.10818761065369201 0 -0.14448540555192699 -0.099626243464685391 0 -0.1209594764258113 -0.10818761065369201 0 -0.13495518705303231 -0.09005689600765894 0 -0.14448540555192699 -0.099626243464685391 0 -0.1209594764258113 -0.10818761065369201 0 -0.13170401298238199 -0.1142150949500024 0 -0.14448540555192699 -0.099626243464685391 0 -0.1209594764258113 -0.10818761065369201 0 -0.1224440299586441 -0.090322099331281741 0 -0.13495518705303231 -0.09005689600765894 0 -0.1163299610319649 -0.123559176195451 0 -0.13170401298238199 -0.1142150949500024 0 -0.13307603398775869 -0.124728085141914 0 -0.13170401298238199 -0.1142150949500024 0 -0.13307603398775869 -0.124728085141914 0 -0.14366918791444791 -0.1149743592942698 0 -0.13170401298238199 -0.1142150949500024 0 -0.14366918791444791 -0.1149743592942698 0 -0.14448540555192699 -0.099626243464685391 0 -0.15059746739176519 -0.12590499349524931 0 -0.13307603398775869 -0.124728085141914 0 -0.14366918791444791 -0.1149743592942698 0 -0.15059746739176519 -0.12590499349524931 0 -0.15912610697694529 -0.111528239289805 0 -0.14366918791444791 -0.1149743592942698 0 -0.15912610697694529 -0.111528239289805 0 -0.1648917287570428 -0.1034218355033994 0 -0.14448540555192699 -0.099626243464685391 0 -0.1680113346780428 -0.091064876275678733 0 -0.14448540555192699 -0.099626243464685391 0 -0.15912610697694529 -0.111528239289805 0 -0.14366918791444791 -0.1149743592942698 0 -0.14448540555192699 -0.099626243464685391 0 -0.15237332256215749 -0.01589907860722448 0 -0.14078236383619791 -0.0085897067193413806 0 -0.1387648288997185 -0.02663668504267435 0 -0.1506726103903526 -0.028986244210024568 0 -0.15237332256215749 -0.01589907860722448 0 -0.1387648288997185 -0.02663668504267435 0 -0.1506725034137911 -0.00072827641150988924 0 -0.14078236383619791 -0.0085897067193413806 0 -0.1356972964359357 0.0087647184508017305 0 -0.15237332256215749 -0.01589907860722448 0 -0.1506725034137911 -0.00072827641150988924 0 -0.14078236383619791 -0.0085897067193413806 0 -0.14078236383619791 -0.0085897067193413806 0 -0.12684239433194619 -0.0024106449572988912 0 -0.12656208370071809 -0.020532226921150191 0 -0.14078236383619791 -0.0085897067193413806 0 -0.12684239433194619 -0.0024106449572988912 0 -0.1356972964359357 0.0087647184508017305 0 -0.14078236383619791 -0.0085897067193413806 0 -0.12656208370071809 -0.020532226921150191 0 -0.14078236383619791 -0.0085897067193413806 0 -0.12656208370071809 -0.020532226921150191 0 -0.1387648288997185 -0.02663668504267435 0 -0.12656208370071809 -0.020532226921150191 0 -0.1387648288997185 -0.02663668504267435 0 -0.12556548126247061 -0.032941768348231711 0 -0.1387648288997185 -0.02663668504267435 0 -0.12556548126247061 -0.032941768348231711 0 -0.1339631020376629 -0.038538900290041027 0 -0.1238325117896016 -0.041547804325526752 0 -0.12556548126247061 -0.032941768348231711 0 -0.1339631020376629 -0.038538900290041027 0 -0.1238325117896016 -0.041547804325526752 0 -0.1339631020376629 -0.038538900290041027 0 -0.1281145509328212 -0.052736625861778713 0 -0.1339631020376629 -0.038538900290041027 0 -0.1281145509328212 -0.052736625861778713 0 -0.1387648288997185 -0.02663668504267435 0 -0.1339631020376629 -0.038538900290041027 0 -0.1456022959354295 -0.040923859009171677 0 -0.1222659998279787 -0.066934351433516059 0 -0.13351321382320669 -0.065598503146448148 0 -0.1281145509328212 -0.052736625861778713 0 -0.1222659998279787 -0.066934351433516059 0 -0.1281145509328212 -0.052736625861778713 0 -0.1339631020376629 -0.038538900290041027 0 -0.1281145509328212 -0.052736625861778713 0 -0.1431019767965761 -0.052538817764399712 0 -0.13351321382320669 -0.065598503146448148 0 -0.1281145509328212 -0.052736625861778713 0 -0.1431019767965761 -0.052538817764399712 0 -0.14646089017053021 -0.067146341956103445 0 -0.1431019767965761 -0.052538817764399712 0 -0.15353786659420129 -0.057829090106786371 0 -0.14646089017053021 -0.067146341956103445 0 -0.13351321382320669 -0.065598503146448148 0 -0.1431019767965761 -0.052538817764399712 0 -0.1431019767965761 -0.052538817764399712 0 -0.15353786659420129 -0.057829090106786371 0 -0.1566383878186392 -0.04752673504758656 0 -0.1431019767965761 -0.052538817764399712 0 -0.1456022959354295 -0.040923859009171677 0 -0.1566383878186392 -0.04752673504758656 0 -0.1456022959354295 -0.040923859009171677 0 -0.16230340431068421 -0.036045835132871629 0 -0.1566383878186392 -0.04752673504758656 0 -0.1506726103903526 -0.028986244210024568 0 -0.1456022959354295 -0.040923859009171677 0 -0.16230340431068421 -0.036045835132871629 0 -0.1506726103903526 -0.028986244210024568 0 -0.1387648288997185 -0.02663668504267435 0 -0.1456022959354295 -0.040923859009171677 0 -0.1339631020376629 -0.038538900290041027 0 -0.1431019767965761 -0.052538817764399712 0 -0.1456022959354295 -0.040923859009171677 0 -0.16230340431068421 -0.036045835132871629 0 -0.16919653775701521 -0.045587236372266048 0 -0.17838552058482071 -0.037125144146923181 0 -0.16230340431068421 -0.036045835132871629 0 -0.17838552058482071 -0.037125144146923181 0 -0.16708993638455449 -0.02343745294416209 0 -0.16230340431068421 -0.036045835132871629 0 -0.16919653775701521 -0.045587236372266048 0 -0.1566383878186392 -0.04752673504758656 0 -0.16919653775701521 -0.045587236372266048 0 -0.16403660732498221 -0.055466424152395978 0 -0.1798874554803527 -0.055604559087165842 0 -0.16001328741186241 -0.071493597903663872 0 -0.15353786659420129 -0.057829090106786371 0 -0.16403660732498221 -0.055466424152395978 0 -0.16001328741186241 -0.071493597903663872 0 -0.16403660732498221 -0.055466424152395978 0 -0.1798874554803527 -0.055604559087165842 0 -0.16919653775701521 -0.045587236372266048 0 -0.16403660732498221 -0.055466424152395978 0 -0.1566383878186392 -0.04752673504758656 0 -0.15353786659420129 -0.057829090106786371 0 -0.16403660732498221 -0.055466424152395978 0 -0.1566383878186392 -0.04752673504758656 0 -0.16919653775701521 -0.045587236372266048 0 -0.1798874554803527 -0.055604559087165842 0 -0.17838552058482071 -0.037125144146923181 0 -0.1798874554803527 -0.055604559087165842 0 -0.17838552058482071 -0.037125144146923181 0 -0.19976162354884361 -0.039715520270668457 0 -0.17838552058482071 -0.037125144146923181 0 -0.18445023546665101 -0.02525347386329051 0 -0.16708993638455449 -0.02343745294416209 0 -0.18445023546665101 -0.02525347386329051 0 -0.18103954239219089 -0.01326505090046317 0 -0.1969004561711365 -0.02298640055106246 0 -0.18445023546665101 -0.02525347386329051 0 -0.16708993638455449 -0.02343745294416209 0 -0.18103954239219089 -0.01326505090046317 0 -0.1506726103903526 -0.028986244210024568 0 -0.15237332256215749 -0.01589907860722448 0 -0.16708993638455449 -0.02343745294416209 0 -0.1506726103903526 -0.028986244210024568 0 -0.16230340431068421 -0.036045835132871629 0 -0.16708993638455449 -0.02343745294416209 0 -0.15237332256215749 -0.01589907860722448 0 -0.16708993638455449 -0.02343745294416209 0 -0.16572313506263431 -0.0068689691824014559 0 -0.16708993638455449 -0.02343745294416209 0 -0.16572313506263431 -0.0068689691824014559 0 -0.18103954239219089 -0.01326505090046317 0 -0.1506725034137911 -0.00072827641150988924 0 -0.16572313506263431 -0.0068689691824014559 0 -0.16561420801104579 0.0071696275992592772 0 -0.15237332256215749 -0.01589907860722448 0 -0.1506725034137911 -0.00072827641150988924 0 -0.16572313506263431 -0.0068689691824014559 0 -0.18103954239219089 -0.01326505090046317 0 -0.19383873418493161 -0.0051544447078166813 0 -0.17829992471754899 0.0033881526606483101 0 -0.16572313506263431 -0.0068689691824014559 0 -0.18103954239219089 -0.01326505090046317 0 -0.17829992471754899 0.0033881526606483101 0 -0.19383873418493161 -0.0051544447078166813 0 -0.1969004561711365 -0.02298640055106246 0 -0.2079112221019192 -0.017322018022009032 0 -0.18103954239219089 -0.01326505090046317 0 -0.19383873418493161 -0.0051544447078166813 0 -0.1969004561711365 -0.02298640055106246 0 -0.19383873418493161 -0.0051544447078166813 0 -0.2079112221019192 -0.017322018022009032 0 -0.2058593508946302 -0.002230877548247843 0 -0.1969004561711365 -0.02298640055106246 0 -0.2079112221019192 -0.017322018022009032 0 -0.19976162354884361 -0.039715520270668457 0 -0.18445023546665101 -0.02525347386329051 0 -0.1969004561711365 -0.02298640055106246 0 -0.19976162354884361 -0.039715520270668457 0 -0.2079112221019192 -0.017322018022009032 0 -0.21708027553342021 -0.0064990992034965958 0 -0.22057339919922131 -0.02307688110803607 0 -0.2079112221019192 -0.017322018022009032 0 -0.19976162354884361 -0.039715520270668457 0 -0.22057339919922131 -0.02307688110803607 0 -0.21708027553342021 -0.0064990992034965958 0 -0.2058593508946302 -0.002230877548247843 0 -0.21107591301114631 0.0075632626673277862 0 -0.2079112221019192 -0.017322018022009032 0 -0.21708027553342021 -0.0064990992034965958 0 -0.2058593508946302 -0.002230877548247843 0 -0.2029652857560785 -0.058447192183165637 0 -0.19976162354884361 -0.039715520270668457 0 -0.19221591706992761 -0.066301317723375261 0 -0.1798874554803527 -0.055604559087165842 0 -0.2029652857560785 -0.058447192183165637 0 -0.1798874554803527 -0.055604559087165842 0 -0.19976162354884361 -0.039715520270668457 0 -0.1798874554803527 -0.055604559087165842 0 -0.2029652857560785 -0.058447192183165637 0 -0.19976162354884361 -0.039715520270668457 0 -0.1969004561711365 -0.02298640055106246 0 -0.19976162354884361 -0.039715520270668457 0 -0.17838552058482071 -0.037125144146923181 0 -0.18445023546665101 -0.02525347386329051 0 -0.19976162354884361 -0.039715520270668457 0 -0.19976162354884361 -0.039715520270668457 0 -0.2172658114409208 -0.046889745741212338 0 -0.22057339919922131 -0.02307688110803607 0 -0.19976162354884361 -0.039715520270668457 0 -0.22057339919922131 -0.02307688110803607 0 -0.2029652857560785 -0.058447192183165637 0 -0.19976162354884361 -0.039715520270668457 0 -0.2172658114409208 -0.046889745741212338 0 -0.2029652857560785 -0.058447192183165637 0 -0.2172658114409208 -0.046889745741212338 0 -0.21780939350966139 -0.061200981588623783 0 -0.2335915184818308 -0.067199462465371645 0 -0.21780939350966139 -0.061200981588623783 0 -0.22808962900324989 -0.053799263896097287 0 -0.2335915184818308 -0.067199462465371645 0 -0.22808962900324989 -0.053799263896097287 0 -0.24030391454805389 -0.052674191264330233 0 -0.2172658114409208 -0.046889745741212338 0 -0.21780939350966139 -0.061200981588623783 0 -0.22808962900324989 -0.053799263896097287 0 -0.2172658114409208 -0.046889745741212338 0 -0.22808962900324989 -0.053799263896097287 0 -0.2314775070357836 -0.041031938420950972 0 -0.22808962900324989 -0.053799263896097287 0 -0.2314775070357836 -0.041031938420950972 0 -0.24030391454805389 -0.052674191264330233 0 -0.2172658114409208 -0.046889745741212338 0 -0.2314775070357836 -0.041031938420950972 0 -0.22057339919922131 -0.02307688110803607 0 -0.2314775070357836 -0.041031938420950972 0 -0.2470163106142633 -0.0381489200632825 0 -0.23465020250607979 -0.02911224889113128 0 -0.2470163106142633 -0.0381489200632825 0 -0.25166043788688769 -0.052753940549670718 0 -0.2470163106142633 -0.0381489200632825 0 -0.24030391454805389 -0.052674191264330233 0 -0.2314775070357836 -0.041031938420950972 0 -0.2470163106142633 -0.0381489200632825 0 -0.24030391454805389 -0.052674191264330233 0 -0.2335915184818308 -0.067199462465371645 0 -0.24030391454805389 -0.052674191264330233 0 -0.25025782181110651 -0.061134395206163393 0 -0.2470163106142633 -0.0381489200632825 0 -0.24030391454805389 -0.052674191264330233 0 -0.25166043788688769 -0.052753940549670718 0 -0.24030391454805389 -0.052674191264330233 0 -0.25166043788688769 -0.052753940549670718 0 -0.25025782181110651 -0.061134395206163393 0 -0.2335915184818308 -0.067199462465371645 0 -0.24030391454805389 -0.052674191264330233 0 -0.22057339919922131 -0.02307688110803607 0 -0.24138517484959959 -0.00643824194540428 0 -0.2395259569665191 -0.014592983274072 0 -0.21708027553342021 -0.0064990992034965958 0 -0.23283338722637109 -0.0071407950473802786 0 -0.22057339919922131 -0.02307688110803607 0 -0.22057339919922131 -0.02307688110803607 0 -0.24138517484959959 -0.00643824194540428 0 -0.23283338722637109 -0.0071407950473802786 0 -0.22057339919922131 -0.02307688110803607 0 -0.24138517484959959 -0.00643824194540428 0 -0.21708027553342021 -0.0064990992034965958 0 -0.23283338722637109 -0.0071407950473802786 0 -0.22341847121708561 0.0061320188341525408 0 -0.22057339919922131 -0.02307688110803607 0 -0.23465020250607979 -0.02911224889113128 0 -0.2395259569665191 -0.014592983274072 0 -0.2314775070357836 -0.041031938420950972 0 -0.22057339919922131 -0.02307688110803607 0 -0.23465020250607979 -0.02911224889113128 0 -0.2470163106142633 -0.0381489200632825 0 -0.23465020250607979 -0.02911224889113128 0 -0.2395259569665191 -0.014592983274072 0 -0.2470163106142633 -0.0381489200632825 0 -0.2395259569665191 -0.014592983274072 0 -0.2470163106142633 -0.0381489200632825 0 -0.2395259569665191 -0.014592983274072 0 -0.25812990511239498 -0.014099687492508711 0 -0.24138517484959959 -0.00643824194540428 0 -0.2395259569665191 -0.014592983274072 0 -0.25812990511239498 -0.014099687492508711 0 -0.25812990511239498 -0.014099687492508711 0 -0.26219695049997649 0.010200397217229189 0 -0.26584301990892367 0.00259108628171982 0 -0.25812990511239498 -0.014099687492508711 0 -0.26584301990892367 0.00259108628171982 0 -0.24138517484959959 -0.00643824194540428 0 -0.25812990511239498 -0.014099687492508711 0 -0.26219695049997649 0.010200397217229189 0 -0.25812990511239498 -0.014099687492508711 0 -0.26219695049997649 0.010200397217229189 0 -0.25812990511239498 -0.014099687492508711 0 -0.25489517149963958 -0.033426814021089393 0 -0.2470163106142633 -0.0381489200632825 0 -0.25812990511239498 -0.014099687492508711 0 -0.2470163106142633 -0.0381489200632825 0 -0.25812990511239498 -0.014099687492508711 0 -0.25489517149963958 -0.033426814021089393 0 -0.25812990511239498 -0.014099687492508711 0 -0.26673074646572692 -0.026698633185543399 0 -0.25489517149963958 -0.033426814021089393 0 -0.26673074646572692 -0.026698633185543399 0 -0.28030944872597918 -0.028853210161661001 0 -0.27632229945269587 -0.012229047098285919 0 -0.25812990511239498 -0.014099687492508711 0 -0.26673074646572692 -0.026698633185543399 0 -0.27632229945269587 -0.012229047098285919 0 -0.25812990511239498 -0.014099687492508711 0 -0.27632229945269587 -0.012229047098285919 0 -0.26584301990892367 0.00259108628171982 0 -0.27632229945269587 -0.012229047098285919 0 -0.26584301990892367 0.00259108628171982 0 -0.28178806972497322 0.0047021863176151838 0 -0.28902394801675352 -0.0073117154105768528 0 -0.29571507552162041 0.00098409570603152701 0 -0.28178806972497322 0.0047021863176151838 0 -0.27632229945269587 -0.012229047098285919 0 -0.28902394801675352 -0.0073117154105768528 0 -0.28178806972497322 0.0047021863176151838 0 -0.28902394801675352 -0.0073117154105768528 0 -0.29955349054904362 -0.010265122393890659 0 -0.29571507552162041 0.00098409570603152701 0 -0.28902394801675352 -0.0073117154105768528 0 -0.29068924238589711 -0.01945734915590706 0 -0.29955349054904362 -0.010265122393890659 0 -0.27632229945269587 -0.012229047098285919 0 -0.28902394801675352 -0.0073117154105768528 0 -0.29068924238589711 -0.01945734915590706 0 -0.28030944872597918 -0.028853210161661001 0 -0.27632229945269587 -0.012229047098285919 0 -0.29068924238589711 -0.01945734915590706 0 -0.28030944872597918 -0.028853210161661001 0 -0.29068924238589711 -0.01945734915590706 0 -0.29379062650788001 -0.032182798005854399 0 -0.29068924238589711 -0.01945734915590706 0 -0.30420517448988371 -0.021034625453682069 0 -0.29379062650788001 -0.032182798005854399 0 -0.30420517448988371 -0.021034625453682069 0 -0.31008566169130808 -0.02948168594476084 0 -0.29379062650788001 -0.032182798005854399 0 -0.29068924238589711 -0.01945734915590706 0 -0.30420517448988371 -0.021034625453682069 0 -0.29955349054904362 -0.010265122393890659 0 -0.30420517448988371 -0.021034625453682069 0 -0.31008566169130808 -0.02948168594476084 0 -0.31338504862321792 -0.020641086298220191 0 -0.30420517448988371 -0.021034625453682069 0 -0.31018632718741079 -0.011514157358561591 0 -0.31338504862321792 -0.020641086298220191 0 -0.31018632718741079 -0.011514157358561591 0 -0.30589562974355983 -0.003206164687927148 0 -0.29955349054904362 -0.010265122393890659 0 -0.30589562974355983 -0.003206164687927148 0 -0.31276107273044762 -0.0040066177982495338 0 -0.30909513318508558 0.003917776002563174 0 -0.31018632718741079 -0.011514157358561591 0 -0.30589562974355983 -0.003206164687927148 0 -0.31276107273044762 -0.0040066177982495338 0 -0.30589562974355983 -0.003206164687927148 0 -0.29955349054904362 -0.010265122393890659 0 -0.29571507552162041 0.00098409570603152701 0 -0.30420517448988371 -0.021034625453682069 0 -0.31018632718741079 -0.011514157358561591 0 -0.29955349054904362 -0.010265122393890659 0 -0.30202056647338948 -0.048211479288046262 0 -0.30327642477245759 -0.068591180815870123 0 -0.31600785484907751 -0.053768545164136303 0 -0.30202056647338948 -0.048211479288046262 0 -0.30033501772797161 -0.042910704241954749 0 -0.32355082142970137 -0.034462195406745999 0 -0.31008566169130808 -0.02948168594476084 0 -0.30033501772797161 -0.042910704241954749 0 -0.29379062650788001 -0.032182798005854399 0 -0.31008566169130808 -0.02948168594476084 0 -0.30033501772797161 -0.042910704241954749 0 -0.32355082142970137 -0.034462195406745999 0 -0.30033501772797161 -0.042910704241954749 0 -0.32355082142970137 -0.034462195406745999 0 -0.30033501772797161 -0.042910704241954749 0 -0.29379062650788001 -0.032182798005854399 0 -0.27711921402624062 -0.051359213077160723 0 -0.28030944872597918 -0.028853210161661001 0 -0.29379062650788001 -0.032182798005854399 0 -0.27711921402624062 -0.051359213077160723 0 -0.30202056647338948 -0.048211479288046262 0 -0.28049031151707909 -0.061960763169349072 0 -0.30202056647338948 -0.048211479288046262 0 -0.28049031151707909 -0.061960763169349072 0 -0.27711921402624062 -0.051359213077160723 0 -0.30202056647338948 -0.048211479288046262 0 -0.30033501772797161 -0.042910704241954749 0 -0.27711921402624062 -0.051359213077160723 0 -0.30033501772797161 -0.042910704241954749 0 -0.27711921402624062 -0.051359213077160723 0 -0.30202056647338948 -0.048211479288046262 0 -0.28049031151707909 -0.061960763169349072 0 -0.30327642477245759 -0.068591180815870123 0 -0.28049031151707909 -0.061960763169349072 0 -0.27711921402624062 -0.051359213077160723 0 -0.25390341032450958 -0.05980772191236633 0 -0.28030944872597918 -0.028853210161661001 0 -0.27711921402624062 -0.051359213077160723 0 -0.26399690753792138 -0.04488440715417031 0 -0.26673074646572692 -0.026698633185543399 0 -0.28030944872597918 -0.028853210161661001 0 -0.26399690753792138 -0.04488440715417031 0 -0.2470163106142633 -0.0381489200632825 0 -0.25489517149963958 -0.033426814021089393 0 -0.25166043788688769 -0.052753940549670718 0 -0.25489517149963958 -0.033426814021089393 0 -0.25166043788688769 -0.052753940549670718 0 -0.25489517149963958 -0.033426814021089393 0 -0.26399690753792138 -0.04488440715417031 0 -0.25166043788688769 -0.052753940549670718 0 -0.26673074646572692 -0.026698633185543399 0 -0.25489517149963958 -0.033426814021089393 0 -0.26399690753792138 -0.04488440715417031 0 -0.27711921402624062 -0.051359213077160723 0 -0.25390341032450958 -0.05980772191236633 0 -0.27711921402624062 -0.051359213077160723 0 -0.26399690753792138 -0.04488440715417031 0 -0.25390341032450958 -0.05980772191236633 0 -0.26399690753792138 -0.04488440715417031 0 -0.25166043788688769 -0.052753940549670718 0 -0.25390341032450958 -0.05980772191236633 0 -0.25166043788688769 -0.052753940549670718 0 -0.25025782181110651 -0.061134395206163393 0 -0.25166043788688769 -0.052753940549670718 0 -0.25390341032450958 -0.05980772191236633 0 -0.25166043788688769 -0.052753940549670718 0 -0.25390341032450958 -0.05980772191236633 0 -0.25025782181110651 -0.061134395206163393 0 -0.25390341032450958 -0.05980772191236633 0 -0.25025782181110651 -0.061134395206163393 0 -0.25390341032450958 -0.05980772191236633 0 -0.25896005656076732 -0.075710047050649376 0 -0.24681093409504121 -0.081729115821102774 0 -0.25025782181110651 -0.061134395206163393 0 -0.25734051553168208 -0.076744290695769754 0 -0.28049031151707909 -0.061960763169349072 0 -0.25390341032450958 -0.05980772191236633 0 -0.25896005656076732 -0.075710047050649376 0 -0.25390341032450958 -0.05980772191236633 0 -0.25025782181110651 -0.061134395206163393 0 -0.25896005656076732 -0.075710047050649376 0 -0.25896005656076732 -0.075710047050649376 0 -0.25734051553168208 -0.076744290695769754 0 -0.25025782181110651 -0.061134395206163393 0 -0.25896005656076732 -0.075710047050649376 0 -0.25734051553168208 -0.076744290695769754 0 -0.25896005656076732 -0.075710047050649376 0 -0.2645236718795097 -0.09320670701243261 0 -0.24681093409504121 -0.081729115821102774 0 -0.25734051553168208 -0.076744290695769754 0 -0.25584364201564819 -0.087195777053497042 0 -0.25896005656076732 -0.075710047050649376 0 -0.2645236718795097 -0.09320670701243261 0 -0.25584364201564819 -0.087195777053497042 0 -0.25896005656076732 -0.075710047050649376 0 -0.25734051553168208 -0.076744290695769754 0 -0.25584364201564819 -0.087195777053497042 0 -0.2645236718795097 -0.09320670701243261 0 -0.27403344994655388 -0.081134903744185236 0 -0.28261385890160651 -0.096442778869980317 0 -0.27403344994655388 -0.081134903744185236 0 -0.28261385890160651 -0.096442778869980317 0 -0.28673342195343382 -0.078521334919240904 0 -0.25896005656076732 -0.075710047050649376 0 -0.2645236718795097 -0.09320670701243261 0 -0.27403344994655388 -0.081134903744185236 0 -0.28049031151707909 -0.061960763169349072 0 -0.25896005656076732 -0.075710047050649376 0 -0.27403344994655388 -0.081134903744185236 0 -0.28049031151707909 -0.061960763169349072 0 -0.25896005656076732 -0.075710047050649376 0 -0.28049031151707909 -0.061960763169349072 0 -0.27403344994655388 -0.081134903744185236 0 -0.28673342195343382 -0.078521334919240904 0 -0.24336404637896769 -0.1023238364360409 0 -0.25263928511127681 -0.1162041113613589 0 -0.26458846702575373 -0.1106567415247225 0 -0.25263928511127681 -0.1162041113613589 0 -0.26458846702575373 -0.1106567415247225 0 -0.26524502498680919 -0.12809454054107949 0 -0.23735960205357631 -0.12374132694359261 0 -0.25263928511127681 -0.1162041113613589 0 -0.26524502498680919 -0.12809454054107949 0 -0.24336404637896769 -0.1023238364360409 0 -0.2645236718795097 -0.09320670701243261 0 -0.26458846702575373 -0.1106567415247225 0 -0.24336404637896769 -0.1023238364360409 0 -0.2645236718795097 -0.09320670701243261 0 -0.25584364201564819 -0.087195777053497042 0 -0.27427919903965808 -0.1049160779227824 0 -0.28237082561557059 -0.11297564035993241 0 -0.28261385890160651 -0.096442778869980317 0 -0.2645236718795097 -0.09320670701243261 0 -0.26458846702575373 -0.1106567415247225 0 -0.27427919903965808 -0.1049160779227824 0 -0.2645236718795097 -0.09320670701243261 0 -0.27427919903965808 -0.1049160779227824 0 -0.28261385890160651 -0.096442778869980317 0 -0.26458846702575373 -0.1106567415247225 0 -0.27422999655554059 -0.116059696956196 0 -0.26524502498680919 -0.12809454054107949 0 -0.27422999655554059 -0.116059696956196 0 -0.28466646610991142 -0.1236554844324633 0 -0.26524502498680919 -0.12809454054107949 0 -0.26458846702575373 -0.1106567415247225 0 -0.27427919903965808 -0.1049160779227824 0 -0.27422999655554059 -0.116059696956196 0 -0.27427919903965808 -0.1049160779227824 0 -0.27422999655554059 -0.116059696956196 0 -0.28237082561557059 -0.11297564035993241 0 -0.27422999655554059 -0.116059696956196 0 -0.28466646610991142 -0.1236554844324633 0 -0.28237082561557059 -0.11297564035993241 0 -0.29534455504457008 -0.11823194866202601 0 -0.28466646610991142 -0.1236554844324633 0 -0.29313044792004228 -0.13244775413856641 0 -0.29534455504457008 -0.11823194866202601 0 -0.28466646610991142 -0.1236554844324633 0 -0.28237082561557059 -0.11297564035993241 0 -0.29534455504457008 -0.11823194866202601 0 -0.28237082561557059 -0.11297564035993241 0 -0.29149682469475591 -0.10690719019930291 0 -0.28237082561557059 -0.11297564035993241 0 -0.29149682469475591 -0.10690719019930291 0 -0.28261385890160651 -0.096442778869980317 0 -0.28261385890160651 -0.096442778869980317 0 -0.29628725393684763 -0.098677294716570454 0 -0.29715690575935289 -0.086981080904335387 0 -0.29149682469475591 -0.10690719019930291 0 -0.28261385890160651 -0.096442778869980317 0 -0.29628725393684763 -0.098677294716570454 0 -0.29628725393684763 -0.098677294716570454 0 -0.30547851235012669 -0.1067926280055016 0 -0.30774751133215872 -0.093727192290981795 0 -0.30547851235012669 -0.1067926280055016 0 -0.30774751133215872 -0.093727192290981795 0 -0.31830637209111978 -0.1004428931179896 0 -0.29149682469475591 -0.10690719019930291 0 -0.29628725393684763 -0.098677294716570454 0 -0.30547851235012669 -0.1067926280055016 0 -0.29534455504457008 -0.11823194866202601 0 -0.30547851235012669 -0.1067926280055016 0 -0.30878565939874869 -0.1189002489677302 0 -0.29534455504457008 -0.11823194866202601 0 -0.29149682469475591 -0.10690719019930291 0 -0.30547851235012669 -0.1067926280055016 0 -0.30547851235012669 -0.1067926280055016 0 -0.30878565939874869 -0.1189002489677302 0 -0.31997331419071351 -0.1116723701812761 0 -0.30878565939874869 -0.1189002489677302 0 -0.30380912160102108 -0.12673670177513921 0 -0.31512700278849187 -0.12602651855045091 0 -0.29534455504457008 -0.11823194866202601 0 -0.30878565939874869 -0.1189002489677302 0 -0.30380912160102108 -0.12673670177513921 0 -0.28049031151707909 -0.061960763169349072 0 -0.28673342195343382 -0.078521334919240904 0 -0.30327642477245759 -0.068591180815870123 0 -0.28673342195343382 -0.078521334919240904 0 -0.29715690575935289 -0.086981080904335387 0 -0.30327642477245759 -0.068591180815870123 0 -0.28261385890160651 -0.096442778869980317 0 -0.28673342195343382 -0.078521334919240904 0 -0.29715690575935289 -0.086981080904335387 0 -0.29715690575935289 -0.086981080904335387 0 -0.3077147039849768 -0.08180495935579922 0 -0.30327642477245759 -0.068591180815870123 0 -0.29628725393684763 -0.098677294716570454 0 -0.29715690575935289 -0.086981080904335387 0 -0.30774751133215872 -0.093727192290981795 0 -0.29715690575935289 -0.086981080904335387 0 -0.30774751133215872 -0.093727192290981795 0 -0.3077147039849768 -0.08180495935579922 0 -0.30774751133215872 -0.093727192290981795 0 -0.3077147039849768 -0.08180495935579922 0 -0.31950284905412918 -0.08901050808249733 0 -0.3077147039849768 -0.08180495935579922 0 -0.30327642477245759 -0.068591180815870123 0 -0.31580720462030332 -0.07639897426353183 0 -0.30327642477245759 -0.068591180815870123 0 -0.31861044435988017 -0.066403046902206136 0 -0.31600785484907751 -0.053768545164136303 0 -0.31861044435988017 -0.066403046902206136 0 -0.32611272179655593 -0.078015684228754656 0 -0.33016782241674009 -0.068313269162764798 0 -0.30327642477245759 -0.068591180815870123 0 -0.31861044435988017 -0.066403046902206136 0 -0.31580720462030332 -0.07639897426353183 0 -0.31861044435988017 -0.066403046902206136 0 -0.32611272179655593 -0.078015684228754656 0 -0.31580720462030332 -0.07639897426353183 0 -0.3077147039849768 -0.08180495935579922 0 -0.31580720462030332 -0.07639897426353183 0 -0.31950284905412918 -0.08901050808249733 0 -0.32611272179655593 -0.078015684228754656 0 -0.31580720462030332 -0.07639897426353183 0 -0.31950284905412918 -0.08901050808249733 0 -0.32611272179655593 -0.078015684228754656 0 -0.34021043393669642 -0.1043631026881902 0 -0.32611272179655593 -0.078015684228754656 0 -0.34013893611991819 -0.085881851991493174 0 -0.34021043393669642 -0.1043631026881902 0 -0.32611272179655593 -0.078015684228754656 0 -0.31950284905412918 -0.08901050808249733 0 -0.34021043393669642 -0.1043631026881902 0 -0.32611272179655593 -0.078015684228754656 0 -0.34013893611991819 -0.085881851991493174 0 -0.33282099685069161 -0.0747451719480028 0 -0.34013893611991819 -0.085881851991493174 0 -0.33975038056998691 -0.075160142134915245 0 -0.33282099685069161 -0.0747451719480028 0 -0.33975038056998691 -0.075160142134915245 0 -0.3383004133812873 -0.07030923370436952 0 -0.33016782241674009 -0.068313269162764798 0 -0.3383004133812873 -0.07030923370436952 0 -0.33016782241674009 -0.068313269162764798 0 -0.33258101720996069 -0.051174823407815553 0 -0.33975038056998691 -0.075160142134915245 0 -0.3383004133812873 -0.07030923370436952 0 -0.33975038056998691 -0.075160142134915245 0 -0.33016782241674009 -0.068313269162764798 0 -0.33282099685069161 -0.0747451719480028 0 -0.32611272179655593 -0.078015684228754656 0 -0.33016782241674009 -0.068313269162764798 0 -0.33282099685069161 -0.0747451719480028 0 -0.31863727906203387 -0.1202810429172735 0 -0.32862709131347878 -0.1194068168474031 0 -0.3235925460353033 -0.1275661428124901 0 -0.31863727906203387 -0.1202810429172735 0 -0.3235925460353033 -0.1275661428124901 0 -0.31512700278849187 -0.12602651855045091 0 -0.30878565939874869 -0.1189002489677302 0 -0.31863727906203387 -0.1202810429172735 0 -0.31512700278849187 -0.12602651855045091 0 -0.30878565939874869 -0.1189002489677302 0 -0.31863727906203387 -0.1202810429172735 0 -0.31997331419071351 -0.1116723701812761 0 -0.31863727906203387 -0.1202810429172735 0 -0.31997331419071351 -0.1116723701812761 0 -0.32862709131347878 -0.1194068168474031 0 -0.31997331419071351 -0.1116723701812761 0 -0.31830637209111978 -0.1004428931179896 0 -0.34021043393669642 -0.1043631026881902 0 -0.31950284905412918 -0.08901050808249733 0 -0.31830637209111978 -0.1004428931179896 0 -0.34021043393669642 -0.1043631026881902 0 -0.30547851235012669 -0.1067926280055016 0 -0.31997331419071351 -0.1116723701812761 0 -0.31830637209111978 -0.1004428931179896 0 -0.30774751133215872 -0.093727192290981795 0 -0.31950284905412918 -0.08901050808249733 0 -0.31830637209111978 -0.1004428931179896 0 -0.34021043393669642 -0.1043631026881902 0 -0.32862709131347878 -0.1194068168474031 0 -0.35430814607683703 -0.13071052114762599 0 -0.31997331419071351 -0.1116723701812761 0 -0.34021043393669642 -0.1043631026881902 0 -0.32862709131347878 -0.1194068168474031 0 -0.34021043393669642 -0.1043631026881902 0 -0.35430814607683703 -0.13071052114762599 0 -0.34021043393669642 -0.1043631026881902 0 -0.35853206701140927 -0.10969207178449319 0 -0.35430814607683703 -0.13071052114762599 0 -0.34021043393669642 -0.1043631026881902 0 -0.35853206701140927 -0.10969207178449319 0 -0.35738427757252977 -0.090185114106173858 0 -0.35853206701140927 -0.10969207178449319 0 -0.35738427757252977 -0.090185114106173858 0 -0.37618085244823002 -0.1101468671001255 0 -0.35738427757252977 -0.090185114106173858 0 -0.37618085244823002 -0.1101468671001255 0 -0.35853206701140927 -0.10969207178449319 0 -0.37203980735022302 -0.1309930604667861 0 -0.37618085244823002 -0.1101468671001255 0 -0.35853206701140927 -0.10969207178449319 0 -0.35430814607683703 -0.13071052114762599 0 -0.37203980735022302 -0.1309930604667861 0 -0.35487125034235889 -0.071764547355001332 0 -0.35139851698631558 -0.054964602079184799 0 -0.34435962180886609 -0.062031833488555968 0 -0.3383004133812873 -0.07030923370436952 0 -0.35487125034235889 -0.071764547355001332 0 -0.34435962180886609 -0.062031833488555968 0 -0.3383004133812873 -0.07030923370436952 0 -0.35487125034235889 -0.071764547355001332 0 -0.35738427757252977 -0.090185114106173858 0 -0.33975038056998691 -0.075160142134915245 0 -0.3383004133812873 -0.07030923370436952 0 -0.35738427757252977 -0.090185114106173858 0 -0.34013893611991819 -0.085881851991493174 0 -0.34021043393669642 -0.1043631026881902 0 -0.35738427757252977 -0.090185114106173858 0 -0.3383004133812873 -0.07030923370436952 0 -0.35738427757252977 -0.090185114106173858 0 -0.34013893611991819 -0.085881851991493174 0 -0.33975038056998691 -0.075160142134915245 0 -0.35738427757252977 -0.090185114106173858 0 -0.35487125034235889 -0.071764547355001332 0 -0.35738427757252977 -0.090185114106173858 0 -0.36612641162762138 -0.072824611112735041 0 -0.35738427757252977 -0.090185114106173858 0 -0.37462747897890453 -0.080276741319370876 0 -0.36612641162762138 -0.072824611112735041 0 -0.35738427757252977 -0.090185114106173858 0 -0.37462747897890453 -0.080276741319370876 0 -0.37618085244823002 -0.1101468671001255 0 -0.37462747897890453 -0.080276741319370876 0 -0.36612641162762138 -0.072824611112735041 0 -0.37947217108997561 -0.065637003903253097 0 -0.35487125034235889 -0.071764547355001332 0 -0.36612641162762138 -0.072824611112735041 0 -0.36610820717508508 -0.059476859542473948 0 -0.36612641162762138 -0.072824611112735041 0 -0.36610820717508508 -0.059476859542473948 0 -0.37947217108997561 -0.065637003903253097 0 -0.36610820717508508 -0.059476859542473948 0 -0.35139851698631558 -0.054964602079184799 0 -0.36190823838496172 -0.042081341420002853 0 -0.36610820717508508 -0.059476859542473948 0 -0.36190823838496172 -0.042081341420002853 0 -0.37707205259782661 -0.04961681125270398 0 -0.36610820717508508 -0.059476859542473948 0 -0.37707205259782661 -0.04961681125270398 0 -0.37947217108997561 -0.065637003903253097 0 -0.35487125034235889 -0.071764547355001332 0 -0.36610820717508508 -0.059476859542473948 0 -0.35139851698631558 -0.054964602079184799 0 -0.34635223628488832 -0.036163899796189787 0 -0.36190823838496172 -0.042081341420002853 0 -0.36012345535981971 -0.021152976184567612 0 -0.35139851698631558 -0.054964602079184799 0 -0.34635223628488832 -0.036163899796189787 0 -0.36190823838496172 -0.042081341420002853 0 -0.36190823838496172 -0.042081341420002853 0 -0.37088760371306712 -0.031916364111270468 0 -0.37707205259782661 -0.04961681125270398 0 -0.36190823838496172 -0.042081341420002853 0 -0.37088760371306712 -0.031916364111270468 0 -0.36012345535981971 -0.021152976184567612 0 -0.37088760371306712 -0.031916364111270468 0 -0.37219282069997173 -0.0167607896800013 0 -0.36012345535981971 -0.021152976184567612 0 -0.37219282069997173 -0.0167607896800013 0 -0.36012345535981971 -0.021152976184567612 0 -0.37219282069997173 -0.0167607896800013 0 -0.36012345535981971 -0.021152976184567612 0 -0.36870810208001809 -0.011795527475880269 0 -0.36012345535981971 -0.021152976184567612 0 -0.36870810208001809 -0.011795527475880269 0 -0.36883020194267091 -0.00012660618860938191 0 -0.36870810208001809 -0.011795527475880269 0 -0.38267038653320551 0.00342366148846019 0 -0.36883020194267091 -0.00012660618860938191 0 -0.36870810208001809 -0.011795527475880269 0 -0.36490139795207521 -0.0063714785955443221 0 -0.37219282069997173 -0.0167607896800013 0 -0.36870810208001809 -0.011795527475880269 0 -0.36012345535981971 -0.021152976184567612 0 -0.36164112043044039 -0.011796726477470151 0 -0.35665200192576801 -0.01332368458231421 0 -0.36012345535981971 -0.021152976184567612 0 -0.36870810208001809 -0.011795527475880269 0 -0.36164112043044039 -0.011796726477470151 0 -0.36164112043044039 -0.011796726477470151 0 -0.36490139795207521 -0.0063714785955443221 0 -0.35782064483452752 -0.0063399655490501148 0 -0.36870810208001809 -0.011795527475880269 0 -0.36164112043044039 -0.011796726477470151 0 -0.36490139795207521 -0.0063714785955443221 0 -0.36870810208001809 -0.011795527475880269 0 -0.36490139795207521 -0.0063714785955443221 0 -0.36883020194267091 -0.00012660618860938191 0 -0.36490139795207521 -0.0063714785955443221 0 -0.36046762126310039 0.00156598350646622 0 -0.36490139795207521 -0.0063714785955443221 0 -0.35782064483452752 -0.0063399655490501148 0 -0.36046762126310039 0.00156598350646622 0 -0.35782064483452752 -0.0063399655490501148 0 -0.35135420548701002 0.00042926114579642079 0 -0.36046762126310039 0.00156598350646622 0 -0.35782064483452752 -0.0063399655490501148 0 -0.35055065275125308 -0.0075856605161562403 0 -0.35135420548701002 0.00042926114579642079 0 -0.35782064483452752 -0.0063399655490501148 0 -0.35665200192576801 -0.01332368458231421 0 -0.35055065275125308 -0.0075856605161562403 0 -0.36164112043044039 -0.011796726477470151 0 -0.35782064483452752 -0.0063399655490501148 0 -0.35665200192576801 -0.01332368458231421 0 -0.34560893459574821 -0.013006996735589711 0 -0.35055065275125308 -0.0075856605161562403 0 -0.34131747691321201 -0.0056869168596235904 0 -0.35665200192576801 -0.01332368458231421 0 -0.34560893459574821 -0.013006996735589711 0 -0.35055065275125308 -0.0075856605161562403 0 -0.35055065275125308 -0.0075856605161562403 0 -0.34131747691321201 -0.0056869168596235904 0 -0.35135420548701002 0.00042926114579642079 0 -0.36012345535981971 -0.021152976184567612 0 -0.34365657132991551 -0.027145472373906888 0 -0.34635223628488832 -0.036163899796189787 0 -0.36012345535981971 -0.021152976184567612 0 -0.34365657132991551 -0.027145472373906888 0 -0.36012345535981971 -0.021152976184567612 0 -0.35055685754336441 -0.021108321558946219 0 -0.34365657132991551 -0.027145472373906888 0 -0.34635223628488832 -0.036163899796189787 0 -0.36012345535981971 -0.021152976184567612 0 -0.36012345535981971 -0.021152976184567612 0 -0.35665200192576801 -0.01332368458231421 0 -0.35055685754336441 -0.021108321558946219 0 -0.35665200192576801 -0.01332368458231421 0 -0.34179540155795829 -0.022811153094999679 0 -0.35665200192576801 -0.01332368458231421 0 -0.34560893459574821 -0.013006996735589711 0 -0.34179540155795829 -0.022811153094999679 0 -0.35665200192576801 -0.01332368458231421 0 -0.35055685754336441 -0.021108321558946219 0 -0.34179540155795829 -0.022811153094999679 0 -0.35055685754336441 -0.021108321558946219 0 -0.34365657132991551 -0.027145472373906888 0 -0.34179540155795829 -0.022811153094999679 0 -0.33153304531890548 -0.02111315228875292 0 -0.33656886176205603 -0.014217744381867041 0 -0.32086309268017232 -0.01197215776609825 0 -0.34365657132991551 -0.027145472373906888 0 -0.34179540155795829 -0.022811153094999679 0 -0.32718968730001002 -0.033137968563242567 0 -0.34365657132991551 -0.027145472373906888 0 -0.32718968730001002 -0.033137968563242567 0 -0.34179540155795829 -0.022811153094999679 0 -0.33153304531890548 -0.02111315228875292 0 -0.33656886176205603 -0.014217744381867041 0 -0.34560893459574821 -0.013006996735589711 0 -0.34179540155795829 -0.022811153094999679 0 -0.33656886176205603 -0.014217744381867041 0 -0.34179540155795829 -0.022811153094999679 0 -0.32718968730001002 -0.033137968563242567 0 -0.34179540155795829 -0.022811153094999679 0 -0.33153304531890548 -0.02111315228875292 0 -0.32718968730001002 -0.033137968563242567 0 -0.33656886176205603 -0.014217744381867041 0 -0.33160500540305787 -0.0065123157280385022 0 -0.32086309268017232 -0.01197215776609825 0 -0.34131747691321201 -0.0056869168596235904 0 -0.33656886176205603 -0.014217744381867041 0 -0.33160500540305787 -0.0065123157280385022 0 -0.34560893459574821 -0.013006996735589711 0 -0.34131747691321201 -0.0056869168596235904 0 -0.33656886176205603 -0.014217744381867041 0 -0.34131747691321201 -0.0056869168596235904 0 -0.33160500540305787 -0.0065123157280385022 0 -0.32946910031326082 0.0040104116289027486 0 -0.3192259839497702 -0.0091230420562980197 0 -0.31478738417019458 0.0083543060754884615 0 -0.3192259839497702 -0.0091230420562980197 0 -0.31276107273044762 -0.0040066177982495338 0 -0.31478738417019458 0.0083543060754884615 0 -0.33160500540305787 -0.0065123157280385022 0 -0.32086309268017232 -0.01197215776609825 0 -0.32946910031326082 0.0040104116289027486 0 -0.32086309268017232 -0.01197215776609825 0 -0.3192259839497702 -0.0091230420562980197 0 -0.31478738417019458 0.0083543060754884615 0 -0.32086309268017232 -0.01197215776609825 0 -0.31478738417019458 0.0083543060754884615 0 -0.31018632718741079 -0.011514157358561591 0 -0.31620729265227931 -0.01540294597705421 0 -0.31459516912997698 -0.010011690797540841 0 -0.31018632718741079 -0.011514157358561591 0 -0.31459516912997698 -0.010011690797540841 0 -0.31276107273044762 -0.0040066177982495338 0 -0.31620729265227931 -0.01540294597705421 0 -0.31459516912997698 -0.010011690797540841 0 -0.3192259839497702 -0.0091230420562980197 0 -0.31459516912997698 -0.010011690797540841 0 -0.3192259839497702 -0.0091230420562980197 0 -0.31276107273044762 -0.0040066177982495338 0 -0.32086309268017232 -0.01197215776609825 0 -0.32718968730001002 -0.033137968563242567 0 -0.32086309268017232 -0.01197215776609825 0 -0.32366458372934598 -0.026600390188084421 0 -0.32718968730001002 -0.033137968563242567 0 -0.32086309268017232 -0.01197215776609825 0 -0.3192259839497702 -0.0091230420562980197 0 -0.32366458372934598 -0.026600390188084421 0 -0.31620729265227931 -0.01540294597705421 0 -0.3192259839497702 -0.0091230420562980197 0 -0.32366458372934598 -0.026600390188084421 0 -0.3192259839497702 -0.0091230420562980197 0 -0.32366458372934598 -0.026600390188084421 0 -0.33153304531890548 -0.02111315228875292 0 -0.32086309268017232 -0.01197215776609825 0 -0.32718968730001002 -0.033137968563242567 0 -0.31018632718741079 -0.011514157358561591 0 -0.31620729265227931 -0.01540294597705421 0 -0.31338504862321792 -0.020641086298220191 0 -0.31620729265227931 -0.01540294597705421 0 -0.32366458372934598 -0.026600390188084421 0 -0.31338504862321792 -0.020641086298220191 0 -0.31008566169130808 -0.02948168594476084 0 -0.32366458372934598 -0.026600390188084421 0 -0.31338504862321792 -0.020641086298220191 0 -0.31008566169130808 -0.02948168594476084 0 -0.32366458372934598 -0.026600390188084421 0 -0.32355082142970137 -0.034462195406745999 0 -0.32355082142970137 -0.034462195406745999 0 -0.32718968730001002 -0.033137968563242567 0 -0.33258101720996069 -0.051174823407815553 0 -0.30202056647338948 -0.048211479288046262 0 -0.32355082142970137 -0.034462195406745999 0 -0.30202056647338948 -0.048211479288046262 0 -0.32355082142970137 -0.034462195406745999 0 -0.31600785484907751 -0.053768545164136303 0 -0.32355082142970137 -0.034462195406745999 0 -0.31600785484907751 -0.053768545164136303 0 -0.33258101720996069 -0.051174823407815553 0 -0.32366458372934598 -0.026600390188084421 0 -0.32355082142970137 -0.034462195406745999 0 -0.32718968730001002 -0.033137968563242567 0 -0.32355082142970137 -0.034462195406745999 0 -0.32718968730001002 -0.033137968563242567 0 -0.31861044435988017 -0.066403046902206136 0 -0.33016782241674009 -0.068313269162764798 0 -0.33258101720996069 -0.051174823407815553 0 -0.31861044435988017 -0.066403046902206136 0 -0.31600785484907751 -0.053768545164136303 0 -0.33258101720996069 -0.051174823407815553 0 -0.31861044435988017 -0.066403046902206136 0 -0.33258101720996069 -0.051174823407815553 0 -0.3383004133812873 -0.07030923370436952 0 -0.34435962180886609 -0.062031833488555968 0 -0.33258101720996069 -0.051174823407815553 0 -0.35139851698631558 -0.054964602079184799 0 -0.34435962180886609 -0.062031833488555968 0 -0.33258101720996069 -0.051174823407815553 0 -0.3383004133812873 -0.07030923370436952 0 -0.33258101720996069 -0.051174823407815553 0 -0.35139851698631558 -0.054964602079184799 0 -0.34635223628488832 -0.036163899796189787 0 -0.33258101720996069 -0.051174823407815553 0 -0.32718968730001002 -0.033137968563242567 0 -0.33258101720996069 -0.051174823407815553 0 -0.34635223628488832 -0.036163899796189787 0 -0.33258101720996069 -0.051174823407815553 0 -0.34635223628488832 -0.036163899796189787 0 -0.32718968730001002 -0.033137968563242567 0 -0.33258101720996069 -0.051174823407815553 0 -0.34635223628488832 -0.036163899796189787 0 -0.34365657132991551 -0.027145472373906888 0 -0.32718968730001002 -0.033137968563242567 0 -0.3032200744027207 -0.23846922127844189 0 -0.3011436515486533 -0.21932194774459221 0 -0.31864499230983029 -0.22690925142060031 0 -0.3011436515486533 -0.21932194774459221 0 -0.28232532715946379 -0.23095369010685121 0 -0.28176111780146029 -0.21103223514228589 0 -0.3032200744027207 -0.23846922127844189 0 -0.3011436515486533 -0.21932194774459221 0 -0.28232532715946379 -0.23095369010685121 0 -0.2812925304191724 -0.25986614251813639 0 -0.3032200744027207 -0.23846922127844189 0 -0.28232532715946379 -0.23095369010685121 0 -0.2812925304191724 -0.25986614251813639 0 -0.28232532715946379 -0.23095369010685121 0 -0.26467237822917622 -0.242367723876314 0 -0.25170345783653902 -0.26409172820614801 0 -0.24671946227842109 -0.23717817740282399 0 -0.26467237822917622 -0.242367723876314 0 -0.24671946227842109 -0.23717817740282399 0 -0.26467237822917622 -0.242367723876314 0 -0.26132111345228481 -0.21974888114761029 0 -0.28232532715946379 -0.23095369010685121 0 -0.26467237822917622 -0.242367723876314 0 -0.26132111345228481 -0.21974888114761029 0 -0.28232532715946379 -0.23095369010685121 0 -0.26132111345228481 -0.21974888114761029 0 -0.28176111780146029 -0.21103223514228589 0 -0.26132111345228481 -0.21974888114761029 0 -0.26774111702589781 -0.20328744422914299 0 -0.28176111780146029 -0.21103223514228589 0 -0.24121165492318089 -0.22016302729097401 0 -0.26132111345228481 -0.21974888114761029 0 -0.25068167248394618 -0.20133368871448479 0 -0.26132111345228481 -0.21974888114761029 0 -0.26774111702589781 -0.20328744422914299 0 -0.25068167248394618 -0.20133368871448479 0 -0.26774111702589781 -0.20328744422914299 0 -0.26365524490517372 -0.18939327885313401 0 -0.25068167248394618 -0.20133368871448479 0 -0.24847591378357781 -0.17821474295514911 0 -0.26365524490517372 -0.18939327885313401 0 -0.25068167248394618 -0.20133368871448479 0 -0.26774111702589781 -0.20328744422914299 0 -0.2814027475138004 -0.18982717599903071 0 -0.28176111780146029 -0.21103223514228589 0 -0.26774111702589781 -0.20328744422914299 0 -0.26365524490517372 -0.18939327885313401 0 -0.2814027475138004 -0.18982717599903071 0 -0.2814027475138004 -0.18982717599903071 0 -0.29970926333012798 -0.19964494041729519 0 -0.30198197106959462 -0.17789908998637999 0 -0.2814027475138004 -0.18982717599903071 0 -0.28176111780146029 -0.21103223514228589 0 -0.29970926333012798 -0.19964494041729519 0 -0.3011436515486533 -0.21932194774459221 0 -0.28176111780146029 -0.21103223514228589 0 -0.29970926333012798 -0.19964494041729519 0 -0.3011436515486533 -0.21932194774459221 0 -0.29970926333012798 -0.19964494041729519 0 -0.31954261003001078 -0.21025097328799719 0 -0.29970926333012798 -0.19964494041729519 0 -0.30198197106959462 -0.17789908998637999 0 -0.31678819589616891 -0.19014468464814649 0 -0.29970926333012798 -0.19964494041729519 0 -0.31678819589616891 -0.19014468464814649 0 -0.31954261003001078 -0.21025097328799719 0 -0.30198197106959462 -0.17789908998637999 0 -0.31833693175007549 -0.17440165930136031 0 -0.31678819589616891 -0.19014468464814649 0 -0.30198197106959462 -0.17789908998637999 0 -0.31113933107733338 -0.16032818230496301 0 -0.31833693175007549 -0.17440165930136031 0 -0.30198197106959462 -0.17789908998637999 0 -0.31113933107733338 -0.16032818230496301 0 -0.29481785532202892 -0.16030672340862251 0 -0.31113933107733338 -0.16032818230496301 0 -0.29481785532202892 -0.16030672340862251 0 -0.30142930327058942 -0.1496806824591779 0 -0.30198197106959462 -0.17789908998637999 0 -0.29481785532202892 -0.16030672340862251 0 -0.28592553291097128 -0.1716352958166775 0 -0.29481785532202892 -0.16030672340862251 0 -0.28358767114196343 -0.15746822480830441 0 -0.28592553291097128 -0.1716352958166775 0 -0.2814027475138004 -0.18982717599903071 0 -0.30198197106959462 -0.17789908998637999 0 -0.28592553291097128 -0.1716352958166775 0 -0.2814027475138004 -0.18982717599903071 0 -0.28592553291097128 -0.1716352958166775 0 -0.27003292923223471 -0.1717523617232774 0 -0.26365524490517372 -0.18939327885313401 0 -0.2814027475138004 -0.18982717599903071 0 -0.27003292923223471 -0.1717523617232774 0 -0.24847591378357781 -0.17821474295514911 0 -0.26365524490517372 -0.18939327885313401 0 -0.27003292923223471 -0.1717523617232774 0 -0.24847591378357781 -0.17821474295514911 0 -0.25499065587372288 -0.15695159060581779 0 -0.27003292923223471 -0.1717523617232774 0 -0.25499065587372288 -0.15695159060581779 0 -0.27003292923223471 -0.1717523617232774 0 -0.27080410040637631 -0.15533242423567259 0 -0.28358767114196343 -0.15746822480830441 0 -0.27003292923223471 -0.1717523617232774 0 -0.27080410040637631 -0.15533242423567259 0 -0.28358767114196343 -0.15746822480830441 0 -0.28592553291097128 -0.1716352958166775 0 -0.27003292923223471 -0.1717523617232774 0 -0.28358767114196343 -0.15746822480830441 0 -0.27835986449823358 -0.14785057279778421 0 -0.27080410040637631 -0.15533242423567259 0 -0.27835986449823358 -0.14785057279778421 0 -0.26873027698924618 -0.1467956507454935 0 -0.28277042610567099 -0.13411778733383389 0 -0.27835986449823358 -0.14785057279778421 0 -0.26873027698924618 -0.1467956507454935 0 -0.27080410040637631 -0.15533242423567259 0 -0.25499065587372288 -0.15695159060581779 0 -0.26873027698924618 -0.1467956507454935 0 -0.25672633806222739 -0.13972587875435921 0 -0.25499065587372288 -0.15695159060581779 0 -0.26873027698924618 -0.1467956507454935 0 -0.27080410040637631 -0.15533242423567259 0 -0.23735960205357631 -0.12374132694359261 0 -0.26524502498680919 -0.12809454054107949 0 -0.23735960205357631 -0.12374132694359261 0 -0.25672633806222739 -0.13972587875435921 0 -0.26524502498680919 -0.12809454054107949 0 -0.26524502498680919 -0.12809454054107949 0 -0.29313044792004228 -0.13244775413856641 0 -0.28277042610567099 -0.13411778733383389 0 -0.25672633806222739 -0.13972587875435921 0 -0.28277042610567099 -0.13411778733383389 0 -0.25672633806222739 -0.13972587875435921 0 -0.26524502498680919 -0.12809454054107949 0 -0.28277042610567099 -0.13411778733383389 0 -0.26873027698924618 -0.1467956507454935 0 -0.25672633806222739 -0.13972587875435921 0 -0.28277042610567099 -0.13411778733383389 0 -0.28466646610991142 -0.1236554844324633 0 -0.26524502498680919 -0.12809454054107949 0 -0.29313044792004228 -0.13244775413856641 0 -0.26524502498680919 -0.12809454054107949 0 -0.29313044792004228 -0.13244775413856641 0 -0.29313044792004228 -0.13244775413856641 0 -0.28277042610567099 -0.13411778733383389 0 -0.29464834966765552 -0.1413789519850705 0 -0.28277042610567099 -0.13411778733383389 0 -0.28798311730256598 -0.14751450397394469 0 -0.29464834966765552 -0.1413789519850705 0 -0.27835986449823358 -0.14785057279778421 0 -0.28277042610567099 -0.13411778733383389 0 -0.28798311730256598 -0.14751450397394469 0 -0.29481785532202892 -0.16030672340862251 0 -0.28358767114196343 -0.15746822480830441 0 -0.28798311730256598 -0.14751450397394469 0 -0.28358767114196343 -0.15746822480830441 0 -0.27835986449823358 -0.14785057279778421 0 -0.28798311730256598 -0.14751450397394469 0 -0.29481785532202892 -0.16030672340862251 0 -0.28798311730256598 -0.14751450397394469 0 -0.30142930327058942 -0.1496806824591779 0 -0.28798311730256598 -0.14751450397394469 0 -0.29464834966765552 -0.1413789519850705 0 -0.30142930327058942 -0.1496806824591779 0 -0.29464834966765552 -0.1413789519850705 0 -0.30142930327058942 -0.1496806824591779 0 -0.30658027664218629 -0.14270725319163571 0 -0.31113933107733338 -0.16032818230496301 0 -0.30142930327058942 -0.1496806824591779 0 -0.30976245591528501 -0.14961407504675589 0 -0.30976245591528501 -0.14961407504675589 0 -0.30658027664218629 -0.14270725319163571 0 -0.31881909815167059 -0.14728926370576351 0 -0.30142930327058942 -0.1496806824591779 0 -0.30976245591528501 -0.14961407504675589 0 -0.30658027664218629 -0.14270725319163571 0 -0.29313044792004228 -0.13244775413856641 0 -0.32101587085327521 -0.13680096773605319 0 -0.29313044792004228 -0.13244775413856641 0 -0.30658027664218629 -0.14270725319163571 0 -0.32101587085327521 -0.13680096773605319 0 -0.29313044792004228 -0.13244775413856641 0 -0.30380912160102108 -0.12673670177513921 0 -0.32101587085327521 -0.13680096773605319 0 -0.29534455504457008 -0.11823194866202601 0 -0.29313044792004228 -0.13244775413856641 0 -0.30380912160102108 -0.12673670177513921 0 -0.29313044792004228 -0.13244775413856641 0 -0.29464834966765552 -0.1413789519850705 0 -0.30658027664218629 -0.14270725319163571 0 -0.30380912160102108 -0.12673670177513921 0 -0.32101587085327521 -0.13680096773605319 0 -0.31512700278849187 -0.12602651855045091 0 -0.32101587085327521 -0.13680096773605319 0 -0.3235925460353033 -0.1275661428124901 0 -0.33450447576995929 -0.13234091471072121 0 -0.32101587085327521 -0.13680096773605319 0 -0.3235925460353033 -0.1275661428124901 0 -0.31512700278849187 -0.12602651855045091 0 -0.30658027664218629 -0.14270725319163571 0 -0.32101587085327521 -0.13680096773605319 0 -0.31881909815167059 -0.14728926370576351 0 -0.31881909815167059 -0.14728926370576351 0 -0.3317139221310913 -0.1645259087213731 0 -0.32101587085327521 -0.13680096773605319 0 -0.31881909815167059 -0.14728926370576351 0 -0.3360034445472061 -0.14574373254282449 0 -0.31113933107733338 -0.16032818230496301 0 -0.30976245591528501 -0.14961407504675589 0 -0.31881909815167059 -0.14728926370576351 0 -0.31881909815167059 -0.14728926370576351 0 -0.3360034445472061 -0.14574373254282449 0 -0.3317139221310913 -0.1645259087213731 0 -0.3360034445472061 -0.14574373254282449 0 -0.33450447576995929 -0.13234091471072121 0 -0.35430814607683703 -0.13071052114762599 0 -0.32862709131347878 -0.1194068168474031 0 -0.33450447576995929 -0.13234091471072121 0 -0.35430814607683703 -0.13071052114762599 0 -0.32101587085327521 -0.13680096773605319 0 -0.3360034445472061 -0.14574373254282449 0 -0.33450447576995929 -0.13234091471072121 0 -0.32862709131347878 -0.1194068168474031 0 -0.3235925460353033 -0.1275661428124901 0 -0.33450447576995929 -0.13234091471072121 0 -0.3360034445472061 -0.14574373254282449 0 -0.35430814607683703 -0.13071052114762599 0 -0.35565915430040368 -0.16279481923540989 0 -0.35430814607683703 -0.13071052114762599 0 -0.35565915430040368 -0.16279481923540989 0 -0.36840585821697752 -0.1570579396070618 0 -0.35430814607683703 -0.13071052114762599 0 -0.37203980735022302 -0.1309930604667861 0 -0.36840585821697752 -0.1570579396070618 0 -0.35430814607683703 -0.13071052114762599 0 -0.36840585821697752 -0.1570579396070618 0 -0.37203980735022302 -0.1309930604667861 0 -0.36840585821697752 -0.1570579396070618 0 -0.38035977331164228 -0.14950489279892351 0 -0.35565915430040368 -0.16279481923540989 0 -0.34460874611051212 -0.18176255373698269 0 -0.3317139221310913 -0.1645259087213731 0 -0.36888315164039248 -0.17435711426376729 0 -0.38035977331164228 -0.14950489279892351 0 -0.35565915430040368 -0.16279481923540989 0 -0.36840585821697752 -0.1570579396070618 0 -0.36888315164039248 -0.17435711426376729 0 -0.36840585821697752 -0.1570579396070618 0 -0.36888315164039248 -0.17435711426376729 0 -0.38035977331164228 -0.14950489279892351 0 -0.35565915430040368 -0.16279481923540989 0 -0.36888315164039248 -0.17435711426376729 0 -0.36888315164039248 -0.17435711426376729 0 -0.35750357008993311 -0.19899919875259209 0 -0.36888315164039248 -0.17435711426376729 0 -0.34460874611051212 -0.18176255373698269 0 -0.35750357008993311 -0.19899919875259209 0 -0.35565915430040368 -0.16279481923540989 0 -0.36888315164039248 -0.17435711426376729 0 -0.34460874611051212 -0.18176255373698269 0 -0.34460874611051212 -0.18176255373698269 0 -0.3317139221310913 -0.1645259087213731 0 -0.34460874611051212 -0.18176255373698269 0 -0.32915989227150011 -0.18195231550275229 0 -0.33258126197714888 -0.1974226065229624 0 -0.34460874611051212 -0.18176255373698269 0 -0.32915989227150011 -0.18195231550275229 0 -0.3317139221310913 -0.1645259087213731 0 -0.3360034445472061 -0.14574373254282449 0 -0.35565915430040368 -0.16279481923540989 0 -0.3317139221310913 -0.1645259087213731 0 -0.31113933107733338 -0.16032818230496301 0 -0.31881909815167059 -0.14728926370576351 0 -0.3317139221310913 -0.1645259087213731 0 -0.31113933107733338 -0.16032818230496301 0 -0.3317139221310913 -0.1645259087213731 0 -0.31833693175007549 -0.17440165930136031 0 -0.32915989227150011 -0.18195231550275229 0 -0.3317139221310913 -0.1645259087213731 0 -0.31833693175007549 -0.17440165930136031 0 -0.32915989227150011 -0.18195231550275229 0 -0.31833693175007549 -0.17440165930136031 0 -0.31678819589616891 -0.19014468464814649 0 -0.32915989227150011 -0.18195231550275229 0 -0.31678819589616891 -0.19014468464814649 0 -0.33258126197714888 -0.1974226065229624 0 -0.31678819589616891 -0.19014468464814649 0 -0.31954261003001078 -0.21025097328799719 0 -0.33258126197714888 -0.1974226065229624 0 -0.33755109630538149 -0.2139606129327781 0 -0.34418568844035757 -0.20204862864151801 0 -0.34868376771881138 -0.2180981712622744 0 -0.31954261003001078 -0.21025097328799719 0 -0.33755109630538149 -0.2139606129327781 0 -0.33258126197714888 -0.1974226065229624 0 -0.31954261003001078 -0.21025097328799719 0 -0.33755109630538149 -0.2139606129327781 0 -0.33259792824361212 -0.2248868562916074 0 -0.33755109630538149 -0.2139606129327781 0 -0.33258126197714888 -0.1974226065229624 0 -0.34418568844035757 -0.20204862864151801 0 -0.33755109630538149 -0.2139606129327781 0 -0.34868376771881138 -0.2180981712622744 0 -0.34460874611051212 -0.18176255373698269 0 -0.33258126197714888 -0.1974226065229624 0 -0.34418568844035757 -0.20204862864151801 0 -0.34460874611051212 -0.18176255373698269 0 -0.34418568844035757 -0.20204862864151801 0 -0.35750357008993311 -0.19899919875259209 0 -0.34460874611051212 -0.18176255373698269 0 -0.35750357008993311 -0.19899919875259209 0 -0.36888315164039248 -0.17435711426376729 0 -0.36874107550273022 -0.20075835258688171 0 -0.37820748866006981 -0.19473797919232669 0 -0.36888315164039248 -0.17435711426376729 0 -0.35750357008993311 -0.19899919875259209 0 -0.36874107550273022 -0.20075835258688171 0 -0.36725598201742138 -0.21203534897134621 0 -0.36512596101444128 -0.2184231947428614 0 -0.34868376771881138 -0.2180981712622744 0 -0.36725598201742138 -0.21203534897134621 0 -0.3727959543764317 -0.21759162781222979 0 -0.36512596101444128 -0.2184231947428614 0 -0.36725598201742138 -0.21203534897134621 0 -0.3727959543764317 -0.21759162781222979 0 -0.37411684072842571 -0.21030199111028269 0 -0.36874107550273022 -0.20075835258688171 0 -0.36725598201742138 -0.21203534897134621 0 -0.37411684072842571 -0.21030199111028269 0 -0.36874107550273022 -0.20075835258688171 0 -0.37411684072842571 -0.21030199111028269 0 -0.38087381053160252 -0.20556843122967761 0 -0.35750357008993311 -0.19899919875259209 0 -0.36874107550273022 -0.20075835258688171 0 -0.36725598201742138 -0.21203534897134621 0 -0.35750357008993311 -0.19899919875259209 0 -0.36725598201742138 -0.21203534897134621 0 -0.35750357008993311 -0.19899919875259209 0 -0.36725598201742138 -0.21203534897134621 0 -0.34868376771881138 -0.2180981712622744 0 -0.34418568844035757 -0.20204862864151801 0 -0.35750357008993311 -0.19899919875259209 0 -0.34868376771881138 -0.2180981712622744 0 -0.35750357008993311 -0.19899919875259209 0 -0.34868376771881138 -0.2180981712622744 0 -0.34868376771881138 -0.2180981712622744 0 -0.34227384568308261 -0.23197863247878611 0 -0.34868376771881138 -0.2180981712622744 0 -0.3531401548239842 -0.2301628774130926 0 -0.36766973169970701 -0.22515447702172961 0 -0.34868376771881138 -0.2180981712622744 0 -0.36766973169970701 -0.22515447702172961 0 -0.3531401548239842 -0.2301628774130926 0 -0.36766973169970701 -0.22515447702172961 0 -0.3539332741943354 -0.24542022888958009 0 -0.34868376771881138 -0.2180981712622744 0 -0.3531401548239842 -0.2301628774130926 0 -0.34227384568308261 -0.23197863247878611 0 -0.3727959543764317 -0.21759162781222979 0 -0.36766973169970701 -0.22515447702172961 0 -0.38374362032031217 -0.23112848355436791 0 -0.36512596101444128 -0.2184231947428614 0 -0.34868376771881138 -0.2180981712622744 0 -0.36766973169970701 -0.22515447702172961 0 -0.3727959543764317 -0.21759162781222979 0 -0.36766973169970701 -0.22515447702172961 0 -0.3727959543764317 -0.21759162781222979 0 -0.36512596101444128 -0.2184231947428614 0 -0.36766973169970701 -0.22515447702172961 0 -0.36766973169970701 -0.22515447702172961 0 -0.37329009336983582 -0.24701193440318839 0 -0.3539332741943354 -0.24542022888958009 0 -0.36766973169970701 -0.22515447702172961 0 -0.37329009336983582 -0.24701193440318839 0 -0.38106667612793821 -0.23965608348018569 0 -0.36547778398137482 -0.25600809124793539 0 -0.37329009336983582 -0.24701193440318839 0 -0.3539332741943354 -0.24542022888958009 0 -0.36766973169970701 -0.22515447702172961 0 -0.3539332741943354 -0.24542022888958009 0 -0.34047067558443911 -0.2514149711421132 0 -0.3539332741943354 -0.24542022888958009 0 -0.34227384568308261 -0.23197863247878611 0 -0.3531401548239842 -0.2301628774130926 0 -0.3539332741943354 -0.24542022888958009 0 -0.34227384568308261 -0.23197863247878611 0 -0.34047067558443911 -0.2514149711421132 0 -0.34227384568308261 -0.23197863247878611 0 -0.32503234197739911 -0.2381237390503467 0 -0.34227384568308261 -0.23197863247878611 0 -0.33259792824361212 -0.2248868562916074 0 -0.32503234197739911 -0.2381237390503467 0 -0.34868376771881138 -0.2180981712622744 0 -0.34227384568308261 -0.23197863247878611 0 -0.33259792824361212 -0.2248868562916074 0 -0.33755109630538149 -0.2139606129327781 0 -0.34868376771881138 -0.2180981712622744 0 -0.33259792824361212 -0.2248868562916074 0 -0.33259792824361212 -0.2248868562916074 0 -0.31864499230983029 -0.22690925142060031 0 -0.32503234197739911 -0.2381237390503467 0 -0.31954261003001078 -0.21025097328799719 0 -0.33259792824361212 -0.2248868562916074 0 -0.31864499230983029 -0.22690925142060031 0 -0.3011436515486533 -0.21932194774459221 0 -0.31954261003001078 -0.21025097328799719 0 -0.31864499230983029 -0.22690925142060031 0 -0.31088160300180567 -0.25564055683012482 0 -0.3032200744027207 -0.23846922127844189 0 -0.32503234197739911 -0.2381237390503467 0 -0.3032200744027207 -0.23846922127844189 0 -0.31864499230983029 -0.22690925142060031 0 -0.32503234197739911 -0.2381237390503467 0 -0.34047067558443911 -0.2514149711421132 0 -0.31088160300180567 -0.25564055683012482 0 -0.32503234197739911 -0.2381237390503467 0 -0.41708911744681348 -0.25910795502086709 0 -0.43364843477101239 -0.23492290621915171 0 -0.41708911744681348 -0.25910795502086709 0 -0.43389645052110831 -0.25250213825564749 0 -0.43364843477101239 -0.23492290621915171 0 -0.41708911744681348 -0.25910795502086709 0 -0.43364843477101239 -0.23492290621915171 0 -0.42084058264017121 -0.2352627354654111 0 -0.43197807738648231 -0.22952365184785761 0 -0.41325237117756042 -0.2131509822052883 0 -0.44155934565651089 -0.21545305371511109 0 -0.43197807738648231 -0.22952365184785761 0 -0.41325237117756042 -0.2131509822052883 0 -0.43197807738648231 -0.22952365184785761 0 -0.42084058264017121 -0.2352627354654111 0 -0.41325237117756042 -0.2131509822052883 0 -0.43364843477101239 -0.23492290621915171 0 -0.43197807738648231 -0.22952365184785761 0 -0.42084058264017121 -0.2352627354654111 0 -0.42084058264017121 -0.2352627354654111 0 -0.40171734425667532 -0.22708834644436579 0 -0.41325237117756042 -0.2131509822052883 0 -0.41708911744681348 -0.25910795502086709 0 -0.41137459664158882 -0.2413977865800809 0 -0.42084058264017121 -0.2352627354654111 0 -0.41137459664158882 -0.2413977865800809 0 -0.42084058264017121 -0.2352627354654111 0 -0.40171734425667532 -0.22708834644436579 0 -0.41137459664158882 -0.2413977865800809 0 -0.39427694324533219 -0.24468440519333171 0 -0.38374362032031217 -0.23112848355436791 0 -0.41137459664158882 -0.2413977865800809 0 -0.38374362032031217 -0.23112848355436791 0 -0.40336899173835827 -0.25317939998793071 0 -0.41137459664158882 -0.2413977865800809 0 -0.39427694324533219 -0.24468440519333171 0 -0.39217757666982078 -0.25435668718018062 0 -0.39427694324533219 -0.24468440519333171 0 -0.3857421214741299 -0.24761256388671449 0 -0.39427694324533219 -0.24468440519333171 0 -0.3857421214741299 -0.24761256388671449 0 -0.38106667612793821 -0.23965608348018569 0 -0.39427694324533219 -0.24468440519333171 0 -0.38106667612793821 -0.23965608348018569 0 -0.38374362032031217 -0.23112848355436791 0 -0.38106667612793821 -0.23965608348018569 0 -0.38374362032031217 -0.23112848355436791 0 -0.37329009336983582 -0.24701193440318839 0 -0.3857421214741299 -0.24761256388671449 0 -0.38106667612793821 -0.23965608348018569 0 -0.38279029993493541 -0.25521283213244289 0 -0.37329009336983582 -0.24701193440318839 0 -0.3857421214741299 -0.24761256388671449 0 -0.38374362032031217 -0.23112848355436791 0 -0.38913514264447491 -0.21395339805854349 0 -0.36766973169970701 -0.22515447702172961 0 -0.38374362032031217 -0.23112848355436791 0 -0.38374362032031217 -0.23112848355436791 0 -0.38913514264447491 -0.21395339805854349 0 -0.3807132195381584 -0.215595915745151 0 -0.36766973169970701 -0.22515447702172961 0 -0.38106667612793821 -0.23965608348018569 0 -0.38374362032031217 -0.23112848355436791 0 -0.3727959543764317 -0.21759162781222979 0 -0.38374362032031217 -0.23112848355436791 0 -0.3807132195381584 -0.215595915745151 0 -0.41137459664158882 -0.2413977865800809 0 -0.38374362032031217 -0.23112848355436791 0 -0.40171734425667532 -0.22708834644436579 0 -0.38374362032031217 -0.23112848355436791 0 -0.40171734425667532 -0.22708834644436579 0 -0.38913514264447491 -0.21395339805854349 0 -0.39452666496863792 -0.1967783125627193 0 -0.41325237117756042 -0.2131509822052883 0 -0.40171734425667532 -0.22708834644436579 0 -0.38913514264447491 -0.21395339805854349 0 -0.41325237117756042 -0.2131509822052883 0 -0.38913514264447491 -0.21395339805854349 0 -0.39452666496863792 -0.1967783125627193 0 -0.41325237117756042 -0.2131509822052883 0 -0.38913514264447491 -0.21395339805854349 0 -0.39452666496863792 -0.1967783125627193 0 -0.38913514264447491 -0.21395339805854349 0 -0.38087381053160252 -0.20556843122967761 0 -0.39452666496863792 -0.1967783125627193 0 -0.38913514264447491 -0.21395339805854349 0 -0.38087381053160252 -0.20556843122967761 0 -0.3807132195381584 -0.215595915745151 0 -0.37411684072842571 -0.21030199111028269 0 -0.38087381053160252 -0.20556843122967761 0 -0.3807132195381584 -0.215595915745151 0 -0.3727959543764317 -0.21759162781222979 0 -0.37411684072842571 -0.21030199111028269 0 -0.3807132195381584 -0.215595915745151 0 -0.37820748866006981 -0.19473797919232669 0 -0.39452666496863792 -0.1967783125627193 0 -0.38170490830451609 -0.18556771341324241 0 -0.38087381053160252 -0.20556843122967761 0 -0.37820748866006981 -0.19473797919232669 0 -0.39452666496863792 -0.1967783125627193 0 -0.36874107550273022 -0.20075835258688171 0 -0.38087381053160252 -0.20556843122967761 0 -0.37820748866006981 -0.19473797919232669 0 -0.39452666496863792 -0.1967783125627193 0 -0.38170490830451609 -0.18556771341324241 0 -0.39452666496863792 -0.1967783125627193 0 -0.39054370200795518 -0.18562547474159771 0 -0.38170490830451609 -0.18556771341324241 0 -0.39452666496863792 -0.1967783125627193 0 -0.39937270799547192 -0.18134089094075451 0 -0.39452666496863792 -0.1967783125627193 0 -0.41131169052478278 -0.19356805473352209 0 -0.39937270799547192 -0.18134089094075451 0 -0.39452666496863792 -0.1967783125627193 0 -0.39705547755404103 -0.18171124586780041 0 -0.39054370200795518 -0.18562547474159771 0 -0.41131169052478278 -0.19356805473352209 0 -0.42789966516496192 -0.19767681800087289 0 -0.41939429932412209 -0.17814090924565901 0 -0.41131169052478278 -0.19356805473352209 0 -0.41325237117756042 -0.2131509822052883 0 -0.42789966516496192 -0.19767681800087289 0 -0.39452666496863792 -0.1967783125627193 0 -0.41131169052478278 -0.19356805473352209 0 -0.41325237117756042 -0.2131509822052883 0 -0.41325237117756042 -0.2131509822052883 0 -0.42789966516496192 -0.19767681800087289 0 -0.44155934565651089 -0.21545305371511109 0 -0.42789966516496192 -0.19767681800087289 0 -0.41939429932412209 -0.17814090924565901 0 -0.44012093567594202 -0.18935399453792839 0 -0.41939429932412209 -0.17814090924565901 0 -0.43941589065277248 -0.17494092755056501 0 -0.41939429932412209 -0.17814090924565901 0 -0.43941589065277248 -0.17494092755056501 0 -0.44012093567594202 -0.18935399453792839 0 -0.42495447535831288 -0.15763034021818181 0 -0.41939429932412209 -0.17814090924565901 0 -0.43941589065277248 -0.17494092755056501 0 -0.42495447535831288 -0.15763034021818181 0 -0.44353041384041519 -0.1520902992104369 0 -0.43941589065277248 -0.17494092755056501 0 -0.42495447535831288 -0.15763034021818181 0 -0.40669290567679739 -0.15802187017742769 0 -0.41939429932412209 -0.17814090924565901 0 -0.40669290567679739 -0.15802187017742769 0 -0.41939429932412209 -0.17814090924565901 0 -0.39937270799547192 -0.18134089094075451 0 -0.41131169052478278 -0.19356805473352209 0 -0.41939429932412209 -0.17814090924565901 0 -0.39937270799547192 -0.18134089094075451 0 -0.41939429932412209 -0.17814090924565901 0 -0.39937270799547192 -0.18134089094075451 0 -0.39937270799547192 -0.18134089094075451 0 -0.38888775720462537 -0.17844462712262929 0 -0.38950799885800841 -0.16620127184660791 0 -0.39452666496863792 -0.1967783125627193 0 -0.39937270799547192 -0.18134089094075451 0 -0.39705547755404103 -0.18171124586780041 0 -0.39705547755404103 -0.18171124586780041 0 -0.39054370200795518 -0.18562547474159771 0 -0.38888775720462537 -0.17844462712262929 0 -0.39937270799547192 -0.18134089094075451 0 -0.39705547755404103 -0.18171124586780041 0 -0.38888775720462537 -0.17844462712262929 0 -0.39937270799547192 -0.18134089094075451 0 -0.39705547755404103 -0.18171124586780041 0 -0.39054370200795518 -0.18562547474159771 0 -0.38888775720462537 -0.17844462712262929 0 -0.38170490830451609 -0.18556771341324241 0 -0.36888315164039248 -0.17435711426376729 0 -0.37820748866006981 -0.19473797919232669 0 -0.38170490830451609 -0.18556771341324241 0 -0.38888775720462537 -0.17844462712262929 0 -0.38170490830451609 -0.18556771341324241 0 -0.38094606009013648 -0.17164933910389851 0 -0.38888775720462537 -0.17844462712262929 0 -0.38094606009013648 -0.17164933910389851 0 -0.38950799885800841 -0.16620127184660791 0 -0.36888315164039248 -0.17435711426376729 0 -0.38170490830451609 -0.18556771341324241 0 -0.38094606009013648 -0.17164933910389851 0 -0.36888315164039248 -0.17435711426376729 0 -0.38170490830451609 -0.18556771341324241 0 -0.38094606009013648 -0.17164933910389851 0 -0.38950799885800841 -0.16620127184660791 0 -0.38035977331164228 -0.14950489279892351 0 -0.36888315164039248 -0.17435711426376729 0 -0.38094606009013648 -0.17164933910389851 0 -0.38035977331164228 -0.14950489279892351 0 -0.40669290567679739 -0.15802187017742769 0 -0.38950799885800841 -0.16620127184660791 0 -0.39622646562309771 -0.14884512678233419 0 -0.40669290567679739 -0.15802187017742769 0 -0.39937270799547192 -0.18134089094075451 0 -0.38950799885800841 -0.16620127184660791 0 -0.40669290567679739 -0.15802187017742769 0 -0.39937270799547192 -0.18134089094075451 0 -0.40669290567679739 -0.15802187017742769 0 -0.39622646562309771 -0.14884512678233419 0 -0.40959422294511022 -0.14038897899463459 0 -0.39622646562309771 -0.14884512678233419 0 -0.38035977331164228 -0.14950489279892351 0 -0.39497742732393021 -0.1301086200940772 0 -0.38950799885800841 -0.16620127184660791 0 -0.39622646562309771 -0.14884512678233419 0 -0.38035977331164228 -0.14950489279892351 0 -0.37203980735022302 -0.1309930604667861 0 -0.38035977331164228 -0.14950489279892351 0 -0.39497742732393021 -0.1301086200940772 0 -0.39622646562309771 -0.14884512678233419 0 -0.39497742732393021 -0.1301086200940772 0 -0.40959422294511022 -0.14038897899463459 0 -0.40959422294511022 -0.14038897899463459 0 -0.42642019842951201 -0.13437042083225731 0 -0.41601044702349338 -0.1188875209139191 0 -0.39497742732393021 -0.1301086200940772 0 -0.40959422294511022 -0.14038897899463459 0 -0.41601044702349338 -0.1188875209139191 0 -0.42495447535831288 -0.15763034021818181 0 -0.40669290567679739 -0.15802187017742769 0 -0.40959422294511022 -0.14038897899463459 0 -0.42495447535831288 -0.15763034021818181 0 -0.40959422294511022 -0.14038897899463459 0 -0.42642019842951201 -0.13437042083225731 0 -0.42495447535831288 -0.15763034021818181 0 -0.42642019842951201 -0.13437042083225731 0 -0.44353041384041519 -0.1520902992104369 0 -0.42642019842951201 -0.13437042083225731 0 -0.45199676199167532 -0.1304708296151392 0 -0.42642019842951201 -0.13437042083225731 0 -0.45199676199167532 -0.1304708296151392 0 -0.44353041384041519 -0.1520902992104369 0 -0.42642019842951201 -0.13437042083225731 0 -0.45199676199167532 -0.1304708296151392 0 -0.43867276531619059 -0.1114859001800548 0 -0.45199676199167532 -0.1304708296151392 0 -0.46674046343263592 -0.15147865018774731 0 -0.45199676199167532 -0.1304708296151392 0 -0.44353041384041519 -0.1520902992104369 0 -0.46674046343263592 -0.15147865018774731 0 -0.45199676199167532 -0.1304708296151392 0 -0.47560974395501943 -0.12687062050767081 0 -0.45199676199167532 -0.1304708296151392 0 -0.46674046343263592 -0.15147865018774731 0 -0.47560974395501943 -0.12687062050767081 0 -0.46674046343263592 -0.15147865018774731 0 -0.47560974395501943 -0.12687062050767081 0 -0.48353680176724839 -0.1382437790506382 0 -0.46674046343263592 -0.15147865018774731 0 -0.47560974395501943 -0.12687062050767081 0 -0.47560974395501943 -0.12687062050767081 0 -0.49098695692825789 -0.12452609738561531 0 -0.47560974395501943 -0.12687062050767081 0 -0.48353680176724839 -0.1382437790506382 0 -0.49098695692825789 -0.12452609738561531 0 -0.48353680176724839 -0.1382437790506382 0 -0.4999999999999995 -0.1387090520150529 0 -0.49098695692825789 -0.12452609738561531 0 -0.4999999999999995 -0.1387090520150529 0 -0.49999999999999939 -0.12315190247015551 0 -0.49098695692825789 -0.12452609738561531 0 -0.4999999999999995 -0.1387090520150529 0 -0.49098695692825789 -0.12452609738561531 0 -0.48353680176724839 -0.1382437790506382 0 -0.4999999999999995 -0.1387090520150529 0 -0.4843468445203285 -0.1496344751571039 0 -0.4999999999999995 -0.1387090520150529 0 -0.4843468445203285 -0.1496344751571039 0 -0.48884422123319649 -0.16135484713209339 0 -0.4843468445203285 -0.1496344751571039 0 -0.47955294429654433 -0.1575973215767798 0 -0.48884422123319649 -0.16135484713209339 0 -0.46674046343263592 -0.15147865018774731 0 -0.4843468445203285 -0.1496344751571039 0 -0.47955294429654433 -0.1575973215767798 0 -0.46674046343263592 -0.15147865018774731 0 -0.48353680176724839 -0.1382437790506382 0 -0.4843468445203285 -0.1496344751571039 0 -0.46674046343263592 -0.15147865018774731 0 -0.47828024800001578 -0.16792131383017461 0 -0.47955294429654433 -0.1575973215767798 0 -0.46674046343263592 -0.15147865018774731 0 -0.4727145712038171 -0.16961891460538761 0 -0.47828024800001578 -0.16792131383017461 0 -0.46674046343263592 -0.15147865018774731 0 -0.47828024800001578 -0.16792131383017461 0 -0.47828024800001578 -0.16792131383017461 0 -0.47955294429654433 -0.1575973215767798 0 -0.48884422123319649 -0.16135484713209339 0 -0.47828024800001578 -0.16792131383017461 0 -0.48884422123319649 -0.16135484713209339 0 -0.48982003256739631 -0.1843639774726015 0 -0.4999999999999995 -0.1387090520150529 0 -0.5 -0.16876685546401041 0 -0.48884422123319649 -0.16135484713209339 0 -0.5 -0.16876685546401041 0 -0.48884422123319649 -0.16135484713209339 0 -0.48982003256739631 -0.1843639774726015 0 -0.5 -0.16876685546401041 0 -0.48982003256739631 -0.1843639774726015 0 -0.5 -0.19882465891296769 0 -0.47828024800001578 -0.16792131383017461 0 -0.48982003256739631 -0.1843639774726015 0 -0.47622774214217761 -0.17814392633274759 0 -0.47828024800001578 -0.16792131383017461 0 -0.48982003256739631 -0.1843639774726015 0 -0.48982003256739631 -0.1843639774726015 0 -0.47622774214217761 -0.17814392633274759 0 -0.47300802198590791 -0.19037827103424981 0 -0.4727145712038171 -0.16961891460538761 0 -0.47828024800001578 -0.16792131383017461 0 -0.47622774214217761 -0.17814392633274759 0 -0.4727145712038171 -0.16961891460538761 0 -0.47622774214217761 -0.17814392633274759 0 -0.46717584360988151 -0.1789995946940259 0 -0.47622774214217761 -0.17814392633274759 0 -0.46717584360988151 -0.1789995946940259 0 -0.47300802198590791 -0.19037827103424981 0 -0.45421141404834248 -0.1862407955876772 0 -0.46717584360988151 -0.1789995946940259 0 -0.47300802198590791 -0.19037827103424981 0 -0.45421141404834248 -0.1862407955876772 0 -0.46717584360988151 -0.1789995946940259 0 -0.45943748198142292 -0.17174094585547081 0 -0.45421141404834248 -0.1862407955876772 0 -0.45943748198142292 -0.17174094585547081 0 -0.4727145712038171 -0.16961891460538761 0 -0.46717584360988151 -0.1789995946940259 0 -0.45943748198142292 -0.17174094585547081 0 -0.46674046343263592 -0.15147865018774731 0 -0.45943748198142292 -0.17174094585547081 0 -0.4727145712038171 -0.16961891460538761 0 -0.45943748198142292 -0.17174094585547081 0 -0.46674046343263592 -0.15147865018774731 0 -0.4727145712038171 -0.16961891460538761 0 -0.45943748198142292 -0.17174094585547081 0 -0.44353041384041519 -0.1520902992104369 0 -0.46674046343263592 -0.15147865018774731 0 -0.45943748198142292 -0.17174094585547081 0 -0.44353041384041519 -0.1520902992104369 0 -0.45943748198142292 -0.17174094585547081 0 -0.43941589065277248 -0.17494092755056501 0 -0.45421141404834248 -0.1862407955876772 0 -0.45943748198142292 -0.17174094585547081 0 -0.43941589065277248 -0.17494092755056501 0 -0.45943748198142292 -0.17174094585547081 0 -0.43941589065277248 -0.17494092755056501 0 -0.45421141404834248 -0.1862407955876772 0 -0.43941589065277248 -0.17494092755056501 0 -0.44012093567594202 -0.18935399453792839 0 -0.42789966516496192 -0.19767681800087289 0 -0.44898534611526197 -0.20074064531988359 0 -0.44012093567594202 -0.18935399453792839 0 -0.45421141404834248 -0.1862407955876772 0 -0.44898534611526197 -0.20074064531988359 0 -0.44012093567594202 -0.18935399453792839 0 -0.45421141404834248 -0.1862407955876772 0 -0.44898534611526197 -0.20074064531988359 0 -0.42789966516496192 -0.19767681800087289 0 -0.44898534611526197 -0.20074064531988359 0 -0.44155934565651089 -0.21545305371511109 0 -0.44155934565651089 -0.21545305371511109 0 -0.45662960214964687 -0.20850488917106211 0 -0.45813510481913611 -0.2198148430442422 0 -0.44898534611526197 -0.20074064531988359 0 -0.44155934565651089 -0.21545305371511109 0 -0.45662960214964687 -0.20850488917106211 0 -0.45662960214964687 -0.20850488917106211 0 -0.46220751633882118 -0.19889324157660199 0 -0.4722606978185041 -0.2076226621994719 0 -0.4722606978185041 -0.2076226621994719 0 -0.4713469101238914 -0.22444756422016671 0 -0.45813510481913611 -0.2198148430442422 0 -0.45662960214964687 -0.20850488917106211 0 -0.4722606978185041 -0.2076226621994719 0 -0.45813510481913611 -0.2198148430442422 0 -0.45421141404834248 -0.1862407955876772 0 -0.46220751633882118 -0.19889324157660199 0 -0.47300802198590791 -0.19037827103424981 0 -0.44898534611526197 -0.20074064531988359 0 -0.45662960214964687 -0.20850488917106211 0 -0.46220751633882118 -0.19889324157660199 0 -0.45421141404834248 -0.1862407955876772 0 -0.44898534611526197 -0.20074064531988359 0 -0.46220751633882118 -0.19889324157660199 0 -0.47300802198590791 -0.19037827103424981 0 -0.48426438459749582 -0.1991992799499242 0 -0.4722606978185041 -0.2076226621994719 0 -0.46220751633882118 -0.19889324157660199 0 -0.47300802198590791 -0.19037827103424981 0 -0.4722606978185041 -0.2076226621994719 0 -0.48982003256739631 -0.1843639774726015 0 -0.47300802198590791 -0.19037827103424981 0 -0.48426438459749582 -0.1991992799499242 0 -0.48982003256739631 -0.1843639774726015 0 -0.48426438459749582 -0.1991992799499242 0 -0.5 -0.19882465891296769 0 -0.5 -0.19882465891296769 0 -0.4862331706156704 -0.2148068301303302 0 -0.5 -0.2288824623619253 0 -0.48426438459749582 -0.1991992799499242 0 -0.5 -0.19882465891296769 0 -0.4862331706156704 -0.2148068301303302 0 -0.4862331706156704 -0.2148068301303302 0 -0.4722606978185041 -0.2076226621994719 0 -0.4713469101238914 -0.22444756422016671 0 -0.48426438459749582 -0.1991992799499242 0 -0.4862331706156704 -0.2148068301303302 0 -0.4722606978185041 -0.2076226621994719 0 -0.4713469101238914 -0.22444756422016671 0 -0.48654379102098072 -0.23181005802014029 0 -0.4686237873081921 -0.2388531897552848 0 -0.4862331706156704 -0.2148068301303302 0 -0.4713469101238914 -0.22444756422016671 0 -0.48654379102098072 -0.23181005802014029 0 -0.4862331706156704 -0.2148068301303302 0 -0.48654379102098072 -0.23181005802014029 0 -0.5 -0.2288824623619253 0 -0.5 -0.25894026581088281 0 -0.5 -0.2288824623619253 0 -0.48431189365409638 -0.2488967277830833 0 -0.48654379102098072 -0.23181005802014029 0 -0.5 -0.2288824623619253 0 -0.48431189365409638 -0.2488967277830833 0 -0.48654379102098072 -0.23181005802014029 0 -0.48431189365409638 -0.2488967277830833 0 -0.4686237873081921 -0.2388531897552848 0 -0.46713585573027022 -0.26026357074689799 0 -0.48431189365409638 -0.2488967277830833 0 -0.4686237873081921 -0.2388531897552848 0 -0.48654379102098072 -0.23181005802014029 0 -0.4686237873081921 -0.2388531897552848 0 -0.4686237873081921 -0.2388531897552848 0 -0.45497857871226211 -0.23133918066165859 0 -0.4507037835954032 -0.24589632149042839 0 -0.46713585573027022 -0.26026357074689799 0 -0.4686237873081921 -0.2388531897552848 0 -0.4507037835954032 -0.24589632149042839 0 -0.4686237873081921 -0.2388531897552848 0 -0.4507037835954032 -0.24589632149042839 0 -0.4713469101238914 -0.22444756422016671 0 -0.4686237873081921 -0.2388531897552848 0 -0.45497857871226211 -0.23133918066165859 0 -0.4713469101238914 -0.22444756422016671 0 -0.45813510481913611 -0.2198148430442422 0 -0.45497857871226211 -0.23133918066165859 0 -0.43197807738648231 -0.22952365184785761 0 -0.44155934565651089 -0.21545305371511109 0 -0.45497857871226211 -0.23133918066165859 0 -0.44155934565651089 -0.21545305371511109 0 -0.45813510481913611 -0.2198148430442422 0 -0.45497857871226211 -0.23133918066165859 0 -0.43389645052110831 -0.25250213825564749 0 -0.43364843477101239 -0.23492290621915171 0 -0.4507037835954032 -0.24589632149042839 0 -0.43389645052110831 -0.25250213825564749 0 -0.4507037835954032 -0.24589632149042839 0 -0.43197807738648231 -0.22952365184785761 0 -0.4507037835954032 -0.24589632149042839 0 -0.43197807738648231 -0.22952365184785761 0 -0.45497857871226211 -0.23133918066165859 0 -0.4507037835954032 -0.24589632149042839 0 -0.43364843477101239 -0.23492290621915171 0 -0.43197807738648231 -0.22952365184785761 0 -0.4507037835954032 -0.24589632149042839 0 -0.41108232474740769 -0.037597895119150231 0 -0.4320190163912187 -0.050351794278332009 0 -0.41108232474740769 -0.037597895119150231 0 -0.41566551206508412 -0.054570780036374833 0 -0.40168030653817838 -0.042649532876692008 0 -0.41108232474740769 -0.037597895119150231 0 -0.42495282759776931 -0.034122240498317843 0 -0.40987246065324717 -0.026026625881115661 0 -0.41108232474740769 -0.037597895119150231 0 -0.41566551206508412 -0.054570780036374833 0 -0.4320190163912187 -0.050351794278332009 0 -0.41566551206508412 -0.054570780036374833 0 -0.39874745487680202 -0.054597624099926557 0 -0.41202477196522258 -0.073516041309885274 0 -0.4320190163912187 -0.050351794278332009 0 -0.44003858195328732 -0.068771054559430361 0 -0.41566551206508412 -0.054570780036374833 0 -0.4320190163912187 -0.050351794278332009 0 -0.44003858195328732 -0.068771054559430361 0 -0.4320190163912187 -0.050351794278332009 0 -0.42495282759776931 -0.034122240498317843 0 -0.41108232474740769 -0.037597895119150231 0 -0.4320190163912187 -0.050351794278332009 0 -0.42495282759776931 -0.034122240498317843 0 -0.4320190163912187 -0.050351794278332009 0 -0.42495282759776931 -0.034122240498317843 0 -0.43969726542472748 -0.037355708242056432 0 -0.42495282759776931 -0.034122240498317843 0 -0.43969726542472748 -0.037355708242056432 0 -0.44598902988657108 -0.02269951896891027 0 -0.42495282759776931 -0.034122240498317843 0 -0.41788663880431909 -0.01789268671830406 0 -0.44598902988657108 -0.02269951896891027 0 -0.42010665761273303 -0.011531376411100389 0 -0.44598902988657108 -0.02269951896891027 0 -0.42010665761273303 -0.011531376411100389 0 -0.41788663880431909 -0.01789268671830406 0 -0.44598902988657108 -0.02269951896891027 0 -0.43474097910347309 -0.0074752998551253207 0 -0.42010665761273303 -0.011531376411100389 0 -0.44598902988657108 -0.02269951896891027 0 -0.43474097910347309 -0.0074752998551253207 0 -0.42010665761273303 -0.011531376411100389 0 -0.41333066850425898 -0.0017902344883215309 0 -0.43474097910347309 -0.0074752998551253207 0 -0.41333066850425898 -0.0017902344883215309 0 -0.4379668944722202 0.0071751830104823614 0 -0.42010665761273303 -0.011531376411100389 0 -0.4129777066703666 -0.013354589981656419 0 -0.41333066850425898 -0.0017902344883215309 0 -0.42010665761273303 -0.011531376411100389 0 -0.4129777066703666 -0.013354589981656419 0 -0.41788663880431909 -0.01789268671830406 0 -0.4129777066703666 -0.013354589981656419 0 -0.41333066850425898 -0.0017902344883215309 0 -0.40274436693295579 -0.016558151887176201 0 -0.42495282759776931 -0.034122240498317843 0 -0.41788663880431909 -0.01789268671830406 0 -0.42495282759776931 -0.034122240498317843 0 -0.41788663880431909 -0.01789268671830406 0 -0.40987246065324717 -0.026026625881115661 0 -0.4129777066703666 -0.013354589981656419 0 -0.4108202014975661 -0.019000500403379909 0 -0.40274436693295579 -0.016558151887176201 0 -0.4108202014975661 -0.019000500403379909 0 -0.40987246065324717 -0.026026625881115661 0 -0.40274436693295579 -0.016558151887176201 0 -0.41788663880431909 -0.01789268671830406 0 -0.4108202014975661 -0.019000500403379909 0 -0.40987246065324717 -0.026026625881115661 0 -0.4129777066703666 -0.013354589981656419 0 -0.41788663880431909 -0.01789268671830406 0 -0.4108202014975661 -0.019000500403379909 0 -0.39743610321321698 -0.030802158238040628 0 -0.38869444253629981 -0.010755651987131239 0 -0.38701012699435122 -0.023319691674284139 0 -0.39743610321321698 -0.030802158238040628 0 -0.38869444253629981 -0.010755651987131239 0 -0.40274436693295579 -0.016558151887176201 0 -0.39743610321321698 -0.030802158238040628 0 -0.38869444253629981 -0.010755651987131239 0 -0.40987246065324717 -0.026026625881115661 0 -0.40274436693295579 -0.016558151887176201 0 -0.39743610321321698 -0.030802158238040628 0 -0.41333066850425898 -0.0017902344883215309 0 -0.38869444253629981 -0.010755651987131239 0 -0.41333066850425898 -0.0017902344883215309 0 -0.38869444253629981 -0.010755651987131239 0 -0.39810529252901983 0.001715975070925703 0 -0.41333066850425898 -0.0017902344883215309 0 -0.40274436693295579 -0.016558151887176201 0 -0.38869444253629981 -0.010755651987131239 0 -0.37219282069997173 -0.0167607896800013 0 -0.38869444253629981 -0.010755651987131239 0 -0.37219282069997173 -0.0167607896800013 0 -0.36870810208001809 -0.011795527475880269 0 -0.38869444253629981 -0.010755651987131239 0 -0.36870810208001809 -0.011795527475880269 0 -0.38869444253629981 -0.010755651987131239 0 -0.38267038653320551 0.00342366148846019 0 -0.38869444253629981 -0.010755651987131239 0 -0.38267038653320551 0.00342366148846019 0 -0.39810529252901983 0.001715975070925703 0 -0.38869444253629981 -0.010755651987131239 0 -0.38267038653320551 0.00342366148846019 0 -0.36870810208001809 -0.011795527475880269 0 -0.38267038653320551 0.00342366148846019 0 -0.37219282069997173 -0.0167607896800013 0 -0.38701012699435122 -0.023319691674284139 0 -0.3854701377883813 -0.035679206889967799 0 -0.37219282069997173 -0.0167607896800013 0 -0.38869444253629981 -0.010755651987131239 0 -0.38701012699435122 -0.023319691674284139 0 -0.37219282069997173 -0.0167607896800013 0 -0.3854701377883813 -0.035679206889967799 0 -0.37088760371306712 -0.031916364111270468 0 -0.37219282069997173 -0.0167607896800013 0 -0.3854701377883813 -0.035679206889967799 0 -0.39743610321321698 -0.030802158238040628 0 -0.38701012699435122 -0.023319691674284139 0 -0.3854701377883813 -0.035679206889967799 0 -0.37088760371306712 -0.031916364111270468 0 -0.3854701377883813 -0.035679206889967799 0 -0.37707205259782661 -0.04961681125270398 0 -0.3854701377883813 -0.035679206889967799 0 -0.39874745487680202 -0.054597624099926557 0 -0.37707205259782661 -0.04961681125270398 0 -0.39743610321321698 -0.030802158238040628 0 -0.3854701377883813 -0.035679206889967799 0 -0.40168030653817838 -0.042649532876692008 0 -0.3854701377883813 -0.035679206889967799 0 -0.39874745487680202 -0.054597624099926557 0 -0.3854701377883813 -0.035679206889967799 0 -0.40168030653817838 -0.042649532876692008 0 -0.39874745487680202 -0.054597624099926557 0 -0.41108232474740769 -0.037597895119150231 0 -0.40987246065324717 -0.026026625881115661 0 -0.39743610321321698 -0.030802158238040628 0 -0.41108232474740769 -0.037597895119150231 0 -0.39743610321321698 -0.030802158238040628 0 -0.40168030653817838 -0.042649532876692008 0 -0.41566551206508412 -0.054570780036374833 0 -0.40168030653817838 -0.042649532876692008 0 -0.39874745487680202 -0.054597624099926557 0 -0.39874745487680202 -0.054597624099926557 0 -0.37707205259782661 -0.04961681125270398 0 -0.37947217108997561 -0.065637003903253097 0 -0.37462747897890453 -0.080276741319370876 0 -0.37947217108997561 -0.065637003903253097 0 -0.39416089349652889 -0.076541829900648076 0 -0.37462747897890453 -0.080276741319370876 0 -0.39023190115990991 -0.091711324561404475 0 -0.39416089349652889 -0.076541829900648076 0 -0.39023190115990991 -0.091711324561404475 0 -0.40499056113818832 -0.087284197033220406 0 -0.39416089349652889 -0.076541829900648076 0 -0.40499056113818832 -0.087284197033220406 0 -0.39416089349652889 -0.076541829900648076 0 -0.41202477196522258 -0.073516041309885274 0 -0.39416089349652889 -0.076541829900648076 0 -0.41202477196522258 -0.073516041309885274 0 -0.39874745487680202 -0.054597624099926557 0 -0.41202477196522258 -0.073516041309885274 0 -0.39874745487680202 -0.054597624099926557 0 -0.37947217108997561 -0.065637003903253097 0 -0.39416089349652889 -0.076541829900648076 0 -0.39874745487680202 -0.054597624099926557 0 -0.39416089349652889 -0.076541829900648076 0 -0.41202477196522258 -0.073516041309885274 0 -0.39497742732393021 -0.1301086200940772 0 -0.37618085244823002 -0.1101468671001255 0 -0.37203980735022302 -0.1309930604667861 0 -0.39497742732393021 -0.1301086200940772 0 -0.37618085244823002 -0.1101468671001255 0 -0.39023190115990991 -0.091711324561404475 0 -0.37618085244823002 -0.1101468671001255 0 -0.40104929948551132 -0.1044702346375206 0 -0.37462747897890453 -0.080276741319370876 0 -0.39023190115990991 -0.091711324561404475 0 -0.37618085244823002 -0.1101468671001255 0 -0.39023190115990991 -0.091711324561404475 0 -0.40499056113818832 -0.087284197033220406 0 -0.40104929948551132 -0.1044702346375206 0 -0.39497742732393021 -0.1301086200940772 0 -0.37618085244823002 -0.1101468671001255 0 -0.40104929948551132 -0.1044702346375206 0 -0.39497742732393021 -0.1301086200940772 0 -0.40104929948551132 -0.1044702346375206 0 -0.41601044702349338 -0.1188875209139191 0 -0.40104929948551132 -0.1044702346375206 0 -0.41601044702349338 -0.1188875209139191 0 -0.42534876864070659 -0.09250097074497006 0 -0.40499056113818832 -0.087284197033220406 0 -0.40104929948551132 -0.1044702346375206 0 -0.42534876864070659 -0.09250097074497006 0 -0.41601044702349338 -0.1188875209139191 0 -0.42534876864070659 -0.09250097074497006 0 -0.43867276531619059 -0.1114859001800548 0 -0.42534876864070659 -0.09250097074497006 0 -0.43867276531619059 -0.1114859001800548 0 -0.42642019842951201 -0.13437042083225731 0 -0.41601044702349338 -0.1188875209139191 0 -0.43867276531619059 -0.1114859001800548 0 -0.40499056113818832 -0.087284197033220406 0 -0.41202477196522258 -0.073516041309885274 0 -0.42534876864070659 -0.09250097074497006 0 -0.41202477196522258 -0.073516041309885274 0 -0.42534876864070659 -0.09250097074497006 0 -0.41202477196522258 -0.073516041309885274 0 -0.42534876864070659 -0.09250097074497006 0 -0.44003858195328732 -0.068771054559430361 0 -0.41202477196522258 -0.073516041309885274 0 -0.44003858195328732 -0.068771054559430361 0 -0.41566551206508412 -0.054570780036374833 0 -0.41202477196522258 -0.073516041309885274 0 -0.44003858195328732 -0.068771054559430361 0 -0.44003858195328732 -0.068771054559430361 0 -0.45739598612496962 -0.078868155314569935 0 -0.45742231396051131 -0.065826593306824097 0 -0.44003858195328732 -0.068771054559430361 0 -0.45742231396051131 -0.065826593306824097 0 -0.44003858195328732 -0.068771054559430361 0 -0.45059747659511501 -0.093022621203937519 0 -0.45739598612496962 -0.078868155314569935 0 -0.44003858195328732 -0.068771054559430361 0 -0.45059747659511501 -0.093022621203937519 0 -0.42534876864070659 -0.09250097074497006 0 -0.44003858195328732 -0.068771054559430361 0 -0.45059747659511501 -0.093022621203937519 0 -0.45739598612496962 -0.078868155314569935 0 -0.46385074046678682 -0.09014306395718702 0 -0.47507081764914783 -0.076577443545470275 0 -0.45059747659511501 -0.093022621203937519 0 -0.45739598612496962 -0.078868155314569935 0 -0.46385074046678682 -0.09014306395718702 0 -0.45742231396051131 -0.065826593306824097 0 -0.47507081764914783 -0.076577443545470275 0 -0.45742231396051131 -0.065826593306824097 0 -0.47507081764914783 -0.076577443545470275 0 -0.4692870162511017 -0.063816946807796579 0 -0.45739598612496962 -0.078868155314569935 0 -0.45742231396051131 -0.065826593306824097 0 -0.47507081764914783 -0.076577443545470275 0 -0.45742231396051131 -0.065826593306824097 0 -0.4692870162511017 -0.063816946807796579 0 -0.45199676199167532 -0.1304708296151392 0 -0.43867276531619059 -0.1114859001800548 0 -0.46138929473510398 -0.1135201365391421 0 -0.45199676199167532 -0.1304708296151392 0 -0.43867276531619059 -0.1114859001800548 0 -0.42534876864070659 -0.09250097074497006 0 -0.45059747659511501 -0.093022621203937519 0 -0.43867276531619059 -0.1114859001800548 0 -0.45059747659511501 -0.093022621203937519 0 -0.43867276531619059 -0.1114859001800548 0 -0.46138929473510398 -0.1135201365391421 0 -0.45059747659511501 -0.093022621203937519 0 -0.4628753094227176 -0.0992748079096646 0 -0.46138929473510398 -0.1135201365391421 0 -0.45059747659511501 -0.093022621203937519 0 -0.46385074046678682 -0.09014306395718702 0 -0.4628753094227176 -0.0992748079096646 0 -0.46385074046678682 -0.09014306395718702 0 -0.4628753094227176 -0.0992748079096646 0 -0.47566372589386452 -0.1004134099383918 0 -0.4628753094227176 -0.0992748079096646 0 -0.46138929473510398 -0.1135201365391421 0 -0.47566372589386452 -0.1004134099383918 0 -0.45199676199167532 -0.1304708296151392 0 -0.47560974395501943 -0.12687062050767081 0 -0.46138929473510398 -0.1135201365391421 0 -0.48074721922213842 -0.1126165732335004 0 -0.47566372589386452 -0.1004134099383918 0 -0.49098695692825789 -0.12452609738561531 0 -0.47566372589386452 -0.1004134099383918 0 -0.49098695692825789 -0.12452609738561531 0 -0.47560974395501943 -0.12687062050767081 0 -0.46138929473510398 -0.1135201365391421 0 -0.48074721922213842 -0.1126165732335004 0 -0.47560974395501943 -0.12687062050767081 0 -0.48074721922213842 -0.1126165732335004 0 -0.47560974395501943 -0.12687062050767081 0 -0.48074721922213842 -0.1126165732335004 0 -0.49098695692825789 -0.12452609738561531 0 -0.46138929473510398 -0.1135201365391421 0 -0.48074721922213842 -0.1126165732335004 0 -0.47566372589386452 -0.1004134099383918 0 -0.47566372589386452 -0.1004134099383918 0 -0.48882497850424073 -0.10481501385135281 0 -0.49271932133778379 -0.087328293784117328 0 -0.49999999999999789 -0.1059982474247281 0 -0.49271932133778379 -0.087328293784117328 0 -0.49999999999999789 -0.1059982474247281 0 -0.49271932133778379 -0.087328293784117328 0 -0.50000000000000233 -0.091763428190646423 0 -0.49999999999999789 -0.1059982474247281 0 -0.48882497850424073 -0.10481501385135281 0 -0.49271932133778379 -0.087328293784117328 0 -0.49999999999999789 -0.1059982474247281 0 -0.48882497850424073 -0.10481501385135281 0 -0.49466875600146831 -0.1143771688348289 0 -0.48882497850424073 -0.10481501385135281 0 -0.49466875600146831 -0.1143771688348289 0 -0.49098695692825789 -0.12452609738561531 0 -0.47566372589386452 -0.1004134099383918 0 -0.48882497850424073 -0.10481501385135281 0 -0.49098695692825789 -0.12452609738561531 0 -0.49999999999999789 -0.1059982474247281 0 -0.49466875600146831 -0.1143771688348289 0 -0.49999999999999939 -0.12315190247015551 0 -0.49999999999999939 -0.12315190247015551 0 -0.49098695692825789 -0.12452609738561531 0 -0.49466875600146831 -0.1143771688348289 0 -0.49999999999999939 -0.12315190247015551 0 -0.49098695692825789 -0.12452609738561531 0 -0.47507081764914783 -0.076577443545470275 0 -0.4692870162511017 -0.063816946807796579 0 -0.48229536174909449 -0.060597977655420257 0 -0.47507081764914783 -0.076577443545470275 0 -0.49271932133778379 -0.087328293784117328 0 -0.48229536174909449 -0.060597977655420257 0 -0.47566372589386452 -0.1004134099383918 0 -0.47507081764914783 -0.076577443545470275 0 -0.49271932133778379 -0.087328293784117328 0 -0.46385074046678682 -0.09014306395718702 0 -0.47566372589386452 -0.1004134099383918 0 -0.47507081764914783 -0.076577443545470275 0 -0.47507081764914783 -0.076577443545470275 0 -0.49271932133778379 -0.087328293784117328 0 -0.49271932133778379 -0.087328293784117328 0 -0.50000000000000233 -0.091763428190646423 0 -0.5 -0.068884234917310994 0 -0.49271932133778379 -0.087328293784117328 0 -0.50000000000000233 -0.091763428190646423 0 -0.49271932133778379 -0.087328293784117328 0 -0.48229536174909449 -0.060597977655420257 0 -0.49271932133778379 -0.087328293784117328 0 -0.5 -0.068884234917310994 0 -0.48229536174909449 -0.060597977655420257 0 -0.50000000000000144 -0.04600504164397555 0 -0.4859357010802054 -0.039936351585347543 0 -0.48229536174909449 -0.060597977655420257 0 -0.5 -0.068884234917310994 0 -0.50000000000000144 -0.04600504164397555 0 -0.48229536174909449 -0.060597977655420257 0 -0.49373390979125509 -0.034992794939967313 0 -0.50000000000000144 -0.04600504164397555 0 -0.5 -0.02075343690216325 0 -0.49373390979125509 -0.034992794939967313 0 -0.50000000000000144 -0.04600504164397555 0 -0.4859357010802054 -0.039936351585347543 0 -0.50000000000000144 -0.04600504164397555 0 -0.4859357010802054 -0.039936351585347543 0 -0.49373390979125509 -0.034992794939967313 0 -0.4859357010802054 -0.039936351585347543 0 -0.48252480259311709 -0.033078639060018553 0 -0.4859357010802054 -0.039936351585347543 0 -0.47187140216040829 -0.033867661526721729 0 -0.48229536174909449 -0.060597977655420257 0 -0.4859357010802054 -0.039936351585347543 0 -0.48252480259311709 -0.033078639060018553 0 -0.47187140216040829 -0.033867661526721729 0 -0.4859357010802054 -0.039936351585347543 0 -0.47187140216040829 -0.033867661526721729 0 -0.47187140216040829 -0.033867661526721729 0 -0.48229536174909449 -0.060597977655420257 0 -0.46723434592488511 -0.05121752159112325 0 -0.47187140216040829 -0.033867661526721729 0 -0.48229536174909449 -0.060597977655420257 0 -0.4692870162511017 -0.063816946807796579 0 -0.48229536174909449 -0.060597977655420257 0 -0.46723434592488511 -0.05121752159112325 0 -0.45742231396051131 -0.065826593306824097 0 -0.4692870162511017 -0.063816946807796579 0 -0.46723434592488511 -0.05121752159112325 0 -0.45742231396051131 -0.065826593306824097 0 -0.46723434592488511 -0.05121752159112325 0 -0.45296011455852608 -0.04456338424316373 0 -0.47187140216040829 -0.033867661526721729 0 -0.45296011455852608 -0.04456338424316373 0 -0.44598902988657108 -0.02269951896891027 0 -0.47187140216040829 -0.033867661526721729 0 -0.46723434592488511 -0.05121752159112325 0 -0.45296011455852608 -0.04456338424316373 0 -0.4320190163912187 -0.050351794278332009 0 -0.43969726542472748 -0.037355708242056432 0 -0.45296011455852608 -0.04456338424316373 0 -0.43969726542472748 -0.037355708242056432 0 -0.45296011455852608 -0.04456338424316373 0 -0.44598902988657108 -0.02269951896891027 0 -0.4320190163912187 -0.050351794278332009 0 -0.44003858195328732 -0.068771054559430361 0 -0.45742231396051131 -0.065826593306824097 0 -0.4320190163912187 -0.050351794278332009 0 -0.45742231396051131 -0.065826593306824097 0 -0.45296011455852608 -0.04456338424316373 0 -0.4320190163912187 -0.050351794278332009 0 -0.45742231396051131 -0.065826593306824097 0 -0.43474097910347309 -0.0074752998551253207 0 -0.45067468968107799 -0.0024337592128191548 0 -0.4379668944722202 0.0071751830104823614 0 -0.43474097910347309 -0.0074752998551253207 0 -0.45067468968107799 -0.0024337592128191548 0 -0.44598902988657108 -0.02269951896891027 0 -0.47187140216040829 -0.033867661526721729 0 -0.44598902988657108 -0.02269951896891027 0 -0.47187140216040829 -0.033867661526721729 0 -0.46336789657350019 -0.01206199443772253 0 -0.47187140216040829 -0.033867661526721729 0 -0.44598902988657108 -0.02269951896891027 0 -0.46336789657350019 -0.01206199443772253 0 -0.45067468968107799 -0.0024337592128191548 0 -0.46336789657350019 -0.01206199443772253 0 -0.46723252088542372 0.0031521656266658162 0 -0.45067468968107799 -0.0024337592128191548 0 -0.44598902988657108 -0.02269951896891027 0 -0.46336789657350019 -0.01206199443772253 0 -0.45067468968107799 -0.0024337592128191548 0 -0.46336789657350019 -0.01206199443772253 0 -0.46336789657350019 -0.01206199443772253 0 -0.48164305602952939 -0.0036655936381851232 0 -0.47855819734059901 -0.023517748188039311 0 -0.48164305602952939 -0.0036655936381851232 0 -0.47855819734059901 -0.023517748188039311 0 -0.49019644068198448 -0.01326085094476191 0 -0.46336789657350019 -0.01206199443772253 0 -0.48164305602952939 -0.0036655936381851232 0 -0.46723252088542372 0.0031521656266658162 0 -0.47187140216040829 -0.033867661526721729 0 -0.46336789657350019 -0.01206199443772253 0 -0.47855819734059901 -0.023517748188039311 0 -0.46336789657350019 -0.01206199443772253 0 -0.47855819734059901 -0.023517748188039311 0 -0.48252480259311709 -0.033078639060018553 0 -0.47187140216040829 -0.033867661526721729 0 -0.47855819734059901 -0.023517748188039311 0 -0.49373390979125509 -0.034992794939967313 0 -0.47855819734059901 -0.023517748188039311 0 -0.49373390979125509 -0.034992794939967313 0 -0.48252480259311709 -0.033078639060018553 0 -0.47855819734059901 -0.023517748188039311 0 -0.49373390979125509 -0.034992794939967313 0 -0.47855819734059901 -0.023517748188039311 0 -0.49078095003979377 -0.022865643835070861 0 -0.47855819734059901 -0.023517748188039311 0 -0.49078095003979377 -0.022865643835070861 0 -0.49019644068198448 -0.01326085094476191 0 -0.49078095003979377 -0.022865643835070861 0 -0.5 -0.02075343690216325 0 -0.49019644068198448 -0.01326085094476191 0 -0.49373390979125509 -0.034992794939967313 0 -0.49078095003979377 -0.022865643835070861 0 -0.5 -0.02075343690216325 0 -0.48164305602952939 -0.0036655936381851232 0 -0.49019644068198448 -0.01326085094476191 0 -0.5 0.0044981678396490143 0 -0.5 -0.02075343690216325 0 -0.49019644068198448 -0.01326085094476191 0 -0.5 0.0044981678396490143 0 -0.48164305602952939 -0.0036655936381851232 0 -0.5 0.0044981678396490143 0 -0.4793222981574114 0.022224909391135441 0 -0.50000000000000722 0.02974977258146129 0 -0.4793222981574114 0.022224909391135441 0 -0.5 0.0044981678396490143 0 -0.50000000000000722 0.02974977258146129 0 -0.4793222981574114 0.022224909391135441 0 -0.4793222981574114 0.022224909391135441 0 -0.45864459631481469 0.01470004620081186 0 -0.48164305602952939 -0.0036655936381851232 0 -0.4793222981574114 0.022224909391135441 0 -0.46723252088542372 0.0031521656266658162 0 -0.5 0.058124947043735782 0 -0.49026273795441871 0.043937359812598518 0 -0.48239646901477218 0.055821224383142597 0 -0.5 0.058124947043735782 0 -0.48239646901477218 0.055821224383142597 0 -0.48768616499259809 0.06641088579580795 0 -0.50000000000000722 0.02974977258146129 0 -0.4793222981574114 0.022224909391135441 0 -0.49026273795441871 0.043937359812598518 0 -0.50000000000000722 0.02974977258146129 0 -0.5 0.058124947043735782 0 -0.49026273795441871 0.043937359812598518 0 -0.4793222981574114 0.022224909391135441 0 -0.49026273795441871 0.043937359812598518 0 -0.47503912883669158 0.044022258442285293 0 -0.4793222981574114 0.022224909391135441 0 -0.47503912883669158 0.044022258442285293 0 -0.45840855215092602 0.039999325955745103 0 -0.48239646901477218 0.055821224383142597 0 -0.46310163613922412 0.056581344628290203 0 -0.47459239432392902 0.067335990413066496 0 -0.47503912883669158 0.044022258442285293 0 -0.48239646901477218 0.055821224383142597 0 -0.46310163613922412 0.056581344628290203 0 -0.49026273795441871 0.043937359812598518 0 -0.47503912883669158 0.044022258442285293 0 -0.48239646901477218 0.055821224383142597 0 -0.47503912883669158 0.044022258442285293 0 -0.46310163613922412 0.056581344628290203 0 -0.45840855215092602 0.039999325955745103 0 -0.45840855215092602 0.039999325955745103 0 -0.43772995608441639 0.051407624018648471 0 -0.45840855215092602 0.039999325955745103 0 -0.43772995608441639 0.051407624018648471 0 -0.43814342963842001 0.029967281544744089 0 -0.46310163613922412 0.056581344628290203 0 -0.45840855215092602 0.039999325955745103 0 -0.43772995608441639 0.051407624018648471 0 -0.46310163613922412 0.056581344628290203 0 -0.43772995608441639 0.051407624018648471 0 -0.44898098661029429 0.066749397778419234 0 -0.4793222981574114 0.022224909391135441 0 -0.45864459631481469 0.01470004620081186 0 -0.46723252088542372 0.0031521656266658162 0 -0.45067468968107799 -0.0024337592128191548 0 -0.45864459631481469 0.01470004620081186 0 -0.46723252088542372 0.0031521656266658162 0 -0.4793222981574114 0.022224909391135441 0 -0.45840855215092602 0.039999325955745103 0 -0.45864459631481469 0.01470004620081186 0 -0.45864459631481469 0.01470004620081186 0 -0.43814342963842001 0.029967281544744089 0 -0.4379668944722202 0.0071751830104823614 0 -0.45840855215092602 0.039999325955745103 0 -0.45864459631481469 0.01470004620081186 0 -0.43814342963842001 0.029967281544744089 0 -0.45864459631481469 0.01470004620081186 0 -0.4379668944722202 0.0071751830104823614 0 -0.45067468968107799 -0.0024337592128191548 0 -0.45864459631481469 0.01470004620081186 0 -0.4379668944722202 0.0071751830104823614 0 -0.45067468968107799 -0.0024337592128191548 0 -0.4379668944722202 0.0071751830104823614 0 -0.41333066850425898 -0.0017902344883215309 0 -0.4379668944722202 0.0071751830104823614 0 -0.41333066850425898 -0.0017902344883215309 0 -0.4379668944722202 0.0071751830104823614 0 -0.4164592905428075 0.023438061041033739 0 -0.4379668944722202 0.0071751830104823614 0 -0.4164592905428075 0.023438061041033739 0 -0.41333066850425898 -0.0017902344883215309 0 -0.4164592905428075 0.023438061041033739 0 -0.3962127126628191 0.017271230137523439 0 -0.43814342963842001 0.029967281544744089 0 -0.4379668944722202 0.0071751830104823614 0 -0.4164592905428075 0.023438061041033739 0 -0.43772995608441639 0.051407624018648471 0 -0.43814342963842001 0.029967281544744089 0 -0.42051975706108979 0.041928103691578081 0 -0.43814342963842001 0.029967281544744089 0 -0.4164592905428075 0.023438061041033739 0 -0.42051975706108979 0.041928103691578081 0 -0.43772995608441639 0.051407624018648471 0 -0.41705136001790682 0.062815922081551845 0 -0.43772995608441639 0.051407624018648471 0 -0.42051975706108979 0.041928103691578081 0 -0.41705136001790682 0.062815922081551845 0 -0.42051975706108979 0.041928103691578081 0 -0.39495168661340191 0.039700939071594332 0 -0.41705136001790682 0.062815922081551845 0 -0.4164592905428075 0.023438061041033739 0 -0.42051975706108979 0.041928103691578081 0 -0.39495168661340191 0.039700939071594332 0 -0.4164592905428075 0.023438061041033739 0 -0.39495168661340191 0.039700939071594332 0 -0.39495168661340191 0.039700939071594332 0 -0.39052358919088892 0.059040105730575547 0 -0.41705136001790682 0.062815922081551845 0 -0.37895169723653582 0.047600634916348999 0 -0.39052358919088892 0.059040105730575547 0 -0.3714698758611315 0.063800239954929866 0 -0.39495168661340191 0.039700939071594332 0 -0.37895169723653582 0.047600634916348999 0 -0.39052358919088892 0.059040105730575547 0 -0.39495168661340191 0.039700939071594332 0 -0.37895169723653582 0.047600634916348999 0 -0.37203917307885098 0.02743845959296563 0 -0.39495168661340191 0.039700939071594332 0 -0.3962127126628191 0.017271230137523439 0 -0.37203917307885098 0.02743845959296563 0 -0.38267038653320551 0.00342366148846019 0 -0.3962127126628191 0.017271230137523439 0 -0.37203917307885098 0.02743845959296563 0 -0.38267038653320551 0.00342366148846019 0 -0.37203917307885098 0.02743845959296563 0 -0.41333066850425898 -0.0017902344883215309 0 -0.39810529252901983 0.001715975070925703 0 -0.3962127126628191 0.017271230137523439 0 -0.38267038653320551 0.00342366148846019 0 -0.39810529252901983 0.001715975070925703 0 -0.3962127126628191 0.017271230137523439 0 -0.4164592905428075 0.023438061041033739 0 -0.39495168661340191 0.039700939071594332 0 -0.3962127126628191 0.017271230137523439 0 -0.39785366525457272 0.10414835292000039 0 -0.39146377826118411 0.091930955928978278 0 -0.40581145222401449 0.088645208978460843 0 -0.39785366525457272 0.10414835292000039 0 -0.40581145222401449 0.088645208978460843 0 -0.41244886524859309 0.10396968419125489 0 -0.39962305243798862 0.12007008638198111 0 -0.41244886524859309 0.10396968419125489 0 -0.39962305243798862 0.12007008638198111 0 -0.3818026015622874 0.10582295740955019 0 -0.39785366525457272 0.10414835292000039 0 -0.39962305243798862 0.12007008638198111 0 -0.3818026015622874 0.10582295740955019 0 -0.39785366525457272 0.10414835292000039 0 -0.39962305243798862 0.12007008638198111 0 -0.41244886524859309 0.10396968419125489 0 -0.38600292176634632 0.1223106683149927 0 -0.37664402232980337 0.11728716810266079 0 -0.3818026015622874 0.10582295740955019 0 -0.39962305243798862 0.12007008638198111 0 -0.38600292176634632 0.1223106683149927 0 -0.3818026015622874 0.10582295740955019 0 -0.38600292176634632 0.1223106683149927 0 -0.37664402232980337 0.11728716810266079 0 -0.37633061916794119 0.13321554238042471 0 -0.37664402232980337 0.11728716810266079 0 -0.3818026015622874 0.10582295740955019 0 -0.36808070926510039 0.10840152703442189 0 -0.3818026015622874 0.10582295740955019 0 -0.37569416788488752 0.085632518207358593 0 -0.39146377826118411 0.091930955928978278 0 -0.39785366525457272 0.10414835292000039 0 -0.3818026015622874 0.10582295740955019 0 -0.39146377826118411 0.091930955928978278 0 -0.37569416788488752 0.085632518207358593 0 -0.39637276395139709 0.074224220144455219 0 -0.39146377826118411 0.091930955928978278 0 -0.37569416788488752 0.085632518207358593 0 -0.39637276395139709 0.074224220144455219 0 -0.37569416788488752 0.085632518207358593 0 -0.38223441690127602 0.073042241234343025 0 -0.39637276395139709 0.074224220144455219 0 -0.37569416788488752 0.085632518207358593 0 -0.38223441690127602 0.073042241234343025 0 -0.3714698758611315 0.063800239954929866 0 -0.39052358919088892 0.059040105730575547 0 -0.38223441690127602 0.073042241234343025 0 -0.3714698758611315 0.063800239954929866 0 -0.39052358919088892 0.059040105730575547 0 -0.38223441690127602 0.073042241234343025 0 -0.39637276395139709 0.074224220144455219 0 -0.39052358919088892 0.059040105730575547 0 -0.39637276395139709 0.074224220144455219 0 -0.41705136001790682 0.062815922081551845 0 -0.39637276395139709 0.074224220144455219 0 -0.40581145222401449 0.088645208978460843 0 -0.41508176250321699 0.07649072819908985 0 -0.39637276395139709 0.074224220144455219 0 -0.39146377826118411 0.091930955928978278 0 -0.40581145222401449 0.088645208978460843 0 -0.41655210451245051 0.088778885226300841 0 -0.42527467805919772 0.087869282000528737 0 -0.41244886524859309 0.10396968419125489 0 -0.40581145222401449 0.088645208978460843 0 -0.41655210451245051 0.088778885226300841 0 -0.41508176250321699 0.07649072819908985 0 -0.41655210451245051 0.088778885226300841 0 -0.41508176250321699 0.07649072819908985 0 -0.42527467805919772 0.087869282000528737 0 -0.39637276395139709 0.074224220144455219 0 -0.41705136001790682 0.062815922081551845 0 -0.39637276395139709 0.074224220144455219 0 -0.41705136001790682 0.062815922081551845 0 -0.41508176250321699 0.07649072819908985 0 -0.43772995608441639 0.051407624018648471 0 -0.41705136001790682 0.062815922081551845 0 -0.43374330692010432 0.077238506962875403 0 -0.41705136001790682 0.062815922081551845 0 -0.41508176250321699 0.07649072819908985 0 -0.43374330692010432 0.077238506962875403 0 -0.42527467805919772 0.087869282000528737 0 -0.4429920100429432 0.10274858024475821 0 -0.43847850659137533 0.087802363215093104 0 -0.41508176250321699 0.07649072819908985 0 -0.43374330692010432 0.077238506962875403 0 -0.42527467805919772 0.087869282000528737 0 -0.43374330692010432 0.077238506962875403 0 -0.42527467805919772 0.087869282000528737 0 -0.43374330692010432 0.077238506962875403 0 -0.42527467805919772 0.087869282000528737 0 -0.43847850659137533 0.087802363215093104 0 -0.42527467805919772 0.087869282000528737 0 -0.4429920100429432 0.10274858024475821 0 -0.42527467805919772 0.087869282000528737 0 -0.42773333092070492 0.10606014568498361 0 -0.4429920100429432 0.10274858024475821 0 -0.42527467805919772 0.087869282000528737 0 -0.41244886524859309 0.10396968419125489 0 -0.42527467805919772 0.087869282000528737 0 -0.42773333092070492 0.10606014568498361 0 -0.41244886524859309 0.10396968419125489 0 -0.42773333092070492 0.10606014568498361 0 -0.41244886524859309 0.10396968419125489 0 -0.41879263586885818 0.11761113291379791 0 -0.40581145222401449 0.088645208978460843 0 -0.41655210451245051 0.088778885226300841 0 -0.41244886524859309 0.10396968419125489 0 -0.39962305243798862 0.12007008638198111 0 -0.41879263586885818 0.11761113291379791 0 -0.41718858059307551 0.13411340923839421 0 -0.39962305243798862 0.12007008638198111 0 -0.41244886524859309 0.10396968419125489 0 -0.41879263586885818 0.11761113291379791 0 -0.42773333092070492 0.10606014568498361 0 -0.41879263586885818 0.11761113291379791 0 -0.43696935014392901 0.1238423390723757 0 -0.42773333092070492 0.10606014568498361 0 -0.43696935014392901 0.1238423390723757 0 -0.4429920100429432 0.10274858024475821 0 -0.43696935014392901 0.1238423390723757 0 -0.4429920100429432 0.10274858024475821 0 -0.46070934202668729 0.1176278784889894 0 -0.4429920100429432 0.10274858024475821 0 -0.46070934202668729 0.1176278784889894 0 -0.4429920100429432 0.10274858024475821 0 -0.46595273813780852 0.096451530535276261 0 -0.46070934202668729 0.1176278784889894 0 -0.4429920100429432 0.10274858024475821 0 -0.46595273813780852 0.096451530535276261 0 -0.45190403134325607 0.08335308365221003 0 -0.46595273813780852 0.096451530535276261 0 -0.46070934202668729 0.1176278784889894 0 -0.47177218275609262 0.110867549976974 0 -0.43772995608441639 0.051407624018648471 0 -0.43374330692010432 0.077238506962875403 0 -0.44898098661029429 0.066749397778419234 0 -0.43374330692010432 0.077238506962875403 0 -0.44898098661029429 0.066749397778419234 0 -0.45190403134325607 0.08335308365221003 0 -0.43374330692010432 0.077238506962875403 0 -0.45190403134325607 0.08335308365221003 0 -0.43847850659137533 0.087802363215093104 0 -0.4429920100429432 0.10274858024475821 0 -0.45190403134325607 0.08335308365221003 0 -0.43847850659137533 0.087802363215093104 0 -0.46595273813780852 0.096451530535276261 0 -0.45190403134325607 0.08335308365221003 0 -0.46965066270418399 0.079895263144375478 0 -0.44898098661029429 0.066749397778419234 0 -0.45190403134325607 0.08335308365221003 0 -0.46256736583149299 0.070057300723060142 0 -0.45190403134325607 0.08335308365221003 0 -0.46256736583149299 0.070057300723060142 0 -0.46965066270418399 0.079895263144375478 0 -0.46310163613922412 0.056581344628290203 0 -0.46256736583149299 0.070057300723060142 0 -0.47459239432392902 0.067335990413066496 0 -0.46310163613922412 0.056581344628290203 0 -0.44898098661029429 0.066749397778419234 0 -0.46256736583149299 0.070057300723060142 0 -0.48239646901477218 0.055821224383142597 0 -0.47459239432392902 0.067335990413066496 0 -0.48768616499259809 0.06641088579580795 0 -0.47459239432392902 0.067335990413066496 0 -0.48215206726130239 0.075249923803722668 0 -0.48768616499259809 0.06641088579580795 0 -0.46256736583149299 0.070057300723060142 0 -0.47459239432392902 0.067335990413066496 0 -0.46965066270418399 0.079895263144375478 0 -0.47459239432392902 0.067335990413066496 0 -0.48215206726130239 0.075249923803722668 0 -0.46965066270418399 0.079895263144375478 0 -0.46595273813780852 0.096451530535276261 0 -0.46965066270418399 0.079895263144375478 0 -0.47959075458862233 0.087021023075510573 0 -0.48215206726130239 0.075249923803722668 0 -0.47959075458862233 0.087021023075510573 0 -0.48561329062483388 0.081881614841441769 0 -0.48215206726130239 0.075249923803722668 0 -0.46965066270418399 0.079895263144375478 0 -0.47959075458862233 0.087021023075510573 0 -0.47959075458862233 0.087021023075510573 0 -0.49104570179064227 0.089531615231823458 0 -0.47861951303474037 0.098978222960421247 0 -0.49104570179064227 0.089531615231823458 0 -0.49735521568074831 0.068043834481124943 0 -0.5 0.08650012150601033 0 -0.49104570179064227 0.089531615231823458 0 -0.49735521568074831 0.068043834481124943 0 -0.47959075458862233 0.087021023075510573 0 -0.49104570179064227 0.089531615231823458 0 -0.48561329062483388 0.081881614841441769 0 -0.49104570179064227 0.089531615231823458 0 -0.48561329062483388 0.081881614841441769 0 -0.48966463885876849 0.075723897254710404 0 -0.5 0.058124947043735782 0 -0.5 0.08650012150601033 0 -0.49735521568074831 0.068043834481124943 0 -0.49104570179064227 0.089531615231823458 0 -0.48966463885876849 0.075723897254710404 0 -0.49735521568074831 0.068043834481124943 0 -0.48215206726130239 0.075249923803722668 0 -0.48966463885876849 0.075723897254710404 0 -0.48768616499259809 0.06641088579580795 0 -0.48215206726130239 0.075249923803722668 0 -0.48561329062483388 0.081881614841441769 0 -0.48966463885876849 0.075723897254710404 0 -0.5 0.058124947043735782 0 -0.49735521568074831 0.068043834481124943 0 -0.48768616499259809 0.06641088579580795 0 -0.48966463885876849 0.075723897254710404 0 -0.49735521568074831 0.068043834481124943 0 -0.48768616499259809 0.06641088579580795 0 -0.48473618790053641 0.111019395982522 0 -0.47842667401043132 0.13250717673322079 0 -0.47177218275609262 0.110867549976974 0 -0.48473618790053641 0.111019395982522 0 -0.47842667401043132 0.13250717673322079 0 -0.46070934202668729 0.1176278784889894 0 -0.47177218275609262 0.110867549976974 0 -0.47842667401043132 0.13250717673322079 0 -0.46595273813780852 0.096451530535276261 0 -0.47177218275609262 0.110867549976974 0 -0.47861951303474037 0.098978222960421247 0 -0.46595273813780852 0.096451530535276261 0 -0.47959075458862233 0.087021023075510573 0 -0.47861951303474037 0.098978222960421247 0 -0.47177218275609262 0.110867549976974 0 -0.47861951303474037 0.098978222960421247 0 -0.48473618790053641 0.111019395982522 0 -0.49104570179064227 0.089531615231823458 0 -0.48473618790053641 0.111019395982522 0 -0.5 0.08650012150601033 0 -0.49104570179064227 0.089531615231823458 0 -0.5 0.1148752959682848 0 -0.49104570179064227 0.089531615231823458 0 -0.5 0.1148752959682848 0 -0.48473618790053641 0.111019395982522 0 -0.49104570179064227 0.089531615231823458 0 -0.47861951303474037 0.098978222960421247 0 -0.48473618790053641 0.111019395982522 0 -0.48473618790053641 0.111019395982522 0 -0.49079071547774189 0.12541308477864671 0 -0.47842667401043132 0.13250717673322079 0 -0.5 0.1148752959682848 0 -0.48473618790053641 0.111019395982522 0 -0.49079071547774189 0.12541308477864671 0 -0.5 0.1148752959682848 0 -0.49079071547774189 0.12541308477864671 0 -0.5 0.1432504704305593 0 -0.49079071547774189 0.12541308477864671 0 -0.47842667401043132 0.13250717673322079 0 -0.5 0.1432504704305593 0 -0.47842667401043132 0.13250717673322079 0 -0.49738152102477778 0.1484257598561762 0 -0.46070934202668729 0.1176278784889894 0 -0.47842667401043132 0.13250717673322079 0 -0.47842667401043132 0.13250717673322079 0 -0.47278964779497917 0.15170472277452449 0 -0.45654356864699852 0.13954643813737441 0 -0.47842667401043132 0.13250717673322079 0 -0.47278964779497917 0.15170472277452449 0 -0.4844365481741339 0.14629577561957019 0 -0.47842667401043132 0.13250717673322079 0 -0.47278964779497917 0.15170472277452449 0 -0.47278964779497917 0.15170472277452449 0 -0.48774619983591871 0.15233000137729391 0 -0.48659568373751422 0.16139082570113639 0 -0.47278964779497917 0.15170472277452449 0 -0.48774619983591871 0.15233000137729391 0 -0.4844365481741339 0.14629577561957019 0 -0.47842667401043132 0.13250717673322079 0 -0.5 0.1432504704305593 0 -0.49738152102477778 0.1484257598561762 0 -0.48774619983591871 0.15233000137729391 0 -0.4844365481741339 0.14629577561957019 0 -0.49738152102477778 0.1484257598561762 0 -0.48774619983591871 0.15233000137729391 0 -0.49738152102477778 0.1484257598561762 0 -0.48659568373751422 0.16139082570113639 0 -0.47842667401043132 0.13250717673322079 0 -0.4844365481741339 0.14629577561957019 0 -0.49738152102477778 0.1484257598561762 0 -0.5 0.1432504704305593 0 -0.49738152102477778 0.1484257598561762 0 -0.50000000000000089 0.1716256448928338 0 -0.49738152102477778 0.1484257598561762 0 -0.50000000000000089 0.1716256448928338 0 -0.48659568373751422 0.16139082570113639 0 -0.50000000000000089 0.1716256448928338 0 -0.48659568373751422 0.16139082570113639 0 -0.47204684118718571 0.17619433607976939 0 -0.49999999999999611 0.179120909615508 0 -0.47267972405602088 0.19073915895485591 0 -0.50000000000000089 0.1716256448928338 0 -0.49999999999999611 0.179120909615508 0 -0.47204684118718571 0.17619433607976939 0 -0.50000000000000089 0.1716256448928338 0 -0.47204684118718571 0.17619433607976939 0 -0.49999999999999611 0.179120909615508 0 -0.47204684118718571 0.17619433607976939 0 -0.47267972405602088 0.19073915895485591 0 -0.47278964779497917 0.15170472277452449 0 -0.48659568373751422 0.16139082570113639 0 -0.46847604536951032 0.16382995663029459 0 -0.48659568373751422 0.16139082570113639 0 -0.47204684118718571 0.17619433607976939 0 -0.46847604536951032 0.16382995663029459 0 -0.47204684118718571 0.17619433607976939 0 -0.45561228915780322 0.16343977966032769 0 -0.46847604536951032 0.16382995663029459 0 -0.47278964779497917 0.15170472277452449 0 -0.45561228915780322 0.16343977966032769 0 -0.46847604536951032 0.16382995663029459 0 -0.47204684118718571 0.17619433607976939 0 -0.44409368237437058 0.18076302726670479 0 -0.47204684118718571 0.17619433607976939 0 -0.45561228915780322 0.16343977966032769 0 -0.44409368237437058 0.18076302726670479 0 -0.46082884514507461 0.18438236012377399 0 -0.44409368237437058 0.18076302726670479 0 -0.45449513296272148 0.1898329181937658 0 -0.47204684118718571 0.17619433607976939 0 -0.46082884514507461 0.18438236012377399 0 -0.44409368237437058 0.18076302726670479 0 -0.47204684118718571 0.17619433607976939 0 -0.46082884514507461 0.18438236012377399 0 -0.47267972405602088 0.19073915895485591 0 -0.44409368237437058 0.18076302726670479 0 -0.45449513296272148 0.1898329181937658 0 -0.44354443941526078 0.1882558693310295 0 -0.44409368237437058 0.18076302726670479 0 -0.44354443941526078 0.1882558693310295 0 -0.43022949421190482 0.18007012356944219 0 -0.45561228915780322 0.16343977966032769 0 -0.44409368237437058 0.18076302726670479 0 -0.43793779710819442 0.16488554981117459 0 -0.45561228915780322 0.16343977966032769 0 -0.43793779710819442 0.16488554981117459 0 -0.43475410874816128 0.14815673209480851 0 -0.45561228915780322 0.16343977966032769 0 -0.45654356864699852 0.13954643813737441 0 -0.43475410874816128 0.14815673209480851 0 -0.43696935014392901 0.1238423390723757 0 -0.45654356864699852 0.13954643813737441 0 -0.43475410874816128 0.14815673209480851 0 -0.43696935014392901 0.1238423390723757 0 -0.46070934202668729 0.1176278784889894 0 -0.45654356864699852 0.13954643813737441 0 -0.46070934202668729 0.1176278784889894 0 -0.47842667401043132 0.13250717673322079 0 -0.45654356864699852 0.13954643813737441 0 -0.47278964779497917 0.15170472277452449 0 -0.45561228915780322 0.16343977966032769 0 -0.45654356864699852 0.13954643813737441 0 -0.4826171654445699 0.24774723882048039 0 -0.46523433088913752 0.23163424378542771 0 -0.46523433088913752 0.23163424378542771 0 -0.47829135555868169 0.25086798556607037 0 -0.4826171654445699 0.24774723882048039 0 -0.46523433088913752 0.23163424378542771 0 -0.47829135555868169 0.25086798556607037 0 -0.4826171654445699 0.24774723882048039 0 -0.48504085382287249 0.22701557276454259 0 -0.46523433088913752 0.23163424378542771 0 -0.4826171654445699 0.24774723882048039 0 -0.5 0.23561379244219191 0 -0.50000000000000155 0.26386023385553398 0 -0.4826171654445699 0.24774723882048039 0 -0.5 0.23561379244219191 0 -0.48504085382287249 0.22701557276454259 0 -0.5 0.23561379244219191 0 -0.48504085382287249 0.22701557276454259 0 -0.5 0.20736735102885001 0 -0.48504085382287249 0.22701557276454259 0 -0.4773527727806558 0.21271523774576309 0 -0.46523433088913752 0.23163424378542771 0 -0.4773527727806558 0.21271523774576309 0 -0.5 0.20736735102885001 0 -0.47267972405602088 0.19073915895485591 0 -0.48504085382287249 0.22701557276454259 0 -0.4773527727806558 0.21271523774576309 0 -0.5 0.20736735102885001 0 -0.49999999999999611 0.179120909615508 0 -0.5 0.20736735102885001 0 -0.47267972405602088 0.19073915895485591 0 -0.46082884514507461 0.18438236012377399 0 -0.47267972405602088 0.19073915895485591 0 -0.45449513296272148 0.1898329181937658 0 -0.47267972405602088 0.19073915895485591 0 -0.45449513296272148 0.1898329181937658 0 -0.44535944811204647 0.2023574082942049 0 -0.47267972405602088 0.19073915895485591 0 -0.44535944811204647 0.2023574082942049 0 -0.44535944811204647 0.2023574082942049 0 -0.43733270515642431 0.205770869462478 0 -0.43022949421190482 0.18007012356944219 0 -0.44354443941526078 0.1882558693310295 0 -0.44535944811204647 0.2023574082942049 0 -0.43022949421190482 0.18007012356944219 0 -0.44535944811204647 0.2023574082942049 0 -0.43022949421190482 0.18007012356944219 0 -0.45449513296272148 0.1898329181937658 0 -0.44354443941526078 0.1882558693310295 0 -0.44535944811204647 0.2023574082942049 0 -0.44992590169689051 0.2174441160026091 0 -0.42699738949816518 0.21016607669115969 0 -0.44535944811204647 0.2023574082942049 0 -0.45529688950059238 0.2169958260398159 0 -0.44992590169689051 0.2174441160026091 0 -0.43733270515642431 0.205770869462478 0 -0.42699738949816518 0.21016607669115969 0 -0.44535944811204647 0.2023574082942049 0 -0.43733270515642431 0.205770869462478 0 -0.44535944811204647 0.2023574082942049 0 -0.44992590169689051 0.2174441160026091 0 -0.43733270515642431 0.205770869462478 0 -0.44992590169689051 0.2174441160026091 0 -0.43733270515642431 0.205770869462478 0 -0.44535944811204647 0.2023574082942049 0 -0.44992590169689051 0.2174441160026091 0 -0.45529688950059238 0.2169958260398159 0 -0.44992590169689051 0.2174441160026091 0 -0.4522799136472318 0.2181913337621243 0 -0.45529688950059238 0.2169958260398159 0 -0.44992590169689051 0.2174441160026091 0 -0.4522799136472318 0.2181913337621243 0 -0.47267972405602088 0.19073915895485591 0 -0.44535944811204647 0.2023574082942049 0 -0.45529688950059238 0.2169958260398159 0 -0.4773527727806558 0.21271523774576309 0 -0.47267972405602088 0.19073915895485591 0 -0.45529688950059238 0.2169958260398159 0 -0.4773527727806558 0.21271523774576309 0 -0.45529688950059238 0.2169958260398159 0 -0.46523433088913752 0.23163424378542771 0 -0.44992590169689051 0.2174441160026091 0 -0.46523433088913752 0.23163424378542771 0 -0.4504453673423125 0.23223620706586171 0 -0.44992590169689051 0.2174441160026091 0 -0.46523433088913752 0.23163424378542771 0 -0.45529688950059238 0.2169958260398159 0 -0.46523433088913752 0.23163424378542771 0 -0.4522799136472318 0.2181913337621243 0 -0.45529688950059238 0.2169958260398159 0 -0.46523433088913752 0.23163424378542771 0 -0.44992590169689051 0.2174441160026091 0 -0.4522799136472318 0.2181913337621243 0 -0.46523433088913752 0.23163424378542771 0 -0.44992590169689051 0.2174441160026091 0 -0.4504453673423125 0.23223620706586171 0 -0.4355041216175648 0.2274722488140502 0 -0.4504453673423125 0.23223620706586171 0 -0.44503711006885482 0.24601396290069941 0 -0.45936083356487079 0.24743851944234591 0 -0.4504453673423125 0.23223620706586171 0 -0.44503711006885482 0.24601396290069941 0 -0.4355041216175648 0.2274722488140502 0 -0.46523433088913752 0.23163424378542771 0 -0.4504453673423125 0.23223620706586171 0 -0.45936083356487079 0.24743851944234591 0 -0.44503711006885482 0.24601396290069941 0 -0.45936083356487079 0.24743851944234591 0 -0.47095115864607168 0.25558355432171381 0 -0.46523433088913752 0.23163424378542771 0 -0.45936083356487079 0.24743851944234591 0 -0.47829135555868169 0.25086798556607037 0 -0.4088920851174907 0.24893012324785629 0 -0.41912306149163842 0.23644437147968361 0 -0.4088695446263933 0.23072448822481009 0 -0.4088920851174907 0.24893012324785629 0 -0.41912306149163842 0.23644437147968361 0 -0.4249621812384381 0.24707084139297381 0 -0.44503711006885482 0.24601396290069941 0 -0.41912306149163842 0.23644437147968361 0 -0.4249621812384381 0.24707084139297381 0 -0.44503711006885482 0.24601396290069941 0 -0.41912306149163842 0.23644437147968361 0 -0.4355041216175648 0.2274722488140502 0 -0.44503711006885482 0.24601396290069941 0 -0.41912306149163842 0.23644437147968361 0 -0.4355041216175648 0.2274722488140502 0 -0.42149589960752881 0.22252875874428729 0 -0.42699738949816518 0.21016607669115969 0 -0.41912306149163842 0.23644437147968361 0 -0.4355041216175648 0.2274722488140502 0 -0.42149589960752881 0.22252875874428729 0 -0.41912306149163842 0.23644437147968361 0 -0.42149589960752881 0.22252875874428729 0 -0.4088695446263933 0.23072448822481009 0 -0.42149589960752881 0.22252875874428729 0 -0.4088695446263933 0.23072448822481009 0 -0.40877511782762999 0.21791529914527469 0 -0.40782589472832792 0.20408060148087201 0 -0.42699738949816518 0.21016607669115969 0 -0.42229188557371988 0.20173793811124949 0 -0.42149589960752881 0.22252875874428729 0 -0.40877511782762999 0.21791529914527469 0 -0.42699738949816518 0.21016607669115969 0 -0.40877511782762999 0.21791529914527469 0 -0.40782589472832792 0.20408060148087201 0 -0.42699738949816518 0.21016607669115969 0 -0.40877511782762999 0.21791529914527469 0 -0.42699738949816518 0.21016607669115969 0 -0.40782589472832792 0.20408060148087201 0 -0.42699738949816518 0.21016607669115969 0 -0.44992590169689051 0.2174441160026091 0 -0.4355041216175648 0.2274722488140502 0 -0.42699738949816518 0.21016607669115969 0 -0.43733270515642431 0.205770869462478 0 -0.42699738949816518 0.21016607669115969 0 -0.43733270515642431 0.205770869462478 0 -0.42699738949816518 0.21016607669115969 0 -0.42229188557371988 0.20173793811124949 0 -0.43733270515642431 0.205770869462478 0 -0.41701155291196051 0.18693420481049089 0 -0.43733270515642431 0.205770869462478 0 -0.43022949421190482 0.18007012356944219 0 -0.41701155291196051 0.18693420481049089 0 -0.43733270515642431 0.205770869462478 0 -0.42229188557371988 0.20173793811124949 0 -0.41701155291196051 0.18693420481049089 0 -0.40782589472832792 0.20408060148087201 0 -0.42229188557371988 0.20173793811124949 0 -0.41701155291196051 0.18693420481049089 0 -0.40782589472832792 0.20408060148087201 0 -0.40022054383535849 0.19526141150945769 0 -0.41701155291196051 0.18693420481049089 0 -0.40022054383535849 0.19526141150945769 0 -0.41701155291196051 0.18693420481049089 0 -0.39809248964167487 0.18560464617463729 0 -0.40782589472832792 0.20408060148087201 0 -0.40022054383535849 0.19526141150945769 0 -0.39432065793202142 0.19979372741499171 0 -0.40782589472832792 0.20408060148087201 0 -0.39432065793202142 0.19979372741499171 0 -0.40022054383535849 0.19526141150945769 0 -0.39432065793202142 0.19979372741499171 0 -0.38865439995848999 0.1979951262705851 0 -0.39432065793202142 0.19979372741499171 0 -0.38865439995848999 0.1979951262705851 0 -0.40022054383535849 0.19526141150945769 0 -0.39366009795901741 0.1926018163410825 0 -0.39809248964167487 0.18560464617463729 0 -0.40022054383535849 0.19526141150945769 0 -0.39366009795901741 0.1926018163410825 0 -0.38865439995848999 0.1979951262705851 0 -0.39366009795901741 0.1926018163410825 0 -0.3880591445665772 0.19003771911785591 0 -0.39809248964167487 0.18560464617463729 0 -0.39432065793202142 0.19979372741499171 0 -0.3832004868960498 0.20708849212493821 0 -0.37427533270663982 0.19699781335706409 0 -0.38865439995848999 0.1979951262705851 0 -0.37427533270663982 0.19699781335706409 0 -0.36948290518865229 0.19190965106029831 0 -0.39432065793202142 0.19979372741499171 0 -0.38865439995848999 0.1979951262705851 0 -0.37427533270663982 0.19699781335706409 0 -0.38865439995848999 0.1979951262705851 0 -0.36948290518865229 0.19190965106029831 0 -0.38010624018850481 0.19139538561012959 0 -0.38865439995848999 0.1979951262705851 0 -0.36948290518865229 0.19190965106029831 0 -0.39432065793202142 0.19979372741499171 0 -0.37427533270663982 0.19699781335706409 0 -0.3880591445665772 0.19003771911785591 0 -0.38010624018850481 0.19139538561012959 0 -0.38865439995848999 0.1979951262705851 0 -0.39366009795901741 0.1926018163410825 0 -0.3880591445665772 0.19003771911785591 0 -0.38865439995848999 0.1979951262705851 0 -0.3880591445665772 0.19003771911785591 0 -0.38010624018850481 0.19139538561012959 0 -0.38368435403228612 0.18277853360388829 0 -0.38010624018850481 0.19139538561012959 0 -0.37686466762261461 0.1873894380927604 0 -0.36948290518865229 0.19190965106029831 0 -0.39432065793202142 0.19979372741499171 0 -0.3832004868960498 0.20708849212493821 0 -0.39083873117499129 0.20838342751174391 0 -0.3832004868960498 0.20708849212493821 0 -0.37233725061120898 0.20744499488199861 0 -0.37427533270663982 0.19699781335706409 0 -0.3832004868960498 0.20708849212493821 0 -0.38642897168464369 0.2201173574299097 0 -0.37233725061120898 0.20744499488199861 0 -0.3832004868960498 0.20708849212493821 0 -0.39083873117499129 0.20838342751174391 0 -0.38642897168464369 0.2201173574299097 0 -0.39779883269215571 0.2121766841161509 0 -0.39083873117499129 0.20838342751174391 0 -0.38642897168464369 0.2201173574299097 0 -0.39779883269215571 0.2121766841161509 0 -0.39965348622681718 0.22302172071271581 0 -0.38642897168464369 0.2201173574299097 0 -0.39432065793202142 0.19979372741499171 0 -0.39779883269215571 0.2121766841161509 0 -0.39083873117499129 0.20838342751174391 0 -0.40782589472832792 0.20408060148087201 0 -0.39432065793202142 0.19979372741499171 0 -0.39779883269215571 0.2121766841161509 0 -0.40877511782762999 0.21791529914527469 0 -0.39779883269215571 0.2121766841161509 0 -0.39965348622681718 0.22302172071271581 0 -0.40877511782762999 0.21791529914527469 0 -0.40782589472832792 0.20408060148087201 0 -0.39779883269215571 0.2121766841161509 0 -0.4088695446263933 0.23072448822481009 0 -0.40877511782762999 0.21791529914527469 0 -0.39965348622681718 0.22302172071271581 0 -0.4088695446263933 0.23072448822481009 0 -0.39965348622681718 0.22302172071271581 0 -0.39527761748725498 0.2355066560190428 0 -0.39965348622681718 0.22302172071271581 0 -0.38642897168464369 0.2201173574299097 0 -0.39527761748725498 0.2355066560190428 0 -0.38642897168464369 0.2201173574299097 0 -0.3762277089876811 0.2414577338236846 0 -0.39527761748725498 0.2355066560190428 0 -0.38642897168464369 0.2201173574299097 0 -0.3762277089876811 0.2414577338236846 0 -0.36526141479912888 0.217727251356959 0 -0.3762277089876811 0.2414577338236846 0 -0.39207380150510029 0.2494808218353517 0 -0.39527761748725498 0.2355066560190428 0 -0.4088920851174907 0.24893012324785629 0 -0.39207380150510029 0.2494808218353517 0 -0.39527761748725498 0.2355066560190428 0 -0.4088920851174907 0.24893012324785629 0 -0.4088695446263933 0.23072448822481009 0 -0.39527761748725498 0.2355066560190428 0 -0.41718858059307551 0.13411340923839421 0 -0.41509954031176199 0.15778283884468011 0 -0.39881172194460018 0.14853833536281341 0 -0.39962305243798862 0.12007008638198111 0 -0.41718858059307551 0.13411340923839421 0 -0.41879263586885818 0.11761113291379791 0 -0.43696935014392901 0.1238423390723757 0 -0.41718858059307551 0.13411340923839421 0 -0.43696935014392901 0.1238423390723757 0 -0.41718858059307551 0.13411340923839421 0 -0.43475410874816128 0.14815673209480851 0 -0.41718858059307551 0.13411340923839421 0 -0.43475410874816128 0.14815673209480851 0 -0.41509954031176199 0.15778283884468011 0 -0.41718858059307551 0.13411340923839421 0 -0.43475410874816128 0.14815673209480851 0 -0.43793779710819442 0.16488554981117459 0 -0.43475410874816128 0.14815673209480851 0 -0.41509954031176199 0.15778283884468011 0 -0.43793779710819442 0.16488554981117459 0 -0.43022949421190482 0.18007012356944219 0 -0.41509954031176199 0.15778283884468011 0 -0.43022949421190482 0.18007012356944219 0 -0.41509954031176199 0.15778283884468011 0 -0.44409368237437058 0.18076302726670479 0 -0.43793779710819442 0.16488554981117459 0 -0.43022949421190482 0.18007012356944219 0 -0.43022949421190482 0.18007012356944219 0 -0.41701155291196051 0.18693420481049089 0 -0.41509954031176199 0.15778283884468011 0 -0.41701155291196051 0.18693420481049089 0 -0.39669040066749478 0.1680975401585055 0 -0.41701155291196051 0.18693420481049089 0 -0.41509954031176199 0.15778283884468011 0 -0.39669040066749478 0.1680975401585055 0 -0.41509954031176199 0.15778283884468011 0 -0.39669040066749478 0.1680975401585055 0 -0.39881172194460018 0.14853833536281341 0 -0.41701155291196051 0.18693420481049089 0 -0.39669040066749478 0.1680975401585055 0 -0.39809248964167487 0.18560464617463729 0 -0.39669040066749478 0.1680975401585055 0 -0.39809248964167487 0.18560464617463729 0 -0.38368435403228612 0.18277853360388829 0 -0.39669040066749478 0.1680975401585055 0 -0.38368435403228612 0.18277853360388829 0 -0.37771056345250942 0.17028283796063451 0 -0.3880591445665772 0.19003771911785591 0 -0.39809248964167487 0.18560464617463729 0 -0.38368435403228612 0.18277853360388829 0 -0.38368435403228612 0.18277853360388829 0 -0.37771056345250942 0.17028283796063451 0 -0.37418517108101529 0.1834741820967257 0 -0.38368435403228612 0.18277853360388829 0 -0.37686466762261461 0.1873894380927604 0 -0.37418517108101529 0.1834741820967257 0 -0.38010624018850481 0.19139538561012959 0 -0.38368435403228612 0.18277853360388829 0 -0.37686466762261461 0.1873894380927604 0 -0.39669040066749478 0.1680975401585055 0 -0.37636924842303021 0.14926087550651909 0 -0.39669040066749478 0.1680975401585055 0 -0.37771056345250942 0.17028283796063451 0 -0.37636924842303021 0.14926087550651909 0 -0.37636924842303021 0.14926087550651909 0 -0.39881172194460018 0.14853833536281341 0 -0.38799615043050939 0.1346654809442501 0 -0.39669040066749478 0.1680975401585055 0 -0.37636924842303021 0.14926087550651909 0 -0.39881172194460018 0.14853833536281341 0 -0.37636924842303021 0.14926087550651909 0 -0.38799615043050939 0.1346654809442501 0 -0.41718858059307551 0.13411340923839421 0 -0.39881172194460018 0.14853833536281341 0 -0.40090487635154348 0.13434682798185971 0 -0.39962305243798862 0.12007008638198111 0 -0.41718858059307551 0.13411340923839421 0 -0.40090487635154348 0.13434682798185971 0 -0.39881172194460018 0.14853833536281341 0 -0.40090487635154348 0.13434682798185971 0 -0.38799615043050939 0.1346654809442501 0 -0.39962305243798862 0.12007008638198111 0 -0.38600292176634632 0.1223106683149927 0 -0.38799615043050939 0.1346654809442501 0 -0.39962305243798862 0.12007008638198111 0 -0.38799615043050939 0.1346654809442501 0 -0.39962305243798862 0.12007008638198111 0 -0.40090487635154348 0.13434682798185971 0 -0.38799615043050939 0.1346654809442501 0 -0.38600292176634632 0.1223106683149927 0 -0.38799615043050939 0.1346654809442501 0 -0.37633061916794119 0.13321554238042471 0 -0.37636924842303021 0.14926087550651909 0 -0.38799615043050939 0.1346654809442501 0 -0.37633061916794119 0.13321554238042471 0 -0.3679263783545399 0.14143476848920131 0 -0.36800354380982009 0.12491814776181159 0 -0.37633061916794119 0.13321554238042471 0 -0.3679263783545399 0.14143476848920131 0 -0.36800354380982009 0.12491814776181159 0 -0.37664402232980337 0.11728716810266079 0 -0.37633061916794119 0.13321554238042471 0 -0.36800354380982009 0.12491814776181159 0 -0.35401697746014982 0.12854146809925801 0 -0.3679263783545399 0.14143476848920131 0 -0.36800354380982009 0.12491814776181159 0 -0.35401697746014982 0.12854146809925801 0 -0.3679263783545399 0.14143476848920131 0 -0.35401697746014982 0.12854146809925801 0 -0.35101994995353908 0.13965889038078569 0 -0.3679263783545399 0.14143476848920131 0 -0.35101994995353908 0.13965889038078569 0 -0.34253429113533129 0.13061104429197631 0 -0.34245173665537437 0.15132526486117151 0 -0.35401697746014982 0.12854146809925801 0 -0.35101994995353908 0.13965889038078569 0 -0.35401697746014982 0.12854146809925801 0 -0.35101994995353908 0.13965889038078569 0 -0.34253429113533129 0.13061104429197631 0 -0.35401697746014982 0.12854146809925801 0 -0.34253429113533129 0.13061104429197631 0 -0.34261915974906049 0.117976276351988 0 -0.35101994995353908 0.13965889038078569 0 -0.35625705023461007 0.15077759800681501 0 -0.3679263783545399 0.14143476848920131 0 -0.35625705023461007 0.15077759800681501 0 -0.35204739493416548 0.1615010572546261 0 -0.34245173665537437 0.15132526486117151 0 -0.35101994995353908 0.13965889038078569 0 -0.35625705023461007 0.15077759800681501 0 -0.34245173665537437 0.15132526486117151 0 -0.37636924842303021 0.14926087550651909 0 -0.37633061916794119 0.13321554238042471 0 -0.3679263783545399 0.14143476848920131 0 -0.35625705023461007 0.15077759800681501 0 -0.3679263783545399 0.14143476848920131 0 -0.36783979127543059 0.1599680090482897 0 -0.37636924842303021 0.14926087550651909 0 -0.3679263783545399 0.14143476848920131 0 -0.36783979127543059 0.1599680090482897 0 -0.3679263783545399 0.14143476848920131 0 -0.36783979127543059 0.1599680090482897 0 -0.37636924842303021 0.14926087550651909 0 -0.3679263783545399 0.14143476848920131 0 -0.37636924842303021 0.14926087550651909 0 -0.36783979127543059 0.1599680090482897 0 -0.37771056345250942 0.17028283796063451 0 -0.37636924842303021 0.14926087550651909 0 -0.36783979127543059 0.1599680090482897 0 -0.36783979127543059 0.1599680090482897 0 -0.36775781168658878 0.1775150548260172 0 -0.37771056345250942 0.17028283796063451 0 -0.36783979127543059 0.1599680090482897 0 -0.36775781168658878 0.1775150548260172 0 -0.36775781168658878 0.1775150548260172 0 -0.36068326892345121 0.18686666511551159 0 -0.3676758320977484 0.19506210060374471 0 -0.36783979127543059 0.1599680090482897 0 -0.36775781168658878 0.1775150548260172 0 -0.3493156899950477 0.18322154356029921 0 -0.36775781168658878 0.1775150548260172 0 -0.3676758320977484 0.19506210060374471 0 -0.37418517108101529 0.1834741820967257 0 -0.36775781168658878 0.1775150548260172 0 -0.36948290518865229 0.19190965106029831 0 -0.37771056345250942 0.17028283796063451 0 -0.37418517108101529 0.1834741820967257 0 -0.36775781168658878 0.1775150548260172 0 -0.36775781168658878 0.1775150548260172 0 -0.36068326892345121 0.18686666511551159 0 -0.3493156899950477 0.18322154356029921 0 -0.36783979127543059 0.1599680090482897 0 -0.3493156899950477 0.18322154356029921 0 -0.35204739493416548 0.1615010572546261 0 -0.35625705023461007 0.15077759800681501 0 -0.36783979127543059 0.1599680090482897 0 -0.35204739493416548 0.1615010572546261 0 -0.3493156899950477 0.18322154356029921 0 -0.35204739493416548 0.1615010572546261 0 -0.33831400668615091 0.1594144809029007 0 -0.36783979127543059 0.1599680090482897 0 -0.3493156899950477 0.18322154356029921 0 -0.3493156899950477 0.18322154356029921 0 -0.33831400668615091 0.1594144809029007 0 -0.35204739493416548 0.1615010572546261 0 -0.33831400668615091 0.1594144809029007 0 -0.34245173665537437 0.15132526486117151 0 -0.33831400668615091 0.1594144809029007 0 -0.33457853219429362 0.17798236843680901 0 -0.31804543900369547 0.16549649626791391 0 -0.3493156899950477 0.18322154356029921 0 -0.33831400668615091 0.1594144809029007 0 -0.33457853219429362 0.17798236843680901 0 -0.33457853219429362 0.17798236843680901 0 -0.34218142024560982 0.19217728102498929 0 -0.32503610504096342 0.18960204042794249 0 -0.3493156899950477 0.18322154356029921 0 -0.33457853219429362 0.17798236843680901 0 -0.34218142024560982 0.19217728102498929 0 -0.31804543900369547 0.16549649626791391 0 -0.32503610504096342 0.18960204042794249 0 -0.30407821262706652 0.18645414756458309 0 -0.33457853219429362 0.17798236843680901 0 -0.31804543900369547 0.16549649626791391 0 -0.32503610504096342 0.18960204042794249 0 -0.31804543900369547 0.16549649626791391 0 -0.32503610504096342 0.18960204042794249 0 -0.33831400668615091 0.1594144809029007 0 -0.31804543900369547 0.16549649626791391 0 -0.32356948533401397 0.15082808238892631 0 -0.32356948533401397 0.15082808238892631 0 -0.32731232337725108 0.1356074182455034 0 -0.31105477296642658 0.1413909521078856 0 -0.31804543900369547 0.16549649626791391 0 -0.31105477296642658 0.1413909521078856 0 -0.31804543900369547 0.16549649626791391 0 -0.32356948533401397 0.15082808238892631 0 -0.31105477296642658 0.1413909521078856 0 -0.32731232337725108 0.1356074182455034 0 -0.31468546083529669 0.12652103347233809 0 -0.31105477296642658 0.1413909521078856 0 -0.32731232337725108 0.1356074182455034 0 -0.33076809179349598 0.1268813460663408 0 -0.34245173665537437 0.15132526486117151 0 -0.33076809179349598 0.1268813460663408 0 -0.34245173665537437 0.15132526486117151 0 -0.33076809179349598 0.1268813460663408 0 -0.34253429113533129 0.13061104429197631 0 -0.34245173665537437 0.15132526486117151 0 -0.33076809179349598 0.1268813460663408 0 -0.34253429113533129 0.13061104429197631 0 -0.33666217495045297 0.1218892254615512 0 -0.33831400668615091 0.1594144809029007 0 -0.32731232337725108 0.1356074182455034 0 -0.34245173665537437 0.15132526486117151 0 -0.33831400668615091 0.1594144809029007 0 -0.32731232337725108 0.1356074182455034 0 -0.33831400668615091 0.1594144809029007 0 -0.32356948533401397 0.15082808238892631 0 -0.32731232337725108 0.1356074182455034 0 -0.35680367322974249 0.2403001594147498 0 -0.34076034255671012 0.2394519696354756 0 -0.34673401697601558 0.25598335073781769 0 -0.35680367322974249 0.2403001594147498 0 -0.3476491707734426 0.22390602945299881 0 -0.34076034255671012 0.2394519696354756 0 -0.3762277089876811 0.2414577338236846 0 -0.35680367322974249 0.2403001594147498 0 -0.36418938528547712 0.26327462148156322 0 -0.3762277089876811 0.2414577338236846 0 -0.35680367322974249 0.2403001594147498 0 -0.36526141479912888 0.217727251356959 0 -0.3762277089876811 0.2414577338236846 0 -0.36526141479912888 0.217727251356959 0 -0.35680367322974249 0.2403001594147498 0 -0.3476491707734426 0.22390602945299881 0 -0.36526141479912888 0.217727251356959 0 -0.3476491707734426 0.22390602945299881 0 -0.34794140271013901 0.20821776780394399 0 -0.33951130254142398 0.21452035576940079 0 -0.34794140271013901 0.20821776780394399 0 -0.36526141479912888 0.217727251356959 0 -0.35429512061058488 0.1939967688902296 0 -0.3476491707734426 0.22390602945299881 0 -0.34794140271013901 0.20821776780394399 0 -0.36526141479912888 0.217727251356959 0 -0.36526141479912888 0.217727251356959 0 -0.37233725061120898 0.20744499488199861 0 -0.35429512061058488 0.1939967688902296 0 -0.38642897168464369 0.2201173574299097 0 -0.36526141479912888 0.217727251356959 0 -0.37233725061120898 0.20744499488199861 0 -0.36526141479912888 0.217727251356959 0 -0.35429512061058488 0.1939967688902296 0 -0.37427533270663982 0.19699781335706409 0 -0.3676758320977484 0.19506210060374471 0 -0.35429512061058488 0.1939967688902296 0 -0.36775781168658878 0.1775150548260172 0 -0.3676758320977484 0.19506210060374471 0 -0.36948290518865229 0.19190965106029831 0 -0.37233725061120898 0.20744499488199861 0 -0.37427533270663982 0.19699781335706409 0 -0.35429512061058488 0.1939967688902296 0 -0.37427533270663982 0.19699781335706409 0 -0.35429512061058488 0.1939967688902296 0 -0.37686466762261461 0.1873894380927604 0 -0.37418517108101529 0.1834741820967257 0 -0.36948290518865229 0.19190965106029831 0 -0.37427533270663982 0.19699781335706409 0 -0.3676758320977484 0.19506210060374471 0 -0.36948290518865229 0.19190965106029831 0 -0.36068326892345121 0.18686666511551159 0 -0.3676758320977484 0.19506210060374471 0 -0.35429512061058488 0.1939967688902296 0 -0.36068326892345121 0.18686666511551159 0 -0.3493156899950477 0.18322154356029921 0 -0.35429512061058488 0.1939967688902296 0 -0.3493156899950477 0.18322154356029921 0 -0.35429512061058488 0.1939967688902296 0 -0.34794140271013901 0.20821776780394399 0 -0.35429512061058488 0.1939967688902296 0 -0.34218142024560982 0.19217728102498929 0 -0.3493156899950477 0.18322154356029921 0 -0.34218142024560982 0.19217728102498929 0 -0.35429512061058488 0.1939967688902296 0 -0.34218142024560982 0.19217728102498929 0 -0.3493156899950477 0.18322154356029921 0 -0.35429512061058488 0.1939967688902296 0 -0.34218142024560982 0.19217728102498929 0 -0.34794140271013901 0.20821776780394399 0 -0.34218142024560982 0.19217728102498929 0 -0.33756975940355172 0.20745482302386181 0 -0.34218142024560982 0.19217728102498929 0 -0.32503610504096342 0.18960204042794249 0 -0.34218142024560982 0.19217728102498929 0 -0.32503610504096342 0.18960204042794249 0 -0.33015945204791991 0.20726860708479841 0 -0.34218142024560982 0.19217728102498929 0 -0.33015945204791991 0.20726860708479841 0 -0.34218142024560982 0.19217728102498929 0 -0.33015945204791991 0.20726860708479841 0 -0.33756975940355172 0.20745482302386181 0 -0.32503610504096342 0.18960204042794249 0 -0.30407821262706652 0.18645414756458309 0 -0.32503610504096342 0.18960204042794249 0 -0.32257502240176861 0.2034178743000655 0 -0.33015945204791991 0.20726860708479841 0 -0.32503610504096342 0.18960204042794249 0 -0.31430475389268692 0.19893019656602581 0 -0.30407821262706652 0.18645414756458309 0 -0.32503610504096342 0.18960204042794249 0 -0.33015945204791991 0.20726860708479841 0 -0.32503610504096342 0.18960204042794249 0 -0.31430475389268692 0.19893019656602581 0 -0.32257502240176861 0.2034178743000655 0 -0.32257502240176861 0.2034178743000655 0 -0.31689037382340052 0.2094066159853091 0 -0.32648442720387438 0.2118819114362511 0 -0.32257502240176861 0.2034178743000655 0 -0.32648442720387438 0.2118819114362511 0 -0.33015945204791991 0.20726860708479841 0 -0.31430475389268692 0.19893019656602581 0 -0.32257502240176861 0.2034178743000655 0 -0.31689037382340052 0.2094066159853091 0 -0.31689037382340052 0.2094066159853091 0 -0.32354718674605382 0.21789219224463491 0 -0.3109832630338476 0.21831114321703701 0 -0.31689037382340052 0.2094066159853091 0 -0.32354718674605382 0.21789219224463491 0 -0.32648442720387438 0.2118819114362511 0 -0.32354718674605382 0.21789219224463491 0 -0.32648442720387438 0.2118819114362511 0 -0.33172197193281799 0.2168633925064572 0 -0.33172197193281799 0.2168633925064572 0 -0.33951130254142398 0.21452035576940079 0 -0.33363764514000649 0.22473024784093179 0 -0.33172197193281799 0.2168633925064572 0 -0.33491593305707862 0.21213131223523471 0 -0.33086069835052079 0.20968667764121879 0 -0.33172197193281799 0.2168633925064572 0 -0.33491593305707862 0.21213131223523471 0 -0.33951130254142398 0.21452035576940079 0 -0.32648442720387438 0.2118819114362511 0 -0.33172197193281799 0.2168633925064572 0 -0.33086069835052079 0.20968667764121879 0 -0.32648442720387438 0.2118819114362511 0 -0.33015945204791991 0.20726860708479841 0 -0.32648442720387438 0.2118819114362511 0 -0.33015945204791991 0.20726860708479841 0 -0.33086069835052079 0.20968667764121879 0 -0.33015945204791991 0.20726860708479841 0 -0.33086069835052079 0.20968667764121879 0 -0.33491593305707862 0.21213131223523471 0 -0.33086069835052079 0.20968667764121879 0 -0.33756975940355172 0.20745482302386181 0 -0.33015945204791991 0.20726860708479841 0 -0.33086069835052079 0.20968667764121879 0 -0.33756975940355172 0.20745482302386181 0 -0.34794140271013901 0.20821776780394399 0 -0.33756975940355172 0.20745482302386181 0 -0.33951130254142398 0.21452035576940079 0 -0.33491593305707862 0.21213131223523471 0 -0.33756975940355172 0.20745482302386181 0 -0.33951130254142398 0.21452035576940079 0 -0.3476491707734426 0.22390602945299881 0 -0.33951130254142398 0.21452035576940079 0 -0.33363764514000649 0.22473024784093179 0 -0.3476491707734426 0.22390602945299881 0 -0.33363764514000649 0.22473024784093179 0 -0.34076034255671012 0.2394519696354756 0 -0.33363764514000649 0.22473024784093179 0 -0.32689146105862499 0.23861155875722881 0 -0.34076034255671012 0.2394519696354756 0 -0.32354718674605382 0.21789219224463491 0 -0.33172197193281799 0.2168633925064572 0 -0.33363764514000649 0.22473024784093179 0 -0.32354718674605382 0.21789219224463491 0 -0.33363764514000649 0.22473024784093179 0 -0.32156543934237591 0.22615984248182319 0 -0.32156543934237591 0.22615984248182319 0 -0.31102186370945872 0.24190991661535971 0 -0.3109832630338476 0.21831114321703701 0 -0.32354718674605382 0.21789219224463491 0 -0.32156543934237591 0.22615984248182319 0 -0.3109832630338476 0.21831114321703701 0 -0.33363764514000649 0.22473024784093179 0 -0.32156543934237591 0.22615984248182319 0 -0.32689146105862499 0.23861155875722881 0 -0.32156543934237591 0.22615984248182319 0 -0.32689146105862499 0.23861155875722881 0 -0.31102186370945872 0.24190991661535971 0 -0.32689146105862499 0.23861155875722881 0 -0.31102186370945872 0.24190991661535971 0 -0.32747201454457392 0.26080581721255391 0 -0.32689146105862499 0.23861155875722881 0 -0.34076034255671012 0.2394519696354756 0 -0.32747201454457392 0.26080581721255391 0 -0.28638785162830721 0.24757136013329381 0 -0.29400524111085302 0.2370881844910008 0 -0.26875140580645679 0.23423205549126411 0 -0.28638785162830721 0.24757136013329381 0 -0.29400524111085302 0.2370881844910008 0 -0.29677711184925942 0.2508983199382061 0 -0.29400524111085302 0.2370881844910008 0 -0.31102186370945872 0.24190991661535971 0 -0.29677711184925942 0.2508983199382061 0 -0.31102186370945872 0.24190991661535971 0 -0.29457171287434358 0.2230140160181654 0 -0.29400524111085302 0.2370881844910008 0 -0.31102186370945872 0.24190991661535971 0 -0.29457171287434358 0.2230140160181654 0 -0.31102186370945872 0.24190991661535971 0 -0.29457171287434358 0.2230140160181654 0 -0.3109832630338476 0.21831114321703701 0 -0.29400524111085302 0.2370881844910008 0 -0.29457171287434358 0.2230140160181654 0 -0.26875140580645679 0.23423205549126411 0 -0.29457171287434358 0.2230140160181654 0 -0.30126652986889552 0.2029585616349546 0 -0.27809231374861221 0.20578055270506659 0 -0.29457171287434358 0.2230140160181654 0 -0.3109832630338476 0.21831114321703701 0 -0.30126652986889552 0.2029585616349546 0 -0.31430475389268692 0.19893019656602581 0 -0.31689037382340052 0.2094066159853091 0 -0.30126652986889552 0.2029585616349546 0 -0.31689037382340052 0.2094066159853091 0 -0.3109832630338476 0.21831114321703701 0 -0.30126652986889552 0.2029585616349546 0 -0.31430475389268692 0.19893019656602581 0 -0.30126652986889552 0.2029585616349546 0 -0.30407821262706652 0.18645414756458309 0 -0.30126652986889552 0.2029585616349546 0 -0.30407821262706652 0.18645414756458309 0 -0.28312032021316968 0.18330625470122319 0 -0.30126652986889552 0.2029585616349546 0 -0.27809231374861221 0.20578055270506659 0 -0.28312032021316968 0.18330625470122319 0 -0.27809231374861221 0.20578055270506659 0 -0.28312032021316968 0.18330625470122319 0 -0.26248859064343749 0.17845226091426941 0 -0.25454920797491343 0.2079421238334275 0 -0.26248859064343749 0.17845226091426941 0 -0.2403470101433699 0.18165219217559081 0 -0.25454920797491343 0.2079421238334275 0 -0.27809231374861221 0.20578055270506659 0 -0.26248859064343749 0.17845226091426941 0 -0.25454920797491343 0.2079421238334275 0 -0.27809231374861221 0.20578055270506659 0 -0.26875140580645679 0.23423205549126411 0 -0.29457171287434358 0.2230140160181654 0 -0.27809231374861221 0.20578055270506659 0 -0.26875140580645679 0.23423205549126411 0 -0.25454920797491343 0.2079421238334275 0 -0.26875140580645679 0.23423205549126411 0 -0.25454920797491343 0.2079421238334275 0 -0.26875140580645679 0.23423205549126411 0 -0.24810890252628839 0.23272384076664679 0 -0.26875140580645679 0.23423205549126411 0 -0.26443735616512237 0.2477303344038003 0 -0.24810890252628839 0.23272384076664679 0 -0.26443735616512237 0.2477303344038003 0 -0.25321208583809113 0.25776932320358148 0 -0.24810890252628839 0.23272384076664679 0 -0.28638785162830721 0.24757136013329381 0 -0.26875140580645679 0.23423205549126411 0 -0.28295360363800037 0.26052198714910091 0 -0.26875140580645679 0.23423205549126411 0 -0.26443735616512237 0.2477303344038003 0 -0.27892452861441319 0.25656869405346722 0 -0.26875140580645679 0.23423205549126411 0 -0.28295360363800037 0.26052198714910091 0 -0.29523291272605889 0.14792832780184109 0 -0.28461699531615792 0.15045455210312059 0 -0.28959459946011618 0.16021083095099439 0 -0.29523291272605889 0.14792832780184109 0 -0.30276110915380261 0.15860045613954141 0 -0.28959459946011618 0.16021083095099439 0 -0.28461699531615792 0.15045455210312059 0 -0.28959459946011618 0.16021083095099439 0 -0.27867900224324138 0.15778129070375979 0 -0.28461699531615792 0.15045455210312059 0 -0.28455930905594412 0.13912365387162801 0 -0.27501915309542863 0.1472286571873796 0 -0.29523291272605889 0.14792832780184109 0 -0.28461699531615792 0.15045455210312059 0 -0.28455930905594412 0.13912365387162801 0 -0.28455930905594412 0.13912365387162801 0 -0.27833115850565371 0.12705470913842171 0 -0.28996124584350452 0.1236218264103405 0 -0.28455930905594412 0.13912365387162801 0 -0.29698162082161628 0.1340512199874595 0 -0.28996124584350452 0.1236218264103405 0 -0.29523291272605889 0.14792832780184109 0 -0.28455930905594412 0.13912365387162801 0 -0.29698162082161628 0.1340512199874595 0 -0.31468546083529669 0.12652103347233809 0 -0.31105477296642658 0.1413909521078856 0 -0.30406410692915781 0.1172854079478573 0 -0.29698162082161628 0.1340512199874595 0 -0.31105477296642658 0.1413909521078856 0 -0.30406410692915781 0.1172854079478573 0 -0.31105477296642658 0.1413909521078856 0 -0.30406410692915781 0.1172854079478573 0 -0.29523291272605889 0.14792832780184109 0 -0.31105477296642658 0.1413909521078856 0 -0.30276110915380261 0.15860045613954141 0 -0.29523291272605889 0.14792832780184109 0 -0.29698162082161628 0.1340512199874595 0 -0.31105477296642658 0.1413909521078856 0 -0.31804543900369547 0.16549649626791391 0 -0.31105477296642658 0.1413909521078856 0 -0.30276110915380261 0.15860045613954141 0 -0.31804543900369547 0.16549649626791391 0 -0.30276110915380261 0.15860045613954141 0 -0.29630876062917172 0.17153148850863931 0 -0.31804543900369547 0.16549649626791391 0 -0.30407821262706652 0.18645414756458309 0 -0.29630876062917172 0.17153148850863931 0 -0.30407821262706652 0.18645414756458309 0 -0.28312032021316968 0.18330625470122319 0 -0.29630876062917172 0.17153148850863931 0 -0.30407821262706652 0.18645414756458309 0 -0.28312032021316968 0.18330625470122319 0 -0.28312032021316968 0.18330625470122319 0 -0.29630876062917172 0.17153148850863931 0 -0.2777180837372511 0.17008526824142209 0 -0.28959459946011618 0.16021083095099439 0 -0.29630876062917172 0.17153148850863931 0 -0.2777180837372511 0.17008526824142209 0 -0.30276110915380261 0.15860045613954141 0 -0.28959459946011618 0.16021083095099439 0 -0.29630876062917172 0.17153148850863931 0 -0.28959459946011618 0.16021083095099439 0 -0.27867900224324138 0.15778129070375979 0 -0.2777180837372511 0.17008526824142209 0 -0.27867900224324138 0.15778129070375979 0 -0.2777180837372511 0.17008526824142209 0 -0.26876470378590539 0.1600217644999421 0 -0.2777180837372511 0.17008526824142209 0 -0.26876470378590539 0.1600217644999421 0 -0.26248859064343749 0.17845226091426941 0 -0.28312032021316968 0.18330625470122319 0 -0.2777180837372511 0.17008526824142209 0 -0.26248859064343749 0.17845226091426941 0 -0.26248859064343749 0.17845226091426941 0 -0.25577090009472719 0.15614666647147801 0 -0.24154618544955159 0.1626832646860045 0 -0.26876470378590539 0.1600217644999421 0 -0.26248859064343749 0.17845226091426941 0 -0.25577090009472719 0.15614666647147801 0 -0.25577090009472719 0.15614666647147801 0 -0.25097781289726051 0.14631568991468469 0 -0.26354307025812101 0.1486038323250139 0 -0.25097781289726051 0.14631568991468469 0 -0.26145920841163622 0.14120598408359561 0 -0.25836943693382541 0.1345203726751035 0 -0.25097781289726051 0.14631568991468469 0 -0.26145920841163622 0.14120598408359561 0 -0.26354307025812101 0.1486038323250139 0 -0.26145920841163622 0.14120598408359561 0 -0.26354307025812101 0.1486038323250139 0 -0.26771838376950108 0.14137516801852579 0 -0.26876470378590539 0.1600217644999421 0 -0.25577090009472719 0.15614666647147801 0 -0.26354307025812101 0.1486038323250139 0 -0.26876470378590539 0.1600217644999421 0 -0.26354307025812101 0.1486038323250139 0 -0.27501915309542863 0.1472286571873796 0 -0.26771838376950108 0.14137516801852579 0 -0.27501915309542863 0.1472286571873796 0 -0.27340524534269689 0.1357979756957664 0 -0.26354307025812101 0.1486038323250139 0 -0.26771838376950108 0.14137516801852579 0 -0.27501915309542863 0.1472286571873796 0 -0.28455930905594412 0.13912365387162801 0 -0.27501915309542863 0.1472286571873796 0 -0.27340524534269689 0.1357979756957664 0 -0.27867900224324138 0.15778129070375979 0 -0.26876470378590539 0.1600217644999421 0 -0.27501915309542863 0.1472286571873796 0 -0.28461699531615792 0.15045455210312059 0 -0.27867900224324138 0.15778129070375979 0 -0.27501915309542863 0.1472286571873796 0 -0.28455930905594412 0.13912365387162801 0 -0.27833115850565371 0.12705470913842171 0 -0.27340524534269689 0.1357979756957664 0 -0.26771838376950108 0.14137516801852579 0 -0.27340524534269689 0.1357979756957664 0 -0.26516524173962258 0.13403939080087349 0 -0.27340524534269689 0.1357979756957664 0 -0.26789935976096541 0.12509790326036149 0 -0.26516524173962258 0.13403939080087349 0 -0.27833115850565371 0.12705470913842171 0 -0.27340524534269689 0.1357979756957664 0 -0.26789935976096541 0.12509790326036149 0 -0.26789935976096541 0.12509790326036149 0 -0.25987906249068682 0.12950537174196811 0 -0.26516524173962258 0.13403939080087349 0 -0.25987906249068682 0.12950537174196811 0 -0.25836943693382541 0.1345203726751035 0 -0.24341729992139269 0.12711422740462039 0 -0.25987906249068682 0.12950537174196811 0 -0.26516524173962258 0.13403939080087349 0 -0.25836943693382541 0.1345203726751035 0 -0.26145920841163622 0.14120598408359561 0 -0.26771838376950108 0.14137516801852579 0 -0.26516524173962258 0.13403939080087349 0 -0.26145920841163622 0.14120598408359561 0 -0.26516524173962258 0.13403939080087349 0 -0.25836943693382541 0.1345203726751035 0 -0.26789935976096541 0.12509790326036149 0 -0.25987906249068682 0.12950537174196811 0 -0.26023793689621122 0.1136937247536606 0 -0.25987906249068682 0.12950537174196811 0 -0.26023793689621122 0.1136937247536606 0 -0.2441895661517656 0.1093356225558617 0 -0.25987906249068682 0.12950537174196811 0 -0.2441895661517656 0.1093356225558617 0 -0.26023793689621122 0.1136937247536606 0 -0.27729018204156031 0.1003805575183743 0 -0.25610820474316348 0.091003050049048156 0 -0.26023793689621122 0.1136937247536606 0 -0.25610820474316348 0.091003050049048156 0 -0.2441895661517656 0.1093356225558617 0 -0.27729018204156031 0.1003805575183743 0 -0.2728517592713135 0.11664327955204989 0 -0.28356526849759811 0.1149464679825095 0 -0.26023793689621122 0.1136937247536606 0 -0.27729018204156031 0.1003805575183743 0 -0.2728517592713135 0.11664327955204989 0 -0.27833115850565371 0.12705470913842171 0 -0.26789935976096541 0.12509790326036149 0 -0.2728517592713135 0.11664327955204989 0 -0.26789935976096541 0.12509790326036149 0 -0.26023793689621122 0.1136937247536606 0 -0.2728517592713135 0.11664327955204989 0 -0.27833115850565371 0.12705470913842171 0 -0.2728517592713135 0.11664327955204989 0 -0.28356526849759811 0.1149464679825095 0 -0.27833115850565371 0.12705470913842171 0 -0.28996124584350452 0.1236218264103405 0 -0.28356526849759811 0.1149464679825095 0 -0.28996124584350452 0.1236218264103405 0 -0.28356526849759811 0.1149464679825095 0 -0.29067054184676949 0.1076668335704485 0 -0.28996124584350452 0.1236218264103405 0 -0.29067054184676949 0.1076668335704485 0 -0.30406410692915781 0.1172854079478573 0 -0.27729018204156031 0.1003805575183743 0 -0.28356526849759811 0.1149464679825095 0 -0.29067054184676949 0.1076668335704485 0 -0.27729018204156031 0.1003805575183743 0 -0.28608165832866289 0.093757638784372668 0 -0.29067054184676949 0.1076668335704485 0 -0.28608165832866289 0.093757638784372668 0 -0.29067054184676949 0.1076668335704485 0 -0.29707344089188892 0.093179863787828984 0 -0.3056892861622123 0.10256473006362531 0 -0.30406410692915781 0.1172854079478573 0 -0.29707344089188892 0.093179863787828984 0 -0.30530895675945141 0.087993292930708761 0 -0.31631064006835119 0.11180035558810621 0 -0.30406410692915781 0.1172854079478573 0 -0.29707344089188892 0.093179863787828984 0 -0.3056892861622123 0.10256473006362531 0 -0.30530895675945141 0.087993292930708761 0 -0.31631064006835119 0.11180035558810621 0 -0.29067054184676949 0.1076668335704485 0 -0.30406410692915781 0.1172854079478573 0 -0.29707344089188892 0.093179863787828984 0 -0.3056892861622123 0.10256473006362531 0 -0.30530895675945141 0.087993292930708761 0 -0.29707344089188892 0.093179863787828984 0 -0.3056892861622123 0.10256473006362531 0 -0.30406410692915781 0.1172854079478573 0 -0.31631064006835119 0.11180035558810621 0 -0.29698162082161628 0.1340512199874595 0 -0.28996124584350452 0.1236218264103405 0 -0.30406410692915781 0.1172854079478573 0 -0.31468546083529669 0.12652103347233809 0 -0.30406410692915781 0.1172854079478573 0 -0.31631064006835119 0.11180035558810621 0 -0.29968454118815308 0.067822980361339227 0 -0.30740080206973908 0.077993508476679019 0 -0.30530895675945141 0.087993292930708761 0 -0.30530895675945141 0.087993292930708761 0 -0.29430727345055152 0.064186230273311537 0 -0.29968454118815308 0.067822980361339227 0 -0.30530895675945141 0.087993292930708761 0 -0.29430727345055152 0.064186230273311537 0 -0.29968454118815308 0.067822980361339227 0 -0.31222145986249078 0.068157649044022661 0 -0.31041059753757089 0.05909369936622013 0 -0.29968454118815308 0.067822980361339227 0 -0.31222145986249078 0.068157649044022661 0 -0.30740080206973908 0.077993508476679019 0 -0.30740080206973908 0.077993508476679019 0 -0.30530895675945141 0.087993292930708761 0 -0.31908444693161753 0.1024374272715099 0 -0.30530895675945141 0.087993292930708761 0 -0.29707344089188892 0.093179863787828984 0 -0.29008277485461997 0.069074319627800682 0 -0.29707344089188892 0.093179863787828984 0 -0.29008277485461997 0.069074319627800682 0 -0.29707344089188892 0.093179863787828984 0 -0.28584854878135091 0.082166869088813904 0 -0.29008277485461997 0.069074319627800682 0 -0.28608165832866289 0.093757638784372668 0 -0.29707344089188892 0.093179863787828984 0 -0.28584854878135091 0.082166869088813904 0 -0.28608165832866289 0.093757638784372668 0 -0.28584854878135091 0.082166869088813904 0 -0.27388980715215189 0.080063745193198921 0 -0.28584854878135091 0.082166869088813904 0 -0.29008277485461997 0.069074319627800682 0 -0.28066388068893111 0.069948608746784921 0 -0.30530895675945141 0.087993292930708761 0 -0.29430727345055152 0.064186230273311537 0 -0.29008277485461997 0.069074319627800682 0 -0.29430727345055152 0.064186230273311537 0 -0.29008277485461997 0.069074319627800682 0 -0.28300884039378921 0.058691176956087589 0 -0.29008277485461997 0.069074319627800682 0 -0.28066388068893111 0.069948608746784921 0 -0.28300884039378921 0.058691176956087589 0 -0.27388980715215189 0.080063745193198921 0 -0.27048943226274352 0.059746932868023489 0 -0.28066388068893111 0.069948608746784921 0 -0.27048943226274352 0.059746932868023489 0 -0.28300884039378921 0.058691176956087589 0 -0.27388980715215189 0.080063745193198921 0 -0.26170625468351688 0.071659914040378137 0 -0.27048943226274352 0.059746932868023489 0 -0.28066388068893111 0.069948608746784921 0 -0.27388980715215189 0.080063745193198921 0 -0.27048943226274352 0.059746932868023489 0 -0.28584854878135091 0.082166869088813904 0 -0.28066388068893111 0.069948608746784921 0 -0.27388980715215189 0.080063745193198921 0 -0.27729018204156031 0.1003805575183743 0 -0.27388980715215189 0.080063745193198921 0 -0.27729018204156031 0.1003805575183743 0 -0.28608165832866289 0.093757638784372668 0 -0.27388980715215189 0.080063745193198921 0 -0.27729018204156031 0.1003805575183743 0 -0.27388980715215189 0.080063745193198921 0 -0.25610820474316348 0.091003050049048156 0 -0.27388980715215189 0.080063745193198921 0 -0.25610820474316348 0.091003050049048156 0 -0.26170625468351688 0.071659914040378137 0 -0.25610820474316348 0.091003050049048156 0 -0.26170625468351688 0.071659914040378137 0 -0.24694361646409449 0.072721912912108361 0 -0.26170625468351688 0.071659914040378137 0 -0.25741030458238878 0.052600429353085509 0 -0.24694361646409449 0.072721912912108361 0 -0.25741030458238878 0.052600429353085509 0 -0.26708905737333549 0.039430120542847932 0 -0.27048943226274352 0.059746932868023489 0 -0.26170625468351688 0.071659914040378137 0 -0.25741030458238878 0.052600429353085509 0 -0.27048943226274352 0.059746932868023489 0 -0.26708905737333549 0.039430120542847932 0 -0.2407896513520853 0.037890989172118597 0 -0.26708905737333549 0.039430120542847932 0 -0.25172179462865718 0.025724150998640949 0 -0.2407896513520853 0.037890989172118597 0 -0.25741030458238878 0.052600429353085509 0 -0.26708905737333549 0.039430120542847932 0 -0.2407896513520853 0.037890989172118597 0 -0.26708905737333549 0.039430120542847932 0 -0.27355613470544959 0.019281860055949621 0 -0.28330559014164758 0.040379167615916089 0 -0.26708905737333549 0.039430120542847932 0 -0.27048943226274352 0.059746932868023489 0 -0.28330559014164758 0.040379167615916089 0 -0.26708905737333549 0.039430120542847932 0 -0.28330559014164758 0.040379167615916089 0 -0.26708905737333549 0.039430120542847932 0 -0.27048943226274352 0.059746932868023489 0 -0.27048943226274352 0.059746932868023489 0 -0.28300884039378921 0.058691176956087589 0 -0.28330559014164758 0.040379167615916089 0 -0.24138517484959959 -0.00643824194540428 0 -0.26219695049997649 0.010200397217229189 0 -0.26219695049997649 0.010200397217229189 0 -0.25172179462865718 0.025724150998640949 0 -0.23681151928923039 0.015375097062368819 0 -0.26708905737333549 0.039430120542847932 0 -0.26219695049997649 0.010200397217229189 0 -0.25172179462865718 0.025724150998640949 0 -0.26708905737333549 0.039430120542847932 0 -0.26219695049997649 0.010200397217229189 0 -0.27355613470544959 0.019281860055949621 0 -0.28330559014164758 0.040379167615916089 0 -0.26708905737333549 0.039430120542847932 0 -0.26219695049997649 0.010200397217229189 0 -0.27355613470544959 0.019281860055949621 0 -0.27355613470544959 0.019281860055949621 0 -0.28740760893623363 0.030355863805951379 0 -0.26219695049997649 0.010200397217229189 0 -0.27355613470544959 0.019281860055949621 0 -0.26584301990892367 0.00259108628171982 0 -0.27355613470544959 0.019281860055949621 0 -0.26584301990892367 0.00259108628171982 0 -0.28178806972497322 0.0047021863176151838 0 -0.27355613470544959 0.019281860055949621 0 -0.26584301990892367 0.00259108628171982 0 -0.26219695049997649 0.010200397217229189 0 -0.27355613470544959 0.019281860055949621 0 -0.27355613470544959 0.019281860055949621 0 -0.28178806972497322 0.0047021863176151838 0 -0.28425835270022798 0.01730369160780423 0 -0.29571507552162041 0.00098409570603152701 0 -0.28178806972497322 0.0047021863176151838 0 -0.29428159743425542 0.014874856251701421 0 -0.28178806972497322 0.0047021863176151838 0 -0.29428159743425542 0.014874856251701421 0 -0.28425835270022798 0.01730369160780423 0 -0.27355613470544959 0.019281860055949621 0 -0.28740760893623363 0.030355863805951379 0 -0.28330559014164758 0.040379167615916089 0 -0.29428159743425542 0.014874856251701421 0 -0.28425835270022798 0.01730369160780423 0 -0.28740760893623363 0.030355863805951379 0 -0.27355613470544959 0.019281860055949621 0 -0.28425835270022798 0.01730369160780423 0 -0.28740760893623363 0.030355863805951379 0 -0.29428159743425542 0.014874856251701421 0 -0.28740760893623363 0.030355863805951379 0 -0.29980709481036949 0.029230465519793181 0 -0.29980709481036949 0.029230465519793181 0 -0.31054984723036971 0.025039952900285149 0 -0.30590120428528961 0.016505601892539318 0 -0.31054984723036971 0.025039952900285149 0 -0.31408543485290402 0.0111182886822577 0 -0.31054984723036971 0.025039952900285149 0 -0.30590120428528961 0.016505601892539318 0 -0.31408543485290402 0.0111182886822577 0 -0.29428159743425542 0.014874856251701421 0 -0.29980709481036949 0.029230465519793181 0 -0.30590120428528961 0.016505601892539318 0 -0.29428159743425542 0.014874856251701421 0 -0.30590120428528961 0.016505601892539318 0 -0.30374771766113701 0.0071105341592672226 0 -0.30590120428528961 0.016505601892539318 0 -0.30950028323022549 0.0093954369502143326 0 -0.30374771766113701 0.0071105341592672226 0 -0.30590120428528961 0.016505601892539318 0 -0.30950028323022549 0.0093954369502143326 0 -0.31408543485290402 0.0111182886822577 0 -0.31276107273044762 -0.0040066177982495338 0 -0.30909513318508558 0.003917776002563174 0 -0.31478738417019458 0.0083543060754884615 0 -0.30589562974355983 -0.003206164687927148 0 -0.30909513318508558 0.003917776002563174 0 -0.30374771766113701 0.0071105341592672226 0 -0.30950028323022549 0.0093954369502143326 0 -0.30909513318508558 0.003917776002563174 0 -0.30374771766113701 0.0071105341592672226 0 -0.30950028323022549 0.0093954369502143326 0 -0.30909513318508558 0.003917776002563174 0 -0.31478738417019458 0.0083543060754884615 0 -0.30589562974355983 -0.003206164687927148 0 -0.29571507552162041 0.00098409570603152701 0 -0.30374771766113701 0.0071105341592672226 0 -0.29571507552162041 0.00098409570603152701 0 -0.29428159743425542 0.014874856251701421 0 -0.30374771766113701 0.0071105341592672226 0 -0.29968454118815308 0.067822980361339227 0 -0.29430727345055152 0.064186230273311537 0 -0.29634409229332248 0.05208370989840265 0 -0.29430727345055152 0.064186230273311537 0 -0.29634409229332248 0.05208370989840265 0 -0.28330559014164758 0.040379167615916089 0 -0.29430727345055152 0.064186230273311537 0 -0.28300884039378921 0.058691176956087589 0 -0.28330559014164758 0.040379167615916089 0 -0.29430727345055152 0.064186230273311537 0 -0.28330559014164758 0.040379167615916089 0 -0.28740760893623363 0.030355863805951379 0 -0.28330559014164758 0.040379167615916089 0 -0.30125908316701488 0.041429867555956637 0 -0.28330559014164758 0.040379167615916089 0 -0.30125908316701488 0.041429867555956637 0 -0.29634409229332248 0.05208370989840265 0 -0.28330559014164758 0.040379167615916089 0 -0.30125908316701488 0.041429867555956637 0 -0.28740760893623363 0.030355863805951379 0 -0.30125908316701488 0.041429867555956637 0 -0.28740760893623363 0.030355863805951379 0 -0.29980709481036949 0.029230465519793181 0 -0.30125908316701488 0.041429867555956637 0 -0.31054984723036971 0.025039952900285149 0 -0.30631231029054468 0.041725599725081872 0 -0.31543333215561647 0.035063177100048318 0 -0.31054984723036971 0.025039952900285149 0 -0.30631231029054468 0.041725599725081872 0 -0.29980709481036949 0.029230465519793181 0 -0.31054984723036971 0.025039952900285149 0 -0.30631231029054468 0.041725599725081872 0 -0.29634409229332248 0.05208370989840265 0 -0.30125908316701488 0.041429867555956637 0 -0.30552189829244408 0.04483791134234108 0 -0.30125908316701488 0.041429867555956637 0 -0.30631231029054468 0.041725599725081872 0 -0.30125908316701488 0.041429867555956637 0 -0.30552189829244408 0.04483791134234108 0 -0.30631231029054468 0.041725599725081872 0 -0.30125908316701488 0.041429867555956637 0 -0.30552189829244408 0.04483791134234108 0 -0.29980709481036949 0.029230465519793181 0 -0.30125908316701488 0.041429867555956637 0 -0.30631231029054468 0.041725599725081872 0 -0.30631231029054468 0.041725599725081872 0 -0.31351516575193911 0.042147135511497742 0 -0.31543333215561647 0.035063177100048318 0 -0.30552189829244408 0.04483791134234108 0 -0.30631231029054468 0.041725599725081872 0 -0.31351516575193911 0.042147135511497742 0 -0.30552189829244408 0.04483791134234108 0 -0.30631231029054468 0.041725599725081872 0 -0.30631231029054468 0.041725599725081872 0 -0.31351516575193911 0.042147135511497742 0 -0.29968454118815308 0.067822980361339227 0 -0.29634409229332248 0.05208370989840265 0 -0.30552189829244408 0.04483791134234108 0 -0.29968454118815308 0.067822980361339227 0 -0.30552189829244408 0.04483791134234108 0 -0.31041059753757089 0.05909369936622013 0 -0.29968454118815308 0.067822980361339227 0 -0.30552189829244408 0.04483791134234108 0 -0.30552189829244408 0.04483791134234108 0 -0.31041059753757089 0.05909369936622013 0 -0.32500864909049071 0.060417217040601497 0 -0.30552189829244408 0.04483791134234108 0 -0.32500864909049071 0.060417217040601497 0 -0.31351516575193911 0.042147135511497742 0 -0.30552189829244408 0.04483791134234108 0 -0.32500864909049071 0.060417217040601497 0 -0.32500864909049071 0.060417217040601497 0 -0.31351516575193911 0.042147135511497742 0 -0.32748676264945392 0.045495554741964671 0 -0.31351516575193911 0.042147135511497742 0 -0.31543333215561647 0.035063177100048318 0 -0.32146943130470279 0.039143754785672932 0 -0.3249424870686981 0.031443111438617097 0 -0.32146943130470279 0.039143754785672932 0 -0.32748676264945392 0.045495554741964671 0 -0.31543333215561647 0.035063177100048318 0 -0.3249424870686981 0.031443111438617097 0 -0.32146943130470279 0.039143754785672932 0 -0.31351516575193911 0.042147135511497742 0 -0.32146943130470279 0.039143754785672932 0 -0.32748676264945392 0.045495554741964671 0 -0.32748676264945392 0.045495554741964671 0 -0.33936454121220078 0.037412497917720937 0 -0.34316519561161207 0.055765956291238643 0 -0.3249424870686981 0.031443111438617097 0 -0.32748676264945392 0.045495554741964671 0 -0.33936454121220078 0.037412497917720937 0 -0.32500864909049071 0.060417217040601497 0 -0.32748676264945392 0.045495554741964671 0 -0.34316519561161207 0.055765956291238643 0 -0.32086309268017232 -0.01197215776609825 0 -0.31478738417019458 0.0083543060754884615 0 -0.32946910031326082 0.0040104116289027486 0 -0.31478738417019458 0.0083543060754884615 0 -0.31408543485290402 0.0111182886822577 0 -0.32441428369635428 0.017850030359889059 0 -0.30950028323022549 0.0093954369502143326 0 -0.31478738417019458 0.0083543060754884615 0 -0.31408543485290402 0.0111182886822577 0 -0.31478738417019458 0.0083543060754884615 0 -0.31408543485290402 0.0111182886822577 0 -0.31478738417019458 0.0083543060754884615 0 -0.32441428369635428 0.017850030359889059 0 -0.32946910031326082 0.0040104116289027486 0 -0.31054984723036971 0.025039952900285149 0 -0.31408543485290402 0.0111182886822577 0 -0.32441428369635428 0.017850030359889059 0 -0.31054984723036971 0.025039952900285149 0 -0.3249424870686981 0.031443111438617097 0 -0.32441428369635428 0.017850030359889059 0 -0.31054984723036971 0.025039952900285149 0 -0.31543333215561647 0.035063177100048318 0 -0.3249424870686981 0.031443111438617097 0 -0.32441428369635428 0.017850030359889059 0 -0.33654500103530099 0.02385914573792115 0 -0.34181462615462349 0.010751401202990649 0 -0.3249424870686981 0.031443111438617097 0 -0.32441428369635428 0.017850030359889059 0 -0.33654500103530099 0.02385914573792115 0 -0.3249424870686981 0.031443111438617097 0 -0.33936454121220078 0.037412497917720937 0 -0.33654500103530099 0.02385914573792115 0 -0.33936454121220078 0.037412497917720937 0 -0.33654500103530099 0.02385914573792115 0 -0.35183763316250011 0.023051390864991941 0 -0.33654500103530099 0.02385914573792115 0 -0.34181462615462349 0.010751401202990649 0 -0.35183763316250011 0.023051390864991941 0 -0.34131747691321201 -0.0056869168596235904 0 -0.34181462615462349 0.010751401202990649 0 -0.32946910031326082 0.0040104116289027486 0 -0.32441428369635428 0.017850030359889059 0 -0.34181462615462349 0.010751401202990649 0 -0.32946910031326082 0.0040104116289027486 0 -0.34131747691321201 -0.0056869168596235904 0 -0.34181462615462349 0.010751401202990649 0 -0.35135420548701002 0.00042926114579642079 0 -0.35135420548701002 0.00042926114579642079 0 -0.35390148924263959 0.01013231046957094 0 -0.36046762126310039 0.00156598350646622 0 -0.34181462615462349 0.010751401202990649 0 -0.35135420548701002 0.00042926114579642079 0 -0.35390148924263959 0.01013231046957094 0 -0.34181462615462349 0.010751401202990649 0 -0.35390148924263959 0.01013231046957094 0 -0.35183763316250011 0.023051390864991941 0 -0.35390148924263959 0.01013231046957094 0 -0.35183763316250011 0.023051390864991941 0 -0.36599778811967931 0.01167237975663379 0 -0.35183763316250011 0.023051390864991941 0 -0.37203917307885098 0.02743845959296563 0 -0.35358963874397359 0.039035967755766697 0 -0.35183763316250011 0.023051390864991941 0 -0.37203917307885098 0.02743845959296563 0 -0.36599778811967931 0.01167237975663379 0 -0.36883020194267091 -0.00012660618860938191 0 -0.38267038653320551 0.00342366148846019 0 -0.36599778811967931 0.01167237975663379 0 -0.38267038653320551 0.00342366148846019 0 -0.37203917307885098 0.02743845959296563 0 -0.36599778811967931 0.01167237975663379 0 -0.35390148924263959 0.01013231046957094 0 -0.36599778811967931 0.01167237975663379 0 -0.36046762126310039 0.00156598350646622 0 -0.36883020194267091 -0.00012660618860938191 0 -0.36599778811967931 0.01167237975663379 0 -0.36046762126310039 0.00156598350646622 0 -0.34316519561161207 0.055765956291238643 0 -0.35358963874397359 0.039035967755766697 0 -0.36154165065470367 0.0515115341119163 0 -0.34316519561161207 0.055765956291238643 0 -0.36154165065470367 0.0515115341119163 0 -0.35461432686920402 0.063404441719459206 0 -0.33936454121220078 0.037412497917720937 0 -0.35183763316250011 0.023051390864991941 0 -0.35358963874397359 0.039035967755766697 0 -0.33936454121220078 0.037412497917720937 0 -0.34316519561161207 0.055765956291238643 0 -0.35358963874397359 0.039035967755766697 0 -0.37203917307885098 0.02743845959296563 0 -0.35358963874397359 0.039035967755766697 0 -0.36154165065470367 0.0515115341119163 0 -0.37895169723653582 0.047600634916348999 0 -0.37203917307885098 0.02743845959296563 0 -0.36154165065470367 0.0515115341119163 0 -0.37203917307885098 0.02743845959296563 0 -0.36154165065470367 0.0515115341119163 0 -0.37895169723653582 0.047600634916348999 0 -0.36154165065470367 0.0515115341119163 0 -0.3714698758611315 0.063800239954929866 0 -0.36154165065470367 0.0515115341119163 0 -0.3714698758611315 0.063800239954929866 0 -0.35461432686920402 0.063404441719459206 0 -0.3714698758611315 0.063800239954929866 0 -0.35461432686920402 0.063404441719459206 0 -0.35864043832636472 0.073694258212592623 0 -0.3714698758611315 0.063800239954929866 0 -0.35864043832636472 0.073694258212592623 0 -0.3639821506865859 0.0915758284371197 0 -0.3714698758611315 0.063800239954929866 0 -0.3639821506865859 0.0915758284371197 0 -0.34316519561161207 0.055765956291238643 0 -0.35461432686920402 0.063404441719459206 0 -0.34449539988853811 0.075996522738861011 0 -0.35461432686920402 0.063404441719459206 0 -0.35864043832636472 0.073694258212592623 0 -0.34449539988853811 0.075996522738861011 0 -0.35864043832636472 0.073694258212592623 0 -0.34449539988853811 0.075996522738861011 0 -0.3639821506865859 0.0915758284371197 0 -0.34449539988853811 0.075996522738861011 0 -0.3639821506865859 0.0915758284371197 0 -0.35187437365078778 0.098224832890002958 0 -0.34449539988853811 0.075996522738861011 0 -0.35187437365078778 0.098224832890002958 0 -0.33809784495244249 0.099232196769996533 0 -0.34449539988853811 0.075996522738861011 0 -0.3639821506865859 0.0915758284371197 0 -0.37569416788488752 0.085632518207358593 0 -0.3714698758611315 0.063800239954929866 0 -0.3639821506865859 0.0915758284371197 0 -0.3639821506865859 0.0915758284371197 0 -0.35899956407336903 0.1100586482681892 0 -0.3818026015622874 0.10582295740955019 0 -0.37569416788488752 0.085632518207358593 0 -0.3639821506865859 0.0915758284371197 0 -0.3818026015622874 0.10582295740955019 0 -0.3639821506865859 0.0915758284371197 0 -0.3818026015622874 0.10582295740955019 0 -0.3639821506865859 0.0915758284371197 0 -0.36808070926510039 0.10840152703442189 0 -0.3639821506865859 0.0915758284371197 0 -0.36808070926510039 0.10840152703442189 0 -0.35899956407336903 0.1100586482681892 0 -0.36808070926510039 0.10840152703442189 0 -0.36800354380982009 0.12491814776181159 0 -0.37664402232980337 0.11728716810266079 0 -0.36808070926510039 0.10840152703442189 0 -0.36800354380982009 0.12491814776181159 0 -0.35401697746014982 0.12854146809925801 0 -0.36800354380982009 0.12491814776181159 0 -0.35899956407336903 0.1100586482681892 0 -0.36808070926510039 0.10840152703442189 0 -0.36800354380982009 0.12491814776181159 0 -0.35899956407336903 0.1100586482681892 0 -0.35401697746014982 0.12854146809925801 0 -0.35899956407336903 0.1100586482681892 0 -0.34261915974906049 0.117976276351988 0 -0.35401697746014982 0.12854146809925801 0 -0.35899956407336903 0.1100586482681892 0 -0.35401697746014982 0.12854146809925801 0 -0.34261915974906049 0.117976276351988 0 -0.3639821506865859 0.0915758284371197 0 -0.35899956407336903 0.1100586482681892 0 -0.35187437365078778 0.098224832890002958 0 -0.35187437365078778 0.098224832890002958 0 -0.33809784495244249 0.099232196769996533 0 -0.34261915974906049 0.117976276351988 0 -0.35899956407336903 0.1100586482681892 0 -0.35187437365078778 0.098224832890002958 0 -0.34261915974906049 0.117976276351988 0 -0.33809784495244249 0.099232196769996533 0 -0.32888473833030318 0.10222205546275499 0 -0.33072715712392398 0.1120882351358997 0 -0.33809784495244249 0.099232196769996533 0 -0.32888473833030318 0.10222205546275499 0 -0.3276295043132289 0.095130362673613855 0 -0.33809784495244249 0.099232196769996533 0 -0.34261915974906049 0.117976276351988 0 -0.33072715712392398 0.1120882351358997 0 -0.33666217495045297 0.1218892254615512 0 -0.34261915974906049 0.117976276351988 0 -0.33072715712392398 0.1120882351358997 0 -0.34253429113533129 0.13061104429197631 0 -0.33666217495045297 0.1218892254615512 0 -0.34261915974906049 0.117976276351988 0 -0.33076809179349598 0.1268813460663408 0 -0.33666217495045297 0.1218892254615512 0 -0.33072715712392398 0.1120882351358997 0 -0.32731232337725108 0.1356074182455034 0 -0.31468546083529669 0.12652103347233809 0 -0.31631064006835119 0.11180035558810621 0 -0.33076809179349598 0.1268813460663408 0 -0.33072715712392398 0.1120882351358997 0 -0.31908444693161753 0.1024374272715099 0 -0.32731232337725108 0.1356074182455034 0 -0.31631064006835119 0.11180035558810621 0 -0.33076809179349598 0.1268813460663408 0 -0.31631064006835119 0.11180035558810621 0 -0.31908444693161753 0.1024374272715099 0 -0.32731232337725108 0.1356074182455034 0 -0.33076809179349598 0.1268813460663408 0 -0.31631064006835119 0.11180035558810621 0 -0.33076809179349598 0.1268813460663408 0 -0.31908444693161753 0.1024374272715099 0 -0.30530895675945141 0.087993292930708761 0 -0.31631064006835119 0.11180035558810621 0 -0.31908444693161753 0.1024374272715099 0 -0.3276295043132289 0.095130362673613855 0 -0.31908444693161753 0.1024374272715099 0 -0.32632323442400879 0.08396322975287826 0 -0.32888473833030318 0.10222205546275499 0 -0.3276295043132289 0.095130362673613855 0 -0.31908444693161753 0.1024374272715099 0 -0.32888473833030318 0.10222205546275499 0 -0.33072715712392398 0.1120882351358997 0 -0.31908444693161753 0.1024374272715099 0 -0.30740080206973908 0.077993508476679019 0 -0.31908444693161753 0.1024374272715099 0 -0.32632323442400879 0.08396322975287826 0 -0.30740080206973908 0.077993508476679019 0 -0.32632323442400879 0.08396322975287826 0 -0.31798544295163039 0.07344088362046769 0 -0.30740080206973908 0.077993508476679019 0 -0.31908444693161753 0.1024374272715099 0 -0.32500864909049071 0.060417217040601497 0 -0.32632323442400879 0.08396322975287826 0 -0.31798544295163039 0.07344088362046769 0 -0.31222145986249078 0.068157649044022661 0 -0.30740080206973908 0.077993508476679019 0 -0.31798544295163039 0.07344088362046769 0 -0.31222145986249078 0.068157649044022661 0 -0.32500864909049071 0.060417217040601497 0 -0.31798544295163039 0.07344088362046769 0 -0.31222145986249078 0.068157649044022661 0 -0.31041059753757089 0.05909369936622013 0 -0.32500864909049071 0.060417217040601497 0 -0.32500864909049071 0.060417217040601497 0 -0.34316519561161207 0.055765956291238643 0 -0.34449539988853811 0.075996522738861011 0 -0.32500864909049071 0.060417217040601497 0 -0.34449539988853811 0.075996522738861011 0 -0.32632323442400879 0.08396322975287826 0 -0.32500864909049071 0.060417217040601497 0 -0.34449539988853811 0.075996522738861011 0 -0.34449539988853811 0.075996522738861011 0 -0.33809784495244249 0.099232196769996533 0 -0.32632323442400879 0.08396322975287826 0 -0.33809784495244249 0.099232196769996533 0 -0.3276295043132289 0.095130362673613855 0 -0.32632323442400879 0.08396322975287826 0 -0.39415892809955139 0.48245536460990512 0 -0.38336537052096242 0.46862074180030622 0 -0.39675013459666569 0.46479914819657608 0 -0.39415892809955139 0.48245536460990512 0 -0.39675013459666569 0.46479914819657608 0 -0.41603508494936398 0.47441758083916491 0 -0.39415892809955139 0.48245536460990512 0 -0.38471258854203449 0.5 0 -0.40924884657631222 0.5 0 -0.39415892809955139 0.48245536460990512 0 -0.38471258854203449 0.5 0 -0.37486924979315511 0.48081207315808172 0 -0.38336537052096242 0.46862074180030622 0 -0.36924227982466801 0.46400003439982968 0 -0.37486924979315511 0.48081207315808172 0 -0.39415892809955139 0.48245536460990512 0 -0.38336537052096242 0.46862074180030622 0 -0.37486924979315511 0.48081207315808172 0 -0.38467572257486599 0.45462334623912232 0 -0.38336537052096242 0.46862074180030622 0 -0.36924227982466801 0.46400003439982968 0 -0.38467572257486599 0.45462334623912232 0 -0.38336537052096242 0.46862074180030622 0 -0.39675013459666569 0.46479914819657608 0 -0.38467572257486599 0.45462334623912232 0 -0.38851793510409671 0.43714309891359171 0 -0.36361530985618068 0.44718799564157757 0 -0.38851793510409671 0.43714309891359171 0 -0.36361530985618068 0.44718799564157757 0 -0.38467572257486599 0.45462334623912232 0 -0.40606035099413179 0.44744443414811469 0 -0.38851793510409671 0.43714309891359171 0 -0.38467572257486599 0.45462334623912232 0 -0.40606035099413179 0.44744443414811469 0 -0.39675013459666569 0.46479914819657608 0 -0.40606035099413179 0.44744443414811469 0 -0.39675013459666569 0.46479914819657608 0 -0.41603508494936398 0.47441758083916491 0 -0.40606035099413179 0.44744443414811469 0 -0.42838749444963242 0.45139880145707623 0 -0.41603508494936398 0.47441758083916491 0 -0.42838749444963242 0.45139880145707623 0 -0.41342056035201602 0.42709820218561401 0 -0.40606035099413179 0.44744443414811469 0 -0.42838749444963242 0.45139880145707623 0 -0.41342056035201602 0.42709820218561401 0 -0.42838749444963242 0.45139880145707623 0 -0.43847952704619891 0.43458187579164759 0 -0.41342056035201602 0.42709820218561401 0 -0.42838749444963242 0.45139880145707623 0 -0.41603508494936398 0.47441758083916491 0 -0.44335442854725021 0.47569940072853789 0 -0.42838749444963242 0.45139880145707623 0 -0.44335442854725021 0.47569940072853789 0 -0.41603508494936398 0.47441758083916491 0 -0.43378510461058989 0.5 0 -0.44335442854725021 0.47569940072853789 0 -0.39415892809955139 0.48245536460990512 0 -0.41603508494936398 0.47441758083916491 0 -0.40924884657631222 0.5 0 -0.41603508494936398 0.47441758083916491 0 -0.40924884657631222 0.5 0 -0.43378510461058989 0.5 0 -0.43378510461058989 0.5 0 -0.44335442854725021 0.47569940072853789 0 -0.45832136264486772 0.49999999999999972 0 -0.48460279784442772 0.47597571243395681 0 -0.5 0.5 0 -0.5 0.41533483100206731 0 -0.44335442854725021 0.47569940072853789 0 -0.45832136264486772 0.49999999999999972 0 -0.44335442854725021 0.47569940072853789 0 -0.46463071861486732 0.47523372343625458 0 -0.45832136264486772 0.49999999999999972 0 -0.46463071861486732 0.47523372343625458 0 -0.45832136264486772 0.49999999999999972 0 -0.47701311372003802 0.5 0 -0.46463071861486732 0.47523372343625458 0 -0.47701311372003802 0.5 0 -0.48460279784442772 0.47597571243395681 0 -0.47701311372003802 0.5 0 -0.48460279784442772 0.47597571243395681 0 -0.49570486479520831 0.50000000000001388 0 -0.48460279784442772 0.47597571243395681 0 -0.49570486479520831 0.50000000000001388 0 -0.48460279784442772 0.47597571243395681 0 -0.49570486479520831 0.50000000000001388 0 -0.5 0.5 0 -0.48460279784442772 0.47597571243395681 0 -0.47350073089365241 0.4519514248678973 0 -0.5 0.41533483100206731 0 -0.48460279784442772 0.47597571243395681 0 -0.47350073089365241 0.4519514248678973 0 -0.46463071861486732 0.47523372343625458 0 -0.48460279784442772 0.47597571243395681 0 -0.47350073089365241 0.4519514248678973 0 -0.47350073089365241 0.4519514248678973 0 -0.46239866394287699 0.42792713730183762 0 -0.47350073089365241 0.4519514248678973 0 -0.45083151608614752 0.44904317343123262 0 -0.46239866394287699 0.42792713730183762 0 -0.46463071861486732 0.47523372343625458 0 -0.47350073089365241 0.4519514248678973 0 -0.45083151608614752 0.44904317343123262 0 -0.42838749444963242 0.45139880145707623 0 -0.44335442854725021 0.47569940072853789 0 -0.45083151608614752 0.44904317343123262 0 -0.44335442854725021 0.47569940072853789 0 -0.46463071861486732 0.47523372343625458 0 -0.45083151608614752 0.44904317343123262 0 -0.42838749444963242 0.45139880145707623 0 -0.45083151608614752 0.44904317343123262 0 -0.43847952704619891 0.43458187579164759 0 -0.45083151608614752 0.44904317343123262 0 -0.43847952704619891 0.43458187579164759 0 -0.46239866394287699 0.42792713730183762 0 -0.43847952704619891 0.43458187579164759 0 -0.46239866394287699 0.42792713730183762 0 -0.43735940040032151 0.41744206458247762 0 -0.46239866394287699 0.42792713730183762 0 -0.45129659699210167 0.40390284973577789 0 -0.43735940040032151 0.41744206458247762 0 -0.45129659699210167 0.40390284973577789 0 -0.43648753512079391 0.40260152516945519 0 -0.43735940040032151 0.41744206458247762 0 -0.46239866394287699 0.42792713730183762 0 -0.47337383243459707 0.40652910657686853 0 -0.45129659699210167 0.40390284973577789 0 -0.46239866394287699 0.42792713730183762 0 -0.45129659699210167 0.40390284973577789 0 -0.47350073089365241 0.4519514248678973 0 -0.46239866394287699 0.42792713730183762 0 -0.5 0.41533483100206731 0 -0.46239866394287699 0.42792713730183762 0 -0.5 0.41533483100206731 0 -0.47337383243459707 0.40652910657686853 0 -0.5 0.41533483100206731 0 -0.47515328408752411 0.37830085519238388 0 -0.5 0.35365852672826398 0 -0.5 0.41533483100206731 0 -0.47337383243459707 0.40652910657686853 0 -0.47515328408752411 0.37830085519238388 0 -0.47515328408752411 0.37830085519238388 0 -0.45129659699210167 0.40390284973577789 0 -0.44019453004132619 0.37987856216971821 0 -0.47337383243459707 0.40652910657686853 0 -0.47515328408752411 0.37830085519238388 0 -0.45129659699210167 0.40390284973577789 0 -0.45129659699210167 0.40390284973577789 0 -0.44019453004132619 0.37987856216971821 0 -0.43648753512079391 0.40260152516945519 0 -0.45129659699210167 0.40390284973577789 0 -0.44019453004132619 0.37987856216971821 0 -0.44019453004132619 0.37987856216971821 0 -0.42880336755885129 0.38928828643534102 0 -0.4219939675281279 0.373486128560377 0 -0.42880336755885129 0.38928828643534102 0 -0.41836788774876282 0.38713064370726502 0 -0.4219939675281279 0.373486128560377 0 -0.44019453004132619 0.37987856216971821 0 -0.42880336755885129 0.38928828643534102 0 -0.43648753512079391 0.40260152516945519 0 -0.41836788774876282 0.38713064370726502 0 -0.41182110331223187 0.37860944187347811 0 -0.4219939675281279 0.373486128560377 0 -0.41836788774876282 0.38713064370726502 0 -0.40758332192594082 0.38538362713304808 0 -0.41182110331223187 0.37860944187347811 0 -0.41836788774876282 0.38713064370726502 0 -0.40758332192594082 0.38538362713304808 0 -0.40924378741284922 0.39441512182801047 0 -0.41182110331223187 0.37860944187347811 0 -0.40267155144712169 0.37823819300015782 0 -0.40743695905094057 0.37107690919693709 0 -0.40758332192594082 0.38538362713304808 0 -0.41182110331223187 0.37860944187347811 0 -0.40267155144712169 0.37823819300015782 0 -0.40924378741284922 0.39441512182801047 0 -0.41344625593598322 0.40744847049607619 0 -0.39855109619539719 0.40295585696684089 0 -0.41836788774876282 0.38713064370726502 0 -0.40924378741284922 0.39441512182801047 0 -0.42194804884875559 0.39950231590250518 0 -0.40924378741284922 0.39441512182801047 0 -0.42194804884875559 0.39950231590250518 0 -0.41344625593598322 0.40744847049607619 0 -0.42194804884875559 0.39950231590250518 0 -0.42453236013157403 0.41081851566722571 0 -0.41344625593598322 0.40744847049607619 0 -0.42194804884875559 0.39950231590250518 0 -0.43648753512079391 0.40260152516945519 0 -0.42453236013157403 0.41081851566722571 0 -0.42880336755885129 0.38928828643534102 0 -0.42194804884875559 0.39950231590250518 0 -0.43648753512079391 0.40260152516945519 0 -0.42880336755885129 0.38928828643534102 0 -0.41836788774876282 0.38713064370726502 0 -0.42194804884875559 0.39950231590250518 0 -0.43735940040032151 0.41744206458247762 0 -0.42453236013157403 0.41081851566722571 0 -0.41342056035201602 0.42709820218561401 0 -0.43648753512079391 0.40260152516945519 0 -0.43735940040032151 0.41744206458247762 0 -0.42453236013157403 0.41081851566722571 0 -0.43847952704619891 0.43458187579164759 0 -0.43735940040032151 0.41744206458247762 0 -0.41342056035201602 0.42709820218561401 0 -0.43735940040032151 0.41744206458247762 0 -0.41342056035201602 0.42709820218561401 0 -0.41342056035201602 0.42709820218561401 0 -0.39947424731355857 0.40445470270526168 0 -0.42453236013157403 0.41081851566722571 0 -0.41342056035201602 0.42709820218561401 0 -0.41344625593598322 0.40744847049607619 0 -0.41342056035201602 0.42709820218561401 0 -0.41344625593598322 0.40744847049607619 0 -0.39947424731355857 0.40445470270526168 0 -0.39666370332032969 0.42175808793784331 0 -0.39152110763730669 0.4124241985205705 0 -0.39947424731355857 0.40445470270526168 0 -0.41342056035201602 0.42709820218561401 0 -0.39666370332032969 0.42175808793784331 0 -0.39947424731355857 0.40445470270526168 0 -0.39152110763730669 0.4124241985205705 0 -0.3827479592569249 0.40747354048270651 0 -0.39947424731355857 0.40445470270526168 0 -0.40606035099413179 0.44744443414811469 0 -0.41342056035201602 0.42709820218561401 0 -0.38851793510409671 0.43714309891359171 0 -0.41342056035201602 0.42709820218561401 0 -0.39666370332032969 0.42175808793784331 0 -0.38851793510409671 0.43714309891359171 0 -0.41342056035201602 0.42709820218561401 0 -0.38851793510409671 0.43714309891359171 0 -0.38851793510409671 0.43714309891359171 0 -0.38054117311253233 0.41787986349552919 0 -0.37165210743183069 0.43109507384766188 0 -0.39666370332032969 0.42175808793784331 0 -0.38851793510409671 0.43714309891359171 0 -0.38054117311253233 0.41787986349552919 0 -0.39666370332032969 0.42175808793784331 0 -0.39152110763730669 0.4124241985205705 0 -0.38054117311253233 0.41787986349552919 0 -0.38054117311253233 0.41787986349552919 0 -0.3827479592569249 0.40747354048270651 0 -0.36554971641522249 0.40853500640931428 0 -0.39152110763730669 0.4124241985205705 0 -0.38054117311253233 0.41787986349552919 0 -0.3827479592569249 0.40747354048270651 0 -0.37621307571556151 0.39414895141023071 0 -0.3836816320387797 0.37881351174806699 0 -0.39855109619539719 0.40295585696684089 0 -0.37621307571556151 0.39414895141023071 0 -0.39947424731355857 0.40445470270526168 0 -0.3827479592569249 0.40747354048270651 0 -0.37621307571556151 0.39414895141023071 0 -0.39947424731355857 0.40445470270526168 0 -0.37621307571556151 0.39414895141023071 0 -0.3836816320387797 0.37881351174806699 0 -0.36739051842845249 0.37548801163723738 0 -0.3836816320387797 0.37881351174806699 0 -0.39796296690036947 0.3866678067609296 0 -0.39855109619539719 0.40295585696684089 0 -0.3836816320387797 0.37881351174806699 0 -0.39796296690036947 0.3866678067609296 0 -0.39409345850971228 0.37616773577337598 0 -0.39796296690036947 0.3866678067609296 0 -0.39409345850971228 0.37616773577337598 0 -0.40267155144712169 0.37823819300015782 0 -0.40758332192594082 0.38538362713304808 0 -0.40924378741284922 0.39441512182801047 0 -0.39796296690036947 0.3866678067609296 0 -0.40758332192594082 0.38538362713304808 0 -0.39796296690036947 0.3866678067609296 0 -0.40267155144712169 0.37823819300015782 0 -0.37621307571556151 0.39414895141023071 0 -0.39855109619539719 0.40295585696684089 0 -0.39947424731355857 0.40445470270526168 0 -0.3836816320387797 0.37881351174806699 0 -0.39855109619539719 0.40295585696684089 0 -0.40924378741284922 0.39441512182801047 0 -0.39796296690036947 0.3866678067609296 0 -0.39855109619539719 0.40295585696684089 0 -0.41344625593598322 0.40744847049607619 0 -0.39855109619539719 0.40295585696684089 0 -0.39947424731355857 0.40445470270526168 0 -0.39855109619539719 0.40295585696684089 0 -0.39947424731355857 0.40445470270526168 0 -0.39765517582011728 0.3558721242216823 0 -0.39889554401019051 0.34446228000948759 0 -0.38642553310344258 0.34747596534755948 0 -0.39765517582011728 0.3558721242216823 0 -0.39889554401019051 0.34446228000948759 0 -0.40930344846324812 0.34961196618052442 0 -0.39889554401019051 0.34446228000948759 0 -0.40745277373862948 0.33728709027779558 0 -0.40930344846324812 0.34961196618052442 0 -0.39765517582011728 0.3558721242216823 0 -0.40930344846324812 0.34961196618052442 0 -0.41106365516096832 0.36173475873128819 0 -0.39933597034863672 0.368317304770792 0 -0.40743695905094057 0.37107690919693709 0 -0.41106365516096832 0.36173475873128819 0 -0.39765517582011728 0.3558721242216823 0 -0.39933597034863672 0.368317304770792 0 -0.41106365516096832 0.36173475873128819 0 -0.39409345850971228 0.37616773577337598 0 -0.40267155144712169 0.37823819300015782 0 -0.39933597034863672 0.368317304770792 0 -0.40267155144712169 0.37823819300015782 0 -0.39933597034863672 0.368317304770792 0 -0.40743695905094057 0.37107690919693709 0 -0.39409345850971228 0.37616773577337598 0 -0.39933597034863672 0.368317304770792 0 -0.38770779495605701 0.36354211695462718 0 -0.39765517582011728 0.3558721242216823 0 -0.39933597034863672 0.368317304770792 0 -0.38770779495605701 0.36354211695462718 0 -0.3836816320387797 0.37881351174806699 0 -0.36881216788216209 0.35467116652929309 0 -0.3836816320387797 0.37881351174806699 0 -0.38770779495605701 0.36354211695462718 0 -0.36881216788216209 0.35467116652929309 0 -0.3836816320387797 0.37881351174806699 0 -0.39409345850971228 0.37616773577337598 0 -0.38770779495605701 0.36354211695462718 0 -0.38642553310344258 0.34747596534755948 0 -0.3733352967290931 0.33290723816004752 0 -0.36881216788216209 0.35467116652929309 0 -0.39765517582011728 0.3558721242216823 0 -0.38770779495605701 0.36354211695462718 0 -0.38642553310344258 0.34747596534755948 0 -0.38770779495605701 0.36354211695462718 0 -0.38642553310344258 0.34747596534755948 0 -0.36881216788216209 0.35467116652929309 0 -0.38642553310344258 0.34747596534755948 0 -0.39364078892551507 0.33206425401987621 0 -0.3733352967290931 0.33290723816004752 0 -0.37682246704991912 0.31749351900413653 0 -0.39259356272196499 0.31751484704086991 0 -0.39364078892551507 0.33206425401987621 0 -0.37682246704991912 0.31749351900413653 0 -0.39364078892551507 0.33206425401987621 0 -0.3733352967290931 0.33290723816004752 0 -0.39259356272196499 0.31751484704086991 0 -0.4038192750246779 0.32585611141433241 0 -0.39364078892551507 0.33206425401987621 0 -0.39259356272196499 0.31751484704086991 0 -0.4038192750246779 0.32585611141433241 0 -0.40807534675228058 0.31037434289736721 0 -0.39889554401019051 0.34446228000948759 0 -0.38642553310344258 0.34747596534755948 0 -0.39364078892551507 0.33206425401987621 0 -0.4038192750246779 0.32585611141433241 0 -0.39364078892551507 0.33206425401987621 0 -0.40745277373862948 0.33728709027779558 0 -0.39889554401019051 0.34446228000948759 0 -0.39364078892551507 0.33206425401987621 0 -0.40745277373862948 0.33728709027779558 0 -0.41799039613976929 0.33182998703760169 0 -0.41758572864558441 0.33674971284543159 0 -0.42909246309055088 0.35585427460365848 0 -0.40745277373862948 0.33728709027779558 0 -0.41758572864558441 0.33674971284543159 0 -0.41585860348450321 0.34487576097685252 0 -0.4038192750246779 0.32585611141433241 0 -0.40745277373862948 0.33728709027779558 0 -0.41799039613976929 0.33182998703760169 0 -0.40745277373862948 0.33728709027779558 0 -0.41799039613976929 0.33182998703760169 0 -0.41758572864558441 0.33674971284543159 0 -0.41799039613976929 0.33182998703760169 0 -0.41758572864558441 0.33674971284543159 0 -0.41799039613976929 0.33182998703760169 0 -0.40807534675228058 0.31037434289736721 0 -0.4038192750246779 0.32585611141433241 0 -0.41799039613976929 0.33182998703760169 0 -0.40807534675228058 0.31037434289736721 0 -0.41799039613976929 0.33182998703760169 0 -0.41940145336455431 0.31467512596022562 0 -0.41799039613976929 0.33182998703760169 0 -0.41940145336455431 0.31467512596022562 0 -0.40807534675228058 0.31037434289736721 0 -0.41940145336455431 0.31467512596022562 0 -0.43151447652306429 0.32332904725731137 0 -0.4411783622229723 0.30525364695005852 0 -0.41799039613976929 0.33182998703760169 0 -0.41940145336455431 0.31467512596022562 0 -0.43151447652306429 0.32332904725731137 0 -0.41799039613976929 0.33182998703760169 0 -0.43151447652306429 0.32332904725731137 0 -0.43893165477826013 0.34086340891221478 0 -0.41799039613976929 0.33182998703760169 0 -0.42909246309055088 0.35585427460365848 0 -0.43893165477826013 0.34086340891221478 0 -0.41799039613976929 0.33182998703760169 0 -0.42909246309055088 0.35585427460365848 0 -0.41758572864558441 0.33674971284543159 0 -0.42909246309055088 0.35585427460365848 0 -0.41585860348450321 0.34487576097685252 0 -0.42909246309055088 0.35585427460365848 0 -0.40930344846324812 0.34961196618052442 0 -0.41106365516096832 0.36173475873128819 0 -0.42909246309055088 0.35585427460365848 0 -0.41585860348450321 0.34487576097685252 0 -0.40930344846324812 0.34961196618052442 0 -0.40745277373862948 0.33728709027779558 0 -0.41585860348450321 0.34487576097685252 0 -0.40930344846324812 0.34961196618052442 0 -0.42909246309055088 0.35585427460365848 0 -0.41106365516096832 0.36173475873128819 0 -0.4219939675281279 0.373486128560377 0 -0.41182110331223187 0.37860944187347811 0 -0.40743695905094057 0.37107690919693709 0 -0.4219939675281279 0.373486128560377 0 -0.40743695905094057 0.37107690919693709 0 -0.41106365516096832 0.36173475873128819 0 -0.4219939675281279 0.373486128560377 0 -0.44019453004132619 0.37987856216971821 0 -0.42909246309055088 0.35585427460365848 0 -0.44019453004132619 0.37987856216971821 0 -0.42909246309055088 0.35585427460365848 0 -0.4219939675281279 0.373486128560377 0 -0.47515328408752411 0.37830085519238388 0 -0.44019453004132619 0.37987856216971821 0 -0.44819220491012252 0.36160531005121499 0 -0.47515328408752411 0.37830085519238388 0 -0.44819220491012252 0.36160531005121499 0 -0.45867510140865547 0.34637400293345438 0 -0.44019453004132619 0.37987856216971821 0 -0.42909246309055088 0.35585427460365848 0 -0.44819220491012252 0.36160531005121499 0 -0.42909246309055088 0.35585427460365848 0 -0.44819220491012252 0.36160531005121499 0 -0.43893165477826013 0.34086340891221478 0 -0.44819220491012252 0.36160531005121499 0 -0.45867510140865547 0.34637400293345438 0 -0.43893165477826013 0.34086340891221478 0 -0.47515328408752411 0.37830085519238388 0 -0.45867510140865547 0.34637400293345438 0 -0.48295105264146382 0.34069268142871689 0 -0.47515328408752411 0.37830085519238388 0 -0.5 0.35365852672826398 0 -0.48295105264146382 0.34069268142871689 0 -0.48295105264146382 0.34069268142871689 0 -0.48191006549022603 0.32072041108447091 0 -0.5 0.30872960561299062 0 -0.5 0.35365852672826398 0 -0.48295105264146382 0.34069268142871689 0 -0.5 0.30872960561299062 0 -0.48295105264146382 0.34069268142871689 0 -0.48191006549022603 0.32072041108447091 0 -0.46681884923102929 0.32947332405340762 0 -0.45867510140865547 0.34637400293345438 0 -0.48295105264146382 0.34069268142871689 0 -0.46681884923102929 0.32947332405340762 0 -0.48191006549022603 0.32072041108447091 0 -0.46154421385659922 0.31298702901726472 0 -0.47902430808232838 0.3067848228902994 0 -0.48191006549022603 0.32072041108447091 0 -0.46154421385659922 0.31298702901726472 0 -0.46681884923102929 0.32947332405340762 0 -0.48191006549022603 0.32072041108447091 0 -0.46154421385659922 0.31298702901726472 0 -0.46154421385659922 0.31298702901726472 0 -0.46681884923102929 0.32947332405340762 0 -0.44812528659739181 0.32618783159005083 0 -0.45867510140865547 0.34637400293345438 0 -0.46681884923102929 0.32947332405340762 0 -0.44812528659739181 0.32618783159005083 0 -0.43151447652306429 0.32332904725731137 0 -0.43893165477826013 0.34086340891221478 0 -0.44812528659739181 0.32618783159005083 0 -0.45867510140865547 0.34637400293345438 0 -0.43893165477826013 0.34086340891221478 0 -0.44812528659739181 0.32618783159005083 0 -0.46154421385659922 0.31298702901726472 0 -0.44812528659739181 0.32618783159005083 0 -0.4411783622229723 0.30525364695005852 0 -0.43151447652306429 0.32332904725731137 0 -0.44812528659739181 0.32618783159005083 0 -0.4411783622229723 0.30525364695005852 0 -0.46154421385659922 0.31298702901726472 0 -0.4411783622229723 0.30525364695005852 0 -0.46154421385659922 0.31298702901726472 0 -0.4411783622229723 0.30525364695005852 0 -0.4545559480596989 0.29609559706492339 0 -0.44270486011464372 0.28186108089334422 0 -0.4605444218667421 0.2836350805470233 0 -0.4545559480596989 0.29609559706492339 0 -0.4411783622229723 0.30525364695005852 0 -0.44270486011464372 0.28186108089334422 0 -0.4545559480596989 0.29609559706492339 0 -0.4605444218667421 0.2836350805470233 0 -0.4689677796757295 0.296526804194508 0 -0.47593309648043369 0.28040484456129472 0 -0.4605444218667421 0.2836350805470233 0 -0.4545559480596989 0.29609559706492339 0 -0.4689677796757295 0.296526804194508 0 -0.46154421385659922 0.31298702901726472 0 -0.4545559480596989 0.29609559706492339 0 -0.4689677796757295 0.296526804194508 0 -0.48882163143851171 0.28517653697195899 0 -0.5 0.30872960561299062 0 -0.50000000000000044 0.27599746198826069 0 -0.46154421385659922 0.31298702901726472 0 -0.47902430808232838 0.3067848228902994 0 -0.4689677796757295 0.296526804194508 0 -0.47902430808232838 0.3067848228902994 0 -0.4689677796757295 0.296526804194508 0 -0.48269948138908719 0.29496026454226271 0 -0.4689677796757295 0.296526804194508 0 -0.48269948138908719 0.29496026454226271 0 -0.47593309648043369 0.28040484456129472 0 -0.48269948138908719 0.29496026454226271 0 -0.48882163143851171 0.28517653697195899 0 -0.47593309648043369 0.28040484456129472 0 -0.48269948138908719 0.29496026454226271 0 -0.48882163143851171 0.28517653697195899 0 -0.5 0.30872960561299062 0 -0.48191006549022603 0.32072041108447091 0 -0.47902430808232838 0.3067848228902994 0 -0.5 0.30872960561299062 0 -0.47902430808232838 0.3067848228902994 0 -0.48269948138908719 0.29496026454226271 0 -0.5 0.30872960561299062 0 -0.4826171654445699 0.24774723882048039 0 -0.48547557932303631 0.26094716128923912 0 -0.50000000000000155 0.26386023385553398 0 -0.4826171654445699 0.24774723882048039 0 -0.50000000000000155 0.26386023385553398 0 -0.48547557932303631 0.26094716128923912 0 -0.50000000000000133 0.26631076825676347 0 -0.48547557932303659 0.26579050815498639 0 -0.48547557932303631 0.26094716128923912 0 -0.50000000000000155 0.26386023385553398 0 -0.50000000000000133 0.26631076825676347 0 -0.48547557932303631 0.26094716128923912 0 -0.50000000000000133 0.26631076825676347 0 -0.50000000000000133 0.26631076825676347 0 -0.50000000000000044 0.27599746198826069 0 -0.48547557932303659 0.26579050815498639 0 -0.50000000000000044 0.27599746198826069 0 -0.48547557932303659 0.26579050815498639 0 -0.48882163143851171 0.28517653697195899 0 -0.50000000000000044 0.27599746198826069 0 -0.48547557932303659 0.26579050815498639 0 -0.48547557932303659 0.26579050815498639 0 -0.47593309648043369 0.28040484456129472 0 -0.46668081038686338 0.26964305768855118 0 -0.48882163143851171 0.28517653697195899 0 -0.48547557932303659 0.26579050815498639 0 -0.47593309648043369 0.28040484456129472 0 -0.45936083356487079 0.24743851944234591 0 -0.47829135555868169 0.25086798556607037 0 -0.47095115864607168 0.25558355432171381 0 -0.48547557932303659 0.26579050815498639 0 -0.47095115864607168 0.25558355432171381 0 -0.46668081038686338 0.26964305768855118 0 -0.48547557932303631 0.26094716128923912 0 -0.47095115864607168 0.25558355432171381 0 -0.48547557932303659 0.26579050815498639 0 -0.47095115864607168 0.25558355432171381 0 -0.48547557932303631 0.26094716128923912 0 -0.48547557932303659 0.26579050815498639 0 -0.47095115864607168 0.25558355432171381 0 -0.48547557932303631 0.26094716128923912 0 -0.47829135555868169 0.25086798556607037 0 -0.47095115864607168 0.25558355432171381 0 -0.4826171654445699 0.24774723882048039 0 -0.48547557932303631 0.26094716128923912 0 -0.47829135555868169 0.25086798556607037 0 -0.44503711006885482 0.24601396290069941 0 -0.47095115864607168 0.25558355432171381 0 -0.45905581648917032 0.26165270610300562 0 -0.44503711006885482 0.24601396290069941 0 -0.47095115864607168 0.25558355432171381 0 -0.45936083356487079 0.24743851944234591 0 -0.47095115864607168 0.25558355432171381 0 -0.47095115864607168 0.25558355432171381 0 -0.45905581648917032 0.26165270610300562 0 -0.46668081038686338 0.26964305768855118 0 -0.44270486011464372 0.28186108089334422 0 -0.4605444218667421 0.2836350805470233 0 -0.45657499062204221 0.27333626681985079 0 -0.4605444218667421 0.2836350805470233 0 -0.47593309648043369 0.28040484456129472 0 -0.46668081038686338 0.26964305768855118 0 -0.4605444218667421 0.2836350805470233 0 -0.46668081038686338 0.26964305768855118 0 -0.45657499062204221 0.27333626681985079 0 -0.45905581648917032 0.26165270610300562 0 -0.46668081038686338 0.26964305768855118 0 -0.45657499062204221 0.27333626681985079 0 -0.45905581648917032 0.26165270610300562 0 -0.45657499062204221 0.27333626681985079 0 -0.44951038943844962 0.26496358717919533 0 -0.44270486011464372 0.28186108089334422 0 -0.44951038943844962 0.26496358717919533 0 -0.43574264117011441 0.26065526585203419 0 -0.44270486011464372 0.28186108089334422 0 -0.45657499062204221 0.27333626681985079 0 -0.44951038943844962 0.26496358717919533 0 -0.44503711006885482 0.24601396290069941 0 -0.44951038943844962 0.26496358717919533 0 -0.43574264117011441 0.26065526585203419 0 -0.44503711006885482 0.24601396290069941 0 -0.45905581648917032 0.26165270610300562 0 -0.44951038943844962 0.26496358717919533 0 -0.4249621812384381 0.24707084139297381 0 -0.4228873459138926 0.27229555313791193 0 -0.4249621812384381 0.24707084139297381 0 -0.43574264117011441 0.26065526585203419 0 -0.4228873459138926 0.27229555313791193 0 -0.44503711006885482 0.24601396290069941 0 -0.4249621812384381 0.24707084139297381 0 -0.43574264117011441 0.26065526585203419 0 -0.4088920851174907 0.24893012324785629 0 -0.4228873459138926 0.27229555313791193 0 -0.40443815321680909 0.26660181065845617 0 -0.4088920851174907 0.24893012324785629 0 -0.4249621812384381 0.24707084139297381 0 -0.4228873459138926 0.27229555313791193 0 -0.4228873459138926 0.27229555313791193 0 -0.39816029736478881 0.28891869875713411 0 -0.40443815321680909 0.26660181065845617 0 -0.44270486011464372 0.28186108089334422 0 -0.43574264117011441 0.26065526585203419 0 -0.4228873459138926 0.27229555313791193 0 -0.4411783622229723 0.30525364695005852 0 -0.44270486011464372 0.28186108089334422 0 -0.42081251058934638 0.29752026488284988 0 -0.44270486011464372 0.28186108089334422 0 -0.4228873459138926 0.27229555313791193 0 -0.42081251058934638 0.29752026488284988 0 -0.41940145336455431 0.31467512596022562 0 -0.4411783622229723 0.30525364695005852 0 -0.42081251058934638 0.29752026488284988 0 -0.4411783622229723 0.30525364695005852 0 -0.42081251058934638 0.29752026488284988 0 -0.42081251058934638 0.29752026488284988 0 -0.40807534675228058 0.31037434289736721 0 -0.39816029736478881 0.28891869875713411 0 -0.41940145336455431 0.31467512596022562 0 -0.42081251058934638 0.29752026488284988 0 -0.40807534675228058 0.31037434289736721 0 -0.41940145336455431 0.31467512596022562 0 -0.42081251058934638 0.29752026488284988 0 -0.4228873459138926 0.27229555313791193 0 -0.42081251058934638 0.29752026488284988 0 -0.42081251058934638 0.29752026488284988 0 -0.39816029736478881 0.28891869875713411 0 -0.4228873459138926 0.27229555313791193 0 -0.42081251058934638 0.29752026488284988 0 -0.39816029736478881 0.28891869875713411 0 -0.40807534675228058 0.31037434289736721 0 -0.39816029736478881 0.28891869875713411 0 -0.3837611030003576 0.30077783603749703 0 -0.40807534675228058 0.31037434289736721 0 -0.39816029736478881 0.28891869875713411 0 -0.39259356272196499 0.31751484704086991 0 -0.40807534675228058 0.31037434289736721 0 -0.3837611030003576 0.30077783603749703 0 -0.37682246704991912 0.31749351900413653 0 -0.39259356272196499 0.31751484704086991 0 -0.3837611030003576 0.30077783603749703 0 -0.39816029736478881 0.28891869875713411 0 -0.3837611030003576 0.30077783603749703 0 -0.37686163737530037 0.28083110791235061 0 -0.39816029736478881 0.28891869875713411 0 -0.37686163737530037 0.28083110791235061 0 -0.37686163737530037 0.28083110791235061 0 -0.38719400317623331 0.26518821629041012 0 -0.36418938528547712 0.26327462148156322 0 -0.39816029736478881 0.28891869875713411 0 -0.37686163737530037 0.28083110791235061 0 -0.38719400317623331 0.26518821629041012 0 -0.3762277089876811 0.2414577338236846 0 -0.38719400317623331 0.26518821629041012 0 -0.36418938528547712 0.26327462148156322 0 -0.3762277089876811 0.2414577338236846 0 -0.39207380150510029 0.2494808218353517 0 -0.38719400317623331 0.26518821629041012 0 -0.3762277089876811 0.2414577338236846 0 -0.38719400317623331 0.26518821629041012 0 -0.4088920851174907 0.24893012324785629 0 -0.39207380150510029 0.2494808218353517 0 -0.40443815321680909 0.26660181065845617 0 -0.39207380150510029 0.2494808218353517 0 -0.38719400317623331 0.26518821629041012 0 -0.40443815321680909 0.26660181065845617 0 -0.39816029736478881 0.28891869875713411 0 -0.38719400317623331 0.26518821629041012 0 -0.40443815321680909 0.26660181065845617 0 -0.39816029736478881 0.28891869875713411 0 -0.38719400317623331 0.26518821629041012 0 -0.34392216537968889 0.27970171780974817 0 -0.36418938528547712 0.26327462148156322 0 -0.36104930235986471 0.2810079382494412 0 -0.34392216537968889 0.27970171780974817 0 -0.34673401697601558 0.25598335073781769 0 -0.36418938528547712 0.26327462148156322 0 -0.35680367322974249 0.2403001594147498 0 -0.34673401697601558 0.25598335073781769 0 -0.36418938528547712 0.26327462148156322 0 -0.37686163737530037 0.28083110791235061 0 -0.36418938528547712 0.26327462148156322 0 -0.36104930235986471 0.2810079382494412 0 -0.3837611030003576 0.30077783603749703 0 -0.37686163737530037 0.28083110791235061 0 -0.36037231621480398 0.29859761840694232 0 -0.37686163737530037 0.28083110791235061 0 -0.36104930235986471 0.2810079382494412 0 -0.36037231621480398 0.29859761840694232 0 -0.37682246704991912 0.31749351900413653 0 -0.36037231621480398 0.29859761840694232 0 -0.36036811968797522 0.31520970274890081 0 -0.37682246704991912 0.31749351900413653 0 -0.36037231621480398 0.29859761840694232 0 -0.37682246704991912 0.31749351900413653 0 -0.3837611030003576 0.30077783603749703 0 -0.36037231621480398 0.29859761840694232 0 -0.36037231621480398 0.29859761840694232 0 -0.33907323956892699 0.3063864760917453 0 -0.36036811968797522 0.31520970274890081 0 -0.34392216537968889 0.27970171780974817 0 -0.36104930235986471 0.2810079382494412 0 -0.36037231621480398 0.29859761840694232 0 -0.34392216537968889 0.27970171780974817 0 -0.36037231621480398 0.29859761840694232 0 -0.34392216537968889 0.27970171780974817 0 -0.36037231621480398 0.29859761840694232 0 -0.33907323956892699 0.3063864760917453 0 -0.34392216537968889 0.27970171780974817 0 -0.32368865480854447 0.2916186708506614 0 -0.32584808495788681 0.27633729826336162 0 -0.34392216537968889 0.27970171780974817 0 -0.33907323956892699 0.3063864760917453 0 -0.32368865480854447 0.2916186708506614 0 -0.33907323956892699 0.3063864760917453 0 -0.32454545001981949 0.30697828526009918 0 -0.32368865480854447 0.2916186708506614 0 -0.33907323956892699 0.3063864760917453 0 -0.32454545001981949 0.30697828526009918 0 -0.3297265939678915 0.31906393658694432 0 -0.31689926115553302 0.30069082124461788 0 -0.31081582767413618 0.29343661863246268 0 -0.31135799930108721 0.31310185046477412 0 -0.32454545001981949 0.30697828526009918 0 -0.31689926115553302 0.30069082124461788 0 -0.32368865480854447 0.2916186708506614 0 -0.32454545001981949 0.30697828526009918 0 -0.31689926115553302 0.30069082124461788 0 -0.31135799930108721 0.31310185046477412 0 -0.31689926115553302 0.30069082124461788 0 -0.32368865480854447 0.2916186708506614 0 -0.31081582767413618 0.29343661863246268 0 -0.32368865480854447 0.2916186708506614 0 -0.3105991959988828 0.27970411225437392 0 -0.31081582767413618 0.29343661863246268 0 -0.32368865480854447 0.2916186708506614 0 -0.32584808495788681 0.27633729826336162 0 -0.3105991959988828 0.27970411225437392 0 -0.32584808495788681 0.27633729826336162 0 -0.30708557982118428 0.26459108676297122 0 -0.3105991959988828 0.27970411225437392 0 -0.32584808495788681 0.27633729826336162 0 -0.32747201454457392 0.26080581721255391 0 -0.30708557982118428 0.26459108676297122 0 -0.34392216537968889 0.27970171780974817 0 -0.32584808495788681 0.27633729826336162 0 -0.32747201454457392 0.26080581721255391 0 -0.34392216537968889 0.27970171780974817 0 -0.32747201454457392 0.26080581721255391 0 -0.34076034255671012 0.2394519696354756 0 -0.34673401697601558 0.25598335073781769 0 -0.32747201454457392 0.26080581721255391 0 -0.34392216537968889 0.27970171780974817 0 -0.34673401697601558 0.25598335073781769 0 -0.32747201454457392 0.26080581721255391 0 -0.31102186370945872 0.24190991661535971 0 -0.32747201454457392 0.26080581721255391 0 -0.30708557982118428 0.26459108676297122 0 -0.31102186370945872 0.24190991661535971 0 -0.32747201454457392 0.26080581721255391 0 -0.31102186370945872 0.24190991661535971 0 -0.30708557982118428 0.26459108676297122 0 -0.29677711184925942 0.2508983199382061 0 -0.30708557982118428 0.26459108676297122 0 -0.29846521694188549 0.2705451109181824 0 -0.29453190378181637 0.26109644961752831 0 -0.30708557982118428 0.26459108676297122 0 -0.29677711184925942 0.2508983199382061 0 -0.29453190378181637 0.26109644961752831 0 -0.3105991959988828 0.27970411225437392 0 -0.29846521694188549 0.2705451109181824 0 -0.29715580146954379 0.28681191880693763 0 -0.30708557982118428 0.26459108676297122 0 -0.3105991959988828 0.27970411225437392 0 -0.29846521694188549 0.2705451109181824 0 -0.28295360363800037 0.26052198714910091 0 -0.2800882132956154 0.27915390975583659 0 -0.29715580146954379 0.28681191880693763 0 -0.28295360363800037 0.26052198714910091 0 -0.29715580146954379 0.28681191880693763 0 -0.29846521694188549 0.2705451109181824 0 -0.28295360363800037 0.26052198714910091 0 -0.29715580146954379 0.28681191880693763 0 -0.28638785162830721 0.24757136013329381 0 -0.29016261772434582 0.25502202920953232 0 -0.29677711184925942 0.2508983199382061 0 -0.29016261772434582 0.25502202920953232 0 -0.29677711184925942 0.2508983199382061 0 -0.29453190378181637 0.26109644961752831 0 -0.29016261772434582 0.25502202920953232 0 -0.29453190378181637 0.26109644961752831 0 -0.28295360363800037 0.26052198714910091 0 -0.29846521694188549 0.2705451109181824 0 -0.29453190378181637 0.26109644961752831 0 -0.28295360363800037 0.26052198714910091 0 -0.28638785162830721 0.24757136013329381 0 -0.29016261772434582 0.25502202920953232 0 -0.28295360363800037 0.26052198714910091 0 -0.27892452861441319 0.25656869405346722 0 -0.2713878964940129 0.26827959963045178 0 -0.25321208583809113 0.25776932320358148 0 -0.26875140580645679 0.23423205549126411 0 -0.28295360363800037 0.26052198714910091 0 -0.27892452861441319 0.25656869405346722 0 -0.27892452861441319 0.25656869405346722 0 -0.25321208583809113 0.25776932320358148 0 -0.28295360363800037 0.26052198714910091 0 -0.27892452861441319 0.25656869405346722 0 -0.2713878964940129 0.26827959963045178 0 -0.28295360363800037 0.26052198714910091 0 -0.2800882132956154 0.27915390975583659 0 -0.2713878964940129 0.26827959963045178 0 -0.2800882132956154 0.27915390975583659 0 -0.2713878964940129 0.26827959963045178 0 -0.26570280771006732 0.28162771110201612 0 -0.2713878964940129 0.26827959963045178 0 -0.2582137684506427 0.27246071206433448 0 -0.25321208583809113 0.25776932320358148 0 -0.2713878964940129 0.26827959963045178 0 -0.2582137684506427 0.27246071206433448 0 -0.26570280771006732 0.28162771110201612 0 -0.2582137684506427 0.27246071206433448 0 -0.2531308452622959 0.28333887266024699 0 -0.26570280771006732 0.28162771110201612 0 -0.2582137684506427 0.27246071206433448 0 -0.2531308452622959 0.28333887266024699 0 -0.2476352069487463 0.27128805372537601 0 -0.2582137684506427 0.27246071206433448 0 -0.25321208583809113 0.25776932320358148 0 -0.2476352069487463 0.27128805372537601 0 -0.26443735616512237 0.2477303344038003 0 -0.27892452861441319 0.25656869405346722 0 -0.25321208583809113 0.25776932320358148 0 -0.253125343896132 0.30612727322062938 0 -0.26879052357574168 0.29626538534905078 0 -0.27455364659235287 0.3138563233536445 0 -0.253125343896132 0.30612727322062938 0 -0.25729865991794632 0.29345757370707137 0 -0.26879052357574168 0.29626538534905078 0 -0.253125343896132 0.30612727322062938 0 -0.25729865991794632 0.29345757370707137 0 -0.24456495273004911 0.29373588757663432 0 -0.25729865991794632 0.29345757370707137 0 -0.2531308452622959 0.28333887266024699 0 -0.24456495273004911 0.29373588757663432 0 -0.25729865991794632 0.29345757370707137 0 -0.2531308452622959 0.28333887266024699 0 -0.26570280771006732 0.28162771110201612 0 -0.25729865991794632 0.29345757370707137 0 -0.26879052357574168 0.29626538534905078 0 -0.26570280771006732 0.28162771110201612 0 -0.2800882132956154 0.27915390975583659 0 -0.26879052357574168 0.29626538534905078 0 -0.26570280771006732 0.28162771110201612 0 -0.2800882132956154 0.27915390975583659 0 -0.26879052357574168 0.29626538534905078 0 -0.2808874308995753 0.30333225528380381 0 -0.26879052357574168 0.29626538534905078 0 -0.2808874308995753 0.30333225528380381 0 -0.27455364659235287 0.3138563233536445 0 -0.28900714364898172 0.31085856243101417 0 -0.29166538756623001 0.29744086474499409 0 -0.30324256183684462 0.31572781973415148 0 -0.2808874308995753 0.30333225528380381 0 -0.28900714364898172 0.31085856243101417 0 -0.27455364659235287 0.3138563233536445 0 -0.2808874308995753 0.30333225528380381 0 -0.28900714364898172 0.31085856243101417 0 -0.29166538756623001 0.29744086474499409 0 -0.2800882132956154 0.27915390975583659 0 -0.2808874308995753 0.30333225528380381 0 -0.29166538756623001 0.29744086474499409 0 -0.2800882132956154 0.27915390975583659 0 -0.29166538756623001 0.29744086474499409 0 -0.29715580146954379 0.28681191880693763 0 -0.2800882132956154 0.27915390975583659 0 -0.29166538756623001 0.29744086474499409 0 -0.3105991959988828 0.27970411225437392 0 -0.29715580146954379 0.28681191880693763 0 -0.31081582767413618 0.29343661863246268 0 -0.29166538756623001 0.29744086474499409 0 -0.29715580146954379 0.28681191880693763 0 -0.31135799930108721 0.31310185046477412 0 -0.29715580146954379 0.28681191880693763 0 -0.31135799930108721 0.31310185046477412 0 -0.29715580146954379 0.28681191880693763 0 -0.31081582767413618 0.29343661863246268 0 -0.31135799930108721 0.31310185046477412 0 -0.29166538756623001 0.29744086474499409 0 -0.31135799930108721 0.31310185046477412 0 -0.30324256183684462 0.31572781973415148 0 -0.29166538756623001 0.29744086474499409 0 -0.30324256183684462 0.31572781973415148 0 -0.30324256183684462 0.31572781973415148 0 -0.31481973610745911 0.33401477472330909 0 -0.30324256183684462 0.31572781973415148 0 -0.29468669134990588 0.32393554903847688 0 -0.31481973610745911 0.33401477472330909 0 -0.31135799930108721 0.31310185046477412 0 -0.30324256183684462 0.31572781973415148 0 -0.31481973610745911 0.33401477472330909 0 -0.29468669134990588 0.32393554903847688 0 -0.31481973610745911 0.33401477472330909 0 -0.30528314136128598 0.34138420040589629 0 -0.29868226894608951 0.33418447274274882 0 -0.31481973610745911 0.33401477472330909 0 -0.29868226894608951 0.33418447274274882 0 -0.29468669134990588 0.32393554903847688 0 -0.31481973610745911 0.33401477472330909 0 -0.30528314136128598 0.34138420040589629 0 -0.31355999107499549 0.34516602675612768 0 -0.31481973610745911 0.33401477472330909 0 -0.30528314136128598 0.34138420040589629 0 -0.29868226894608951 0.33418447274274882 0 -0.29467814609138898 0.33975057830990318 0 -0.30528314136128598 0.34138420040589629 0 -0.29467814609138898 0.33975057830990318 0 -0.29893495885200388 0.34886672050459522 0 -0.29467814609138898 0.33975057830990318 0 -0.28394362982040727 0.33183726123615848 0 -0.28568643625298279 0.34855201289227189 0 -0.29868226894608951 0.33418447274274882 0 -0.28394362982040727 0.33183726123615848 0 -0.29468669134990588 0.32393554903847688 0 -0.29868226894608951 0.33418447274274882 0 -0.29467814609138898 0.33975057830990318 0 -0.28394362982040727 0.33183726123615848 0 -0.29468669134990588 0.32393554903847688 0 -0.27455364659235287 0.3138563233536445 0 -0.28394362982040727 0.33183726123615848 0 -0.29468669134990588 0.32393554903847688 0 -0.27455364659235287 0.3138563233536445 0 -0.28900714364898172 0.31085856243101417 0 -0.29468669134990588 0.32393554903847688 0 -0.27455364659235287 0.3138563233536445 0 -0.28900714364898172 0.31085856243101417 0 -0.30324256183684462 0.31572781973415148 0 -0.29468669134990588 0.32393554903847688 0 -0.28394362982040727 0.33183726123615848 0 -0.27455364659235287 0.3138563233536445 0 -0.25840354832154122 0.32923234000076917 0 -0.28394362982040727 0.33183726123615848 0 -0.27180062869884969 0.34235687269032611 0 -0.28568643625298279 0.34855201289227189 0 -0.28394362982040727 0.33183726123615848 0 -0.27180062869884969 0.34235687269032611 0 -0.25840354832154122 0.32923234000076917 0 -0.27180062869884969 0.34235687269032611 0 -0.25840354832154122 0.32923234000076917 0 -0.25277859539906522 0.35725990955902481 0 -0.253125343896132 0.30612727322062938 0 -0.25840354832154122 0.32923234000076917 0 -0.23930374569037821 0.31749895667389327 0 -0.253125343896132 0.30612727322062938 0 -0.27455364659235287 0.3138563233536445 0 -0.25840354832154122 0.32923234000076917 0 -0.25277859539906522 0.35725990955902481 0 -0.27223794264452789 0.37883003584634017 0 -0.2470272302378157 0.37266842589205329 0 -0.25277859539906522 0.35725990955902481 0 -0.27223794264452789 0.37883003584634017 0 -0.27260385898936512 0.35773694231919317 0 -0.28508869142359949 0.36422409183720339 0 -0.28568643625298279 0.34855201289227189 0 -0.27180062869884969 0.34235687269032611 0 -0.25277859539906522 0.35725990955902481 0 -0.27260385898936512 0.35773694231919317 0 -0.27180062869884969 0.34235687269032611 0 -0.27260385898936512 0.35773694231919317 0 -0.28568643625298279 0.34855201289227189 0 -0.25277859539906522 0.35725990955902481 0 -0.27260385898936512 0.35773694231919317 0 -0.27223794264452789 0.37883003584634017 0 -0.27260385898936512 0.35773694231919317 0 -0.28508869142359949 0.36422409183720339 0 -0.27223794264452789 0.37883003584634017 0 -0.28760100497370122 0.37410898743663362 0 -0.28508869142359949 0.36422409183720339 0 -0.27223794264452789 0.37883003584634017 0 -0.28508869142359949 0.36422409183720339 0 -0.29449935873161481 0.35789636768568678 0 -0.29898876907182192 0.36921138452811381 0 -0.28760100497370122 0.37410898743663362 0 -0.28508869142359949 0.36422409183720339 0 -0.29898876907182192 0.36921138452811381 0 -0.28508869142359949 0.36422409183720339 0 -0.28568643625298279 0.34855201289227189 0 -0.29449935873161481 0.35789636768568678 0 -0.28568643625298279 0.34855201289227189 0 -0.29449935873161481 0.35789636768568678 0 -0.29893495885200388 0.34886672050459522 0 -0.29467814609138898 0.33975057830990318 0 -0.28568643625298279 0.34855201289227189 0 -0.29893495885200388 0.34886672050459522 0 -0.29893495885200388 0.34886672050459522 0 -0.30506478404498832 0.35698909613185342 0 -0.30839788662976281 0.34862806760196002 0 -0.30528314136128598 0.34138420040589629 0 -0.29893495885200388 0.34886672050459522 0 -0.30839788662976281 0.34862806760196002 0 -0.29449935873161481 0.35789636768568678 0 -0.29893495885200388 0.34886672050459522 0 -0.30506478404498832 0.35698909613185342 0 -0.30506478404498832 0.35698909613185342 0 -0.30839788662976281 0.34862806760196002 0 -0.31590896765424359 0.3542506329714718 0 -0.30506478404498832 0.35698909613185342 0 -0.31311648243073298 0.3646170422218547 0 -0.31590896765424359 0.3542506329714718 0 -0.30528314136128598 0.34138420040589629 0 -0.30839788662976281 0.34862806760196002 0 -0.31355999107499549 0.34516602675612768 0 -0.29449935873161481 0.35789636768568678 0 -0.30506478404498832 0.35698909613185342 0 -0.29898876907182192 0.36921138452811381 0 -0.30506478404498832 0.35698909613185342 0 -0.29898876907182192 0.36921138452811381 0 -0.31311648243073298 0.3646170422218547 0 -0.29898876907182192 0.36921138452811381 0 -0.31311648243073298 0.3646170422218547 0 -0.31081490781150989 0.37602249237407281 0 -0.31311648243073298 0.3646170422218547 0 -0.32039776373708018 0.37032187217238732 0 -0.31081490781150989 0.37602249237407281 0 -0.31311648243073298 0.3646170422218547 0 -0.32466400739486512 0.36070888940192902 0 -0.31590896765424359 0.3542506329714718 0 -0.31311648243073298 0.3646170422218547 0 -0.32466400739486512 0.36070888940192902 0 -0.32039776373708018 0.37032187217238732 0 -0.32466400739486512 0.36070888940192902 0 -0.32039776373708018 0.37032187217238732 0 -0.33000920761438729 0.37334129745358491 0 -0.32039776373708018 0.37032187217238732 0 -0.33000920761438729 0.37334129745358491 0 -0.32183919521750981 0.37958730587087069 0 -0.33000920761438729 0.37334129745358491 0 -0.33779542937894119 0.36204063009590409 0 -0.35311114166497443 0.38374512443190778 0 -0.32466400739486512 0.36070888940192902 0 -0.33000920761438729 0.37334129745358491 0 -0.33779542937894119 0.36204063009590409 0 -0.33779542937894119 0.36204063009590409 0 -0.32556019713263012 0.3393917821226109 0 -0.33779542937894119 0.36204063009590409 0 -0.32339022362222603 0.34755245807800172 0 -0.32556019713263012 0.3393917821226109 0 -0.34335703268308448 0.34830142913075129 0 -0.32556019713263012 0.3393917821226109 0 -0.33779542937894119 0.36204063009590409 0 -0.34335703268308448 0.34830142913075129 0 -0.32556019713263012 0.3393917821226109 0 -0.32466400739486512 0.36070888940192902 0 -0.33779542937894119 0.36204063009590409 0 -0.32339022362222603 0.34755245807800172 0 -0.32466400739486512 0.36070888940192902 0 -0.32339022362222603 0.34755245807800172 0 -0.31590896765424359 0.3542506329714718 0 -0.32339022362222603 0.34755245807800172 0 -0.31590896765424359 0.3542506329714718 0 -0.31355999107499549 0.34516602675612768 0 -0.30839788662976281 0.34862806760196002 0 -0.31590896765424359 0.3542506329714718 0 -0.31355999107499549 0.34516602675612768 0 -0.31481973610745911 0.33401477472330909 0 -0.32556019713263012 0.3393917821226109 0 -0.32339022362222603 0.34755245807800172 0 -0.31355999107499549 0.34516602675612768 0 -0.31481973610745911 0.33401477472330909 0 -0.31135799930108721 0.31310185046477412 0 -0.31481973610745911 0.33401477472330909 0 -0.32556019713263012 0.3393917821226109 0 -0.32339022362222603 0.34755245807800172 0 -0.31481973610745911 0.33401477472330909 0 -0.32556019713263012 0.3393917821226109 0 -0.32294572283039208 0.31938342827916488 0 -0.32850424130907863 0.32625256395951441 0 -0.32339022362222603 0.34755245807800172 0 -0.31481973610745911 0.33401477472330909 0 -0.32556019713263012 0.3393917821226109 0 -0.31135799930108721 0.31310185046477412 0 -0.32556019713263012 0.3393917821226109 0 -0.31135799930108721 0.31310185046477412 0 -0.32556019713263012 0.3393917821226109 0 -0.32294572283039208 0.31938342827916488 0 -0.32454545001981949 0.30697828526009918 0 -0.31135799930108721 0.31310185046477412 0 -0.32294572283039208 0.31938342827916488 0 -0.32294572283039208 0.31938342827916488 0 -0.3297265939678915 0.31906393658694432 0 -0.32850424130907863 0.32625256395951441 0 -0.32454545001981949 0.30697828526009918 0 -0.32294572283039208 0.31938342827916488 0 -0.3297265939678915 0.31906393658694432 0 -0.33907323956892699 0.3063864760917453 0 -0.3297265939678915 0.31906393658694432 0 -0.33826738509467369 0.33110674734839668 0 -0.3297265939678915 0.31906393658694432 0 -0.32850424130907863 0.32625256395951441 0 -0.33826738509467369 0.33110674734839668 0 -0.34335703268308448 0.34830142913075129 0 -0.32556019713263012 0.3393917821226109 0 -0.33826738509467369 0.33110674734839668 0 -0.32556019713263012 0.3393917821226109 0 -0.32850424130907863 0.32625256395951441 0 -0.33826738509467369 0.33110674734839668 0 -0.34335703268308448 0.34830142913075129 0 -0.33826738509467369 0.33110674734839668 0 -0.35394270372554459 0.33052882131051919 0 -0.33907323956892699 0.3063864760917453 0 -0.33826738509467369 0.33110674734839668 0 -0.35394270372554459 0.33052882131051919 0 -0.33907323956892699 0.3063864760917453 0 -0.35394270372554459 0.33052882131051919 0 -0.36036811968797522 0.31520970274890081 0 -0.33907323956892699 0.3063864760917453 0 -0.35394270372554459 0.33052882131051919 0 -0.35394270372554459 0.33052882131051919 0 -0.36036811968797522 0.31520970274890081 0 -0.3733352967290931 0.33290723816004752 0 -0.37682246704991912 0.31749351900413653 0 -0.36036811968797522 0.31520970274890081 0 -0.3733352967290931 0.33290723816004752 0 -0.35394270372554459 0.33052882131051919 0 -0.3733352967290931 0.33290723816004752 0 -0.36881216788216209 0.35467116652929309 0 -0.35394270372554459 0.33052882131051919 0 -0.36881216788216209 0.35467116652929309 0 -0.36881216788216209 0.35467116652929309 0 -0.35513457484078492 0.36606130406668891 0 -0.36739051842845249 0.37548801163723738 0 -0.3836816320387797 0.37881351174806699 0 -0.36881216788216209 0.35467116652929309 0 -0.36739051842845249 0.37548801163723738 0 -0.33779542937894119 0.36204063009590409 0 -0.35513457484078492 0.36606130406668891 0 -0.35311114166497443 0.38374512443190778 0 -0.34335703268308448 0.34830142913075129 0 -0.36881216788216209 0.35467116652929309 0 -0.35513457484078492 0.36606130406668891 0 -0.34335703268308448 0.34830142913075129 0 -0.35394270372554459 0.33052882131051919 0 -0.36881216788216209 0.35467116652929309 0 -0.33779542937894119 0.36204063009590409 0 -0.34335703268308448 0.34830142913075129 0 -0.35513457484078492 0.36606130406668891 0 -0.34826939610138991 0.40133808027483542 0 -0.36078583247428708 0.39694179063157198 0 -0.36554971641522249 0.40853500640931428 0 -0.34826939610138991 0.40133808027483542 0 -0.35311114166497443 0.38374512443190778 0 -0.36078583247428708 0.39694179063157198 0 -0.34826939610138991 0.40133808027483542 0 -0.35311114166497443 0.38374512443190778 0 -0.3344653370961162 0.38826093126905559 0 -0.35513457484078492 0.36606130406668891 0 -0.35311114166497443 0.38374512443190778 0 -0.36739051842845249 0.37548801163723738 0 -0.37621307571556151 0.39414895141023071 0 -0.35311114166497443 0.38374512443190778 0 -0.37621307571556151 0.39414895141023071 0 -0.35311114166497443 0.38374512443190778 0 -0.36739051842845249 0.37548801163723738 0 -0.3827479592569249 0.40747354048270651 0 -0.37621307571556151 0.39414895141023071 0 -0.36554971641522249 0.40853500640931428 0 -0.37621307571556151 0.39414895141023071 0 -0.35311114166497443 0.38374512443190778 0 -0.36078583247428708 0.39694179063157198 0 -0.37621307571556151 0.39414895141023071 0 -0.36078583247428708 0.39694179063157198 0 -0.36554971641522249 0.40853500640931428 0 -0.36813519951675272 0.42043619570702712 0 -0.36554971641522249 0.40853500640931428 0 -0.35594235297878529 0.42426303795820652 0 -0.38054117311253233 0.41787986349552919 0 -0.36813519951675272 0.42043619570702712 0 -0.36554971641522249 0.40853500640931428 0 -0.35594235297878529 0.42426303795820652 0 -0.36361530985618068 0.44718799564157757 0 -0.37165210743183069 0.43109507384766188 0 -0.35594235297878529 0.42426303795820652 0 -0.36361530985618068 0.44718799564157757 0 -0.36813519951675272 0.42043619570702712 0 -0.37165210743183069 0.43109507384766188 0 -0.35594235297878529 0.42426303795820652 0 -0.38054117311253233 0.41787986349552919 0 -0.36813519951675272 0.42043619570702712 0 -0.37165210743183069 0.43109507384766188 0 -0.35594235297878529 0.42426303795820652 0 -0.35017414119994922 0.43457640658508678 0 -0.36361530985618068 0.44718799564157757 0 -0.35594235297878529 0.42426303795820652 0 -0.34732090668839438 0.42436222981683669 0 -0.35017414119994922 0.43457640658508678 0 -0.34826939610138991 0.40133808027483542 0 -0.35594235297878529 0.42426303795820652 0 -0.34732090668839438 0.42436222981683669 0 -0.34826939610138991 0.40133808027483542 0 -0.34732090668839438 0.42436222981683669 0 -0.33761690914190667 0.41243085812447777 0 -0.34826939610138991 0.40133808027483542 0 -0.36554971641522249 0.40853500640931428 0 -0.35594235297878529 0.42426303795820652 0 -0.34826939610138991 0.40133808027483542 0 -0.35594235297878529 0.42426303795820652 0 -0.34732090668839438 0.42436222981683669 0 -0.33761690914190667 0.41243085812447777 0 -0.33304780084566832 0.42577216229918308 0 -0.33761690914190667 0.41243085812447777 0 -0.33304780084566832 0.42577216229918308 0 -0.32378827547407918 0.4192154451649881 0 -0.33761690914190667 0.41243085812447777 0 -0.32741187280431527 0.40974482194131401 0 -0.32378827547407918 0.4192154451649881 0 -0.33761690914190667 0.41243085812447777 0 -0.32741187280431527 0.40974482194131401 0 -0.33177239344133141 0.40076370571371989 0 -0.34732090668839438 0.42436222981683669 0 -0.33271653236305182 0.441333266496862 0 -0.34732090668839438 0.42436222981683669 0 -0.33304780084566832 0.42577216229918308 0 -0.33271653236305182 0.441333266496862 0 -0.34732090668839438 0.42436222981683669 0 -0.35017414119994922 0.43457640658508678 0 -0.33271653236305182 0.441333266496862 0 -0.33304780084566832 0.42577216229918308 0 -0.32379638056090981 0.43151901189275038 0 -0.33271653236305182 0.441333266496862 0 -0.32379638056090981 0.43151901189275038 0 -0.31776051461001759 0.42602021460301231 0 -0.32378827547407918 0.4192154451649881 0 -0.33304780084566832 0.42577216229918308 0 -0.32379638056090981 0.43151901189275038 0 -0.32378827547407918 0.4192154451649881 0 -0.32379638056090981 0.43151901189275038 0 -0.31776051461001759 0.42602021460301231 0 -0.31154220659956638 0.43131182068225909 0 -0.31776051461001759 0.42602021460301231 0 -0.31096017961700961 0.42085020826682179 0 -0.31154220659956638 0.43131182068225909 0 -0.31776051461001759 0.42602021460301231 0 -0.32378827547407918 0.4192154451649881 0 -0.31096017961700961 0.42085020826682179 0 -0.32379638056090981 0.43151901189275038 0 -0.31154220659956638 0.43131182068225909 0 -0.3167836407876341 0.44057285872214308 0 -0.32741187280431527 0.40974482194131401 0 -0.32378827547407918 0.4192154451649881 0 -0.31528554503640022 0.41195283103244018 0 -0.32741187280431527 0.40974482194131401 0 -0.31528554503640022 0.41195283103244018 0 -0.31992270507577308 0.40365655533463263 0 -0.32378827547407918 0.4192154451649881 0 -0.31528554503640022 0.41195283103244018 0 -0.31096017961700961 0.42085020826682179 0 -0.33177239344133141 0.40076370571371989 0 -0.3344653370961162 0.38826093126905559 0 -0.31593929086518541 0.38951083922341367 0 -0.31992270507577308 0.40365655533463263 0 -0.33177239344133141 0.40076370571371989 0 -0.31593929086518541 0.38951083922341367 0 -0.31528554503640022 0.41195283103244018 0 -0.31992270507577308 0.40365655533463263 0 -0.31062380669962009 0.40184060103333691 0 -0.31992270507577308 0.40365655533463263 0 -0.31593929086518541 0.38951083922341367 0 -0.31062380669962009 0.40184060103333691 0 -0.32741187280431527 0.40974482194131401 0 -0.31992270507577308 0.40365655533463263 0 -0.33177239344133141 0.40076370571371989 0 -0.34826939610138991 0.40133808027483542 0 -0.33177239344133141 0.40076370571371989 0 -0.3344653370961162 0.38826093126905559 0 -0.34826939610138991 0.40133808027483542 0 -0.33761690914190667 0.41243085812447777 0 -0.33177239344133141 0.40076370571371989 0 -0.33000920761438729 0.37334129745358491 0 -0.35311114166497443 0.38374512443190778 0 -0.3344653370961162 0.38826093126905559 0 -0.33000920761438729 0.37334129745358491 0 -0.35311114166497443 0.38374512443190778 0 -0.33000920761438729 0.37334129745358491 0 -0.3344653370961162 0.38826093126905559 0 -0.32183919521750981 0.37958730587087069 0 -0.3344653370961162 0.38826093126905559 0 -0.32183919521750981 0.37958730587087069 0 -0.31593929086518541 0.38951083922341367 0 -0.32039776373708018 0.37032187217238732 0 -0.32183919521750981 0.37958730587087069 0 -0.31081490781150989 0.37602249237407281 0 -0.32183919521750981 0.37958730587087069 0 -0.31593929086518541 0.38951083922341367 0 -0.31081490781150989 0.37602249237407281 0 -0.31593929086518541 0.38951083922341367 0 -0.29408861675485681 0.38417043753487612 0 -0.29898876907182192 0.36921138452811381 0 -0.31081490781150989 0.37602249237407281 0 -0.29408861675485681 0.38417043753487612 0 -0.31593929086518541 0.38951083922341367 0 -0.31081490781150989 0.37602249237407281 0 -0.29408861675485681 0.38417043753487612 0 -0.31593929086518541 0.38951083922341367 0 -0.30339628636007487 0.39591104471691879 0 -0.29408861675485681 0.38417043753487612 0 -0.31062380669962009 0.40184060103333691 0 -0.30339628636007487 0.39591104471691879 0 -0.30489708053482018 0.40929094716492509 0 -0.31593929086518541 0.38951083922341367 0 -0.31062380669962009 0.40184060103333691 0 -0.30339628636007487 0.39591104471691879 0 -0.30339628636007487 0.39591104471691879 0 -0.29694752441867778 0.40008901263916308 0 -0.29380363811882382 0.39428694029885408 0 -0.30339628636007487 0.39591104471691879 0 -0.29380363811882382 0.39428694029885408 0 -0.29408861675485681 0.38417043753487612 0 -0.30339628636007487 0.39591104471691879 0 -0.29694752441867778 0.40008901263916308 0 -0.30489708053482018 0.40929094716492509 0 -0.29694752441867778 0.40008901263916308 0 -0.29575257863946908 0.40726556087328702 0 -0.30489708053482018 0.40929094716492509 0 -0.29694752441867778 0.40008901263916308 0 -0.28950102399964511 0.39819386672249413 0 -0.29575257863946908 0.40726556087328702 0 -0.28950102399964511 0.39819386672249413 0 -0.29380363811882382 0.39428694029885408 0 -0.2850847390608644 0.39307033988081852 0 -0.29694752441867778 0.40008901263916308 0 -0.28950102399964511 0.39819386672249413 0 -0.29380363811882382 0.39428694029885408 0 -0.28760100497370122 0.37410898743663362 0 -0.29408861675485681 0.38417043753487612 0 -0.27223794264452789 0.37883003584634017 0 -0.29408861675485681 0.38417043753487612 0 -0.27223794264452789 0.37883003584634017 0 -0.2850847390608644 0.39307033988081852 0 -0.29408861675485681 0.38417043753487612 0 -0.27223794264452789 0.37883003584634017 0 -0.28760100497370122 0.37410898743663362 0 -0.29898876907182192 0.36921138452811381 0 -0.29408861675485681 0.38417043753487612 0 -0.29380363811882382 0.39428694029885408 0 -0.2850847390608644 0.39307033988081852 0 -0.29408861675485681 0.38417043753487612 0 -0.2850847390608644 0.39307033988081852 0 -0.27223794264452789 0.37883003584634017 0 -0.26707217298463448 0.39640527926298341 0 -0.2850847390608644 0.39307033988081852 0 -0.27223794264452789 0.37883003584634017 0 -0.28950102399964511 0.39819386672249413 0 -0.26707217298463448 0.39640527926298341 0 -0.26787632552643248 0.41470630917998003 0 -0.28950102399964511 0.39819386672249413 0 -0.2850847390608644 0.39307033988081852 0 -0.26707217298463448 0.39640527926298341 0 -0.26707217298463448 0.39640527926298341 0 -0.26787632552643248 0.41470630917998003 0 -0.2464920066270202 0.40121550698264929 0 -0.27223794264452789 0.37883003584634017 0 -0.26707217298463448 0.39640527926298341 0 -0.2470272302378157 0.37266842589205329 0 -0.26707217298463448 0.39640527926298341 0 -0.2464920066270202 0.40121550698264929 0 -0.2470272302378157 0.37266842589205329 0 -0.27223794264452789 0.37883003584634017 0 -0.2470272302378157 0.37266842589205329 0 -0.26787632552643248 0.41470630917998003 0 -0.2462516270532201 0.43121875163746609 0 -0.26876140454927849 0.43111794567112832 0 -0.26533701260627007 0.44590428104395002 0 -0.2462516270532201 0.43121875163746609 0 -0.26787632552643248 0.41470630917998003 0 -0.26876140454927849 0.43111794567112832 0 -0.2462516270532201 0.43121875163746609 0 -0.26787632552643248 0.41470630917998003 0 -0.24545548128985861 0.41624710173295421 0 -0.2464920066270202 0.40121550698264929 0 -0.26787632552643248 0.41470630917998003 0 -0.24545548128985861 0.41624710173295421 0 -0.2462516270532201 0.43121875163746609 0 -0.28950102399964511 0.39819386672249413 0 -0.26787632552643248 0.41470630917998003 0 -0.26787632552643248 0.41470630917998003 0 -0.28046646568787192 0.42516085993767999 0 -0.28918925201315432 0.41570612102490218 0 -0.26787632552643248 0.41470630917998003 0 -0.28046646568787192 0.42516085993767999 0 -0.26876140454927849 0.43111794567112832 0 -0.28046646568787192 0.42516085993767999 0 -0.26876140454927849 0.43111794567112832 0 -0.2838755918725982 0.43859952655656542 0 -0.28046646568787192 0.42516085993767999 0 -0.29235160109924901 0.42739317518274311 0 -0.2838755918725982 0.43859952655656542 0 -0.28046646568787192 0.42516085993767999 0 -0.29235160109924901 0.42739317518274311 0 -0.28918925201315432 0.41570612102490218 0 -0.29235160109924901 0.42739317518274311 0 -0.2948078547449241 0.43688545500226211 0 -0.2838755918725982 0.43859952655656542 0 -0.29235160109924901 0.42739317518274311 0 -0.2948078547449241 0.43688545500226211 0 -0.30270243210515718 0.42872688085527411 0 -0.28950102399964511 0.39819386672249413 0 -0.26787632552643248 0.41470630917998003 0 -0.28918925201315432 0.41570612102490218 0 -0.28950102399964511 0.39819386672249413 0 -0.28918925201315432 0.41570612102490218 0 -0.29575257863946908 0.40726556087328702 0 -0.28918925201315432 0.41570612102490218 0 -0.29826810391951952 0.41272794449596628 0 -0.30112650917414441 0.41901871582508682 0 -0.29235160109924901 0.42739317518274311 0 -0.28918925201315432 0.41570612102490218 0 -0.30112650917414441 0.41901871582508682 0 -0.28918925201315432 0.41570612102490218 0 -0.29575257863946908 0.40726556087328702 0 -0.29826810391951952 0.41272794449596628 0 -0.29575257863946908 0.40726556087328702 0 -0.29826810391951952 0.41272794449596628 0 -0.30489708053482018 0.40929094716492509 0 -0.29826810391951952 0.41272794449596628 0 -0.30112650917414441 0.41901871582508682 0 -0.30489708053482018 0.40929094716492509 0 -0.30112650917414441 0.41901871582508682 0 -0.31096017961700961 0.42085020826682179 0 -0.30489708053482018 0.40929094716492509 0 -0.31528554503640022 0.41195283103244018 0 -0.31062380669962009 0.40184060103333691 0 -0.30489708053482018 0.40929094716492509 0 -0.31528554503640022 0.41195283103244018 0 -0.31096017961700961 0.42085020826682179 0 -0.30489708053482018 0.40929094716492509 0 -0.2948078547449241 0.43688545500226211 0 -0.30270243210515718 0.42872688085527411 0 -0.30477973693213112 0.43917015943864501 0 -0.29235160109924901 0.42739317518274311 0 -0.30112650917414441 0.41901871582508682 0 -0.30270243210515718 0.42872688085527411 0 -0.30112650917414441 0.41901871582508682 0 -0.31096017961700961 0.42085020826682179 0 -0.30270243210515718 0.42872688085527411 0 -0.31096017961700961 0.42085020826682179 0 -0.30270243210515718 0.42872688085527411 0 -0.31154220659956638 0.43131182068225909 0 -0.30270243210515718 0.42872688085527411 0 -0.31154220659956638 0.43131182068225909 0 -0.30477973693213112 0.43917015943864501 0 -0.31154220659956638 0.43131182068225909 0 -0.30477973693213112 0.43917015943864501 0 -0.3167836407876341 0.44057285872214308 0 -0.30477973693213112 0.43917015943864501 0 -0.30954151024758292 0.44993224156256001 0 -0.3167836407876341 0.44057285872214308 0 -0.30954151024758292 0.44993224156256001 0 -0.30281917085330251 0.45918288434277638 0 -0.29672876173478968 0.44785086291864568 0 -0.30477973693213112 0.43917015943864501 0 -0.30954151024758292 0.44993224156256001 0 -0.29672876173478968 0.44785086291864568 0 -0.2948078547449241 0.43688545500226211 0 -0.30477973693213112 0.43917015943864501 0 -0.29672876173478968 0.44785086291864568 0 -0.30350778371237142 0.47527533985691639 0 -0.31811215803770931 0.4583043031768872 0 -0.30281917085330251 0.45918288434277638 0 -0.28442239815932058 0.46058981045043329 0 -0.30350778371237142 0.47527533985691639 0 -0.30281917085330251 0.45918288434277638 0 -0.30350778371237142 0.47527533985691639 0 -0.31811215803770931 0.4583043031768872 0 -0.30954151024758292 0.44993224156256001 0 -0.30281917085330251 0.45918288434277638 0 -0.31811215803770931 0.4583043031768872 0 -0.30281917085330251 0.45918288434277638 0 -0.28442239815932058 0.46058981045043329 0 -0.29672876173478968 0.44785086291864568 0 -0.28442239815932058 0.46058981045043329 0 -0.30350778371237142 0.47527533985691639 0 -0.28442239815932058 0.46058981045043329 0 -0.29672876173478968 0.44785086291864568 0 -0.2838755918725982 0.43859952655656542 0 -0.2948078547449241 0.43688545500226211 0 -0.29672876173478968 0.44785086291864568 0 -0.2838755918725982 0.43859952655656542 0 -0.28442239815932058 0.46058981045043329 0 -0.2838755918725982 0.43859952655656542 0 -0.26533701260627007 0.44590428104395002 0 -0.26876140454927849 0.43111794567112832 0 -0.2838755918725982 0.43859952655656542 0 -0.26533701260627007 0.44590428104395002 0 -0.28442239815932058 0.46058981045043329 0 -0.26107088112654631 0.46261180363744597 0 -0.26533701260627007 0.44590428104395002 0 -0.28442239815932058 0.46058981045043329 0 -0.26533701260627007 0.44590428104395002 0 -0.28442239815932058 0.46058981045043329 0 -0.26107088112654631 0.46261180363744597 0 -0.26733789877728947 0.4788588420054315 0 -0.26107088112654631 0.46261180363744597 0 -0.243817137775376 0.47097574039803902 0 -0.24751695674797339 0.45243528226169127 0 -0.26107088112654631 0.46261180363744597 0 -0.26533701260627007 0.44590428104395002 0 -0.24751695674797339 0.45243528226169127 0 -0.26533701260627007 0.44590428104395002 0 -0.2462516270532201 0.43121875163746609 0 -0.26533701260627007 0.44590428104395002 0 -0.24751695674797339 0.45243528226169127 0 -0.2462516270532201 0.43121875163746609 0 -0.25788830219434672 0.5 0 -0.26733789877728947 0.4788588420054315 0 -0.24492967381449121 0.48835940448335308 0 -0.26733789877728947 0.4788588420054315 0 -0.243817137775376 0.47097574039803902 0 -0.24492967381449121 0.48835940448335308 0 -0.26107088112654631 0.46261180363744597 0 -0.26733789877728947 0.4788588420054315 0 -0.243817137775376 0.47097574039803902 0 -0.26733789877728947 0.4788588420054315 0 -0.27453285330752492 0.49068991913171078 0 -0.28672459889090368 0.4773423538852829 0 -0.28442239815932058 0.46058981045043329 0 -0.26733789877728947 0.4788588420054315 0 -0.28672459889090368 0.4773423538852829 0 -0.25788830219434672 0.5 0 -0.26733789877728947 0.4788588420054315 0 -0.27453285330752492 0.49068991913171078 0 -0.25788830219434672 0.5 0 -0.27453285330752492 0.49068991913171078 0 -0.28380555895405751 0.5 0 -0.28718251471042638 0.49424614496442337 0 -0.30350778371237142 0.47527533985691639 0 -0.28718251471042638 0.49424614496442337 0 -0.28380555895405751 0.5 0 -0.30972281571376842 0.5 0 -0.27453285330752492 0.49068991913171078 0 -0.28718251471042638 0.49424614496442337 0 -0.28380555895405751 0.5 0 -0.27453285330752492 0.49068991913171078 0 -0.28718251471042638 0.49424614496442337 0 -0.28672459889090368 0.4773423538852829 0 -0.28718251471042638 0.49424614496442337 0 -0.28672459889090368 0.4773423538852829 0 -0.30350778371237142 0.47527533985691639 0 -0.28442239815932058 0.46058981045043329 0 -0.28672459889090368 0.4773423538852829 0 -0.30350778371237142 0.47527533985691639 0 -0.30350778371237142 0.47527533985691639 0 -0.30278463531444388 0.4892359234186251 0 -0.3195739280929254 0.48763766992845781 0 -0.30350778371237142 0.47527533985691639 0 -0.3195739280929254 0.48763766992845781 0 -0.28718251471042638 0.49424614496442337 0 -0.30972281571376842 0.5 0 -0.30278463531444388 0.4892359234186251 0 -0.30972281571376842 0.5 0 -0.30278463531444388 0.4892359234186251 0 -0.3195739280929254 0.48763766992845781 0 -0.28718251471042638 0.49424614496442337 0 -0.30350778371237142 0.47527533985691639 0 -0.30278463531444388 0.4892359234186251 0 -0.30972281571376842 0.5 0 -0.3195739280929254 0.48763766992845781 0 -0.33564007247347921 0.49999999999999928 0 -0.3195739280929254 0.48763766992845781 0 -0.33564007247347921 0.49999999999999928 0 -0.3195739280929254 0.48763766992845781 0 -0.33564007247347921 0.49999999999999928 0 -0.32955120467661758 0.47578348877403848 0 -0.33564007247347921 0.49999999999999928 0 -0.32955120467661758 0.47578348877403848 0 -0.34407247041481631 0.47861894738618799 0 -0.32955120467661758 0.47578348877403848 0 -0.33945361474310032 0.46681226065710862 0 -0.34407247041481631 0.47861894738618799 0 -0.32955120467661758 0.47578348877403848 0 -0.31935318516725891 0.4718706321130135 0 -0.32602085131667058 0.46235235882876802 0 -0.3195739280929254 0.48763766992845781 0 -0.32955120467661758 0.47578348877403848 0 -0.31935318516725891 0.4718706321130135 0 -0.30350778371237142 0.47527533985691639 0 -0.3195739280929254 0.48763766992845781 0 -0.31935318516725891 0.4718706321130135 0 -0.30350778371237142 0.47527533985691639 0 -0.31935318516725891 0.4718706321130135 0 -0.31811215803770931 0.4583043031768872 0 -0.31811215803770931 0.4583043031768872 0 -0.32602085131667058 0.46235235882876802 0 -0.33320202072960331 0.45306392855051808 0 -0.31935318516725891 0.4718706321130135 0 -0.31811215803770931 0.4583043031768872 0 -0.32602085131667058 0.46235235882876802 0 -0.3167836407876341 0.44057285872214308 0 -0.31928846035899461 0.4475356674896131 0 -0.33271653236305182 0.441333266496862 0 -0.32379638056090981 0.43151901189275038 0 -0.3167836407876341 0.44057285872214308 0 -0.33271653236305182 0.441333266496862 0 -0.31811215803770931 0.4583043031768872 0 -0.33271653236305182 0.441333266496862 0 -0.31811215803770931 0.4583043031768872 0 -0.31928846035899461 0.4475356674896131 0 -0.33271653236305182 0.441333266496862 0 -0.31811215803770931 0.4583043031768872 0 -0.33271653236305182 0.441333266496862 0 -0.33320202072960331 0.45306392855051808 0 -0.30954151024758292 0.44993224156256001 0 -0.31811215803770931 0.4583043031768872 0 -0.31928846035899461 0.4475356674896131 0 -0.30954151024758292 0.44993224156256001 0 -0.3167836407876341 0.44057285872214308 0 -0.31928846035899461 0.4475356674896131 0 -0.35017414119994922 0.43457640658508678 0 -0.33271653236305182 0.441333266496862 0 -0.34821374801383881 0.44349679943659442 0 -0.33271653236305182 0.441333266496862 0 -0.33320202072960331 0.45306392855051808 0 -0.34481808058642549 0.45477017723517249 0 -0.33271653236305182 0.441333266496862 0 -0.34481808058642549 0.45477017723517249 0 -0.34821374801383881 0.44349679943659442 0 -0.32602085131667058 0.46235235882876802 0 -0.33320202072960331 0.45306392855051808 0 -0.34481808058642549 0.45477017723517249 0 -0.32602085131667058 0.46235235882876802 0 -0.34481808058642549 0.45477017723517249 0 -0.32602085131667058 0.46235235882876802 0 -0.33945361474310032 0.46681226065710862 0 -0.34481808058642549 0.45477017723517249 0 -0.32955120467661758 0.47578348877403848 0 -0.32602085131667058 0.46235235882876802 0 -0.33945361474310032 0.46681226065710862 0 -0.33945361474310032 0.46681226065710862 0 -0.34481808058642549 0.45477017723517249 0 -0.35549325581061503 0.46345214033019938 0 -0.34481808058642549 0.45477017723517249 0 -0.35549325581061503 0.46345214033019938 0 -0.36361530985618068 0.44718799564157757 0 -0.34481808058642549 0.45477017723517249 0 -0.36361530985618068 0.44718799564157757 0 -0.34481808058642549 0.45477017723517249 0 -0.34821374801383881 0.44349679943659442 0 -0.36361530985618068 0.44718799564157757 0 -0.35017414119994922 0.43457640658508678 0 -0.34821374801383881 0.44349679943659442 0 -0.36361530985618068 0.44718799564157757 0 -0.38851793510409671 0.43714309891359171 0 -0.37165210743183069 0.43109507384766188 0 -0.36361530985618068 0.44718799564157757 0 -0.38467572257486599 0.45462334623912232 0 -0.36361530985618068 0.44718799564157757 0 -0.36924227982466801 0.46400003439982968 0 -0.36361530985618068 0.44718799564157757 0 -0.36924227982466801 0.46400003439982968 0 -0.35549325581061503 0.46345214033019938 0 -0.36361530985618068 0.44718799564157757 0 -0.36924227982466801 0.46400003439982968 0 -0.35549325581061503 0.46345214033019938 0 -0.36924227982466801 0.46400003439982968 0 -0.36035280826579258 0.47717551474786268 0 -0.36924227982466801 0.46400003439982968 0 -0.37486924979315511 0.48081207315808172 0 -0.36035280826579258 0.47717551474786268 0 -0.36924227982466801 0.46400003439982968 0 -0.37486924979315511 0.48081207315808172 0 -0.37486924979315511 0.48081207315808172 0 -0.36035280826579258 0.47717551474786268 0 -0.36017633050775688 0.5 0 -0.38471258854203449 0.5 0 -0.37486924979315511 0.48081207315808172 0 -0.36017633050775688 0.5 0 -0.33564007247347921 0.49999999999999928 0 -0.36017633050775688 0.5 0 -0.34407247041481631 0.47861894738618799 0 -0.36035280826579258 0.47717551474786268 0 -0.36017633050775688 0.5 0 -0.34407247041481631 0.47861894738618799 0 -0.35549325581061503 0.46345214033019938 0 -0.36035280826579258 0.47717551474786268 0 -0.34407247041481631 0.47861894738618799 0 -0.33945361474310032 0.46681226065710862 0 -0.35549325581061503 0.46345214033019938 0 -0.34407247041481631 0.47861894738618799 0 -0.14866608645342669 0.46918940109706309 0 -0.15130944870239271 0.48385549266668759 0 -0.14040461204233121 0.47710892176535308 0 -0.15130944870239271 0.48385549266668759 0 -0.13624655151226731 0.48625031831840482 0 -0.14040461204233121 0.47710892176535308 0 -0.1415279106155492 0.46955364227804502 0 -0.14866608645342669 0.46918940109706309 0 -0.14040461204233121 0.47710892176535308 0 -0.14866608645342669 0.46918940109706309 0 -0.15130944870239271 0.48385549266668759 0 -0.14866608645342669 0.46918940109706309 0 -0.15130944870239271 0.48385549266668759 0 -0.15420219670526911 0.48339557934232502 0 -0.15130944870239271 0.48385549266668759 0 -0.15420219670526911 0.48339557934232502 0 -0.15130944870239271 0.48385549266668759 0 -0.15421927515550349 0.50000000000000477 0 -0.16048943723546949 0.49169133172300861 0 -0.15421927515550349 0.50000000000000477 0 -0.14499585940771451 0.49271295766401901 0 -0.13692027212539001 0.5 0 -0.15130944870239271 0.48385549266668759 0 -0.15421927515550349 0.50000000000000477 0 -0.14499585940771451 0.49271295766401901 0 -0.15130944870239271 0.48385549266668759 0 -0.15420219670526911 0.48339557934232502 0 -0.16048943723546949 0.49169133172300861 0 -0.15130944870239271 0.48385549266668759 0 -0.15421927515550349 0.50000000000000477 0 -0.15130944870239271 0.48385549266668759 0 -0.14499585940771451 0.49271295766401901 0 -0.13624655151226731 0.48625031831840482 0 -0.15130944870239271 0.48385549266668759 0 -0.13624655151226731 0.48625031831840482 0 -0.13692027212539001 0.5 0 -0.12849293676376911 0.4937238655721326 0 -0.11962126909527659 0.50000000000000355 0 -0.13624655151226731 0.48625031831840482 0 -0.13692027212539001 0.5 0 -0.12849293676376911 0.4937238655721326 0 -0.14499585940771451 0.49271295766401901 0 -0.13624655151226731 0.48625031831840482 0 -0.13692027212539001 0.5 0 -0.13624655151226731 0.48625031831840482 0 -0.12939058826336489 0.48505086830706079 0 -0.121183654322142 0.48864514397012188 0 -0.13624655151226731 0.48625031831840482 0 -0.12849293676376911 0.4937238655721326 0 -0.121183654322142 0.48864514397012188 0 -0.13624655151226731 0.48625031831840482 0 -0.121183654322142 0.48864514397012188 0 -0.12939058826336489 0.48505086830706079 0 -0.14040461204233121 0.47710892176535308 0 -0.1344385710105499 0.46796102051426858 0 -0.12939058826336489 0.48505086830706079 0 -0.1344385710105499 0.46796102051426858 0 -0.12327607099828899 0.47343820927589081 0 -0.12939058826336489 0.48505086830706079 0 -0.1344385710105499 0.46796102051426858 0 -0.13624655151226731 0.48625031831840482 0 -0.12939058826336489 0.48505086830706079 0 -0.14040461204233121 0.47710892176535308 0 -0.1415279106155492 0.46955364227804502 0 -0.14040461204233121 0.47710892176535308 0 -0.1344385710105499 0.46796102051426858 0 -0.1344385710105499 0.46796102051426858 0 -0.12327607099828899 0.47343820927589081 0 -0.1344385710105499 0.46796102051426858 0 -0.12649411281499101 0.45005063436893278 0 -0.12327607099828899 0.47343820927589081 0 -0.13704002997869669 0.4591538315773438 0 -0.1344385710105499 0.46796102051426858 0 -0.12649411281499101 0.45005063436893278 0 -0.13704002997869669 0.4591538315773438 0 -0.12649411281499101 0.45005063436893278 0 -0.13704002997869669 0.4591538315773438 0 -0.1344385710105499 0.46796102051426858 0 -0.14260237295589129 0.46395522573549802 0 -0.1415279106155492 0.46955364227804502 0 -0.1344385710105499 0.46796102051426858 0 -0.14260237295589129 0.46395522573549802 0 -0.1344385710105499 0.46796102051426858 0 -0.14260237295589129 0.46395522573549802 0 -0.13704002997869669 0.4591538315773438 0 -0.1344385710105499 0.46796102051426858 0 -0.13704002997869669 0.4591538315773438 0 -0.14260237295589129 0.46395522573549802 0 -0.12649411281499101 0.45005063436893278 0 -0.12898965497755871 0.43191392807833717 0 -0.1241546511004496 0.44172091405448421 0 -0.13704002997869669 0.4591538315773438 0 -0.14313701451529631 0.43851260854947088 0 -0.13704002997869669 0.4591538315773438 0 -0.12649411281499101 0.45005063436893278 0 -0.14313701451529631 0.43851260854947088 0 -0.12649411281499101 0.45005063436893278 0 -0.12898965497755871 0.43191392807833717 0 -0.12649411281499101 0.45005063436893278 0 -0.14313701451529631 0.43851260854947088 0 -0.12898965497755871 0.43191392807833717 0 -0.13704002997869669 0.4591538315773438 0 -0.14313701451529631 0.43851260854947088 0 -0.14730666057333411 0.46164693715843241 0 -0.14313701451529631 0.43851260854947088 0 -0.15443606137228361 0.44650309411853623 0 -0.14730666057333411 0.46164693715843241 0 -0.14313701451529631 0.43851260854947088 0 -0.14730666057333411 0.46164693715843241 0 -0.14313701451529631 0.43851260854947088 0 -0.15443606137228361 0.44650309411853623 0 -0.15375230676599491 0.4330902936002955 0 -0.13704002997869669 0.4591538315773438 0 -0.14730666057333411 0.46164693715843241 0 -0.14260237295589129 0.46395522573549802 0 -0.14730666057333411 0.46164693715843241 0 -0.14260237295589129 0.46395522573549802 0 -0.14866608645342669 0.46918940109706309 0 -0.14260237295589129 0.46395522573549802 0 -0.14866608645342669 0.46918940109706309 0 -0.14730666057333411 0.46164693715843241 0 -0.14260237295589129 0.46395522573549802 0 -0.14866608645342669 0.46918940109706309 0 -0.14730666057333411 0.46164693715843241 0 -0.1415279106155492 0.46955364227804502 0 -0.14866608645342669 0.46918940109706309 0 -0.14260237295589129 0.46395522573549802 0 -0.14730666057333411 0.46164693715843241 0 -0.15571990323284449 0.45751874740767667 0 -0.15443606137228361 0.44650309411853623 0 -0.14730666057333411 0.46164693715843241 0 -0.15571990323284449 0.45751874740767667 0 -0.14730666057333411 0.46164693715843241 0 -0.15571990323284449 0.45751874740767667 0 -0.15645368504449669 0.46401672152766499 0 -0.14866608645342669 0.46918940109706309 0 -0.14730666057333411 0.46164693715843241 0 -0.15645368504449669 0.46401672152766499 0 -0.14866608645342669 0.46918940109706309 0 -0.15645368504449669 0.46401672152766499 0 -0.16547481778018569 0.47138169189814461 0 -0.15645368504449669 0.46401672152766499 0 -0.16455594401299731 0.46056138067183522 0 -0.16547481778018569 0.47138169189814461 0 -0.15571990323284449 0.45751874740767667 0 -0.16455594401299731 0.46056138067183522 0 -0.16466817270614251 0.44992680521104739 0 -0.15571990323284449 0.45751874740767667 0 -0.15645368504449669 0.46401672152766499 0 -0.16455594401299731 0.46056138067183522 0 -0.16455594401299731 0.46056138067183522 0 -0.17345055420821009 0.46481115468218892 0 -0.1741291929556579 0.45459567320743699 0 -0.16455594401299731 0.46056138067183522 0 -0.16466817270614251 0.44992680521104739 0 -0.1741291929556579 0.45459567320743699 0 -0.16455594401299731 0.46056138067183522 0 -0.17345055420821009 0.46481115468218892 0 -0.16547481778018569 0.47138169189814461 0 -0.15443606137228361 0.44650309411853623 0 -0.16466817270614251 0.44992680521104739 0 -0.16458321971050691 0.43798256864644691 0 -0.15443606137228361 0.44650309411853623 0 -0.16458321971050691 0.43798256864644691 0 -0.15375230676599491 0.4330902936002955 0 -0.15443606137228361 0.44650309411853623 0 -0.15571990323284449 0.45751874740767667 0 -0.16466817270614251 0.44992680521104739 0 -0.16466817270614251 0.44992680521104739 0 -0.174485599419339 0.44182943205973141 0 -0.1741291929556579 0.45459567320743699 0 -0.16466817270614251 0.44992680521104739 0 -0.16458321971050691 0.43798256864644691 0 -0.174485599419339 0.44182943205973141 0 -0.174485599419339 0.44182943205973141 0 -0.18509879951233879 0.44646465478628289 0 -0.1741291929556579 0.45459567320743699 0 -0.174485599419339 0.44182943205973141 0 -0.18509879951233879 0.44646465478628289 0 -0.18477877523308731 0.4322622798022111 0 -0.17345055420821009 0.46481115468218892 0 -0.18497554501065949 0.46208816426710991 0 -0.17813677643982689 0.47387509144840972 0 -0.17345055420821009 0.46481115468218892 0 -0.1741291929556579 0.45459567320743699 0 -0.18497554501065949 0.46208816426710991 0 -0.18509879951233879 0.44646465478628289 0 -0.1741291929556579 0.45459567320743699 0 -0.18497554501065949 0.46208816426710991 0 -0.17813677643982689 0.47387509144840972 0 -0.17009869623300861 0.4876899516405338 0 -0.18926305277891861 0.4816796739505792 0 -0.18497554501065949 0.46208816426710991 0 -0.17813677643982689 0.47387509144840972 0 -0.18926305277891861 0.4816796739505792 0 -0.17345055420821009 0.46481115468218892 0 -0.17813677643982689 0.47387509144840972 0 -0.16547481778018569 0.47138169189814461 0 -0.17813677643982689 0.47387509144840972 0 -0.16547481778018569 0.47138169189814461 0 -0.17009869623300861 0.4876899516405338 0 -0.14866608645342669 0.46918940109706309 0 -0.17009869623300861 0.4876899516405338 0 -0.14866608645342669 0.46918940109706309 0 -0.15420219670526911 0.48339557934232502 0 -0.17009869623300861 0.4876899516405338 0 -0.14866608645342669 0.46918940109706309 0 -0.16547481778018569 0.47138169189814461 0 -0.17009869623300861 0.4876899516405338 0 -0.15421927515550349 0.50000000000000477 0 -0.16048943723546949 0.49169133172300861 0 -0.18013653191521431 0.5 0 -0.15420219670526911 0.48339557934232502 0 -0.17009869623300861 0.4876899516405338 0 -0.16048943723546949 0.49169133172300861 0 -0.17009869623300861 0.4876899516405338 0 -0.16048943723546949 0.49169133172300861 0 -0.18013653191521431 0.5 0 -0.17009869623300861 0.4876899516405338 0 -0.18013653191521431 0.5 0 -0.18926305277891861 0.4816796739505792 0 -0.18013653191521431 0.5 0 -0.18926305277891861 0.4816796739505792 0 -0.2060537886749251 0.5 0 -0.18926305277891861 0.4816796739505792 0 -0.20889009819463139 0.47537657700778058 0 -0.2060537886749251 0.5 0 -0.18926305277891861 0.4816796739505792 0 -0.20889009819463139 0.47537657700778058 0 -0.19959509274060491 0.46205017525671171 0 -0.20889009819463139 0.47537657700778058 0 -0.2060537886749251 0.5 0 -0.22090772382804 0.48701382872940391 0 -0.2060537886749251 0.5 0 -0.22090772382804 0.48701382872940391 0 -0.2319710454346359 0.5 0 -0.22090772382804 0.48701382872940391 0 -0.2319710454346359 0.5 0 -0.24492967381449121 0.48835940448335308 0 -0.20889009819463139 0.47537657700778058 0 -0.22090772382804 0.48701382872940391 0 -0.22820659253516681 0.47183513795214532 0 -0.22090772382804 0.48701382872940391 0 -0.22820659253516681 0.47183513795214532 0 -0.24492967381449121 0.48835940448335308 0 -0.22820659253516681 0.47183513795214532 0 -0.243817137775376 0.47097574039803902 0 -0.24492967381449121 0.48835940448335308 0 -0.25788830219434672 0.5 0 -0.2319710454346359 0.5 0 -0.24492967381449121 0.48835940448335308 0 -0.24751695674797339 0.45243528226169127 0 -0.232441941056621 0.44176371464156328 0 -0.2462516270532201 0.43121875163746609 0 -0.24751695674797339 0.45243528226169127 0 -0.23340659250661039 0.45723365543844019 0 -0.232441941056621 0.44176371464156328 0 -0.243817137775376 0.47097574039803902 0 -0.24751695674797339 0.45243528226169127 0 -0.23340659250661039 0.45723365543844019 0 -0.22820659253516681 0.47183513795214532 0 -0.243817137775376 0.47097574039803902 0 -0.23340659250661039 0.45723365543844019 0 -0.22820659253516681 0.47183513795214532 0 -0.23340659250661039 0.45723365543844019 0 -0.21863225506002201 0.45230867764566068 0 -0.232441941056621 0.44176371464156328 0 -0.21863225506002201 0.45230867764566068 0 -0.23340659250661039 0.45723365543844019 0 -0.232441941056621 0.44176371464156328 0 -0.21863225506002201 0.45230867764566068 0 -0.232441941056621 0.44176371464156328 0 -0.21848324029062399 0.43779846237453968 0 -0.21863225506002201 0.45230867764566068 0 -0.21848324029062399 0.43779846237453968 0 -0.19985208227504489 0.44839020231738191 0 -0.1979536432690647 0.43466183098125488 0 -0.21848324029062399 0.43779846237453968 0 -0.21863225506002201 0.45230867764566068 0 -0.19985208227504489 0.44839020231738191 0 -0.20889009819463139 0.47537657700778058 0 -0.22820659253516681 0.47183513795214532 0 -0.21863225506002201 0.45230867764566068 0 -0.20889009819463139 0.47537657700778058 0 -0.21863225506002201 0.45230867764566068 0 -0.19959509274060491 0.46205017525671171 0 -0.21863225506002201 0.45230867764566068 0 -0.19959509274060491 0.46205017525671171 0 -0.19985208227504489 0.44839020231738191 0 -0.18497554501065949 0.46208816426710991 0 -0.18926305277891861 0.4816796739505792 0 -0.19959509274060491 0.46205017525671171 0 -0.18497554501065949 0.46208816426710991 0 -0.19959509274060491 0.46205017525671171 0 -0.19985208227504489 0.44839020231738191 0 -0.18509879951233879 0.44646465478628289 0 -0.18497554501065949 0.46208816426710991 0 -0.19985208227504489 0.44839020231738191 0 -0.18509879951233879 0.44646465478628289 0 -0.19985208227504489 0.44839020231738191 0 -0.1979536432690647 0.43466183098125488 0 -0.18509879951233879 0.44646465478628289 0 -0.1979536432690647 0.43466183098125488 0 -0.18477877523308731 0.4322622798022111 0 -0.1979536432690647 0.43466183098125488 0 -0.19409746765943731 0.41830121870056192 0 -0.18477877523308731 0.4322622798022111 0 -0.1979536432690647 0.43466183098125488 0 -0.19409746765943731 0.41830121870056192 0 -0.20914546201968151 0.42579021882891011 0 -0.19409746765943731 0.41830121870056192 0 -0.2018618044312584 0.40453330576809238 0 -0.19099900751150439 0.40219221811671019 0 -0.19409746765943731 0.41830121870056192 0 -0.19099900751150439 0.40219221811671019 0 -0.1803820773153636 0.40870285413724911 0 -0.19409746765943731 0.41830121870056192 0 -0.20480096798281669 0.4151326145314328 0 -0.20914546201968151 0.42579021882891011 0 -0.19409746765943731 0.41830121870056192 0 -0.20480096798281669 0.4151326145314328 0 -0.2018618044312584 0.40453330576809238 0 -0.21411981705909991 0.41147816882886318 0 -0.20914546201968151 0.42579021882891011 0 -0.230779624110342 0.41931359239594929 0 -0.20480096798281669 0.4151326145314328 0 -0.21411981705909991 0.41147816882886318 0 -0.2018618044312584 0.40453330576809238 0 -0.20480096798281669 0.4151326145314328 0 -0.21411981705909991 0.41147816882886318 0 -0.20914546201968151 0.42579021882891011 0 -0.21848324029062399 0.43779846237453968 0 -0.1979536432690647 0.43466183098125488 0 -0.20914546201968151 0.42579021882891011 0 -0.232441941056621 0.44176371464156328 0 -0.21848324029062399 0.43779846237453968 0 -0.230779624110342 0.41931359239594929 0 -0.21848324029062399 0.43779846237453968 0 -0.20914546201968151 0.42579021882891011 0 -0.230779624110342 0.41931359239594929 0 -0.21411981705909991 0.41147816882886318 0 -0.230779624110342 0.41931359239594929 0 -0.22590481645804719 0.40336626781761492 0 -0.230779624110342 0.41931359239594929 0 -0.2464920066270202 0.40121550698264929 0 -0.22590481645804719 0.40336626781761492 0 -0.230779624110342 0.41931359239594929 0 -0.24545548128985861 0.41624710173295421 0 -0.2464920066270202 0.40121550698264929 0 -0.232441941056621 0.44176371464156328 0 -0.230779624110342 0.41931359239594929 0 -0.2462516270532201 0.43121875163746609 0 -0.232441941056621 0.44176371464156328 0 -0.2462516270532201 0.43121875163746609 0 -0.230779624110342 0.41931359239594929 0 -0.24545548128985861 0.41624710173295421 0 -0.2462516270532201 0.43121875163746609 0 -0.230779624110342 0.41931359239594929 0 -0.2462516270532201 0.43121875163746609 0 -0.2464920066270202 0.40121550698264929 0 -0.22532976819137249 0.38522766746171089 0 -0.2470272302378157 0.37266842589205329 0 -0.2464920066270202 0.40121550698264929 0 -0.22590481645804719 0.40336626781761492 0 -0.22532976819137249 0.38522766746171089 0 -0.22590481645804719 0.40336626781761492 0 -0.22532976819137249 0.38522766746171089 0 -0.2130370749786972 0.39676836553732459 0 -0.22532976819137249 0.38522766746171089 0 -0.20886459277111599 0.38236242076028581 0 -0.2130370749786972 0.39676836553732459 0 -0.22532976819137249 0.38522766746171089 0 -0.20886459277111599 0.38236242076028581 0 -0.22181651783110309 0.36650681593776802 0 -0.21411981705909991 0.41147816882886318 0 -0.22590481645804719 0.40336626781761492 0 -0.2130370749786972 0.39676836553732459 0 -0.20886459277111599 0.38236242076028581 0 -0.2130370749786972 0.39676836553732459 0 -0.2021416509612893 0.39364236258738061 0 -0.2130370749786972 0.39676836553732459 0 -0.2018618044312584 0.40453330576809238 0 -0.2021416509612893 0.39364236258738061 0 -0.21411981705909991 0.41147816882886318 0 -0.2130370749786972 0.39676836553732459 0 -0.2018618044312584 0.40453330576809238 0 -0.2018618044312584 0.40453330576809238 0 -0.2021416509612893 0.39364236258738061 0 -0.19099900751150439 0.40219221811671019 0 -0.2021416509612893 0.39364236258738061 0 -0.1929999923715352 0.39099557291777037 0 -0.19099900751150439 0.40219221811671019 0 -0.1929999923715352 0.39099557291777037 0 -0.19099900751150439 0.40219221811671019 0 -0.1850919184113099 0.39500946592575292 0 -0.20886459277111599 0.38236242076028581 0 -0.19675979234249019 0.38115290258107881 0 -0.1951741664294942 0.37038609576778159 0 -0.2021416509612893 0.39364236258738061 0 -0.1929999923715352 0.39099557291777037 0 -0.19675979234249019 0.38115290258107881 0 -0.20886459277111599 0.38236242076028581 0 -0.2021416509612893 0.39364236258738061 0 -0.19675979234249019 0.38115290258107881 0 -0.1929999923715352 0.39099557291777037 0 -0.19675979234249019 0.38115290258107881 0 -0.18923196534509529 0.3842471445867256 0 -0.1929999923715352 0.39099557291777037 0 -0.18923196534509529 0.3842471445867256 0 -0.1850919184113099 0.39500946592575292 0 -0.18923196534509529 0.3842471445867256 0 -0.1914746853144641 0.37856145835753202 0 -0.1866298301437147 0.37585083503948868 0 -0.19675979234249019 0.38115290258107881 0 -0.1914746853144641 0.37856145835753202 0 -0.1951741664294942 0.37038609576778159 0 -0.19675979234249019 0.38115290258107881 0 -0.18923196534509529 0.3842471445867256 0 -0.1914746853144641 0.37856145835753202 0 -0.18923196534509529 0.3842471445867256 0 -0.1866298301437147 0.37585083503948868 0 -0.18243557348705799 0.38391263269873099 0 -0.16643679139041201 0.37988335872890122 0 -0.16789261764788291 0.39073685269590402 0 -0.18337756739262109 0.37434671428059318 0 -0.18243557348705799 0.38391263269873099 0 -0.16789261764788291 0.39073685269590402 0 -0.18337756739262109 0.37434671428059318 0 -0.16789261764788291 0.39073685269590402 0 -0.18337756739262109 0.37434671428059318 0 -0.1866298301437147 0.37585083503948868 0 -0.18243557348705799 0.38391263269873099 0 -0.18337756739262109 0.37434671428059318 0 -0.18243557348705799 0.38391263269873099 0 -0.16789261764788291 0.39073685269590402 0 -0.1850919184113099 0.39500946592575292 0 -0.1866298301437147 0.37585083503948868 0 -0.18337756739262109 0.37434671428059318 0 -0.18923196534509529 0.3842471445867256 0 -0.18243557348705799 0.38391263269873099 0 -0.1850919184113099 0.39500946592575292 0 -0.16643679139041201 0.37988335872890122 0 -0.15809090168982601 0.38788651323134482 0 -0.16377413547650521 0.36864603535147339 0 -0.15809090168982601 0.38788651323134482 0 -0.1486352883143181 0.3783636932454123 0 -0.16377413547650521 0.36864603535147339 0 -0.15809090168982601 0.38788651323134482 0 -0.16377413547650521 0.36864603535147339 0 -0.16643679139041201 0.37988335872890122 0 -0.15809090168982601 0.38788651323134482 0 -0.16789261764788291 0.39073685269590402 0 -0.16789261764788291 0.39073685269590402 0 -0.16749685878670631 0.40523624888716969 0 -0.15240766790314569 0.40712699111121581 0 -0.15809090168982601 0.38788651323134482 0 -0.16789261764788291 0.39073685269590402 0 -0.15240766790314569 0.40712699111121581 0 -0.16789261764788291 0.39073685269590402 0 -0.15240766790314569 0.40712699111121581 0 -0.16749685878670631 0.40523624888716969 0 -0.1850919184113099 0.39500946592575292 0 -0.1803820773153636 0.40870285413724911 0 -0.16789261764788291 0.39073685269590402 0 -0.16749685878670631 0.40523624888716969 0 -0.1850919184113099 0.39500946592575292 0 -0.19099900751150439 0.40219221811671019 0 -0.1850919184113099 0.39500946592575292 0 -0.1803820773153636 0.40870285413724911 0 -0.19409746765943731 0.41830121870056192 0 -0.1803820773153636 0.40870285413724911 0 -0.18046106349826951 0.4215119357898171 0 -0.1803820773153636 0.40870285413724911 0 -0.18046106349826951 0.4215119357898171 0 -0.1654705777553746 0.42021197026493262 0 -0.19409746765943731 0.41830121870056192 0 -0.18046106349826951 0.4215119357898171 0 -0.18477877523308731 0.4322622798022111 0 -0.18046106349826951 0.4215119357898171 0 -0.17365543639830061 0.42974461070496273 0 -0.1654705777553746 0.42021197026493262 0 -0.18046106349826951 0.4215119357898171 0 -0.18477877523308731 0.4322622798022111 0 -0.17365543639830061 0.42974461070496273 0 -0.174485599419339 0.44182943205973141 0 -0.18477877523308731 0.4322622798022111 0 -0.17365543639830061 0.42974461070496273 0 -0.16458321971050691 0.43798256864644691 0 -0.17365543639830061 0.42974461070496273 0 -0.1654705777553746 0.42021197026493262 0 -0.16458321971050691 0.43798256864644691 0 -0.1654705777553746 0.42021197026493262 0 -0.15375230676599491 0.4330902936002955 0 -0.16458321971050691 0.43798256864644691 0 -0.174485599419339 0.44182943205973141 0 -0.17365543639830061 0.42974461070496273 0 -0.16749685878670631 0.40523624888716969 0 -0.1803820773153636 0.40870285413724911 0 -0.1654705777553746 0.42021197026493262 0 -0.16749685878670631 0.40523624888716969 0 -0.1654705777553746 0.42021197026493262 0 -0.15240766790314569 0.40712699111121581 0 -0.1654705777553746 0.42021197026493262 0 -0.15240766790314569 0.40712699111121581 0 -0.14777234120922189 0.42281979983034362 0 -0.15240766790314569 0.40712699111121581 0 -0.139871700757356 0.42039576111539612 0 -0.1347593457287409 0.39203102714243482 0 -0.15240766790314569 0.40712699111121581 0 -0.14777234120922189 0.42281979983034362 0 -0.15240766790314569 0.40712699111121581 0 -0.14777234120922189 0.42281979983034362 0 -0.139871700757356 0.42039576111539612 0 -0.15240766790314569 0.40712699111121581 0 -0.139871700757356 0.42039576111539612 0 -0.14313701451529631 0.43851260854947088 0 -0.14777234120922189 0.42281979983034362 0 -0.14313701451529631 0.43851260854947088 0 -0.139871700757356 0.42039576111539612 0 -0.14313701451529631 0.43851260854947088 0 -0.14777234120922189 0.42281979983034362 0 -0.139871700757356 0.42039576111539612 0 -0.14313701451529631 0.43851260854947088 0 -0.14777234120922189 0.42281979983034362 0 -0.15375230676599491 0.4330902936002955 0 -0.1654705777553746 0.42021197026493262 0 -0.14777234120922189 0.42281979983034362 0 -0.15375230676599491 0.4330902936002955 0 -0.14313701451529631 0.43851260854947088 0 -0.12898965497755871 0.43191392807833717 0 -0.139871700757356 0.42039576111539612 0 -0.12898965497755871 0.43191392807833717 0 -0.139871700757356 0.42039576111539612 0 -0.12898965497755871 0.43191392807833717 0 -0.139871700757356 0.42039576111539612 0 -0.13085386809190069 0.41836549510649312 0 -0.12898965497755871 0.43191392807833717 0 -0.13085386809190069 0.41836549510649312 0 -0.12315032222220849 0.42176833801847202 0 -0.12898965497755871 0.43191392807833717 0 -0.13085386809190069 0.41836549510649312 0 -0.12898965497755871 0.43191392807833717 0 -0.1212935115654475 0.44005995747254878 0 -0.13085386809190069 0.41836549510649312 0 -0.1347593457287409 0.39203102714243482 0 -0.116922696394459 0.40959952316007558 0 -0.139871700757356 0.42039576111539612 0 -0.13085386809190069 0.41836549510649312 0 -0.1347593457287409 0.39203102714243482 0 -0.1347593457287409 0.39203102714243482 0 -0.1262379107146222 0.39265898073090139 0 -0.116922696394459 0.40959952316007558 0 -0.139871700757356 0.42039576111539612 0 -0.1347593457287409 0.39203102714243482 0 -0.1347593457287409 0.39203102714243482 0 -0.116922696394459 0.40959952316007558 0 -0.1347593457287409 0.39203102714243482 0 -0.1262379107146222 0.39265898073090139 0 -0.13409660535949769 0.38835396360488422 0 -0.1262379107146222 0.39265898073090139 0 -0.12915077140937711 0.38490894193308689 0 -0.1247475464846413 0.3806129323962732 0 -0.12915077140937711 0.38490894193308689 0 -0.13354649641650931 0.37572020154044511 0 -0.13409660535949769 0.38835396360488422 0 -0.1262379107146222 0.39265898073090139 0 -0.12915077140937711 0.38490894193308689 0 -0.13409660535949769 0.38835396360488422 0 -0.13354649641650931 0.37572020154044511 0 -0.1199139301177919 0.36938522126397533 0 -0.1247475464846413 0.3806129323962732 0 -0.12915077140937711 0.38490894193308689 0 -0.13354649641650931 0.37572020154044511 0 -0.1247475464846413 0.3806129323962732 0 -0.13354649641650931 0.37572020154044511 0 -0.13409660535949769 0.38835396360488422 0 -0.1486352883143181 0.3783636932454123 0 -0.1347593457287409 0.39203102714243482 0 -0.13409660535949769 0.38835396360488422 0 -0.1486352883143181 0.3783636932454123 0 -0.1347593457287409 0.39203102714243482 0 -0.13409660535949769 0.38835396360488422 0 -0.1347593457287409 0.39203102714243482 0 -0.1486352883143181 0.3783636932454123 0 -0.1347593457287409 0.39203102714243482 0 -0.1486352883143181 0.3783636932454123 0 -0.1474742050297792 0.39069267168404131 0 -0.15809090168982601 0.38788651323134482 0 -0.1486352883143181 0.3783636932454123 0 -0.1474742050297792 0.39069267168404131 0 -0.15240766790314569 0.40712699111121581 0 -0.1347593457287409 0.39203102714243482 0 -0.1474742050297792 0.39069267168404131 0 -0.15809090168982601 0.38788651323134482 0 -0.15240766790314569 0.40712699111121581 0 -0.15809090168982601 0.38788651323134482 0 -0.15240766790314569 0.40712699111121581 0 -0.1474742050297792 0.39069267168404131 0 -0.13867242508476191 0.35367128375087548 0 -0.16251123089989741 0.36469635934839201 0 -0.14840938419295549 0.34856578682111639 0 -0.13867242508476191 0.35367128375087548 0 -0.16251123089989741 0.36469635934839201 0 -0.1486352883143181 0.3783636932454123 0 -0.14292294557505469 0.36705869034581567 0 -0.16251123089989741 0.36469635934839201 0 -0.14292294557505469 0.36705869034581567 0 -0.13867242508476191 0.35367128375087548 0 -0.16251123089989741 0.36469635934839201 0 -0.1486352883143181 0.3783636932454123 0 -0.16251123089989741 0.36469635934839201 0 -0.13354649641650931 0.37572020154044511 0 -0.1486352883143181 0.3783636932454123 0 -0.14292294557505469 0.36705869034581567 0 -0.14292294557505469 0.36705869034581567 0 -0.12971477536096671 0.36338879779660149 0 -0.13867242508476191 0.35367128375087548 0 -0.13354649641650931 0.37572020154044511 0 -0.14292294557505469 0.36705869034581567 0 -0.12971477536096671 0.36338879779660149 0 -0.13354649641650931 0.37572020154044511 0 -0.12971477536096671 0.36338879779660149 0 -0.1199139301177919 0.36938522126397533 0 -0.13867242508476191 0.35367128375087548 0 -0.11483361926962971 0.34264620815335178 0 -0.14840938419295549 0.34856578682111639 0 -0.13867242508476191 0.35367128375087548 0 -0.1239900476571317 0.34259759264045092 0 -0.14840938419295549 0.34856578682111639 0 -0.1239900476571317 0.34259759264045092 0 -0.13867242508476191 0.35367128375087548 0 -0.11483361926962971 0.34264620815335178 0 -0.12403371433339661 0.35411275033671941 0 -0.13867242508476191 0.35367128375087548 0 -0.1239900476571317 0.34259759264045092 0 -0.11483361926962971 0.34264620815335178 0 -0.12971477536096671 0.36338879779660149 0 -0.13867242508476191 0.35367128375087548 0 -0.12403371433339661 0.35411275033671941 0 -0.13770607761391471 0.3360120693880651 0 -0.12783876801739619 0.32515980312000742 0 -0.1239900476571317 0.34259759264045092 0 -0.14840938419295549 0.34856578682111639 0 -0.13770607761391471 0.3360120693880651 0 -0.1239900476571317 0.34259759264045092 0 -0.12783876801739619 0.32515980312000742 0 -0.1446308484910766 0.32246414915719929 0 -0.13598252948796319 0.3091676558053707 0 -0.12783876801739619 0.32515980312000742 0 -0.13598252948796319 0.3091676558053707 0 -0.1203896417197225 0.31207488955618601 0 -0.13770607761391471 0.3360120693880651 0 -0.12783876801739619 0.32515980312000742 0 -0.1446308484910766 0.32246414915719929 0 -0.1446308484910766 0.32246414915719929 0 -0.16050681552340601 0.31292876366819661 0 -0.13598252948796319 0.3091676558053707 0 -0.1446308484910766 0.32246414915719929 0 -0.1635729594775252 0.33258290456163991 0 -0.16050681552340601 0.31292876366819661 0 -0.13770607761391471 0.3360120693880651 0 -0.1446308484910766 0.32246414915719929 0 -0.1635729594775252 0.33258290456163991 0 -0.14840938419295549 0.34856578682111639 0 -0.13770607761391471 0.3360120693880651 0 -0.1635729594775252 0.33258290456163991 0 -0.1635729594775252 0.33258290456163991 0 -0.16050681552340601 0.31292876366819661 0 -0.18713140654446231 0.31215297230331868 0 -0.1874334290563934 0.34014883750964298 0 -0.18713140654446231 0.31215297230331868 0 -0.1635729594775252 0.33258290456163991 0 -0.1874334290563934 0.34014883750964298 0 -0.17282872072877961 0.35453398100178007 0 -0.1635729594775252 0.33258290456163991 0 -0.1874334290563934 0.34014883750964298 0 -0.18713140654446231 0.31215297230331868 0 -0.1874334290563934 0.34014883750964298 0 -0.18745551711815139 0.34219628223750842 0 -0.18745551711815139 0.34219628223750842 0 -0.17282872072877961 0.35453398100178007 0 -0.19388347629497371 0.3492435382695922 0 -0.1874334290563934 0.34014883750964298 0 -0.17282872072877961 0.35453398100178007 0 -0.1874334290563934 0.34014883750964298 0 -0.18745551711815139 0.34219628223750842 0 -0.17282872072877961 0.35453398100178007 0 -0.17282872072877961 0.35453398100178007 0 -0.19660580542439079 0.36034520598348108 0 -0.14840938419295549 0.34856578682111639 0 -0.17282872072877961 0.35453398100178007 0 -0.14840938419295549 0.34856578682111639 0 -0.1635729594775252 0.33258290456163991 0 -0.17282872072877961 0.35453398100178007 0 -0.14840938419295549 0.34856578682111639 0 -0.17282872072877961 0.35453398100178007 0 -0.16251123089989741 0.36469635934839201 0 -0.16643679139041201 0.37988335872890122 0 -0.16377413547650521 0.36864603535147339 0 -0.18337756739262109 0.37434671428059318 0 -0.16377413547650521 0.36864603535147339 0 -0.16251123089989741 0.36469635934839201 0 -0.18337756739262109 0.37434671428059318 0 -0.1486352883143181 0.3783636932454123 0 -0.16377413547650521 0.36864603535147339 0 -0.16251123089989741 0.36469635934839201 0 -0.17282872072877961 0.35453398100178007 0 -0.16251123089989741 0.36469635934839201 0 -0.16251123089989741 0.36469635934839201 0 -0.18337756739262109 0.37434671428059318 0 -0.17282872072877961 0.35453398100178007 0 -0.16251123089989741 0.36469635934839201 0 -0.18337756739262109 0.37434671428059318 0 -0.17282872072877961 0.35453398100178007 0 -0.18337756739262109 0.37434671428059318 0 -0.19660580542439079 0.36034520598348108 0 -0.18337756739262109 0.37434671428059318 0 -0.1951741664294942 0.37038609576778159 0 -0.19660580542439079 0.36034520598348108 0 -0.1914746853144641 0.37856145835753202 0 -0.1866298301437147 0.37585083503948868 0 -0.1951741664294942 0.37038609576778159 0 -0.18337756739262109 0.37434671428059318 0 -0.19660580542439079 0.36034520598348108 0 -0.1866298301437147 0.37585083503948868 0 -0.18337756739262109 0.37434671428059318 0 -0.1951741664294942 0.37038609576778159 0 -0.19660580542439079 0.36034520598348108 0 -0.19388347629497371 0.3492435382695922 0 -0.20131050499890621 0.34102297157699968 0 -0.17282872072877961 0.35453398100178007 0 -0.19660580542439079 0.36034520598348108 0 -0.19388347629497371 0.3492435382695922 0 -0.18745551711815139 0.34219628223750842 0 -0.19388347629497371 0.3492435382695922 0 -0.19424083118820101 0.34051194992072681 0 -0.19660580542439079 0.36034520598348108 0 -0.21663914670513301 0.33914079512485512 0 -0.20131050499890621 0.34102297157699968 0 -0.19660580542439079 0.36034520598348108 0 -0.22181651783110309 0.36650681593776802 0 -0.21663914670513301 0.33914079512485512 0 -0.19660580542439079 0.36034520598348108 0 -0.21663914670513301 0.33914079512485512 0 -0.20886459277111599 0.38236242076028581 0 -0.1951741664294942 0.37038609576778159 0 -0.22181651783110309 0.36650681593776802 0 -0.19660580542439079 0.36034520598348108 0 -0.22181651783110309 0.36650681593776802 0 -0.1951741664294942 0.37038609576778159 0 -0.19660580542439079 0.36034520598348108 0 -0.22181651783110309 0.36650681593776802 0 -0.22532976819137249 0.38522766746171089 0 -0.22181651783110309 0.36650681593776802 0 -0.2470272302378157 0.37266842589205329 0 -0.22181651783110309 0.36650681593776802 0 -0.23431614766534409 0.35425314595708191 0 -0.21663914670513301 0.33914079512485512 0 -0.25277859539906522 0.35725990955902481 0 -0.2333192481536035 0.33568978327170829 0 -0.25277859539906522 0.35725990955902481 0 -0.23431614766534409 0.35425314595708191 0 -0.2333192481536035 0.33568978327170829 0 -0.25277859539906522 0.35725990955902481 0 -0.23431614766534409 0.35425314595708191 0 -0.2470272302378157 0.37266842589205329 0 -0.22181651783110309 0.36650681593776802 0 -0.2470272302378157 0.37266842589205329 0 -0.22181651783110309 0.36650681593776802 0 -0.23431614766534409 0.35425314595708191 0 -0.2470272302378157 0.37266842589205329 0 -0.25840354832154122 0.32923234000076917 0 -0.23930374569037821 0.31749895667389327 0 -0.2333192481536035 0.33568978327170829 0 -0.25840354832154122 0.32923234000076917 0 -0.25277859539906522 0.35725990955902481 0 -0.2333192481536035 0.33568978327170829 0 -0.2333192481536035 0.33568978327170829 0 -0.21385990090814161 0.31411965698439198 0 -0.21663914670513301 0.33914079512485512 0 -0.23431614766534409 0.35425314595708191 0 -0.2333192481536035 0.33568978327170829 0 -0.21663914670513301 0.33914079512485512 0 -0.23930374569037821 0.31749895667389327 0 -0.2333192481536035 0.33568978327170829 0 -0.21385990090814161 0.31411965698439198 0 -0.2333192481536035 0.33568978327170829 0 -0.21385990090814161 0.31411965698439198 0 -0.21385990090814161 0.31411965698439198 0 -0.21663914670513301 0.33914079512485512 0 -0.20064666498226741 0.32713424724701751 0 -0.21385990090814161 0.31411965698439198 0 -0.20064666498226741 0.32713424724701751 0 -0.21385990090814161 0.31411965698439198 0 -0.2004956537263021 0.31313631464385538 0 -0.20064666498226741 0.32713424724701751 0 -0.21663914670513301 0.33914079512485512 0 -0.20131050499890621 0.34102297157699968 0 -0.20064666498226741 0.32713424724701751 0 -0.20131050499890621 0.34102297157699968 0 -0.19424083118820101 0.34051194992072681 0 -0.20064666498226741 0.32713424724701751 0 -0.19388347629497371 0.3492435382695922 0 -0.20131050499890621 0.34102297157699968 0 -0.19424083118820101 0.34051194992072681 0 -0.1874334290563934 0.34014883750964298 0 -0.20064666498226741 0.32713424724701751 0 -0.1874334290563934 0.34014883750964298 0 -0.19424083118820101 0.34051194992072681 0 -0.20064666498226741 0.32713424724701751 0 -0.1874334290563934 0.34014883750964298 0 -0.18745551711815139 0.34219628223750842 0 -0.19424083118820101 0.34051194992072681 0 -0.1874334290563934 0.34014883750964298 0 -0.20064666498226741 0.32713424724701751 0 -0.18713140654446231 0.31215297230331868 0 -0.2004956537263021 0.31313631464385538 0 -0.20064666498226741 0.32713424724701751 0 -0.18713140654446231 0.31215297230331868 0 -0.2003446424703372 0.29913838204069348 0 -0.18682938403253341 0.28415710709699449 0 -0.18713140654446231 0.31215297230331868 0 -0.2004956537263021 0.31313631464385538 0 -0.2003446424703372 0.29913838204069348 0 -0.18713140654446231 0.31215297230331868 0 -0.2003446424703372 0.29913838204069348 0 -0.20200212295062639 0.28158806969591921 0 -0.18682938403253341 0.28415710709699449 0 -0.2003446424703372 0.29913838204069348 0 -0.18682938403253341 0.28415710709699449 0 -0.21160963857413001 0.29208510945586319 0 -0.22498779951354689 0.29561810948777723 0 -0.2137158542128936 0.27787901316180941 0 -0.2003446424703372 0.29913838204069348 0 -0.20200212295062639 0.28158806969591921 0 -0.21160963857413001 0.29208510945586319 0 -0.20200212295062639 0.28158806969591921 0 -0.21160963857413001 0.29208510945586319 0 -0.2137158542128936 0.27787901316180941 0 -0.21385990090814161 0.31411965698439198 0 -0.21160963857413001 0.29208510945586319 0 -0.22498779951354689 0.29561810948777723 0 -0.21385990090814161 0.31411965698439198 0 -0.2003446424703372 0.29913838204069348 0 -0.21160963857413001 0.29208510945586319 0 -0.21385990090814161 0.31411965698439198 0 -0.2004956537263021 0.31313631464385538 0 -0.2003446424703372 0.29913838204069348 0 -0.21385990090814161 0.31411965698439198 0 -0.2003446424703372 0.29913838204069348 0 -0.21385990090814161 0.31411965698439198 0 -0.23322026189498091 0.29505035655004908 0 -0.23840772162244669 0.30484021228530522 0 -0.21385990090814161 0.31411965698439198 0 -0.22498779951354689 0.29561810948777723 0 -0.23322026189498091 0.29505035655004908 0 -0.21385990090814161 0.31411965698439198 0 -0.23322026189498091 0.29505035655004908 0 -0.23930374569037821 0.31749895667389327 0 -0.21385990090814161 0.31411965698439198 0 -0.23840772162244669 0.30484021228530522 0 -0.22498779951354689 0.29561810948777723 0 -0.22828720943996261 0.28349026025564272 0 -0.2137158542128936 0.27787901316180941 0 -0.22498779951354689 0.29561810948777723 0 -0.2137158542128936 0.27787901316180941 0 -0.22828720943996261 0.28349026025564272 0 -0.2305512986494736 0.29061252394516718 0 -0.23563638695667749 0.28879147297044389 0 -0.22498779951354689 0.29561810948777723 0 -0.2305512986494736 0.29061252394516718 0 -0.23322026189498091 0.29505035655004908 0 -0.22498779951354689 0.29561810948777723 0 -0.22828720943996261 0.28349026025564272 0 -0.2305512986494736 0.29061252394516718 0 -0.2305512986494736 0.29061252394516718 0 -0.23322026189498091 0.29505035655004908 0 -0.23563638695667749 0.28879147297044389 0 -0.23322026189498091 0.29505035655004908 0 -0.23563638695667749 0.28879147297044389 0 -0.24456495273004911 0.29373588757663432 0 -0.22828720943996261 0.28349026025564272 0 -0.24120523546383441 0.28346883324429872 0 -0.23563638695667749 0.28879147297044389 0 -0.24120523546383441 0.28346883324429872 0 -0.23563638695667749 0.28879147297044389 0 -0.24456495273004911 0.29373588757663432 0 -0.2531308452622959 0.28333887266024699 0 -0.24120523546383441 0.28346883324429872 0 -0.24456495273004911 0.29373588757663432 0 -0.253125343896132 0.30612727322062938 0 -0.24456495273004911 0.29373588757663432 0 -0.23840772162244669 0.30484021228530522 0 -0.253125343896132 0.30612727322062938 0 -0.23930374569037821 0.31749895667389327 0 -0.23840772162244669 0.30484021228530522 0 -0.23322026189498091 0.29505035655004908 0 -0.24456495273004911 0.29373588757663432 0 -0.23840772162244669 0.30484021228530522 0 -0.25321208583809113 0.25776932320358148 0 -0.22749964306176901 0.25896995235369452 0 -0.23457729305289701 0.24355637189820481 0 -0.25321208583809113 0.25776932320358148 0 -0.2476352069487463 0.27128805372537601 0 -0.22749964306176901 0.25896995235369452 0 -0.25321208583809113 0.25776932320358148 0 -0.22749964306176901 0.25896995235369452 0 -0.2476352069487463 0.27128805372537601 0 -0.23319749186623159 0.27192047376866813 0 -0.22749964306176901 0.25896995235369452 0 -0.2531308452622959 0.28333887266024699 0 -0.24120523546383441 0.28346883324429872 0 -0.2476352069487463 0.27128805372537601 0 -0.24120523546383441 0.28346883324429872 0 -0.2476352069487463 0.27128805372537601 0 -0.23319749186623159 0.27192047376866813 0 -0.23319749186623159 0.27192047376866813 0 -0.22136998473659561 0.26987220715979793 0 -0.22749964306176901 0.25896995235369452 0 -0.22828720943996261 0.28349026025564272 0 -0.23319749186623159 0.27192047376866813 0 -0.22136998473659561 0.26987220715979793 0 -0.22828720943996261 0.28349026025564272 0 -0.24120523546383441 0.28346883324429872 0 -0.23319749186623159 0.27192047376866813 0 -0.22828720943996261 0.28349026025564272 0 -0.22136998473659561 0.26987220715979793 0 -0.2137158542128936 0.27787901316180941 0 -0.23319749186623159 0.27192047376866813 0 -0.22749964306176901 0.25896995235369452 0 -0.22749964306176901 0.25896995235369452 0 -0.20244390891224109 0.26013991683584092 0 -0.22749964306176901 0.25896995235369452 0 -0.20244390891224109 0.26013991683584092 0 -0.209517222891585 0.2494718154920991 0 -0.22136998473659561 0.26987220715979793 0 -0.22749964306176901 0.25896995235369452 0 -0.20244390891224109 0.26013991683584092 0 -0.22136998473659561 0.26987220715979793 0 -0.2137158542128936 0.27787901316180941 0 -0.20244390891224109 0.26013991683584092 0 -0.2137158542128936 0.27787901316180941 0 -0.20244390891224109 0.26013991683584092 0 -0.20156154017416589 0.26293447518213392 0 -0.2137158542128936 0.27787901316180941 0 -0.20244390891224109 0.26013991683584092 0 -0.2137158542128936 0.27787901316180941 0 -0.20166801672972079 0.27130995997211699 0 -0.20156154017416589 0.26293447518213392 0 -0.20200212295062639 0.28158806969591921 0 -0.2137158542128936 0.27787901316180941 0 -0.20166801672972079 0.27130995997211699 0 -0.1935654209820781 0.26987798757989689 0 -0.18656275817447099 0.25944232164862657 0 -0.18682938403253341 0.28415710709699449 0 -0.20200212295062639 0.28158806969591921 0 -0.20166801672972079 0.27130995997211699 0 -0.1935654209820781 0.26987798757989689 0 -0.20166801672972079 0.27130995997211699 0 -0.20156154017416589 0.26293447518213392 0 -0.19710725081744659 0.26468709977788241 0 -0.20166801672972079 0.27130995997211699 0 -0.1935654209820781 0.26987798757989689 0 -0.19710725081744659 0.26468709977788241 0 -0.20200212295062639 0.28158806969591921 0 -0.1935654209820781 0.26987798757989689 0 -0.18682938403253341 0.28415710709699449 0 -0.20244390891224109 0.26013991683584092 0 -0.19427039761083101 0.24727694594396901 0 -0.20244390891224109 0.26013991683584092 0 -0.19427039761083101 0.24727694594396901 0 -0.209517222891585 0.2494718154920991 0 -0.20244390891224109 0.26013991683584092 0 -0.2003066874514671 0.2602397132810223 0 -0.19427039761083101 0.24727694594396901 0 -0.2003066874514671 0.2602397132810223 0 -0.19427039761083101 0.24727694594396901 0 -0.2003066874514671 0.2602397132810223 0 -0.19710725081744659 0.26468709977788241 0 -0.1903686916745875 0.26070376282805402 0 -0.2003066874514671 0.2602397132810223 0 -0.1903686916745875 0.26070376282805402 0 -0.20244390891224109 0.26013991683584092 0 -0.2003066874514671 0.2602397132810223 0 -0.20156154017416589 0.26293447518213392 0 -0.20244390891224109 0.26013991683584092 0 -0.2003066874514671 0.2602397132810223 0 -0.2003066874514671 0.2602397132810223 0 -0.20156154017416589 0.26293447518213392 0 -0.2003066874514671 0.2602397132810223 0 -0.20156154017416589 0.26293447518213392 0 -0.19710725081744659 0.26468709977788241 0 -0.1935654209820781 0.26987798757989689 0 -0.1903686916745875 0.26070376282805402 0 -0.18656275817447099 0.25944232164862657 0 -0.1935654209820781 0.26987798757989689 0 -0.19710725081744659 0.26468709977788241 0 -0.1903686916745875 0.26070376282805402 0 -0.1903686916745875 0.26070376282805402 0 -0.18656275817447099 0.25944232164862657 0 -0.19427039761083101 0.24727694594396901 0 -0.2003066874514671 0.2602397132810223 0 -0.1903686916745875 0.26070376282805402 0 -0.19427039761083101 0.24727694594396901 0 -0.18656275817447099 0.25944232164862657 0 -0.17017718807889651 0.26569862721325488 0 -0.17306513709700391 0.24697109140888909 0 -0.17017718807889651 0.26569862721325488 0 -0.15130467300678349 0.26410535819758579 0 -0.15352499212526041 0.2472401473295146 0 -0.17017718807889651 0.26569862721325488 0 -0.15352499212526041 0.2472401473295146 0 -0.17017718807889651 0.26569862721325488 0 -0.17306513709700391 0.24697109140888909 0 -0.15352499212526041 0.2472401473295146 0 -0.17017718807889651 0.26569862721325488 0 -0.16880657185354361 0.29190082060654732 0 -0.1548076659258657 0.27888106814959052 0 -0.17017718807889651 0.26569862721325488 0 -0.15130467300678349 0.26410535819758579 0 -0.1548076659258657 0.27888106814959052 0 -0.17017718807889651 0.26569862721325488 0 -0.18682938403253341 0.28415710709699449 0 -0.16880657185354361 0.29190082060654732 0 -0.17017718807889651 0.26569862721325488 0 -0.18682938403253341 0.28415710709699449 0 -0.18656275817447099 0.25944232164862657 0 -0.17017718807889651 0.26569862721325488 0 -0.18682938403253341 0.28415710709699449 0 -0.18656275817447099 0.25944232164862657 0 -0.18682938403253341 0.28415710709699449 0 -0.18682938403253341 0.28415710709699449 0 -0.18713140654446231 0.31215297230331868 0 -0.16880657185354361 0.29190082060654732 0 -0.16050681552340601 0.31292876366819661 0 -0.18713140654446231 0.31215297230331868 0 -0.16880657185354361 0.29190082060654732 0 -0.18682938403253341 0.28415710709699449 0 -0.18713140654446231 0.31215297230331868 0 -0.16050681552340601 0.31292876366819661 0 -0.16880657185354361 0.29190082060654732 0 -0.1533869710160968 0.29758638520792879 0 -0.16880657185354361 0.29190082060654732 0 -0.1533869710160968 0.29758638520792879 0 -0.1548076659258657 0.27888106814959052 0 -0.1445068408167392 0.2862423632672777 0 -0.1533869710160968 0.29758638520792879 0 -0.13204597791456599 0.2938023143270691 0 -0.1445068408167392 0.2862423632672777 0 -0.1533869710160968 0.29758638520792879 0 -0.1548076659258657 0.27888106814959052 0 -0.16050681552340601 0.31292876366819661 0 -0.1533869710160968 0.29758638520792879 0 -0.13598252948796319 0.3091676558053707 0 -0.13598252948796319 0.3091676558053707 0 -0.13204597791456599 0.2938023143270691 0 -0.1203896417197225 0.31207488955618601 0 -0.1533869710160968 0.29758638520792879 0 -0.13598252948796319 0.3091676558053707 0 -0.13204597791456599 0.2938023143270691 0 -0.1445068408167392 0.2862423632672777 0 -0.13204597791456599 0.2938023143270691 0 -0.13778674841042829 0.27469968538452239 0 -0.13204597791456599 0.2938023143270691 0 -0.13778674841042829 0.27469968538452239 0 -0.1226199688243322 0.28144760088106069 0 -0.13778674841042829 0.27469968538452239 0 -0.1198359960768561 0.26275014732450791 0 -0.1226199688243322 0.28144760088106069 0 -0.13778674841042829 0.27469968538452239 0 -0.1402267704934668 0.25400726291104692 0 -0.1198359960768561 0.26275014732450791 0 -0.1402267704934668 0.25400726291104692 0 -0.1198359960768561 0.26275014732450791 0 -0.1289841473711173 0.2377456195045379 0 -0.1402267704934668 0.25400726291104692 0 -0.15130467300678349 0.26410535819758579 0 -0.15352499212526041 0.2472401473295146 0 -0.13778674841042829 0.27469968538452239 0 -0.1402267704934668 0.25400726291104692 0 -0.15130467300678349 0.26410535819758579 0 -0.13778674841042829 0.27469968538452239 0 -0.15130467300678349 0.26410535819758579 0 -0.1548076659258657 0.27888106814959052 0 -0.1445068408167392 0.2862423632672777 0 -0.13778674841042829 0.27469968538452239 0 -0.1548076659258657 0.27888106814959052 0 -0.1040477046386082 0.27553670583740569 0 -0.1025993193740137 0.26199876067000211 0 -0.1198359960768561 0.26275014732450791 0 -0.1040477046386082 0.27553670583740569 0 -0.085322782506830244 0.2776179826388584 0 -0.092718279731067943 0.26646906986907598 0 -0.1040477046386082 0.27553670583740569 0 -0.093553866136339203 0.28783705189773401 0 -0.085322782506830244 0.2776179826388584 0 -0.1040477046386082 0.27553670583740569 0 -0.1025993193740137 0.26199876067000211 0 -0.092718279731067943 0.26646906986907598 0 -0.1025993193740137 0.26199876067000211 0 -0.092718279731067943 0.26646906986907598 0 -0.087935028491984882 0.25757671371116819 0 -0.087935028491984882 0.25757671371116819 0 -0.1084595879315511 0.24766116660785301 0 -0.1025993193740137 0.26199876067000211 0 -0.087935028491984882 0.25757671371116819 0 -0.1084595879315511 0.24766116660785301 0 -0.1025993193740137 0.26199876067000211 0 -0.1198359960768561 0.26275014732450791 0 -0.1084595879315511 0.24766116660785301 0 -0.1040477046386082 0.27553670583740569 0 -0.1198359960768561 0.26275014732450791 0 -0.1226199688243322 0.28144760088106069 0 -0.13204597791456599 0.2938023143270691 0 -0.1226199688243322 0.28144760088106069 0 -0.1099745441618345 0.29047986675443083 0 -0.1040477046386082 0.27553670583740569 0 -0.1226199688243322 0.28144760088106069 0 -0.1099745441618345 0.29047986675443083 0 -0.1099745441618345 0.29047986675443083 0 -0.1203896417197225 0.31207488955618601 0 -0.1045345282380626 0.3091834221359312 0 -0.13204597791456599 0.2938023143270691 0 -0.1099745441618345 0.29047986675443083 0 -0.1203896417197225 0.31207488955618601 0 -0.1045345282380626 0.3091834221359312 0 -0.086851092903681343 0.30426583584013828 0 -0.096364859762632385 0.32129880202607081 0 -0.1099745441618345 0.29047986675443083 0 -0.1045345282380626 0.3091834221359312 0 -0.086851092903681343 0.30426583584013828 0 -0.1099745441618345 0.29047986675443083 0 -0.086851092903681343 0.30426583584013828 0 -0.1099745441618345 0.29047986675443083 0 -0.093553866136339203 0.28783705189773401 0 -0.086851092903681343 0.30426583584013828 0 -0.1040477046386082 0.27553670583740569 0 -0.1099745441618345 0.29047986675443083 0 -0.093553866136339203 0.28783705189773401 0 -0.093553866136339203 0.28783705189773401 0 -0.08079833683538476 0.29048295599882951 0 -0.085322782506830244 0.2776179826388584 0 -0.093553866136339203 0.28783705189773401 0 -0.08079833683538476 0.29048295599882951 0 -0.086851092903681343 0.30426583584013828 0 -0.08079833683538476 0.29048295599882951 0 -0.06969772937747673 0.28384614243651601 0 -0.085322782506830244 0.2776179826388584 0 -0.08079833683538476 0.29048295599882951 0 -0.086851092903681343 0.30426583584013828 0 -0.068566213252596236 0.29884776718090089 0 -0.086851092903681343 0.30426583584013828 0 -0.063727641645528063 0.31805180492584578 0 -0.086851092903681343 0.30426583584013828 0 -0.068566213252596236 0.29884776718090089 0 -0.063727641645528063 0.31805180492584578 0 -0.08079833683538476 0.29048295599882951 0 -0.068566213252596236 0.29884776718090089 0 -0.06969772937747673 0.28384614243651601 0 -0.068566213252596236 0.29884776718090089 0 -0.06969772937747673 0.28384614243651601 0 -0.055924847568880817 0.29051277784096979 0 -0.06969772937747673 0.28384614243651601 0 -0.07259400071595988 0.26984145221248429 0 -0.085322782506830244 0.2776179826388584 0 -0.06969772937747673 0.28384614243651601 0 -0.07259400071595988 0.26984145221248429 0 -0.057942529778990802 0.27411325199314518 0 -0.07259400071595988 0.26984145221248429 0 -0.057390474112463452 0.25529612272236962 0 -0.057942529778990802 0.27411325199314518 0 -0.07259400071595988 0.26984145221248429 0 -0.085030075845206735 0.2693266025230634 0 -0.084172971663611984 0.26144817110610868 0 -0.07259400071595988 0.26984145221248429 0 -0.085322782506830244 0.2776179826388584 0 -0.085030075845206735 0.2693266025230634 0 -0.085322782506830244 0.2776179826388584 0 -0.085030075845206735 0.2693266025230634 0 -0.092718279731067943 0.26646906986907598 0 -0.085030075845206735 0.2693266025230634 0 -0.092718279731067943 0.26646906986907598 0 -0.084172971663611984 0.26144817110610868 0 -0.087935028491984882 0.25757671371116819 0 -0.083689519318301361 0.2496791884595774 0 -0.092313062287334366 0.2439339110423025 0 -0.092718279731067943 0.26646906986907598 0 -0.087935028491984882 0.25757671371116819 0 -0.084172971663611984 0.26144817110610868 0 -0.084172971663611984 0.26144817110610868 0 -0.073881830798883275 0.2478657501268112 0 -0.083689519318301361 0.2496791884595774 0 -0.087935028491984882 0.25757671371116819 0 -0.084172971663611984 0.26144817110610868 0 -0.083689519318301361 0.2496791884595774 0 -0.084172971663611984 0.26144817110610868 0 -0.057390474112463452 0.25529612272236962 0 -0.073881830798883275 0.2478657501268112 0 -0.07259400071595988 0.26984145221248429 0 -0.084172971663611984 0.26144817110610868 0 -0.057390474112463452 0.25529612272236962 0 -0.084172971663611984 0.26144817110610868 0 -0.057390474112463452 0.25529612272236962 0 -0.057390474112463452 0.25529612272236962 0 -0.057942529778990802 0.27411325199314518 0 -0.040880178367518741 0.2625235012930256 0 -0.057942529778990802 0.27411325199314518 0 -0.044649551012183437 0.28045105741908949 0 -0.040880178367518741 0.2625235012930256 0 -0.044649551012183437 0.28045105741908949 0 -0.040880178367518741 0.2625235012930256 0 -0.030483630928514551 0.27850999202659382 0 -0.040880178367518741 0.2625235012930256 0 -0.026666311324582831 0.26608723924726663 0 -0.030483630928514551 0.27850999202659382 0 -0.057390474112463452 0.25529612272236962 0 -0.040880178367518741 0.2625235012930256 0 -0.030607976561314879 0.24914407433863051 0 -0.057390474112463452 0.25529612272236962 0 -0.030607976561314879 0.24914407433863051 0 -0.040880178367518741 0.2625235012930256 0 -0.025474625308750529 0.25714297813187909 0 -0.030607976561314879 0.24914407433863051 0 -0.017766725528309251 0.25374651462337983 0 -0.01039659283100491 0.2485002137533103 0 -0.030607976561314879 0.24914407433863051 0 -0.025474625308750529 0.25714297813187909 0 -0.017766725528309251 0.25374651462337983 0 -0.030607976561314879 0.24914407433863051 0 -0.025474625308750529 0.25714297813187909 0 -0.017766725528309251 0.25374651462337983 0 -0.018339863272443541 0.26257737332559961 0 -0.017766725528309251 0.25374651462337983 0 -0.018339863272443541 0.26257737332559961 0 -0.01098257605142351 0.25769916710476942 0 -0.025474625308750529 0.25714297813187909 0 -0.018339863272443541 0.26257737332559961 0 -0.026666311324582831 0.26608723924726663 0 -0.040880178367518741 0.2625235012930256 0 -0.025474625308750529 0.25714297813187909 0 -0.026666311324582831 0.26608723924726663 0 -0.026666311324582831 0.26608723924726663 0 -0.030483630928514551 0.27850999202659382 0 -0.01858471997537536 0.27369399885492879 0 -0.030483630928514551 0.27850999202659382 0 -0.01858471997537536 0.27369399885492879 0 -0.020235948310369189 0.28881667595551191 0 -0.018339863272443541 0.26257737332559961 0 -0.026666311324582831 0.26608723924726663 0 -0.01858471997537536 0.27369399885492879 0 -0.01858471997537536 0.27369399885492879 0 -0.0098615702761468901 0.26643998048420908 0 -0.0018737250005754109 0.27596360980912138 0 -0.018339863272443541 0.26257737332559961 0 -0.01858471997537536 0.27369399885492879 0 -0.0098615702761468901 0.26643998048420908 0 -0.01858471997537536 0.27369399885492879 0 -0.0018737250005754109 0.27596360980912138 0 -0.020235948310369189 0.28881667595551191 0 -0.0098615702761468901 0.26643998048420908 0 -0.0018737250005754109 0.27596360980912138 0 -0.0011349209720409371 0.26279785135494871 0 -0.0098615702761468901 0.26643998048420908 0 -0.0011349209720409371 0.26279785135494871 0 -0.01098257605142351 0.25769916710476942 0 -0.0011349209720409371 0.26279785135494871 0 -0.0045345189142265169 0.25350634819326018 0 -0.01098257605142351 0.25769916710476942 0 -0.0045345189142265169 0.25350634819326018 0 -0.002005662434308564 0.24836598281606709 0 0.0025002592476698329 0.2499952992231734 0 -0.0045345189142265169 0.25350634819326018 0 -0.01098257605142351 0.25769916710476942 0 -0.01039659283100491 0.2485002137533103 0 -0.017766725528309251 0.25374651462337983 0 -0.01098257605142351 0.25769916710476942 0 -0.01039659283100491 0.2485002137533103 0 -0.018339863272443541 0.26257737332559961 0 -0.0098615702761468901 0.26643998048420908 0 -0.01098257605142351 0.25769916710476942 0 -0.0018737250005754109 0.27596360980912138 0 -0.020235948310369189 0.28881667595551191 0 0.0051532246264746244 0.29057742891331739 0 -0.020235948310369189 0.28881667595551191 0 0.0051532246264746244 0.29057742891331739 0 -0.01138623567278192 0.30772728779636788 0 -0.020235948310369189 0.28881667595551191 0 0.0051532246264746244 0.29057742891331739 0 -0.030483630928514551 0.27850999202659382 0 -0.020235948310369189 0.28881667595551191 0 -0.036143798149243997 0.29758672422383031 0 -0.01138623567278192 0.30772728779636788 0 -0.020235948310369189 0.28881667595551191 0 -0.036143798149243997 0.29758672422383031 0 -0.01138623567278192 0.30772728779636788 0 -0.036143798149243997 0.29758672422383031 0 -0.033937961625685298 0.31788602370780678 0 -0.036143798149243997 0.29758672422383031 0 -0.053622761549268663 0.30512517362409902 0 -0.033937961625685298 0.31788602370780678 0 -0.053622761549268663 0.30512517362409902 0 -0.033937961625685298 0.31788602370780678 0 -0.044649551012183437 0.28045105741908949 0 -0.030483630928514551 0.27850999202659382 0 -0.036143798149243997 0.29758672422383031 0 -0.044649551012183437 0.28045105741908949 0 -0.036143798149243997 0.29758672422383031 0 -0.055924847568880817 0.29051277784096979 0 -0.06969772937747673 0.28384614243651601 0 -0.057942529778990802 0.27411325199314518 0 -0.055924847568880817 0.29051277784096979 0 -0.057942529778990802 0.27411325199314518 0 -0.044649551012183437 0.28045105741908949 0 -0.055924847568880817 0.29051277784096979 0 -0.036143798149243997 0.29758672422383031 0 -0.055924847568880817 0.29051277784096979 0 -0.053622761549268663 0.30512517362409902 0 -0.068566213252596236 0.29884776718090089 0 -0.053622761549268663 0.30512517362409902 0 -0.063727641645528063 0.31805180492584578 0 -0.068566213252596236 0.29884776718090089 0 -0.055924847568880817 0.29051277784096979 0 -0.053622761549268663 0.30512517362409902 0 -0.062204869137883867 0.32749702091324628 0 -0.040604190387374783 0.33183777401155329 0 -0.063727641645528063 0.31805180492584578 0 -0.040604190387374783 0.33183777401155329 0 -0.063727641645528063 0.31805180492584578 0 -0.053622761549268663 0.30512517362409902 0 -0.047973138801964209 0.31822519406732619 0 -0.063727641645528063 0.31805180492584578 0 -0.047973138801964209 0.31822519406732619 0 -0.040604190387374783 0.33183777401155329 0 -0.063727641645528063 0.31805180492584578 0 -0.062204869137883867 0.32749702091324628 0 -0.054220666950960998 0.33848580494990421 0 -0.040604190387374783 0.33183777401155329 0 -0.054220666950960998 0.33848580494990421 0 -0.040604190387374783 0.33183777401155329 0 -0.047614532902556538 0.34848878619659152 0 -0.054220666950960998 0.33848580494990421 0 -0.057354318644597259 0.34735263853690351 0 -0.067804677079304834 0.34195628659720262 0 -0.062204869137883867 0.32749702091324628 0 -0.054220666950960998 0.33848580494990421 0 -0.067804677079304834 0.34195628659720262 0 -0.040604190387374783 0.33183777401155329 0 -0.035549090591290841 0.34921950470529639 0 -0.047614532902556538 0.34848878619659152 0 -0.040604190387374783 0.33183777401155329 0 -0.026801950284500671 0.35016745782869801 0 -0.035549090591290841 0.34921950470529639 0 -0.053622761549268663 0.30512517362409902 0 -0.047973138801964209 0.31822519406732619 0 -0.033937961625685298 0.31788602370780678 0 -0.047973138801964209 0.31822519406732619 0 -0.040604190387374783 0.33183777401155329 0 -0.033937961625685298 0.31788602370780678 0 -0.040604190387374783 0.33183777401155329 0 -0.033937961625685298 0.31788602370780678 0 -0.027563226606919171 0.32932529334059302 0 -0.01138623567278192 0.30772728779636788 0 -0.033937961625685298 0.31788602370780678 0 -0.01425316170210192 0.33064687379151458 0 -0.033937961625685298 0.31788602370780678 0 -0.01425316170210192 0.33064687379151458 0 -0.033937961625685298 0.31788602370780678 0 -0.027563226606919171 0.32932529334059302 0 -0.01425316170210192 0.33064687379151458 0 -0.040604190387374783 0.33183777401155329 0 -0.024975329456404349 0.3343584210602305 0 -0.027563226606919171 0.32932529334059302 0 -0.040604190387374783 0.33183777401155329 0 -0.024975329456404349 0.3343584210602305 0 -0.017480739129221511 0.34562374309726079 0 -0.040604190387374783 0.33183777401155329 0 -0.017480739129221511 0.34562374309726079 0 -0.026801950284500671 0.35016745782869801 0 -0.040604190387374783 0.33183777401155329 0 -0.017480739129221511 0.34562374309726079 0 -0.024975329456404349 0.3343584210602305 0 -0.01425316170210192 0.33064687379151458 0 -0.017480739129221511 0.34562374309726079 0 -0.024975329456404349 0.3343584210602305 0 -0.027563226606919171 0.32932529334059302 0 -0.01425316170210192 0.33064687379151458 0 -0.01425316170210192 0.33064687379151458 0 0.0054719494297279236 0.32178229628192118 0 0.0054316382214814139 0.34340772387522239 0 -0.01425316170210192 0.33064687379151458 0 -0.017480739129221511 0.34562374309726079 0 0.0054316382214814139 0.34340772387522239 0 -0.01425316170210192 0.33064687379151458 0 0.0054316382214814139 0.34340772387522239 0 -0.01138623567278192 0.30772728779636788 0 -0.01425316170210192 0.33064687379151458 0 0.0054719494297279236 0.32178229628192118 0 -0.0088227212088813605 0.36617083869272438 0 -0.017266643687468521 0.35543191062693158 0 -0.017321877398428519 0.36427419405377132 0 -0.0088227212088813605 0.36617083869272438 0 -0.0062544524671355028 0.37638733941255759 0 -0.014363464625527751 0.37636725084904188 0 -0.0088227212088813605 0.36617083869272438 0 -0.020982512590372721 0.37195142628342592 0 -0.014363464625527751 0.37636725084904188 0 -0.0088227212088813605 0.36617083869272438 0 -0.0062544524671355028 0.37638733941255759 0 0.0044235126858082636 0.3702359270180301 0 -0.0088227212088813605 0.36617083869272438 0 -0.00058261298582594902 0.36214223963337289 0 -0.0052547447410189289 0.35493171298831649 0 -0.0088227212088813605 0.36617083869272438 0 -0.00058261298582594902 0.36214223963337289 0 0.0044235126858082636 0.3702359270180301 0 -0.0052547447410189289 0.35493171298831649 0 -0.017480739129221511 0.34562374309726079 0 0.0054316382214814139 0.34340772387522239 0 -0.0052547447410189289 0.35493171298831649 0 -0.017266643687468521 0.35543191062693158 0 -0.017480739129221511 0.34562374309726079 0 -0.0088227212088813605 0.36617083869272438 0 -0.0052547447410189289 0.35493171298831649 0 -0.017266643687468521 0.35543191062693158 0 -0.017266643687468521 0.35543191062693158 0 -0.026801950284500671 0.35016745782869801 0 -0.042995346014015008 0.36422142213142622 0 -0.017266643687468521 0.35543191062693158 0 -0.017480739129221511 0.34562374309726079 0 -0.026801950284500671 0.35016745782869801 0 -0.017266643687468521 0.35543191062693158 0 -0.042995346014015008 0.36422142213142622 0 -0.017266643687468521 0.35543191062693158 0 -0.025830943054945259 0.36550501268008118 0 -0.042995346014015008 0.36422142213142622 0 -0.017266643687468521 0.35543191062693158 0 -0.025830943054945259 0.36550501268008118 0 -0.017321877398428519 0.36427419405377132 0 -0.0088227212088813605 0.36617083869272438 0 -0.017321877398428519 0.36427419405377132 0 -0.020982512590372721 0.37195142628342592 0 -0.025830943054945259 0.36550501268008118 0 -0.017321877398428519 0.36427419405377132 0 -0.020982512590372721 0.37195142628342592 0 -0.025830943054945259 0.36550501268008118 0 -0.020982512590372721 0.37195142628342592 0 -0.03058833558444151 0.37164611030485101 0 -0.020982512590372721 0.37195142628342592 0 -0.03058833558444151 0.37164611030485101 0 -0.022737046824898979 0.3776766889005268 0 -0.03058833558444151 0.37164611030485101 0 -0.042995346014015008 0.36422142213142622 0 -0.035523698828227299 0.38062644686119751 0 -0.025830943054945259 0.36550501268008118 0 -0.03058833558444151 0.37164611030485101 0 -0.042995346014015008 0.36422142213142622 0 -0.042995346014015008 0.36422142213142622 0 -0.059613542700953641 0.37531843427013362 0 -0.035523698828227299 0.38062644686119751 0 -0.042995346014015008 0.36422142213142622 0 -0.035549090591290841 0.34921950470529639 0 -0.047614532902556538 0.34848878619659152 0 -0.026801950284500671 0.35016745782869801 0 -0.042995346014015008 0.36422142213142622 0 -0.035549090591290841 0.34921950470529639 0 -0.042995346014015008 0.36422142213142622 0 -0.047614532902556538 0.34848878619659152 0 -0.056820458959669362 0.35802519743178057 0 -0.047614532902556538 0.34848878619659152 0 -0.056820458959669362 0.35802519743178057 0 -0.057354318644597259 0.34735263853690351 0 -0.054220666950960998 0.33848580494990421 0 -0.047614532902556538 0.34848878619659152 0 -0.057354318644597259 0.34735263853690351 0 -0.056820458959669362 0.35802519743178057 0 -0.057354318644597259 0.34735263853690351 0 -0.067414048896616383 0.35705220665806098 0 -0.042995346014015008 0.36422142213142622 0 -0.056820458959669362 0.35802519743178057 0 -0.068724048340561394 0.37301093363592153 0 -0.042995346014015008 0.36422142213142622 0 -0.068724048340561394 0.37301093363592153 0 -0.059613542700953641 0.37531843427013362 0 -0.042995346014015008 0.36422142213142622 0 -0.068724048340561394 0.37301093363592153 0 -0.068724048340561394 0.37301093363592153 0 -0.084147379730933419 0.35482016604785122 0 -0.068724048340561394 0.37301093363592153 0 -0.066634054950687013 0.37547593831315668 0 -0.059613542700953641 0.37531843427013362 0 -0.056820458959669362 0.35802519743178057 0 -0.068724048340561394 0.37301093363592153 0 -0.067414048896616383 0.35705220665806098 0 -0.068724048340561394 0.37301093363592153 0 -0.084147379730933419 0.35482016604785122 0 -0.067414048896616383 0.35705220665806098 0 -0.068724048340561394 0.37301093363592153 0 -0.066634054950687013 0.37547593831315668 0 -0.084147379730933419 0.35482016604785122 0 -0.095371160409545089 0.35814662894829152 0 -0.082849534566267438 0.37783652188796818 0 -0.095371160409545089 0.35814662894829152 0 -0.082849534566267438 0.37783652188796818 0 -0.068724048340561394 0.37301093363592153 0 -0.084147379730933419 0.35482016604785122 0 -0.082849534566267438 0.37783652188796818 0 -0.084147379730933419 0.35482016604785122 0 -0.09957071112130858 0.33662939845978362 0 -0.084147379730933419 0.35482016604785122 0 -0.067414048896616383 0.35705220665806098 0 -0.067804677079304834 0.34195628659720262 0 -0.057354318644597259 0.34735263853690351 0 -0.067414048896616383 0.35705220665806098 0 -0.067804677079304834 0.34195628659720262 0 -0.062204869137883867 0.32749702091324628 0 -0.080887790129596016 0.33206320968651593 0 -0.062204869137883867 0.32749702091324628 0 -0.067804677079304834 0.34195628659720262 0 -0.080887790129596016 0.33206320968651593 0 -0.084147379730933419 0.35482016604785122 0 -0.067804677079304834 0.34195628659720262 0 -0.080887790129596016 0.33206320968651593 0 -0.062204869137883867 0.32749702091324628 0 -0.063727641645528063 0.31805180492584578 0 -0.080887790129596016 0.33206320968651593 0 -0.086851092903681343 0.30426583584013828 0 -0.063727641645528063 0.31805180492584578 0 -0.080887790129596016 0.33206320968651593 0 -0.086851092903681343 0.30426583584013828 0 -0.080887790129596016 0.33206320968651593 0 -0.096364859762632385 0.32129880202607081 0 -0.080887790129596016 0.33206320968651593 0 -0.09957071112130858 0.33662939845978362 0 -0.096364859762632385 0.32129880202607081 0 -0.080887790129596016 0.33206320968651593 0 -0.09957071112130858 0.33662939845978362 0 -0.084147379730933419 0.35482016604785122 0 -0.080887790129596016 0.33206320968651593 0 -0.09957071112130858 0.33662939845978362 0 -0.09957071112130858 0.33662939845978362 0 -0.1099801764205139 0.3243521440079834 0 -0.09957071112130858 0.33662939845978362 0 -0.11483361926962971 0.34264620815335178 0 -0.1035095271806739 0.34968276797572911 0 -0.09957071112130858 0.33662939845978362 0 -0.096364859762632385 0.32129880202607081 0 -0.1099801764205139 0.3243521440079834 0 -0.1045345282380626 0.3091834221359312 0 -0.096364859762632385 0.32129880202607081 0 -0.1099801764205139 0.3243521440079834 0 -0.12783876801739619 0.32515980312000742 0 -0.1203896417197225 0.31207488955618601 0 -0.1099801764205139 0.3243521440079834 0 -0.1203896417197225 0.31207488955618601 0 -0.1045345282380626 0.3091834221359312 0 -0.1099801764205139 0.3243521440079834 0 -0.1203896417197225 0.31207488955618601 0 -0.1099801764205139 0.3243521440079834 0 -0.09957071112130858 0.33662939845978362 0 -0.1099801764205139 0.3243521440079834 0 -0.1239900476571317 0.34259759264045092 0 -0.09957071112130858 0.33662939845978362 0 -0.1239900476571317 0.34259759264045092 0 -0.12783876801739619 0.32515980312000742 0 -0.1099801764205139 0.3243521440079834 0 -0.1239900476571317 0.34259759264045092 0 -0.09957071112130858 0.33662939845978362 0 -0.1239900476571317 0.34259759264045092 0 -0.11483361926962971 0.34264620815335178 0 -0.11483361926962971 0.34264620815335178 0 -0.1142578085989244 0.35326996026001423 0 -0.12403371433339661 0.35411275033671941 0 -0.11483361926962971 0.34264620815335178 0 -0.1142578085989244 0.35326996026001423 0 -0.1035095271806739 0.34968276797572911 0 -0.1142578085989244 0.35326996026001423 0 -0.11943307875146961 0.36006420629047992 0 -0.1097130415726363 0.3595234352924922 0 -0.1142578085989244 0.35326996026001423 0 -0.12403371433339661 0.35411275033671941 0 -0.11943307875146961 0.36006420629047992 0 -0.12971477536096671 0.36338879779660149 0 -0.12403371433339661 0.35411275033671941 0 -0.11943307875146961 0.36006420629047992 0 -0.1199139301177919 0.36938522126397533 0 -0.1097130415726363 0.3595234352924922 0 -0.1035674117977233 0.37047537073197467 0 -0.12971477536096671 0.36338879779660149 0 -0.11943307875146961 0.36006420629047992 0 -0.1199139301177919 0.36938522126397533 0 -0.1199139301177919 0.36938522126397533 0 -0.1035674117977233 0.37047537073197467 0 -0.1151306790565212 0.37911935855770768 0 -0.11943307875146961 0.36006420629047992 0 -0.1199139301177919 0.36938522126397533 0 -0.1097130415726363 0.3595234352924922 0 -0.1035674117977233 0.37047537073197467 0 -0.095371160409545089 0.35814662894829152 0 -0.082849534566267438 0.37783652188796818 0 -0.1097130415726363 0.3595234352924922 0 -0.1035674117977233 0.37047537073197467 0 -0.095371160409545089 0.35814662894829152 0 -0.084147379730933419 0.35482016604785122 0 -0.095371160409545089 0.35814662894829152 0 -0.1035095271806739 0.34968276797572911 0 -0.084147379730933419 0.35482016604785122 0 -0.09957071112130858 0.33662939845978362 0 -0.1035095271806739 0.34968276797572911 0 -0.1142578085989244 0.35326996026001423 0 -0.1097130415726363 0.3595234352924922 0 -0.1035095271806739 0.34968276797572911 0 -0.1097130415726363 0.3595234352924922 0 -0.095371160409545089 0.35814662894829152 0 -0.1035095271806739 0.34968276797572911 0 -0.1073527831583838 0.4032101027151842 0 -0.099663909784913615 0.39540318481818593 0 -0.08788770124753853 0.40186626488119398 0 -0.1073527831583838 0.4032101027151842 0 -0.08788770124753853 0.40186626488119398 0 -0.10800117181676309 0.39707058921688421 0 -0.099663909784913615 0.39540318481818593 0 -0.1045437226404448 0.38524775130943512 0 -0.10800117181676309 0.39707058921688421 0 -0.1073527831583838 0.4032101027151842 0 -0.099663909784913615 0.39540318481818593 0 -0.1035674117977233 0.37047537073197467 0 -0.1045437226404448 0.38524775130943512 0 -0.082849534566267438 0.37783652188796818 0 -0.099663909784913615 0.39540318481818593 0 -0.1045437226404448 0.38524775130943512 0 -0.090534170061437824 0.38962121596823202 0 -0.1035674117977233 0.37047537073197467 0 -0.1045437226404448 0.38524775130943512 0 -0.1151306790565212 0.37911935855770768 0 -0.1262379107146222 0.39265898073090139 0 -0.1045437226404448 0.38524775130943512 0 -0.1262379107146222 0.39265898073090139 0 -0.1045437226404448 0.38524775130943512 0 -0.1151306790565212 0.37911935855770768 0 -0.1199139301177919 0.36938522126397533 0 -0.1151306790565212 0.37911935855770768 0 -0.1247475464846413 0.3806129323962732 0 -0.1262379107146222 0.39265898073090139 0 -0.1151306790565212 0.37911935855770768 0 -0.1247475464846413 0.3806129323962732 0 -0.1262379107146222 0.39265898073090139 0 -0.1045437226404448 0.38524775130943512 0 -0.1165902711568374 0.39756748291513122 0 -0.1262379107146222 0.39265898073090139 0 -0.1165902711568374 0.39756748291513122 0 -0.116922696394459 0.40959952316007558 0 -0.10800117181676309 0.39707058921688421 0 -0.1045437226404448 0.38524775130943512 0 -0.1165902711568374 0.39756748291513122 0 -0.10800117181676309 0.39707058921688421 0 -0.1165902711568374 0.39756748291513122 0 -0.1131700669007359 0.40235091269654422 0 -0.1165902711568374 0.39756748291513122 0 -0.1131700669007359 0.40235091269654422 0 -0.116922696394459 0.40959952316007558 0 -0.1073527831583838 0.4032101027151842 0 -0.1131700669007359 0.40235091269654422 0 -0.1142384554625345 0.4081334332117007 0 -0.10800117181676309 0.39707058921688421 0 -0.1073527831583838 0.4032101027151842 0 -0.1131700669007359 0.40235091269654422 0 -0.116922696394459 0.40959952316007558 0 -0.1142384554625345 0.4081334332117007 0 -0.099086047060177332 0.42716801917771691 0 -0.12315032222220849 0.42176833801847202 0 -0.116922696394459 0.40959952316007558 0 -0.11583506942491489 0.42719440572898149 0 -0.13085386809190069 0.41836549510649312 0 -0.12315032222220849 0.42176833801847202 0 -0.116922696394459 0.40959952316007558 0 -0.1131700669007359 0.40235091269654422 0 -0.116922696394459 0.40959952316007558 0 -0.1142384554625345 0.4081334332117007 0 -0.11583506942491489 0.42719440572898149 0 -0.10194234012647881 0.4288576337858529 0 -0.1212935115654475 0.44005995747254878 0 -0.10194234012647881 0.4288576337858529 0 -0.1184305916449776 0.44309023232278227 0 -0.116922696394459 0.40959952316007558 0 -0.11583506942491489 0.42719440572898149 0 -0.10194234012647881 0.4288576337858529 0 -0.10194234012647881 0.4288576337858529 0 -0.1184305916449776 0.44309023232278227 0 -0.1212935115654475 0.44005995747254878 0 -0.10194234012647881 0.4288576337858529 0 -0.1212935115654475 0.44005995747254878 0 -0.12898965497755871 0.43191392807833717 0 -0.11583506942491489 0.42719440572898149 0 -0.1212935115654475 0.44005995747254878 0 -0.12898965497755871 0.43191392807833717 0 -0.12315032222220849 0.42176833801847202 0 -0.11583506942491489 0.42719440572898149 0 -0.116922696394459 0.40959952316007558 0 -0.10194234012647881 0.4288576337858529 0 -0.099086047060177332 0.42716801917771691 0 -0.10194234012647881 0.4288576337858529 0 -0.098329018528649226 0.44103409794011161 0 -0.1064656926464367 0.44091077614249907 0 -0.10194234012647881 0.4288576337858529 0 -0.099086047060177332 0.42716801917771691 0 -0.10194234012647881 0.4288576337858529 0 -0.099086047060177332 0.42716801917771691 0 -0.098329018528649226 0.44103409794011161 0 -0.1073527831583838 0.4032101027151842 0 -0.1142384554625345 0.4081334332117007 0 -0.086742228777044905 0.42000215188156897 0 -0.116922696394459 0.40959952316007558 0 -0.099086047060177332 0.42716801917771691 0 -0.1142384554625345 0.4081334332117007 0 -0.086742228777044905 0.42000215188156897 0 -0.1142384554625345 0.4081334332117007 0 -0.099086047060177332 0.42716801917771691 0 -0.086742228777044905 0.42000215188156897 0 -0.1073527831583838 0.4032101027151842 0 -0.086742228777044905 0.42000215188156897 0 -0.08788770124753853 0.40186626488119398 0 -0.086742228777044905 0.42000215188156897 0 -0.068422619336692997 0.40052242704720709 0 -0.08788770124753853 0.40186626488119398 0 -0.099086047060177332 0.42716801917771691 0 -0.080600137666687138 0.44537601438328489 0 -0.099086047060177332 0.42716801917771691 0 -0.086742228777044905 0.42000215188156897 0 -0.080600137666687138 0.44537601438328489 0 -0.099086047060177332 0.42716801917771691 0 -0.086742228777044905 0.42000215188156897 0 -0.086742228777044905 0.42000215188156897 0 -0.065579076076859422 0.42913720551780349 0 -0.086742228777044905 0.42000215188156897 0 -0.065579076076859422 0.42913720551780349 0 -0.080600137666687138 0.44537601438328489 0 -0.086742228777044905 0.42000215188156897 0 -0.065579076076859422 0.42913720551780349 0 -0.064314490810223418 0.40698233983178211 0 -0.086742228777044905 0.42000215188156897 0 -0.064314490810223418 0.40698233983178211 0 -0.086742228777044905 0.42000215188156897 0 -0.064314490810223418 0.40698233983178211 0 -0.068422619336692997 0.40052242704720709 0 -0.064314490810223418 0.40698233983178211 0 -0.068422619336692997 0.40052242704720709 0 -0.068422619336692997 0.40052242704720709 0 -0.08788770124753853 0.40186626488119398 0 -0.090534170061437824 0.38962121596823202 0 -0.068422619336692997 0.40052242704720709 0 -0.08788770124753853 0.40186626488119398 0 -0.099663909784913615 0.39540318481818593 0 -0.08788770124753853 0.40186626488119398 0 -0.090534170061437824 0.38962121596823202 0 -0.1045437226404448 0.38524775130943512 0 -0.090534170061437824 0.38962121596823202 0 -0.082849534566267438 0.37783652188796818 0 -0.1045437226404448 0.38524775130943512 0 -0.082849534566267438 0.37783652188796818 0 -0.068422619336692997 0.40052242704720709 0 -0.090534170061437824 0.38962121596823202 0 -0.082849534566267438 0.37783652188796818 0 -0.068422619336692997 0.40052242704720709 0 -0.082849534566267438 0.37783652188796818 0 -0.068422619336692997 0.40052242704720709 0 -0.082849534566267438 0.37783652188796818 0 -0.062833553743031748 0.38833443615541402 0 -0.068724048340561394 0.37301093363592153 0 -0.082849534566267438 0.37783652188796818 0 -0.082849534566267438 0.37783652188796818 0 -0.062833553743031748 0.38833443615541402 0 -0.062989360153438839 0.38138959339547868 0 -0.082849534566267438 0.37783652188796818 0 -0.066634054950687013 0.37547593831315668 0 -0.062989360153438839 0.38138959339547868 0 -0.068724048340561394 0.37301093363592153 0 -0.082849534566267438 0.37783652188796818 0 -0.066634054950687013 0.37547593831315668 0 -0.066634054950687013 0.37547593831315668 0 -0.062989360153438839 0.38138959339547868 0 -0.059613542700953641 0.37531843427013362 0 -0.062989360153438839 0.38138959339547868 0 -0.059613542700953641 0.37531843427013362 0 -0.054250833230206137 0.38334153627757472 0 -0.059613542700953641 0.37531843427013362 0 -0.035523698828227299 0.38062644686119751 0 -0.059613542700953641 0.37531843427013362 0 -0.054250833230206137 0.38334153627757472 0 -0.035523698828227299 0.38062644686119751 0 -0.062833553743031748 0.38833443615541402 0 -0.062989360153438839 0.38138959339547868 0 -0.054250833230206137 0.38334153627757472 0 -0.062833553743031748 0.38833443615541402 0 -0.054250833230206137 0.38334153627757472 0 -0.055496944071475977 0.39162982342796082 0 -0.054250833230206137 0.38334153627757472 0 -0.055496944071475977 0.39162982342796082 0 -0.046453405194761467 0.38717500833411223 0 -0.064314490810223418 0.40698233983178211 0 -0.068422619336692997 0.40052242704720709 0 -0.051130253207069279 0.39932859000348281 0 -0.068422619336692997 0.40052242704720709 0 -0.055496944071475977 0.39162982342796082 0 -0.051130253207069279 0.39932859000348281 0 -0.064314490810223418 0.40698233983178211 0 -0.051130253207069279 0.39932859000348281 0 -0.047715587897773047 0.40949912924140752 0 -0.068422619336692997 0.40052242704720709 0 -0.051130253207069279 0.39932859000348281 0 -0.064314490810223418 0.40698233983178211 0 -0.051130253207069279 0.39932859000348281 0 -0.068422619336692997 0.40052242704720709 0 -0.062833553743031748 0.38833443615541402 0 -0.055496944071475977 0.39162982342796082 0 -0.055496944071475977 0.39162982342796082 0 -0.051130253207069279 0.39932859000348281 0 -0.046453405194761467 0.38717500833411223 0 -0.051130253207069279 0.39932859000348281 0 -0.038910138857898652 0.40168950401058712 0 -0.02738722054709242 0.397689409355374 0 -0.051130253207069279 0.39932859000348281 0 -0.02738722054709242 0.397689409355374 0 -0.051130253207069279 0.39932859000348281 0 -0.046453405194761467 0.38717500833411223 0 -0.02977763564068055 0.38693290980173323 0 -0.051130253207069279 0.39932859000348281 0 -0.02977763564068055 0.38693290980173323 0 -0.051130253207069279 0.39932859000348281 0 -0.02977763564068055 0.38693290980173323 0 -0.02738722054709242 0.397689409355374 0 -0.051130253207069279 0.39932859000348281 0 -0.038910138857898652 0.40168950401058712 0 -0.047715587897773047 0.40949912924140752 0 -0.054250833230206137 0.38334153627757472 0 -0.046453405194761467 0.38717500833411223 0 -0.035523698828227299 0.38062644686119751 0 -0.046453405194761467 0.38717500833411223 0 -0.035523698828227299 0.38062644686119751 0 -0.02977763564068055 0.38693290980173323 0 -0.02977763564068055 0.38693290980173323 0 -0.02738722054709242 0.397689409355374 0 -0.01143385495550101 0.3859344594522614 0 -0.035523698828227299 0.38062644686119751 0 -0.02977763564068055 0.38693290980173323 0 -0.01143385495550101 0.3859344594522614 0 -0.03058833558444151 0.37164611030485101 0 -0.035523698828227299 0.38062644686119751 0 -0.022737046824898979 0.3776766889005268 0 -0.035523698828227299 0.38062644686119751 0 -0.01143385495550101 0.3859344594522614 0 -0.035523698828227299 0.38062644686119751 0 -0.022737046824898979 0.3776766889005268 0 -0.01143385495550101 0.3859344594522614 0 -0.022737046824898979 0.3776766889005268 0 -0.014363464625527751 0.37636725084904188 0 -0.01143385495550101 0.3859344594522614 0 -0.020982512590372721 0.37195142628342592 0 -0.022737046824898979 0.3776766889005268 0 -0.014363464625527751 0.37636725084904188 0 -0.038910138857898652 0.40168950401058712 0 -0.01369148164194851 0.3999764975518546 0 -0.02562396677766007 0.40989495960056299 0 -0.038910138857898652 0.40168950401058712 0 -0.02738722054709242 0.397689409355374 0 -0.01369148164194851 0.3999764975518546 0 -0.038910138857898652 0.40168950401058712 0 -0.01369148164194851 0.3999764975518546 0 -0.01369148164194851 0.3999764975518546 0 -0.0059382469552465506 0.40862953640632599 0 0.0044069364506871553 0.40568486893445671 0 -0.0036441878871156619 0.39605022870726359 0 -0.01143385495550101 0.3859344594522614 0 0.01265598891722541 0.39124247204332541 0 -0.0036441878871156619 0.39605022870726359 0 -0.01369148164194851 0.3999764975518546 0 0.011527175574001659 0.39826349109312198 0 -0.02738722054709242 0.397689409355374 0 -0.0036441878871156619 0.39605022870726359 0 -0.01143385495550101 0.3859344594522614 0 -0.02738722054709242 0.397689409355374 0 -0.0036441878871156619 0.39605022870726359 0 -0.01369148164194851 0.3999764975518546 0 -0.01369148164194851 0.3999764975518546 0 0.011527175574001659 0.39826349109312198 0 -0.02738722054709242 0.397689409355374 0 -0.0036441878871156619 0.39605022870726359 0 -0.0062544524671355028 0.37638733941255759 0 -0.01143385495550101 0.3859344594522614 0 0.0022235162913747282 0.38095520847074132 0 -0.0062544524671355028 0.37638733941255759 0 -0.014363464625527751 0.37636725084904188 0 -0.01143385495550101 0.3859344594522614 0 -0.01421264569587957 0.42738359555489203 0 -0.02203129008766997 0.43879609747763548 0 -0.010181783456634419 0.44106657131768923 0 -0.01421264569587957 0.42738359555489203 0 -0.0014430470430802831 0.43092486066266011 0 -0.010181783456634419 0.44106657131768923 0 -0.01421264569587957 0.42738359555489203 0 -0.0014430470430802831 0.43092486066266011 0 -0.00038355306998572887 0.41585143691210003 0 -0.00038355306998572887 0.41585143691210003 0 -0.0059382469552465506 0.40862953640632599 0 0.0044069364506871553 0.40568486893445671 0 -0.00038355306998572887 0.41585143691210003 0 -0.0059382469552465506 0.40862953640632599 0 -0.014084889559739119 0.41300534222689278 0 -0.01369148164194851 0.3999764975518546 0 -0.0059382469552465506 0.40862953640632599 0 -0.014084889559739119 0.41300534222689278 0 -0.01421264569587957 0.42738359555489203 0 -0.00038355306998572887 0.41585143691210003 0 -0.014084889559739119 0.41300534222689278 0 -0.014084889559739119 0.41300534222689278 0 -0.02562396677766007 0.40989495960056299 0 -0.025216428175120671 0.41978252822869339 0 -0.01421264569587957 0.42738359555489203 0 -0.014084889559739119 0.41300534222689278 0 -0.025216428175120671 0.41978252822869339 0 -0.01369148164194851 0.3999764975518546 0 -0.014084889559739119 0.41300534222689278 0 -0.02562396677766007 0.40989495960056299 0 -0.02562396677766007 0.40989495960056299 0 -0.025216428175120671 0.41978252822869339 0 -0.037930112975762993 0.41538755520294651 0 -0.025216428175120671 0.41978252822869339 0 -0.0257995516578878 0.43031195663595262 0 -0.036675067338863797 0.4286621448562114 0 -0.01421264569587957 0.42738359555489203 0 -0.025216428175120671 0.41978252822869339 0 -0.0257995516578878 0.43031195663595262 0 -0.01421264569587957 0.42738359555489203 0 -0.0257995516578878 0.43031195663595262 0 -0.02203129008766997 0.43879609747763548 0 -0.0257995516578878 0.43031195663595262 0 -0.030862326991904981 0.43693541706233091 0 -0.02203129008766997 0.43879609747763548 0 -0.0257995516578878 0.43031195663595262 0 -0.030862326991904981 0.43693541706233091 0 -0.036675067338863797 0.4286621448562114 0 -0.030862326991904981 0.43693541706233091 0 -0.036675067338863797 0.4286621448562114 0 -0.040385159361347511 0.44001213439836617 0 -0.036675067338863797 0.4286621448562114 0 -0.037930112975762993 0.41538755520294651 0 -0.054365207093447172 0.42262729949290812 0 -0.036675067338863797 0.4286621448562114 0 -0.054365207093447172 0.42262729949290812 0 -0.044415923376672578 0.43827225915403523 0 -0.036675067338863797 0.4286621448562114 0 -0.040385159361347511 0.44001213439836617 0 -0.044415923376672578 0.43827225915403523 0 -0.037930112975762993 0.41538755520294651 0 -0.047715587897773047 0.40949912924140752 0 -0.054365207093447172 0.42262729949290812 0 -0.038910138857898652 0.40168950401058712 0 -0.02562396677766007 0.40989495960056299 0 -0.037930112975762993 0.41538755520294651 0 -0.025216428175120671 0.41978252822869339 0 -0.036675067338863797 0.4286621448562114 0 -0.037930112975762993 0.41538755520294651 0 -0.038910138857898652 0.40168950401058712 0 -0.037930112975762993 0.41538755520294651 0 -0.047715587897773047 0.40949912924140752 0 -0.065579076076859422 0.42913720551780349 0 -0.064314490810223418 0.40698233983178211 0 -0.054365207093447172 0.42262729949290812 0 -0.064314490810223418 0.40698233983178211 0 -0.054365207093447172 0.42262729949290812 0 -0.064314490810223418 0.40698233983178211 0 -0.047715587897773047 0.40949912924140752 0 -0.054365207093447172 0.42262729949290812 0 -0.065579076076859422 0.42913720551780349 0 -0.054365207093447172 0.42262729949290812 0 -0.044415923376672578 0.43827225915403523 0 -0.054365207093447172 0.42262729949290812 0 -0.044415923376672578 0.43827225915403523 0 -0.065579076076859422 0.42913720551780349 0 -0.044415923376672578 0.43827225915403523 0 -0.065579076076859422 0.42913720551780349 0 -0.058521669569769737 0.44653463797761411 0 -0.044415923376672578 0.43827225915403523 0 -0.058521669569769737 0.44653463797761411 0 -0.062114228273197077 0.46358400958885299 0 -0.031330839955243217 0.45884817276935491 0 -0.062114228273197077 0.46358400958885299 0 -0.031330839955243217 0.45884817276935491 0 -0.043628318879707133 0.48179200479442108 0 -0.031330839955243217 0.45884817276935491 0 -0.040385159361347511 0.44001213439836617 0 -0.028797565448395211 0.4451707289789954 0 -0.031330839955243217 0.45884817276935491 0 -0.044415923376672578 0.43827225915403523 0 -0.031330839955243217 0.45884817276935491 0 -0.040385159361347511 0.44001213439836617 0 -0.044415923376672578 0.43827225915403523 0 -0.058521669569769737 0.44653463797761411 0 -0.031330839955243217 0.45884817276935491 0 -0.044415923376672578 0.43827225915403523 0 -0.040385159361347511 0.44001213439836617 0 -0.044415923376672578 0.43827225915403523 0 -0.030862326991904981 0.43693541706233091 0 -0.040385159361347511 0.44001213439836617 0 -0.028797565448395211 0.4451707289789954 0 -0.030862326991904981 0.43693541706233091 0 -0.028797565448395211 0.4451707289789954 0 -0.02203129008766997 0.43879609747763548 0 -0.028797565448395211 0.4451707289789954 0 -0.02203129008766997 0.43879609747763548 0 -0.020325927754901361 0.44884233370534038 0 -0.02203129008766997 0.43879609747763548 0 -0.020325927754901361 0.44884233370534038 0 -0.010181783456634419 0.44106657131768923 0 -0.031330839955243217 0.45884817276935491 0 -0.028797565448395211 0.4451707289789954 0 -0.020325927754901361 0.44884233370534038 0 -0.031330839955243217 0.45884817276935491 0 -0.0072893729514081169 0.45840656644439642 0 -0.01824575653381558 0.47942408638467549 0 -0.031330839955243217 0.45884817276935491 0 -0.020325927754901361 0.44884233370534038 0 -0.0072893729514081169 0.45840656644439642 0 -0.0072893729514081169 0.45840656644439642 0 -0.010181783456634419 0.44106657131768923 0 0.0042115827931327541 0.44204597406121049 0 -0.020325927754901361 0.44884233370534038 0 -0.0072893729514081169 0.45840656644439642 0 -0.010181783456634419 0.44106657131768923 0 -0.0014430470430802831 0.43092486066266011 0 -0.010181783456634419 0.44106657131768923 0 0.0042115827931327541 0.44204597406121049 0 -0.0051606731123892994 0.499999999999997 0 -0.01824575653381558 0.47942408638467549 0 -0.0051606731123892994 0.499999999999997 0 -0.01824575653381558 0.47942408638467549 0 0.0063674400442363492 0.47858960545643919 0 -0.0072893729514081169 0.45840656644439642 0 -0.01824575653381558 0.47942408638467549 0 0.0063674400442363492 0.47858960545643919 0 -0.031330839955243217 0.45884817276935491 0 -0.01824575653381558 0.47942408638467549 0 -0.043628318879707133 0.48179200479442108 0 -0.031330839955243217 0.45884817276935491 0 -0.01824575653381558 0.47942408638467549 0 -0.01824575653381558 0.47942408638467549 0 -0.025142409486220801 0.49999999999999278 0 -0.043628318879707133 0.48179200479442108 0 -0.0051606731123892994 0.499999999999997 0 -0.01824575653381558 0.47942408638467549 0 -0.025142409486220801 0.49999999999999278 0 -0.043434246272811339 0.5 0 -0.043628318879707133 0.48179200479442108 0 -0.052580164666106537 0.49247256337846768 0 -0.025142409486220801 0.49999999999999278 0 -0.043628318879707133 0.48179200479442108 0 -0.025142409486220801 0.49999999999999278 0 -0.043434246272811339 0.5 0 -0.043628318879707133 0.48179200479442108 0 -0.062114228273197077 0.46358400958885299 0 -0.043628318879707133 0.48179200479442108 0 -0.062114228273197077 0.46358400958885299 0 -0.043628318879707133 0.48179200479442108 0 -0.059828188735241983 0.48160800188677372 0 -0.043628318879707133 0.48179200479442108 0 -0.059828188735241983 0.48160800188677372 0 -0.052580164666106537 0.49247256337846768 0 -0.043434246272811339 0.5 0 -0.052580164666106537 0.49247256337846768 0 -0.061726083059401762 0.50000000000000089 0 -0.059828188735241983 0.48160800188677372 0 -0.052580164666106537 0.49247256337846768 0 -0.063603791618997013 0.48910596069792628 0 -0.052580164666106537 0.49247256337846768 0 -0.061726083059401762 0.50000000000000089 0 -0.063603791618997013 0.48910596069792628 0 -0.061726083059401762 0.50000000000000089 0 -0.06466381615251024 0.49999999999999911 0 -0.076866440534887559 0.48356155976855658 0 -0.061726083059401762 0.50000000000000089 0 -0.076866440534887559 0.48356155976855658 0 -0.061726083059401762 0.50000000000000089 0 -0.063603791618997013 0.48910596069792628 0 -0.076866440534887559 0.48356155976855658 0 -0.06466381615251024 0.49999999999999911 0 -0.08258607464999819 0.48103007744092569 0 -0.06466381615251024 0.49999999999999911 0 -0.072393554195537113 0.49840512071052451 0 -0.08258607464999819 0.48103007744092569 0 -0.06466381615251024 0.49999999999999911 0 -0.072393554195537113 0.49840512071052451 0 -0.092142542623893431 0.5 0 -0.06466381615251024 0.49999999999999911 0 -0.08258607464999819 0.48103007744092569 0 -0.076866440534887559 0.48356155976855658 0 -0.072393554195537113 0.49840512071052451 0 -0.078149374184808343 0.49548709453748241 0 -0.08258607464999819 0.48103007744092569 0 -0.063603791618997013 0.48910596069792628 0 -0.076866440534887559 0.48356155976855658 0 -0.067202877396239064 0.48315465484812059 0 -0.059828188735241983 0.48160800188677372 0 -0.063603791618997013 0.48910596069792628 0 -0.067202877396239064 0.48315465484812059 0 -0.072393554195537113 0.49840512071052451 0 -0.078149374184808343 0.49548709453748241 0 -0.072393554195537113 0.49840512071052451 0 -0.092142542623893431 0.5 0 -0.078149374184808343 0.49548709453748241 0 -0.092142542623893431 0.5 0 -0.078149374184808343 0.49548709453748241 0 -0.099666514253475197 0.49206611925380223 0 -0.078149374184808343 0.49548709453748241 0 -0.08258607464999819 0.48103007744092569 0 -0.1007312647503719 0.48450044079019972 0 -0.078149374184808343 0.49548709453748241 0 -0.1007312647503719 0.48450044079019972 0 -0.099666514253475197 0.49206611925380223 0 -0.078149374184808343 0.49548709453748241 0 -0.099666514253475197 0.49206611925380223 0 -0.078149374184808343 0.49548709453748241 0 -0.1007312647503719 0.48450044079019972 0 -0.08258607464999819 0.48103007744092569 0 -0.10050833314748669 0.46206015488185281 0 -0.08258607464999819 0.48103007744092569 0 -0.092006798010372925 0.46712311953711178 0 -0.10050833314748669 0.46206015488185281 0 -0.076866440534887559 0.48356155976855658 0 -0.092006798010372925 0.46712311953711178 0 -0.076657751526938447 0.46974908891126188 0 -0.076866440534887559 0.48356155976855658 0 -0.092006798010372925 0.46712311953711178 0 -0.08258607464999819 0.48103007744092569 0 -0.076866440534887559 0.48356155976855658 0 -0.092006798010372925 0.46712311953711178 0 -0.062114228273197077 0.46358400958885299 0 -0.059828188735241983 0.48160800188677372 0 -0.068605486844275615 0.47597658523536962 0 -0.076657751526938447 0.46974908891126188 0 -0.076866440534887559 0.48356155976855658 0 -0.068605486844275615 0.47597658523536962 0 -0.076866440534887559 0.48356155976855658 0 -0.067202877396239064 0.48315465484812059 0 -0.068605486844275615 0.47597658523536962 0 -0.059828188735241983 0.48160800188677372 0 -0.067202877396239064 0.48315465484812059 0 -0.068605486844275615 0.47597658523536962 0 -0.062114228273197077 0.46358400958885299 0 -0.076657751526938447 0.46974908891126188 0 -0.068605486844275615 0.47597658523536962 0 -0.062114228273197077 0.46358400958885299 0 -0.080600137666687138 0.44537601438328489 0 -0.062114228273197077 0.46358400958885299 0 -0.080600137666687138 0.44537601438328489 0 -0.080746939641980195 0.45967516974780609 0 -0.062114228273197077 0.46358400958885299 0 -0.076657751526938447 0.46974908891126188 0 -0.080746939641980195 0.45967516974780609 0 -0.058521669569769737 0.44653463797761411 0 -0.062114228273197077 0.46358400958885299 0 -0.080600137666687138 0.44537601438328489 0 -0.065579076076859422 0.42913720551780349 0 -0.058521669569769737 0.44653463797761411 0 -0.080600137666687138 0.44537601438328489 0 -0.099086047060177332 0.42716801917771691 0 -0.080600137666687138 0.44537601438328489 0 -0.098329018528649226 0.44103409794011161 0 -0.080600137666687138 0.44537601438328489 0 -0.09235578273270531 0.45254361631851869 0 -0.098329018528649226 0.44103409794011161 0 -0.080600137666687138 0.44537601438328489 0 -0.09235578273270531 0.45254361631851869 0 -0.080746939641980195 0.45967516974780609 0 -0.076657751526938447 0.46974908891126188 0 -0.080746939641980195 0.45967516974780609 0 -0.092006798010372925 0.46712311953711178 0 -0.09235578273270531 0.45254361631851869 0 -0.080746939641980195 0.45967516974780609 0 -0.092006798010372925 0.46712311953711178 0 -0.09235578273270531 0.45254361631851869 0 -0.092006798010372925 0.46712311953711178 0 -0.10714715548585831 0.45068467930566719 0 -0.092006798010372925 0.46712311953711178 0 -0.10050833314748669 0.46206015488185281 0 -0.10714715548585831 0.45068467930566719 0 -0.092006798010372925 0.46712311953711178 0 -0.10714715548585831 0.45068467930566719 0 -0.10050833314748669 0.46206015488185281 0 -0.10714715548585831 0.45068467930566719 0 -0.1184305916449776 0.44309023232278227 0 -0.10194234012647881 0.4288576337858529 0 -0.1064656926464367 0.44091077614249907 0 -0.1184305916449776 0.44309023232278227 0 -0.09235578273270531 0.45254361631851869 0 -0.098329018528649226 0.44103409794011161 0 -0.10714715548585831 0.45068467930566719 0 -0.098329018528649226 0.44103409794011161 0 -0.10714715548585831 0.45068467930566719 0 -0.1064656926464367 0.44091077614249907 0 -0.10050833314748669 0.46206015488185281 0 -0.1184305916449776 0.44309023232278227 0 -0.12649411281499101 0.45005063436893278 0 -0.10050833314748669 0.46206015488185281 0 -0.1184305916449776 0.44309023232278227 0 -0.10714715548585831 0.45068467930566719 0 -0.1064656926464367 0.44091077614249907 0 -0.1184305916449776 0.44309023232278227 0 -0.12649411281499101 0.45005063436893278 0 -0.1184305916449776 0.44309023232278227 0 -0.12649411281499101 0.45005063436893278 0 -0.1184305916449776 0.44309023232278227 0 -0.1241546511004496 0.44172091405448421 0 -0.12898965497755871 0.43191392807833717 0 -0.1241546511004496 0.44172091405448421 0 -0.1212935115654475 0.44005995747254878 0 -0.1184305916449776 0.44309023232278227 0 -0.1212935115654475 0.44005995747254878 0 -0.1184305916449776 0.44309023232278227 0 -0.1241546511004496 0.44172091405448421 0 -0.1212935115654475 0.44005995747254878 0 -0.1241546511004496 0.44172091405448421 0 -0.1212935115654475 0.44005995747254878 0 -0.12649411281499101 0.45005063436893278 0 -0.10050833314748669 0.46206015488185281 0 -0.12327607099828899 0.47343820927589081 0 -0.12649411281499101 0.45005063436893278 0 -0.12327607099828899 0.47343820927589081 0 -0.12327607099828899 0.47343820927589081 0 -0.121183654322142 0.48864514397012188 0 -0.1007312647503719 0.48450044079019972 0 -0.12327607099828899 0.47343820927589081 0 -0.1007312647503719 0.48450044079019972 0 -0.12327607099828899 0.47343820927589081 0 -0.121183654322142 0.48864514397012188 0 -0.12939058826336489 0.48505086830706079 0 -0.12327607099828899 0.47343820927589081 0 -0.121183654322142 0.48864514397012188 0 -0.121183654322142 0.48864514397012188 0 -0.11962126909527659 0.50000000000000355 0 -0.099666514253475197 0.49206611925380223 0 -0.121183654322142 0.48864514397012188 0 -0.099666514253475197 0.49206611925380223 0 -0.12849293676376911 0.4937238655721326 0 -0.121183654322142 0.48864514397012188 0 -0.11962126909527659 0.50000000000000355 0 -0.121183654322142 0.48864514397012188 0 -0.11962126909527659 0.50000000000000355 0 -0.121183654322142 0.48864514397012188 0 -0.1007312647503719 0.48450044079019972 0 -0.099666514253475197 0.49206611925380223 0 -0.092142542623893431 0.5 0 -0.11962126909527659 0.50000000000000355 0 -0.099666514253475197 0.49206611925380223 0 -0.10050833314748669 0.46206015488185281 0 -0.12327607099828899 0.47343820927589081 0 -0.1007312647503719 0.48450044079019972 0 -0.08258607464999819 0.48103007744092569 0 -0.10050833314748669 0.46206015488185281 0 -0.1007312647503719 0.48450044079019972 0 -0.16990561090666589 0.089332600120763578 0 -0.15911683582720371 0.074567636815341454 0 -0.18635774869477589 0.081736588931582477 0 -0.16990561090666589 0.089332600120763578 0 -0.15911683582720371 0.074567636815341454 0 -0.15284859011790849 0.095450628038076191 0 -0.15911683582720371 0.074567636815341454 0 -0.18605157829673019 0.062812868182709522 0 -0.16538508153649739 0.053684645592606231 0 -0.15911683582720371 0.074567636815341454 0 -0.16538508153649739 0.053684645592606231 0 -0.15911683582720371 0.074567636815341454 0 -0.1496723171883623 0.05971640263517676 0 -0.16538508153649739 0.053684645592606231 0 -0.15911683582720371 0.074567636815341454 0 -0.18605157829673019 0.062812868182709522 0 -0.18635774869477589 0.081736588931582477 0 -0.16990561090666589 0.089332600120763578 0 -0.18635774869477589 0.081736588931582477 0 -0.18518532535278379 0.098316107538717473 0 -0.18518532535278379 0.098316107538717473 0 -0.1816102935269415 0.1155373250513712 0 -0.17043875185258589 0.103952977010591 0 -0.16990561090666589 0.089332600120763578 0 -0.18518532535278379 0.098316107538717473 0 -0.17043875185258589 0.103952977010591 0 -0.1816102935269415 0.1155373250513712 0 -0.16322882228061461 0.1175557622290533 0 -0.1711387043164814 0.13086835309446801 0 -0.1816102935269415 0.1155373250513712 0 -0.16322882228061461 0.1175557622290533 0 -0.17043875185258589 0.103952977010591 0 -0.16322882228061461 0.1175557622290533 0 -0.17043875185258589 0.103952977010591 0 -0.15284859011790849 0.095450628038076191 0 -0.16990561090666589 0.089332600120763578 0 -0.17043875185258589 0.103952977010591 0 -0.15284859011790849 0.095450628038076191 0 -0.15284859011790849 0.095450628038076191 0 -0.14658034440861251 0.11633361926081071 0 -0.15284859011790849 0.095450628038076191 0 -0.13733833442839299 0.1008966048156951 0 -0.13374486391322971 0.085725862664189578 0 -0.15284859011790849 0.095450628038076191 0 -0.14658034440861251 0.11633361926081071 0 -0.13733833442839299 0.1008966048156951 0 -0.14658034440861251 0.11633361926081071 0 -0.13733833442839299 0.1008966048156951 0 -0.16322882228061461 0.1175557622290533 0 -0.15284859011790849 0.095450628038076191 0 -0.14658034440861251 0.11633361926081071 0 -0.14658034440861251 0.11633361926081071 0 -0.1320923586692416 0.1163663372802315 0 -0.1408553934342392 0.1354065954160297 0 -0.14658034440861251 0.11633361926081071 0 -0.1320923586692416 0.1163663372802315 0 -0.13733833442839299 0.1008966048156951 0 -0.1320923586692416 0.1163663372802315 0 -0.1223370802615215 0.10490829852774609 0 -0.1214559596300985 0.11542114779049401 0 -0.1320923586692416 0.1163663372802315 0 -0.12157897914838039 0.127252633109814 0 -0.1214559596300985 0.11542114779049401 0 -0.13733833442839299 0.1008966048156951 0 -0.12784379276086391 0.095530604182346684 0 -0.13374486391322971 0.085725862664189578 0 -0.1320923586692416 0.1163663372802315 0 -0.13733833442839299 0.1008966048156951 0 -0.1223370802615215 0.10490829852774609 0 -0.13733833442839299 0.1008966048156951 0 -0.12784379276086391 0.095530604182346684 0 -0.1223370802615215 0.10490829852774609 0 -0.12784379276086391 0.095530604182346684 0 -0.13374486391322971 0.085725862664189578 0 -0.11795489244031131 0.090591650721755998 0 -0.15911683582720371 0.074567636815341454 0 -0.15284859011790849 0.095450628038076191 0 -0.15284859011790849 0.095450628038076191 0 -0.13374486391322971 0.085725862664189578 0 -0.14502552222762749 0.074472748168560421 0 -0.15911683582720371 0.074567636815341454 0 -0.15284859011790849 0.095450628038076191 0 -0.14502552222762749 0.074472748168560421 0 -0.1339595528402274 0.065748159677748177 0 -0.1496723171883623 0.05971640263517676 0 -0.14502552222762749 0.074472748168560421 0 -0.1339595528402274 0.065748159677748177 0 -0.1496723171883623 0.05971640263517676 0 -0.15911683582720371 0.074567636815341454 0 -0.14502552222762749 0.074472748168560421 0 -0.1496723171883623 0.05971640263517676 0 -0.13374486391322971 0.085725862664189578 0 -0.14502552222762749 0.074472748168560421 0 -0.1339595528402274 0.065748159677748177 0 -0.13374486391322971 0.085725862664189578 0 -0.1339595528402274 0.065748159677748177 0 -0.12078255002608961 0.07635017351281656 0 -0.1339595528402274 0.065748159677748177 0 -0.13508918552537111 0.048437573378901158 0 -0.1496723171883623 0.05971640263517676 0 -0.1339595528402274 0.065748159677748177 0 -0.13508918552537111 0.048437573378901158 0 -0.1200770937022317 0.061032803681047812 0 -0.13508918552537111 0.048437573378901158 0 -0.1390813267966928 0.031362670220833222 0 -0.14598556260064741 0.040631311157827497 0 -0.13508918552537111 0.048437573378901158 0 -0.1245186675874371 0.032491580885138947 0 -0.1179558061503731 0.045547451865388978 0 -0.13508918552537111 0.048437573378901158 0 -0.1390813267966928 0.031362670220833222 0 -0.1245186675874371 0.032491580885138947 0 -0.1390813267966928 0.031362670220833222 0 -0.14598556260064741 0.040631311157827497 0 -0.1523232002114572 0.027517330680791478 0 -0.14598556260064741 0.040631311157827497 0 -0.15537907039468421 0.036351173859383717 0 -0.1523232002114572 0.027517330680791478 0 -0.14598556260064741 0.040631311157827497 0 -0.15537907039468421 0.036351173859383717 0 -0.15855412088546531 0.043820818905514182 0 -0.14598556260064741 0.040631311157827497 0 -0.1496723171883623 0.05971640263517676 0 -0.15855412088546531 0.043820818905514182 0 -0.13508918552537111 0.048437573378901158 0 -0.14598556260064741 0.040631311157827497 0 -0.1496723171883623 0.05971640263517676 0 -0.12684239433194619 -0.0024106449572988912 0 -0.1356972964359357 0.0087647184508017305 0 -0.11411799673607929 0.008443453245583897 0 -0.1356972964359357 0.0087647184508017305 0 -0.1321837648156837 0.022469262105592431 0 -0.14275620722476509 0.020030234122830209 0 -0.1356972964359357 0.0087647184508017305 0 -0.1321837648156837 0.022469262105592431 0 -0.1202367266027186 0.019949724052309568 0 -0.1321837648156837 0.022469262105592431 0 -0.1202367266027186 0.019949724052309568 0 -0.1245186675874371 0.032491580885138947 0 -0.1390813267966928 0.031362670220833222 0 -0.1321837648156837 0.022469262105592431 0 -0.1245186675874371 0.032491580885138947 0 -0.1390813267966928 0.031362670220833222 0 -0.1321837648156837 0.022469262105592431 0 -0.14275620722476509 0.020030234122830209 0 -0.1523232002114572 0.027517330680791478 0 -0.14275620722476509 0.020030234122830209 0 -0.15492774498544309 0.01116751555523424 0 -0.1390813267966928 0.031362670220833222 0 -0.1523232002114572 0.027517330680791478 0 -0.14275620722476509 0.020030234122830209 0 -0.1356972964359357 0.0087647184508017305 0 -0.14275620722476509 0.020030234122830209 0 -0.15492774498544309 0.01116751555523424 0 -0.1506725034137911 -0.00072827641150988924 0 -0.1356972964359357 0.0087647184508017305 0 -0.15492774498544309 0.01116751555523424 0 -0.16572313506263431 -0.0068689691824014559 0 -0.16561420801104579 0.0071696275992592772 0 -0.17829992471754899 0.0033881526606483101 0 -0.1506725034137911 -0.00072827641150988924 0 -0.15492774498544309 0.01116751555523424 0 -0.16561420801104579 0.0071696275992592772 0 -0.15492774498544309 0.01116751555523424 0 -0.16561420801104579 0.0071696275992592772 0 -0.16455548290200381 0.020379043820412661 0 -0.16561420801104579 0.0071696275992592772 0 -0.16455548290200381 0.020379043820412661 0 -0.17402281227585331 0.013529283727393289 0 -0.1523232002114572 0.027517330680791478 0 -0.15492774498544309 0.01116751555523424 0 -0.16455548290200381 0.020379043820412661 0 -0.16455548290200381 0.020379043820412661 0 -0.17048117576005101 0.026590139225340079 0 -0.1767896781581573 0.02159375660191179 0 -0.16455548290200381 0.020379043820412661 0 -0.1767896781581573 0.02159375660191179 0 -0.17402281227585331 0.013529283727393289 0 -0.1523232002114572 0.027517330680791478 0 -0.16455548290200381 0.020379043820412661 0 -0.16465339788116709 0.033435234693401698 0 -0.16455548290200381 0.020379043820412661 0 -0.17048117576005101 0.026590139225340079 0 -0.16465339788116709 0.033435234693401698 0 -0.17048117576005101 0.026590139225340079 0 -0.17722217740506821 0.02825519837317304 0 -0.16465339788116709 0.033435234693401698 0 -0.17048117576005101 0.026590139225340079 0 -0.17722217740506821 0.02825519837317304 0 -0.1767896781581573 0.02159375660191179 0 -0.17722217740506821 0.02825519837317304 0 -0.18632991241408611 0.024863688557040658 0 -0.18785672281187921 0.034793172788170963 0 -0.17722217740506821 0.02825519837317304 0 -0.18632991241408611 0.024863688557040658 0 -0.1767896781581573 0.02159375660191179 0 -0.18632991241408611 0.024863688557040658 0 -0.1767896781581573 0.02159375660191179 0 -0.18485476759051039 0.015115837954734391 0 -0.1767896781581573 0.02159375660191179 0 -0.17402281227585331 0.013529283727393289 0 -0.18485476759051039 0.015115837954734391 0 -0.16561420801104579 0.0071696275992592772 0 -0.17402281227585331 0.013529283727393289 0 -0.17829992471754899 0.0033881526606483101 0 -0.17402281227585331 0.013529283727393289 0 -0.18485476759051039 0.015115837954734391 0 -0.17829992471754899 0.0033881526606483101 0 -0.18485476759051039 0.015115837954734391 0 -0.17829992471754899 0.0033881526606483101 0 -0.19014651074781599 0.0067975389716179472 0 -0.19383873418493161 -0.0051544447078166813 0 -0.17829992471754899 0.0033881526606483101 0 -0.19014651074781599 0.0067975389716179472 0 -0.1496723171883623 0.05971640263517676 0 -0.16538508153649739 0.053684645592606231 0 -0.15855412088546531 0.043820818905514182 0 -0.1496723171883623 0.05971640263517676 0 -0.16538508153649739 0.053684645592606231 0 -0.16538508153649739 0.053684645592606231 0 -0.16942913434435919 0.040211670344430447 0 -0.15537907039468421 0.036351173859383717 0 -0.1523232002114572 0.027517330680791478 0 -0.16465339788116709 0.033435234693401698 0 -0.15537907039468421 0.036351173859383717 0 -0.15855412088546531 0.043820818905514182 0 -0.16465339788116709 0.033435234693401698 0 -0.16465339788116709 0.033435234693401698 0 -0.16942913434435919 0.040211670344430447 0 -0.1778531142044121 0.040619293008366489 0 -0.15855412088546531 0.043820818905514182 0 -0.16465339788116709 0.033435234693401698 0 -0.16942913434435919 0.040211670344430447 0 -0.16538508153649739 0.053684645592606231 0 -0.15855412088546531 0.043820818905514182 0 -0.16942913434435919 0.040211670344430447 0 -0.16538508153649739 0.053684645592606231 0 -0.16942913434435919 0.040211670344430447 0 -0.1778531142044121 0.040619293008366489 0 -0.16465339788116709 0.033435234693401698 0 -0.1778531142044121 0.040619293008366489 0 -0.18785672281187921 0.034793172788170963 0 -0.16465339788116709 0.033435234693401698 0 -0.18785672281187921 0.034793172788170963 0 -0.16538508153649739 0.053684645592606231 0 -0.1778531142044121 0.040619293008366489 0 -0.1882225646395442 0.044917878237772477 0 -0.17722217740506821 0.02825519837317304 0 -0.16465339788116709 0.033435234693401698 0 -0.18785672281187921 0.034793172788170963 0 -0.1778531142044121 0.040619293008366489 0 -0.1882225646395442 0.044917878237772477 0 -0.18785672281187921 0.034793172788170963 0 -0.16538508153649739 0.053684645592606231 0 -0.1882225646395442 0.044917878237772477 0 -0.18605157829673019 0.062812868182709522 0 -0.16538508153649739 0.053684645592606231 0 -0.1882225646395442 0.044917878237772477 0 -0.18605157829673019 0.062812868182709522 0 -0.1882225646395442 0.044917878237772477 0 -0.20441666560843741 0.052974335335306738 0 -0.18605157829673019 0.062812868182709522 0 -0.20441666560843741 0.052974335335306738 0 -0.21281057347392299 0.068996124183648727 0 -0.1882225646395442 0.044917878237772477 0 -0.18785672281187921 0.034793172788170963 0 -0.21106004774259149 0.036151110882939888 0 -0.1882225646395442 0.044917878237772477 0 -0.21106004774259149 0.036151110882939888 0 -0.1882225646395442 0.044917878237772477 0 -0.21106004774259149 0.036151110882939888 0 -0.20441666560843741 0.052974335335306738 0 -0.18785672281187921 0.034793172788170963 0 -0.21106004774259149 0.036151110882939888 0 -0.19689073800655671 0.027312638409488169 0 -0.18785672281187921 0.034793172788170963 0 -0.21106004774259149 0.036151110882939888 0 -0.21106004774259149 0.036151110882939888 0 -0.20441666560843741 0.052974335335306738 0 -0.22387952509750589 0.05299934161510983 0 -0.20441666560843741 0.052974335335306738 0 -0.22387952509750589 0.05299934161510983 0 -0.21281057347392299 0.068996124183648727 0 -0.19383873418493161 -0.0051544447078166813 0 -0.2058593508946302 -0.002230877548247843 0 -0.19997570232802969 0.0075945024736815249 0 -0.19383873418493161 -0.0051544447078166813 0 -0.19997570232802969 0.0075945024736815249 0 -0.19014651074781599 0.0067975389716179472 0 -0.19997570232802969 0.0075945024736815249 0 -0.19014651074781599 0.0067975389716179472 0 -0.19420759677149449 0.018629276295077431 0 -0.18485476759051039 0.015115837954734391 0 -0.19014651074781599 0.0067975389716179472 0 -0.19420759677149449 0.018629276295077431 0 -0.19997570232802969 0.0075945024736815249 0 -0.19420759677149449 0.018629276295077431 0 -0.20472610835815991 0.019962259164130511 0 -0.19420759677149449 0.018629276295077431 0 -0.19689073800655671 0.027312638409488169 0 -0.20472610835815991 0.019962259164130511 0 -0.18632991241408611 0.024863688557040658 0 -0.18485476759051039 0.015115837954734391 0 -0.19420759677149449 0.018629276295077431 0 -0.18632991241408611 0.024863688557040658 0 -0.18785672281187921 0.034793172788170963 0 -0.19689073800655671 0.027312638409488169 0 -0.18632991241408611 0.024863688557040658 0 -0.19420759677149449 0.018629276295077431 0 -0.19689073800655671 0.027312638409488169 0 -0.21106004774259149 0.036151110882939888 0 -0.2165208246652435 0.019608974859454838 0 -0.22731405776958991 0.029911582479268721 0 -0.21106004774259149 0.036151110882939888 0 -0.2165208246652435 0.019608974859454838 0 -0.20472610835815991 0.019962259164130511 0 -0.21106004774259149 0.036151110882939888 0 -0.19689073800655671 0.027312638409488169 0 -0.20472610835815991 0.019962259164130511 0 -0.2165208246652435 0.019608974859454838 0 -0.20472610835815991 0.019962259164130511 0 -0.21107591301114631 0.0075632626673277862 0 -0.19997570232802969 0.0075945024736815249 0 -0.20472610835815991 0.019962259164130511 0 -0.21107591301114631 0.0075632626673277862 0 -0.2165208246652435 0.019608974859454838 0 -0.21107591301114631 0.0075632626673277862 0 -0.22341847121708561 0.0061320188341525408 0 -0.21708027553342021 -0.0064990992034965958 0 -0.21107591301114631 0.0075632626673277862 0 -0.22341847121708561 0.0061320188341525408 0 -0.2058593508946302 -0.002230877548247843 0 -0.19997570232802969 0.0075945024736815249 0 -0.21107591301114631 0.0075632626673277862 0 -0.23283338722637109 -0.0071407950473802786 0 -0.22341847121708561 0.0061320188341525408 0 -0.23681151928923039 0.015375097062368819 0 -0.2165208246652435 0.019608974859454838 0 -0.22341847121708561 0.0061320188341525408 0 -0.22601621823528731 0.01775691830881123 0 -0.22341847121708561 0.0061320188341525408 0 -0.22601621823528731 0.01775691830881123 0 -0.23681151928923039 0.015375097062368819 0 -0.22601621823528731 0.01775691830881123 0 -0.22731405776958991 0.029911582479268721 0 -0.23681151928923039 0.015375097062368819 0 -0.2165208246652435 0.019608974859454838 0 -0.22601621823528731 0.01775691830881123 0 -0.22731405776958991 0.029911582479268721 0 -0.25172179462865718 0.025724150998640949 0 -0.23681151928923039 0.015375097062368819 0 -0.2407896513520853 0.037890989172118597 0 -0.22731405776958991 0.029911582479268721 0 -0.23681151928923039 0.015375097062368819 0 -0.2407896513520853 0.037890989172118597 0 -0.23681151928923039 0.015375097062368819 0 -0.2407896513520853 0.037890989172118597 0 -0.23283338722637109 -0.0071407950473802786 0 -0.24138517484959959 -0.00643824194540428 0 -0.23681151928923039 0.015375097062368819 0 -0.23283338722637109 -0.0071407950473802786 0 -0.23681151928923039 0.015375097062368819 0 -0.24138517484959959 -0.00643824194540428 0 -0.26219695049997649 0.010200397217229189 0 -0.23681151928923039 0.015375097062368819 0 -0.22387952509750589 0.05299934161510983 0 -0.2438666339080921 0.055306451042113118 0 -0.23055913692644389 0.066979231273098391 0 -0.21106004774259149 0.036151110882939888 0 -0.22387952509750589 0.05299934161510983 0 -0.2407896513520853 0.037890989172118597 0 -0.21106004774259149 0.036151110882939888 0 -0.22731405776958991 0.029911582479268721 0 -0.2407896513520853 0.037890989172118597 0 -0.21106004774259149 0.036151110882939888 0 -0.22731405776958991 0.029911582479268721 0 -0.21106004774259149 0.036151110882939888 0 -0.2407896513520853 0.037890989172118597 0 -0.2407896513520853 0.037890989172118597 0 -0.2438666339080921 0.055306451042113118 0 -0.25741030458238878 0.052600429353085509 0 -0.2438666339080921 0.055306451042113118 0 -0.24694361646409449 0.072721912912108361 0 -0.25741030458238878 0.052600429353085509 0 -0.2407896513520853 0.037890989172118597 0 -0.2438666339080921 0.055306451042113118 0 -0.22387952509750589 0.05299934161510983 0 -0.2407896513520853 0.037890989172118597 0 -0.2438666339080921 0.055306451042113118 0 -0.24694361646409449 0.072721912912108361 0 -0.22850006981284421 0.089165873369755178 0 -0.23055913692644389 0.066979231273098391 0 -0.2438666339080921 0.055306451042113118 0 -0.24694361646409449 0.072721912912108361 0 -0.23055913692644389 0.066979231273098391 0 -0.2438666339080921 0.055306451042113118 0 -0.24694361646409449 0.072721912912108361 0 -0.25610820474316348 0.091003050049048156 0 -0.24694361646409449 0.072721912912108361 0 -0.22850006981284421 0.089165873369755178 0 -0.22850006981284421 0.089165873369755178 0 -0.21281057347392299 0.068996124183648727 0 -0.22850006981284421 0.089165873369755178 0 -0.23055913692644389 0.066979231273098391 0 -0.21281057347392299 0.068996124183648727 0 -0.22387952509750589 0.05299934161510983 0 -0.23055913692644389 0.066979231273098391 0 -0.21281057347392299 0.068996124183648727 0 -0.22850006981284421 0.089165873369755178 0 -0.21281057347392299 0.068996124183648727 0 -0.20486960053906081 0.091918948336555423 0 -0.18635774869477589 0.081736588931582477 0 -0.18518532535278379 0.098316107538717473 0 -0.20486960053906081 0.091918948336555423 0 -0.18635774869477589 0.081736588931582477 0 -0.21281057347392299 0.068996124183648727 0 -0.20486960053906081 0.091918948336555423 0 -0.18605157829673019 0.062812868182709522 0 -0.18635774869477589 0.081736588931582477 0 -0.21281057347392299 0.068996124183648727 0 -0.19364188635985241 0.1194574354961102 0 -0.20559965056973231 0.1232672555025149 0 -0.18942765474606291 0.1316069556491137 0 -0.19364188635985241 0.1194574354961102 0 -0.19792994659667279 0.1074182057814411 0 -0.20559965056973231 0.1232672555025149 0 -0.1816102935269415 0.1155373250513712 0 -0.19364188635985241 0.1194574354961102 0 -0.18942765474606291 0.1316069556491137 0 -0.1816102935269415 0.1155373250513712 0 -0.19364188635985241 0.1194574354961102 0 -0.19792994659667279 0.1074182057814411 0 -0.18518532535278379 0.098316107538717473 0 -0.1816102935269415 0.1155373250513712 0 -0.19792994659667279 0.1074182057814411 0 -0.18518532535278379 0.098316107538717473 0 -0.20486960053906081 0.091918948336555423 0 -0.19792994659667279 0.1074182057814411 0 -0.20486960053906081 0.091918948336555423 0 -0.19792994659667279 0.1074182057814411 0 -0.21752895592863511 0.1068917612988937 0 -0.22850006981284421 0.089165873369755178 0 -0.20486960053906081 0.091918948336555423 0 -0.21752895592863511 0.1068917612988937 0 -0.21752895592863511 0.1068917612988937 0 -0.20559965056973231 0.1232672555025149 0 -0.2230944687897658 0.1237667594070834 0 -0.19792994659667279 0.1074182057814411 0 -0.21752895592863511 0.1068917612988937 0 -0.20559965056973231 0.1232672555025149 0 -0.21752895592863511 0.1068917612988937 0 -0.2230944687897658 0.1237667594070834 0 -0.2441895661517656 0.1093356225558617 0 -0.22850006981284421 0.089165873369755178 0 -0.21752895592863511 0.1068917612988937 0 -0.2441895661517656 0.1093356225558617 0 -0.25610820474316348 0.091003050049048156 0 -0.22850006981284421 0.089165873369755178 0 -0.2441895661517656 0.1093356225558617 0 -0.22850006981284421 0.089165873369755178 0 -0.2441895661517656 0.1093356225558617 0 -0.25987906249068682 0.12950537174196811 0 -0.2441895661517656 0.1093356225558617 0 -0.24341729992139269 0.12711422740462039 0 -0.2230944687897658 0.1237667594070834 0 -0.2441895661517656 0.1093356225558617 0 -0.24341729992139269 0.12711422740462039 0 -0.25836943693382541 0.1345203726751035 0 -0.23155396524092001 0.13844301064308509 0 -0.25836943693382541 0.1345203726751035 0 -0.24341729992139269 0.12711422740462039 0 -0.23155396524092001 0.13844301064308509 0 -0.25097781289726051 0.14631568991468469 0 -0.25836943693382541 0.1345203726751035 0 -0.23155396524092001 0.13844301064308509 0 -0.2230944687897658 0.1237667594070834 0 -0.24341729992139269 0.12711422740462039 0 -0.23155396524092001 0.13844301064308509 0 -0.2230944687897658 0.1237667594070834 0 -0.23155396524092001 0.13844301064308509 0 -0.20473849354801471 0.14236564861106679 0 -0.23155396524092001 0.13844301064308509 0 -0.22193671312441421 0.1576083341870505 0 -0.20473849354801471 0.14236564861106679 0 -0.23155396524092001 0.13844301064308509 0 -0.24154618544955159 0.1626832646860045 0 -0.22193671312441421 0.1576083341870505 0 -0.25097781289726051 0.14631568991468469 0 -0.23155396524092001 0.13844301064308509 0 -0.24154618544955159 0.1626832646860045 0 -0.25577090009472719 0.15614666647147801 0 -0.25097781289726051 0.14631568991468469 0 -0.24154618544955159 0.1626832646860045 0 -0.24154618544955159 0.1626832646860045 0 -0.2403470101433699 0.18165219217559081 0 -0.2259673517518547 0.17149304945251739 0 -0.26248859064343749 0.17845226091426941 0 -0.24154618544955159 0.1626832646860045 0 -0.2403470101433699 0.18165219217559081 0 -0.2403470101433699 0.18165219217559081 0 -0.22383330677481161 0.18381590723660229 0 -0.2259673517518547 0.17149304945251739 0 -0.22383330677481161 0.18381590723660229 0 -0.2259673517518547 0.17149304945251739 0 -0.21374641850329781 0.1766465530955256 0 -0.24154618544955159 0.1626832646860045 0 -0.2259673517518547 0.17149304945251739 0 -0.22193671312441421 0.1576083341870505 0 -0.2259673517518547 0.17149304945251739 0 -0.22193671312441421 0.1576083341870505 0 -0.214394476515683 0.16655204533433091 0 -0.22193671312441421 0.1576083341870505 0 -0.214394476515683 0.16655204533433091 0 -0.20629046835910639 0.1558695881628048 0 -0.2259673517518547 0.17149304945251739 0 -0.214394476515683 0.16655204533433091 0 -0.21374641850329781 0.1766465530955256 0 -0.214394476515683 0.16655204533433091 0 -0.21374641850329781 0.1766465530955256 0 -0.20303406174439961 0.16843524343044119 0 -0.214394476515683 0.16655204533433091 0 -0.20303406174439961 0.16843524343044119 0 -0.20629046835910639 0.1558695881628048 0 -0.21374641850329781 0.1766465530955256 0 -0.2063098333149691 0.18509542672576229 0 -0.20303406174439961 0.16843524343044119 0 -0.22383330677481161 0.18381590723660229 0 -0.21374641850329781 0.1766465530955256 0 -0.215194913736828 0.18762860167928511 0 -0.21374641850329781 0.1766465530955256 0 -0.2063098333149691 0.18509542672576229 0 -0.215194913736828 0.18762860167928511 0 -0.2063098333149691 0.18509542672576229 0 -0.1920843893918521 0.17847536276230211 0 -0.20303406174439961 0.16843524343044119 0 -0.1920843893918521 0.17847536276230211 0 -0.1918662444897504 0.1618186178469542 0 -0.1920843893918521 0.17847536276230211 0 -0.20303406174439961 0.16843524343044119 0 -0.1918662444897504 0.1618186178469542 0 -0.1920843893918521 0.17847536276230211 0 -0.1918662444897504 0.1618186178469542 0 -0.18584797703789299 0.16430075151615819 0 -0.1918662444897504 0.1618186178469542 0 -0.19412688158264579 0.15680517113511211 0 -0.20629046835910639 0.1558695881628048 0 -0.20303406174439961 0.16843524343044119 0 -0.1918662444897504 0.1618186178469542 0 -0.20629046835910639 0.1558695881628048 0 -0.1918662444897504 0.1618186178469542 0 -0.20629046835910639 0.1558695881628048 0 -0.1920843893918521 0.17847536276230211 0 -0.18584797703789299 0.16430075151615819 0 -0.1918662444897504 0.1618186178469542 0 -0.18584797703789299 0.16430075151615819 0 -0.18930478307013451 0.16044640964048579 0 -0.1918662444897504 0.1618186178469542 0 -0.18584797703789299 0.16430075151615819 0 -0.1918662444897504 0.1618186178469542 0 -0.19412688158264579 0.15680517113511211 0 -0.18993239322587729 0.15751105649372871 0 -0.18930478307013451 0.16044640964048579 0 -0.1918662444897504 0.1618186178469542 0 -0.18993239322587729 0.15751105649372871 0 -0.18930478307013451 0.16044640964048579 0 -0.18993239322587729 0.15751105649372871 0 -0.1873241847562945 0.15889474826784419 0 -0.18993239322587729 0.15751105649372871 0 -0.18702187962891281 0.155567078710352 0 -0.1873241847562945 0.15889474826784419 0 -0.18972504343194199 0.14813910299590491 0 -0.20473849354801471 0.14236564861106679 0 -0.17792302185510889 0.14628828657904569 0 -0.20473849354801471 0.14236564861106679 0 -0.17792302185510889 0.14628828657904569 0 -0.18993239322587729 0.15751105649372871 0 -0.19084934683914029 0.1540390166679331 0 -0.18702187962891281 0.155567078710352 0 -0.18824480083274031 0.15285963570552091 0 -0.19084934683914029 0.1540390166679331 0 -0.18702187962891281 0.155567078710352 0 -0.18824480083274031 0.15285963570552091 0 -0.19084934683914029 0.1540390166679331 0 -0.19014569761553171 0.1508737789194278 0 -0.19014569761553171 0.1508737789194278 0 -0.18972504343194199 0.14813910299590491 0 -0.18706811523360739 0.15097734238956839 0 -0.18824480083274031 0.15285963570552091 0 -0.19014569761553171 0.1508737789194278 0 -0.18706811523360739 0.15097734238956839 0 -0.19084934683914029 0.1540390166679331 0 -0.19014569761553171 0.1508737789194278 0 -0.19441450981685651 0.1496227753755707 0 -0.19014569761553171 0.1508737789194278 0 -0.19441450981685651 0.1496227753755707 0 -0.18972504343194199 0.14813910299590491 0 -0.19412688158264579 0.15680517113511211 0 -0.19084934683914029 0.1540390166679331 0 -0.19441450981685651 0.1496227753755707 0 -0.19412688158264579 0.15680517113511211 0 -0.18993239322587729 0.15751105649372871 0 -0.19084934683914029 0.1540390166679331 0 -0.19412688158264579 0.15680517113511211 0 -0.19441450981685651 0.1496227753755707 0 -0.1999405929769732 0.15285202485674329 0 -0.19412688158264579 0.15680517113511211 0 -0.1999405929769732 0.15285202485674329 0 -0.20629046835910639 0.1558695881628048 0 -0.19441450981685651 0.1496227753755707 0 -0.1999405929769732 0.15285202485674329 0 -0.20473849354801471 0.14236564861106679 0 -0.19441450981685651 0.1496227753755707 0 -0.18972504343194199 0.14813910299590491 0 -0.20473849354801471 0.14236564861106679 0 -0.18942765474606291 0.1316069556491137 0 -0.20473849354801471 0.14236564861106679 0 -0.17792302185510889 0.14628828657904569 0 -0.20559965056973231 0.1232672555025149 0 -0.18942765474606291 0.1316069556491137 0 -0.20473849354801471 0.14236564861106679 0 -0.20559965056973231 0.1232672555025149 0 -0.2230944687897658 0.1237667594070834 0 -0.20473849354801471 0.14236564861106679 0 -0.23155396524092001 0.13844301064308509 0 -0.20473849354801471 0.14236564861106679 0 -0.22193671312441421 0.1576083341870505 0 -0.20629046835910639 0.1558695881628048 0 -0.20473849354801471 0.14236564861106679 0 -0.1999405929769732 0.15285202485674329 0 -0.20629046835910639 0.1558695881628048 0 -0.20473849354801471 0.14236564861106679 0 -0.21917620747059349 0.2400517896279194 0 -0.23457729305289701 0.24355637189820481 0 -0.22751583509942949 0.22611370459132249 0 -0.22749964306176901 0.25896995235369452 0 -0.21917620747059349 0.2400517896279194 0 -0.23457729305289701 0.24355637189820481 0 -0.22749964306176901 0.25896995235369452 0 -0.21917620747059349 0.2400517896279194 0 -0.25321208583809113 0.25776932320358148 0 -0.23457729305289701 0.24355637189820481 0 -0.24810890252628839 0.23272384076664679 0 -0.23457729305289701 0.24355637189820481 0 -0.24810890252628839 0.23272384076664679 0 -0.22751583509942949 0.22611370459132249 0 -0.24810890252628839 0.23272384076664679 0 -0.22751583509942949 0.22611370459132249 0 -0.23438688937088101 0.20950880127376459 0 -0.22751583509942949 0.22611370459132249 0 -0.2179929462964996 0.20970779707925541 0 -0.2108527718794177 0.22113362690214439 0 -0.21917620747059349 0.2400517896279194 0 -0.22751583509942949 0.22611370459132249 0 -0.2108527718794177 0.22113362690214439 0 -0.22751583509942949 0.22611370459132249 0 -0.23438688937088101 0.20950880127376459 0 -0.2179929462964996 0.20970779707925541 0 -0.23438688937088101 0.20950880127376459 0 -0.22376514833270181 0.1971103731730669 0 -0.2179929462964996 0.20970779707925541 0 -0.25454920797491343 0.2079421238334275 0 -0.24810890252628839 0.23272384076664679 0 -0.23438688937088101 0.20950880127376459 0 -0.25454920797491343 0.2079421238334275 0 -0.2403470101433699 0.18165219217559081 0 -0.25454920797491343 0.2079421238334275 0 -0.2403470101433699 0.18165219217559081 0 -0.23438688937088101 0.20950880127376459 0 -0.2403470101433699 0.18165219217559081 0 -0.22383330677481161 0.18381590723660229 0 -0.22376514833270181 0.1971103731730669 0 -0.2403470101433699 0.18165219217559081 0 -0.23438688937088101 0.20950880127376459 0 -0.22376514833270181 0.1971103731730669 0 -0.22383330677481161 0.18381590723660229 0 -0.22376514833270181 0.1971103731730669 0 -0.215194913736828 0.18762860167928511 0 -0.2063098333149691 0.18509542672576229 0 -0.21204620087436291 0.19761780548569891 0 -0.20252933628824191 0.20221546417636951 0 -0.2063098333149691 0.18509542672576229 0 -0.215194913736828 0.18762860167928511 0 -0.21204620087436291 0.19761780548569891 0 -0.22376514833270181 0.1971103731730669 0 -0.215194913736828 0.18762860167928511 0 -0.21204620087436291 0.19761780548569891 0 -0.22376514833270181 0.1971103731730669 0 -0.21204620087436291 0.19761780548569891 0 -0.2179929462964996 0.20970779707925541 0 -0.21204620087436291 0.19761780548569891 0 -0.20252933628824191 0.20221546417636951 0 -0.1920843893918521 0.17847536276230211 0 -0.20252933628824191 0.20221546417636951 0 -0.19245901631056339 0.20708050073796769 0 -0.1920843893918521 0.17847536276230211 0 -0.19245901631056339 0.20708050073796769 0 -0.2063098333149691 0.18509542672576229 0 -0.1920843893918521 0.17847536276230211 0 -0.20252933628824191 0.20221546417636951 0 -0.1920843893918521 0.17847536276230211 0 -0.18880204372309881 0.1868569127446052 0 -0.19245901631056339 0.20708050073796769 0 -0.1920843893918521 0.17847536276230211 0 -0.20252933628824191 0.20221546417636951 0 -0.20252933628824191 0.20221546417636951 0 -0.19245901631056339 0.20708050073796769 0 -0.20079332242334191 0.2196349809435231 0 -0.20252933628824191 0.20221546417636951 0 -0.19245901631056339 0.20708050073796769 0 -0.20252933628824191 0.20221546417636951 0 -0.2179929462964996 0.20970779707925541 0 -0.2108527718794177 0.22113362690214439 0 -0.20252933628824191 0.20221546417636951 0 -0.2108527718794177 0.22113362690214439 0 -0.20079332242334191 0.2196349809435231 0 -0.20252933628824191 0.20221546417636951 0 -0.2108527718794177 0.22113362690214439 0 -0.21204620087436291 0.19761780548569891 0 -0.20252933628824191 0.20221546417636951 0 -0.2179929462964996 0.20970779707925541 0 -0.21917620747059349 0.2400517896279194 0 -0.20528015332893859 0.23116698616234349 0 -0.2108527718794177 0.22113362690214439 0 -0.21917620747059349 0.2400517896279194 0 -0.2108527718794177 0.22113362690214439 0 -0.20528015332893859 0.23116698616234349 0 -0.2108527718794177 0.22113362690214439 0 -0.20079332242334191 0.2196349809435231 0 -0.19245901631056339 0.20708050073796769 0 -0.1928453343095482 0.23657832673879051 0 -0.19245901631056339 0.20708050073796769 0 -0.20079332242334191 0.2196349809435231 0 -0.1928453343095482 0.23657832673879051 0 -0.19245901631056339 0.20708050073796769 0 -0.18762744027950071 0.2162001094132481 0 -0.1928453343095482 0.23657832673879051 0 -0.20528015332893859 0.23116698616234349 0 -0.20079332242334191 0.2196349809435231 0 -0.1928453343095482 0.23657832673879051 0 -0.18762744027950071 0.2162001094132481 0 -0.1928453343095482 0.23657832673879051 0 -0.1861771992849387 0.22370308277020581 0 -0.1928453343095482 0.23657832673879051 0 -0.18624560497823139 0.23004392324777601 0 -0.1861771992849387 0.22370308277020581 0 -0.19427039761083101 0.24727694594396901 0 -0.18624560497823139 0.23004392324777601 0 -0.20528015332893859 0.23116698616234349 0 -0.1928453343095482 0.23657832673879051 0 -0.20419595740249091 0.2409204726990703 0 -0.1928453343095482 0.23657832673879051 0 -0.19427039761083101 0.24727694594396901 0 -0.20419595740249091 0.2409204726990703 0 -0.1928453343095482 0.23657832673879051 0 -0.19427039761083101 0.24727694594396901 0 -0.18624560497823139 0.23004392324777601 0 -0.19427039761083101 0.24727694594396901 0 -0.1862961323164079 0.23472753620025891 0 -0.18624560497823139 0.23004392324777601 0 -0.18656275817447099 0.25944232164862657 0 -0.19427039761083101 0.24727694594396901 0 -0.1862961323164079 0.23472753620025891 0 -0.19427039761083101 0.24727694594396901 0 -0.1862961323164079 0.23472753620025891 0 -0.19427039761083101 0.24727694594396901 0 -0.209517222891585 0.2494718154920991 0 -0.20419595740249091 0.2409204726990703 0 -0.22749964306176901 0.25896995235369452 0 -0.21917620747059349 0.2400517896279194 0 -0.209517222891585 0.2494718154920991 0 -0.21917620747059349 0.2400517896279194 0 -0.20528015332893859 0.23116698616234349 0 -0.20419595740249091 0.2409204726990703 0 -0.21917620747059349 0.2400517896279194 0 -0.209517222891585 0.2494718154920991 0 -0.20419595740249091 0.2409204726990703 0 -0.1656099507623115 0.23900154844431981 0 -0.17306513709700391 0.24697109140888909 0 -0.15352499212526041 0.2472401473295146 0 -0.1656099507623115 0.23900154844431981 0 -0.15440713769665729 0.2377509237850387 0 -0.15352499212526041 0.2472401473295146 0 -0.1656099507623115 0.23900154844431981 0 -0.16245987844843329 0.23150255664923189 0 -0.15440713769665729 0.2377509237850387 0 -0.1656099507623115 0.23900154844431981 0 -0.17306513709700391 0.24697109140888909 0 -0.17621980112467719 0.2357163676173602 0 -0.18656275817447099 0.25944232164862657 0 -0.1862961323164079 0.23472753620025891 0 -0.18656275817447099 0.25944232164862657 0 -0.17306513709700391 0.24697109140888909 0 -0.1862961323164079 0.23472753620025891 0 -0.17306513709700391 0.24697109140888909 0 -0.1862961323164079 0.23472753620025891 0 -0.17621980112467719 0.2357163676173602 0 -0.17621980112467719 0.2357163676173602 0 -0.17706846806571219 0.2267002447718818 0 -0.1707749286957454 0.22839121174762261 0 -0.18624560497823139 0.23004392324777601 0 -0.1861771992849387 0.22370308277020581 0 -0.17865728216904131 0.21374820755967461 0 -0.17621980112467719 0.2357163676173602 0 -0.17706846806571219 0.2267002447718818 0 -0.18262186027338501 0.22894519216286979 0 -0.18624560497823139 0.23004392324777601 0 -0.17865728216904131 0.21374820755967461 0 -0.18262186027338501 0.22894519216286979 0 -0.18624560497823139 0.23004392324777601 0 -0.17865728216904131 0.21374820755967461 0 -0.1862961323164079 0.23472753620025891 0 -0.17621980112467719 0.2357163676173602 0 -0.18262186027338501 0.22894519216286979 0 -0.18624560497823139 0.23004392324777601 0 -0.1861771992849387 0.22370308277020581 0 -0.1862961323164079 0.23472753620025891 0 -0.18624560497823139 0.23004392324777601 0 -0.1862961323164079 0.23472753620025891 0 -0.18262186027338501 0.22894519216286979 0 -0.18624560497823139 0.23004392324777601 0 -0.1862961323164079 0.23472753620025891 0 -0.18262186027338501 0.22894519216286979 0 -0.17706846806571219 0.2267002447718818 0 -0.18262186027338501 0.22894519216286979 0 -0.17865728216904131 0.21374820755967461 0 -0.17706846806571219 0.2267002447718818 0 -0.1707749286957454 0.22839121174762261 0 -0.17865728216904131 0.21374820755967461 0 -0.16408299448986199 0.22078913998044791 0 -0.1707749286957454 0.22839121174762261 0 -0.17865728216904131 0.21374820755967461 0 -0.1656099507623115 0.23900154844431981 0 -0.17621980112467719 0.2357163676173602 0 -0.1707749286957454 0.22839121174762261 0 -0.1656099507623115 0.23900154844431981 0 -0.1707749286957454 0.22839121174762261 0 -0.16245987844843329 0.23150255664923189 0 -0.16408299448986199 0.22078913998044791 0 -0.1707749286957454 0.22839121174762261 0 -0.16245987844843329 0.23150255664923189 0 -0.15801217468616879 0.2297140278420739 0 -0.16245987844843329 0.23150255664923189 0 -0.15440713769665729 0.2377509237850387 0 -0.16408299448986199 0.22078913998044791 0 -0.15801217468616879 0.2297140278420739 0 -0.16245987844843329 0.23150255664923189 0 -0.16408299448986199 0.22078913998044791 0 -0.15801217468616879 0.2297140278420739 0 -0.1510986881097226 0.22881349095357709 0 -0.16408299448986199 0.22078913998044791 0 -0.14950870681068429 0.22783007240122449 0 -0.16397114084043471 0.20634547002077311 0 -0.17865728216904131 0.21374820755967461 0 -0.1678897830588395 0.19062529771730041 0 -0.16408299448986199 0.22078913998044791 0 -0.16397114084043471 0.20634547002077311 0 -0.15394216155389129 0.21406520749288599 0 -0.16408299448986199 0.22078913998044791 0 -0.16397114084043471 0.20634547002077311 0 -0.17865728216904131 0.21374820755967461 0 -0.16408299448986199 0.22078913998044791 0 -0.17865728216904131 0.21374820755967461 0 -0.19245901631056339 0.20708050073796769 0 -0.17865728216904131 0.21374820755967461 0 -0.17619034445069329 0.19343188092489549 0 -0.18762744027950071 0.2162001094132481 0 -0.1861771992849387 0.22370308277020581 0 -0.17865728216904131 0.21374820755967461 0 -0.19245901631056339 0.20708050073796769 0 -0.18762744027950071 0.2162001094132481 0 -0.17865728216904131 0.21374820755967461 0 -0.19245901631056339 0.20708050073796769 0 -0.17865728216904131 0.21374820755967461 0 -0.18880204372309881 0.1868569127446052 0 -0.19245901631056339 0.20708050073796769 0 -0.17619034445069329 0.19343188092489549 0 -0.17865728216904131 0.21374820755967461 0 -0.17619034445069329 0.19343188092489549 0 -0.1678897830588395 0.19062529771730041 0 -0.17865728216904131 0.21374820755967461 0 -0.1678897830588395 0.19062529771730041 0 -0.16397114084043471 0.20634547002077311 0 -0.1678897830588395 0.19062529771730041 0 -0.1572066754706434 0.19506426206705541 0 -0.1678897830588395 0.19062529771730041 0 -0.1572066754706434 0.19506426206705541 0 -0.15203594170421739 0.1782459595012412 0 -0.16397114084043471 0.20634547002077311 0 -0.1572066754706434 0.19506426206705541 0 -0.150723611526423 0.20378099985291931 0 -0.1572066754706434 0.19506426206705541 0 -0.1473933656861382 0.19228134647831269 0 -0.15203594170421739 0.1782459595012412 0 -0.1572066754706434 0.19506426206705541 0 -0.1473933656861382 0.19228134647831269 0 -0.150723611526423 0.20378099985291931 0 -0.1473933656861382 0.19228134647831269 0 -0.14017794785989551 0.19950755089127581 0 -0.150723611526423 0.20378099985291931 0 -0.1473933656861382 0.19228134647831269 0 -0.13420184417027919 0.18982459819665609 0 -0.14017794785989551 0.19950755089127581 0 -0.13420184417027919 0.18982459819665609 0 -0.14017794785989551 0.19950755089127581 0 -0.1300303118518111 0.20331472777125539 0 -0.1300303118518111 0.20331472777125539 0 -0.1279520399791701 0.21449706898683529 0 -0.14205579659697909 0.2104992712327324 0 -0.1279520399791701 0.21449706898683529 0 -0.14205579659697909 0.2104992712327324 0 -0.14950870681068429 0.22783007240122449 0 -0.14017794785989551 0.19950755089127581 0 -0.1300303118518111 0.20331472777125539 0 -0.14205579659697909 0.2104992712327324 0 -0.14205579659697909 0.2104992712327324 0 -0.15394216155389129 0.21406520749288599 0 -0.14950870681068429 0.22783007240122449 0 -0.14017794785989551 0.19950755089127581 0 -0.14205579659697909 0.2104992712327324 0 -0.150723611526423 0.20378099985291931 0 -0.16397114084043471 0.20634547002077311 0 -0.150723611526423 0.20378099985291931 0 -0.15394216155389129 0.21406520749288599 0 -0.14205579659697909 0.2104992712327324 0 -0.150723611526423 0.20378099985291931 0 -0.15394216155389129 0.21406520749288599 0 -0.16408299448986199 0.22078913998044791 0 -0.1510986881097226 0.22881349095357709 0 -0.14950870681068429 0.22783007240122449 0 -0.16408299448986199 0.22078913998044791 0 -0.15394216155389129 0.21406520749288599 0 -0.14950870681068429 0.22783007240122449 0 -0.15801217468616879 0.2297140278420739 0 -0.1510986881097226 0.22881349095357709 0 -0.15440713769665729 0.2377509237850387 0 -0.1510986881097226 0.22881349095357709 0 -0.14950870681068429 0.22783007240122449 0 -0.14601029993989029 0.239154988214382 0 -0.1510986881097226 0.22881349095357709 0 -0.14950870681068429 0.22783007240122449 0 -0.14950870681068429 0.22783007240122449 0 -0.1289841473711173 0.2377456195045379 0 -0.1279520399791701 0.21449706898683529 0 -0.14950870681068429 0.22783007240122449 0 -0.1289841473711173 0.2377456195045379 0 -0.1279520399791701 0.21449706898683529 0 -0.14950870681068429 0.22783007240122449 0 -0.1402267704934668 0.25400726291104692 0 -0.1289841473711173 0.2377456195045379 0 -0.14601029993989029 0.239154988214382 0 -0.14950870681068429 0.22783007240122449 0 -0.1289841473711173 0.2377456195045379 0 -0.14601029993989029 0.239154988214382 0 -0.1402267704934668 0.25400726291104692 0 -0.14601029993989029 0.239154988214382 0 -0.15352499212526041 0.2472401473295146 0 -0.1510986881097226 0.22881349095357709 0 -0.14601029993989029 0.239154988214382 0 -0.15440713769665729 0.2377509237850387 0 -0.14601029993989029 0.239154988214382 0 -0.15440713769665729 0.2377509237850387 0 -0.15352499212526041 0.2472401473295146 0 -0.16198369137448509 0.1420619716564781 0 -0.17738703834035871 0.167790324052145 0 -0.14806226123531521 0.15558157279013771 0 -0.16198369137448509 0.1420619716564781 0 -0.1720776276805745 0.141400785363132 0 -0.17792302185510889 0.14628828657904569 0 -0.16198369137448509 0.1420619716564781 0 -0.17738703834035871 0.167790324052145 0 -0.16322882228061461 0.1175557622290533 0 -0.16198369137448509 0.1420619716564781 0 -0.1711387043164814 0.13086835309446801 0 -0.16322882228061461 0.1175557622290533 0 -0.14658034440861251 0.11633361926081071 0 -0.16198369137448509 0.1420619716564781 0 -0.16198369137448509 0.1420619716564781 0 -0.1711387043164814 0.13086835309446801 0 -0.1720776276805745 0.141400785363132 0 -0.18942765474606291 0.1316069556491137 0 -0.1711387043164814 0.13086835309446801 0 -0.17792302185510889 0.14628828657904569 0 -0.1816102935269415 0.1155373250513712 0 -0.18942765474606291 0.1316069556491137 0 -0.1711387043164814 0.13086835309446801 0 -0.1711387043164814 0.13086835309446801 0 -0.17792302185510889 0.14628828657904569 0 -0.1711387043164814 0.13086835309446801 0 -0.1720776276805745 0.141400785363132 0 -0.17792302185510889 0.14628828657904569 0 -0.17792302185510889 0.14628828657904569 0 -0.18584797703789299 0.16430075151615819 0 -0.16198369137448509 0.1420619716564781 0 -0.17772059377825281 0.1513396856101954 0 -0.17680230255617149 0.15643253010634059 0 -0.16198369137448509 0.1420619716564781 0 -0.17738703834035871 0.167790324052145 0 -0.17680230255617149 0.15643253010634059 0 -0.18972504343194199 0.14813910299590491 0 -0.17792302185510889 0.14628828657904569 0 -0.1843985214841638 0.14915762591098969 0 -0.16198369137448509 0.1420619716564781 0 -0.17792302185510889 0.14628828657904569 0 -0.17772059377825281 0.1513396856101954 0 -0.17792302185510889 0.14628828657904569 0 -0.18470443130924349 0.1570587792830471 0 -0.18584797703789299 0.16430075151615819 0 -0.17792302185510889 0.14628828657904569 0 -0.17772059377825281 0.1513396856101954 0 -0.18584797703789299 0.16430075151615819 0 -0.17792302185510889 0.14628828657904569 0 -0.18357250461291241 0.15294738449800521 0 -0.18470443130924349 0.1570587792830471 0 -0.17792302185510889 0.14628828657904569 0 -0.18357250461291241 0.15294738449800521 0 -0.18242037853776619 0.14997092355896541 0 -0.17792302185510889 0.14628828657904569 0 -0.18242037853776619 0.14997092355896541 0 -0.1843985214841638 0.14915762591098969 0 -0.18357250461291241 0.15294738449800521 0 -0.18242037853776619 0.14997092355896541 0 -0.1846664624124166 0.15131480226366559 0 -0.18972504343194199 0.14813910299590491 0 -0.1843985214841638 0.14915762591098969 0 -0.18706811523360739 0.15097734238956839 0 -0.18242037853776619 0.14997092355896541 0 -0.1843985214841638 0.14915762591098969 0 -0.1846664624124166 0.15131480226366559 0 -0.1843985214841638 0.14915762591098969 0 -0.1846664624124166 0.15131480226366559 0 -0.18706811523360739 0.15097734238956839 0 -0.1846664624124166 0.15131480226366559 0 -0.18706811523360739 0.15097734238956839 0 -0.1861389648465096 0.15284096184032281 0 -0.18824480083274031 0.15285963570552091 0 -0.18706811523360739 0.15097734238956839 0 -0.1861389648465096 0.15284096184032281 0 -0.18357250461291241 0.15294738449800521 0 -0.18702187962891281 0.155567078710352 0 -0.18470443130924349 0.1570587792830471 0 -0.18357250461291241 0.15294738449800521 0 -0.1846664624124166 0.15131480226366559 0 -0.1861389648465096 0.15284096184032281 0 -0.18357250461291241 0.15294738449800521 0 -0.1861389648465096 0.15284096184032281 0 -0.18702187962891281 0.155567078710352 0 -0.18824480083274031 0.15285963570552091 0 -0.1861389648465096 0.15284096184032281 0 -0.18702187962891281 0.155567078710352 0 -0.1873241847562945 0.15889474826784419 0 -0.18470443130924349 0.1570587792830471 0 -0.18584797703789299 0.16430075151615819 0 -0.17772059377825281 0.1513396856101954 0 -0.18584797703789299 0.16430075151615819 0 -0.17680230255617149 0.15643253010634059 0 -0.18702187962891281 0.155567078710352 0 -0.1873241847562945 0.15889474826784419 0 -0.18470443130924349 0.1570587792830471 0 -0.18584797703789299 0.16430075151615819 0 -0.17738703834035871 0.167790324052145 0 -0.17680230255617149 0.15643253010634059 0 -0.18930478307013451 0.16044640964048579 0 -0.1873241847562945 0.15889474826784419 0 -0.18584797703789299 0.16430075151615819 0 -0.18584797703789299 0.16430075151615819 0 -0.17738703834035871 0.167790324052145 0 -0.1920843893918521 0.17847536276230211 0 -0.18584797703789299 0.16430075151615819 0 -0.17738703834035871 0.167790324052145 0 -0.18880204372309881 0.1868569127446052 0 -0.17738703834035871 0.167790324052145 0 -0.18880204372309881 0.1868569127446052 0 -0.17738703834035871 0.167790324052145 0 -0.17754450755149559 0.18064637650015899 0 -0.1920843893918521 0.17847536276230211 0 -0.18880204372309881 0.1868569127446052 0 -0.17738703834035871 0.167790324052145 0 -0.18880204372309881 0.1868569127446052 0 -0.17619034445069329 0.19343188092489549 0 -0.17754450755149559 0.18064637650015899 0 -0.17619034445069329 0.19343188092489549 0 -0.17754450755149559 0.18064637650015899 0 -0.15203594170421739 0.1782459595012412 0 -0.17738703834035871 0.167790324052145 0 -0.17754450755149559 0.18064637650015899 0 -0.15203594170421739 0.1782459595012412 0 -0.17619034445069329 0.19343188092489549 0 -0.1678897830588395 0.19062529771730041 0 -0.15203594170421739 0.1782459595012412 0 -0.17738703834035871 0.167790324052145 0 -0.15203594170421739 0.1782459595012412 0 -0.17619034445069329 0.19343188092489549 0 -0.15203594170421739 0.1782459595012412 0 -0.17738703834035871 0.167790324052145 0 -0.15203594170421739 0.1782459595012412 0 -0.14806226123531521 0.15558157279013771 0 -0.15203594170421739 0.1782459595012412 0 -0.1323595144271589 0.16587535023120431 0 -0.14806226123531521 0.15558157279013771 0 -0.1473933656861382 0.19228134647831269 0 -0.13420184417027919 0.18982459819665609 0 -0.15203594170421739 0.1782459595012412 0 -0.15203594170421739 0.1782459595012412 0 -0.1323595144271589 0.16587535023120431 0 -0.12722989367651841 0.18847679877550039 0 -0.15203594170421739 0.1782459595012412 0 -0.1323595144271589 0.16587535023120431 0 -0.13420184417027919 0.18982459819665609 0 -0.12722989367651841 0.18847679877550039 0 -0.15203594170421739 0.1782459595012412 0 -0.12722989367651841 0.18847679877550039 0 -0.1323595144271589 0.16587535023120431 0 -0.11584788673726661 0.16991231291351461 0 -0.12722989367651841 0.18847679877550039 0 -0.15203594170421739 0.1782459595012412 0 -0.14806226123531521 0.15558157279013771 0 -0.1408553934342392 0.1354065954160297 0 -0.1237519881314304 0.14410923588372479 0 -0.1323595144271589 0.16587535023120431 0 -0.14806226123531521 0.15558157279013771 0 -0.1237519881314304 0.14410923588372479 0 -0.16198369137448509 0.1420619716564781 0 -0.14806226123531521 0.15558157279013771 0 -0.1408553934342392 0.1354065954160297 0 -0.14658034440861251 0.11633361926081071 0 -0.16198369137448509 0.1420619716564781 0 -0.14658034440861251 0.11633361926081071 0 -0.16198369137448509 0.1420619716564781 0 -0.1408553934342392 0.1354065954160297 0 -0.14658034440861251 0.11633361926081071 0 -0.1408553934342392 0.1354065954160297 0 -0.1408553934342392 0.1354065954160297 0 -0.12157897914838039 0.127252633109814 0 -0.1237519881314304 0.14410923588372479 0 -0.1320923586692416 0.1163663372802315 0 -0.1408553934342392 0.1354065954160297 0 -0.12157897914838039 0.127252633109814 0 -0.12157897914838039 0.127252633109814 0 -0.11120793111902311 0.1355754253235166 0 -0.1237519881314304 0.14410923588372479 0 -0.12157897914838039 0.127252633109814 0 -0.11120793111902311 0.1355754253235166 0 -0.1096003078444298 0.12657837668202451 0 -0.1096003078444298 0.12657837668202451 0 -0.10092647217737109 0.12996042752134149 0 -0.10253192977079099 0.1208391027340967 0 -0.11120793111902311 0.1355754253235166 0 -0.1096003078444298 0.12657837668202451 0 -0.10092647217737109 0.12996042752134149 0 -0.11120793111902311 0.1355754253235166 0 -0.10130840289300749 0.13709400741208369 0 -0.10092647217737109 0.12996042752134149 0 -0.11120793111902311 0.1355754253235166 0 -0.10130840289300749 0.13709400741208369 0 -0.10839161383331999 0.14228350825432559 0 -0.10130840289300749 0.13709400741208369 0 -0.094129066332242453 0.13253900340244831 0 -0.093006659873039729 0.1411341316911337 0 -0.10130840289300749 0.13709400741208369 0 -0.10839161383331999 0.14228350825432559 0 -0.093006659873039729 0.1411341316911337 0 -0.10130840289300749 0.13709400741208369 0 -0.094129066332242453 0.13253900340244831 0 -0.10092647217737109 0.12996042752134149 0 -0.094129066332242453 0.13253900340244831 0 -0.10092647217737109 0.12996042752134149 0 -0.092505723778405144 0.1220922436829039 0 -0.11268308715009941 0.15350474096116901 0 -0.10046077224762 0.16205864808852799 0 -0.093006659873039729 0.1411341316911337 0 -0.11268308715009941 0.15350474096116901 0 -0.093006659873039729 0.1411341316911337 0 -0.10839161383331999 0.14228350825432559 0 -0.11268308715009941 0.15350474096116901 0 -0.093006659873039729 0.1411341316911337 0 -0.1323595144271589 0.16587535023120431 0 -0.11268308715009941 0.15350474096116901 0 -0.1237519881314304 0.14410923588372479 0 -0.11120793111902311 0.1355754253235166 0 -0.10839161383331999 0.14228350825432559 0 -0.1237519881314304 0.14410923588372479 0 -0.10839161383331999 0.14228350825432559 0 -0.11268308715009941 0.15350474096116901 0 -0.1237519881314304 0.14410923588372479 0 -0.1323595144271589 0.16587535023120431 0 -0.11268308715009941 0.15350474096116901 0 -0.1323595144271589 0.16587535023120431 0 -0.11268308715009941 0.15350474096116901 0 -0.11584788673726661 0.16991231291351461 0 -0.11268308715009941 0.15350474096116901 0 -0.11584788673726661 0.16991231291351461 0 -0.10046077224762 0.16205864808852799 0 -0.12722989367651841 0.18847679877550039 0 -0.11584788673726661 0.16991231291351461 0 -0.1065061661849363 0.17964602651117129 0 -0.1065061661849363 0.17964602651117129 0 -0.09669570345868668 0.18545161379422501 0 -0.092162680266037939 0.1737595139428974 0 -0.1065061661849363 0.17964602651117129 0 -0.10046077224762 0.16205864808852799 0 -0.092162680266037939 0.1737595139428974 0 -0.11584788673726661 0.16991231291351461 0 -0.1065061661849363 0.17964602651117129 0 -0.10046077224762 0.16205864808852799 0 -0.10046077224762 0.16205864808852799 0 -0.087355020913066975 0.16081197744056561 0 -0.092162680266037939 0.1737595139428974 0 -0.087355020913066975 0.16081197744056561 0 -0.07888959753238059 0.16750463234398161 0 -0.092162680266037939 0.1737595139428974 0 -0.087355020913066975 0.16081197744056561 0 -0.07888959753238059 0.16750463234398161 0 -0.078738885429394653 0.15460342265857691 0 -0.07888959753238059 0.16750463234398161 0 -0.092162680266037939 0.1737595139428974 0 -0.082145828134390336 0.1861654913964613 0 -0.09669570345868668 0.18545161379422501 0 -0.092162680266037939 0.1737595139428974 0 -0.082145828134390336 0.1861654913964613 0 -0.07888959753238059 0.16750463234398161 0 -0.082145828134390336 0.1861654913964613 0 -0.061867810619961848 0.17362334474316921 0 -0.082145828134390336 0.1861654913964613 0 -0.057039412990764517 0.19860952316187219 0 -0.061867810619961848 0.17362334474316921 0 -0.082145828134390336 0.1861654913964613 0 -0.061867810619961848 0.17362334474316921 0 -0.069293556758851349 0.16054035655621271 0 -0.058826571136921503 0.15532653907795599 0 -0.061867810619961848 0.17362334474316921 0 -0.07888959753238059 0.16750463234398161 0 -0.069293556758851349 0.16054035655621271 0 -0.061867810619961848 0.17362334474316921 0 -0.07888959753238059 0.16750463234398161 0 -0.069293556758851349 0.16054035655621271 0 -0.078738885429394653 0.15460342265857691 0 -0.069293556758851349 0.16054035655621271 0 -0.069381172526284299 0.14525615309989021 0 -0.058826571136921503 0.15532653907795599 0 -0.069293556758851349 0.16054035655621271 0 -0.069381172526284299 0.14525615309989021 0 -0.078738885429394653 0.15460342265857691 0 -0.069381172526284299 0.14525615309989021 0 -0.073330232595980371 0.12876352242109801 0 -0.086895502421800344 0.14541108525481281 0 -0.069381172526284299 0.14525615309989021 0 -0.064760867122807458 0.13500046796392981 0 -0.073330232595980371 0.12876352242109801 0 -0.069381172526284299 0.14525615309989021 0 -0.064760867122807458 0.13500046796392981 0 -0.054086200503068803 0.13790093864678549 0 -0.064760867122807458 0.13500046796392981 0 -0.073330232595980371 0.12876352242109801 0 -0.062212319198069077 0.1217736679822289 0 -0.073330232595980371 0.12876352242109801 0 -0.062212319198069077 0.1217736679822289 0 -0.073330232595980371 0.12876352242109801 0 -0.086282766221117635 0.12992386505995021 0 -0.093006659873039729 0.1411341316911337 0 -0.073330232595980371 0.12876352242109801 0 -0.093006659873039729 0.1411341316911337 0 -0.086895502421800344 0.14541108525481281 0 -0.073330232595980371 0.12876352242109801 0 -0.086895502421800344 0.14541108525481281 0 -0.073330232595980371 0.12876352242109801 0 -0.093006659873039729 0.1411341316911337 0 -0.073330232595980371 0.12876352242109801 0 -0.086282766221117635 0.12992386505995021 0 -0.083130252531738974 0.1211689289794653 0 -0.094129066332242453 0.13253900340244831 0 -0.086282766221117635 0.12992386505995021 0 -0.092505723778405144 0.1220922436829039 0 -0.094129066332242453 0.13253900340244831 0 -0.086282766221117635 0.12992386505995021 0 -0.093006659873039729 0.1411341316911337 0 -0.10046077224762 0.16205864808852799 0 -0.093006659873039729 0.1411341316911337 0 -0.086895502421800344 0.14541108525481281 0 -0.10046077224762 0.16205864808852799 0 -0.087355020913066975 0.16081197744056561 0 -0.086895502421800344 0.14541108525481281 0 -0.10046077224762 0.16205864808852799 0 -0.086895502421800344 0.14541108525481281 0 -0.069381172526284299 0.14525615309989021 0 -0.086895502421800344 0.14541108525481281 0 -0.078738885429394653 0.15460342265857691 0 -0.087355020913066975 0.16081197744056561 0 -0.086895502421800344 0.14541108525481281 0 -0.078738885429394653 0.15460342265857691 0 -0.1084595879315511 0.24766116660785301 0 -0.1148945616655201 0.2305252900222354 0 -0.1011549301014812 0.23323243330667581 0 -0.087935028491984882 0.25757671371116819 0 -0.1084595879315511 0.24766116660785301 0 -0.092313062287334366 0.2439339110423025 0 -0.1084595879315511 0.24766116660785301 0 -0.1011549301014812 0.23323243330667581 0 -0.092313062287334366 0.2439339110423025 0 -0.1011549301014812 0.23323243330667581 0 -0.09035930154992089 0.2330728055910429 0 -0.092313062287334366 0.2439339110423025 0 -0.1198359960768561 0.26275014732450791 0 -0.1289841473711173 0.2377456195045379 0 -0.1084595879315511 0.24766116660785301 0 -0.1289841473711173 0.2377456195045379 0 -0.1084595879315511 0.24766116660785301 0 -0.1289841473711173 0.2377456195045379 0 -0.1084595879315511 0.24766116660785301 0 -0.1148945616655201 0.2305252900222354 0 -0.1279520399791701 0.21449706898683529 0 -0.1148945616655201 0.2305252900222354 0 -0.1081110772570163 0.21752844402316979 0 -0.1279520399791701 0.21449706898683529 0 -0.1289841473711173 0.2377456195045379 0 -0.1148945616655201 0.2305252900222354 0 -0.1011549301014812 0.23323243330667581 0 -0.094948751713718263 0.22452255266154561 0 -0.1081110772570163 0.21752844402316979 0 -0.1148945616655201 0.2305252900222354 0 -0.1011549301014812 0.23323243330667581 0 -0.1081110772570163 0.21752844402316979 0 -0.094948751713718263 0.22452255266154561 0 -0.1081110772570163 0.21752844402316979 0 -0.091978812971742013 0.21429014636860649 0 -0.1011549301014812 0.23323243330667581 0 -0.094948751713718263 0.22452255266154561 0 -0.09035930154992089 0.2330728055910429 0 -0.1063953731476578 0.20116406557244279 0 -0.083518550901846761 0.2104932242170969 0 -0.1063953731476578 0.20116406557244279 0 -0.099739149396991106 0.19981489607900671 0 -0.083518550901846761 0.2104932242170969 0 -0.1081110772570163 0.21752844402316979 0 -0.098568032346778342 0.21061416492243129 0 -0.091978812971742013 0.21429014636860649 0 -0.098568032346778342 0.21061416492243129 0 -0.1063953731476578 0.20116406557244279 0 -0.083518550901846761 0.2104932242170969 0 -0.1081110772570163 0.21752844402316979 0 -0.098568032346778342 0.21061416492243129 0 -0.1063953731476578 0.20116406557244279 0 -0.1279520399791701 0.21449706898683529 0 -0.1081110772570163 0.21752844402316979 0 -0.1063953731476578 0.20116406557244279 0 -0.1300303118518111 0.20331472777125539 0 -0.1279520399791701 0.21449706898683529 0 -0.1063953731476578 0.20116406557244279 0 -0.1279520399791701 0.21449706898683529 0 -0.1063953731476578 0.20116406557244279 0 -0.13420184417027919 0.18982459819665609 0 -0.1063953731476578 0.20116406557244279 0 -0.13420184417027919 0.18982459819665609 0 -0.1300303118518111 0.20331472777125539 0 -0.1063953731476578 0.20116406557244279 0 -0.12722989367651841 0.18847679877550039 0 -0.10242384564881769 0.19870763804975519 0 -0.13420184417027919 0.18982459819665609 0 -0.12722989367651841 0.18847679877550039 0 -0.1063953731476578 0.20116406557244279 0 -0.12722989367651841 0.18847679877550039 0 -0.1065061661849363 0.17964602651117129 0 -0.10242384564881769 0.19870763804975519 0 -0.12722989367651841 0.18847679877550039 0 -0.1063953731476578 0.20116406557244279 0 -0.10242384564881769 0.19870763804975519 0 -0.1065061661849363 0.17964602651117129 0 -0.09669570345868668 0.18545161379422501 0 -0.10242384564881769 0.19870763804975519 0 -0.09669570345868668 0.18545161379422501 0 -0.082145828134390336 0.1861654913964613 0 -0.10242384564881769 0.19870763804975519 0 -0.082145828134390336 0.1861654913964613 0 -0.10242384564881769 0.19870763804975519 0 -0.099739149396991106 0.19981489607900671 0 -0.1063953731476578 0.20116406557244279 0 -0.10242384564881769 0.19870763804975519 0 -0.1063953731476578 0.20116406557244279 0 -0.10242384564881769 0.19870763804975519 0 -0.099739149396991106 0.19981489607900671 0 -0.10242384564881769 0.19870763804975519 0 -0.099739149396991106 0.19981489607900671 0 -0.099739149396991106 0.19981489607900671 0 -0.08698187284610194 0.19809520673219819 0 -0.083518550901846761 0.2104932242170969 0 -0.082145828134390336 0.1861654913964613 0 -0.10242384564881769 0.19870763804975519 0 -0.082145828134390336 0.1861654913964613 0 -0.099739149396991106 0.19981489607900671 0 -0.08698187284610194 0.19809520673219819 0 -0.082145828134390336 0.1861654913964613 0 -0.08698187284610194 0.19809520673219819 0 -0.057039412990764517 0.19860952316187219 0 -0.08698187284610194 0.19809520673219819 0 -0.083518550901846761 0.2104932242170969 0 -0.057039412990764517 0.19860952316187219 0 -0.064731611444050138 0.21815453035332991 0 -0.083518550901846761 0.2104932242170969 0 -0.057039412990764517 0.19860952316187219 0 -0.064731611444050138 0.21815453035332991 0 -0.083518550901846761 0.2104932242170969 0 -0.064731611444050138 0.21815453035332991 0 -0.083518550901846761 0.2104932242170969 0 -0.083044213079483495 0.2228741334032722 0 -0.083518550901846761 0.2104932242170969 0 -0.057039412990764517 0.19860952316187219 0 -0.098568032346778342 0.21061416492243129 0 -0.083518550901846761 0.2104932242170969 0 -0.091978812971742013 0.21429014636860649 0 -0.083518550901846761 0.2104932242170969 0 -0.091978812971742013 0.21429014636860649 0 -0.083518550901846761 0.2104932242170969 0 -0.091978812971742013 0.21429014636860649 0 -0.083044213079483495 0.2228741334032722 0 -0.094948751713718263 0.22452255266154561 0 -0.091978812971742013 0.21429014636860649 0 -0.083044213079483495 0.2228741334032722 0 -0.094948751713718263 0.22452255266154561 0 -0.09035930154992089 0.2330728055910429 0 -0.083044213079483495 0.2228741334032722 0 -0.09035930154992089 0.2330728055910429 0 -0.083044213079483495 0.2228741334032722 0 -0.080144703349692259 0.2375713963114964 0 -0.083044213079483495 0.2228741334032722 0 -0.072510947182165997 0.22861774257235221 0 -0.080144703349692259 0.2375713963114964 0 -0.072510947182165997 0.22861774257235221 0 -0.080144703349692259 0.2375713963114964 0 -0.062123260855438088 0.23587091022131021 0 -0.064731611444050138 0.21815453035332991 0 -0.072510947182165997 0.22861774257235221 0 -0.062123260855438088 0.23587091022131021 0 -0.064731611444050138 0.21815453035332991 0 -0.083044213079483495 0.2228741334032722 0 -0.072510947182165997 0.22861774257235221 0 -0.073881830798883275 0.2478657501268112 0 -0.080144703349692259 0.2375713963114964 0 -0.062123260855438088 0.23587091022131021 0 -0.057390474112463452 0.25529612272236962 0 -0.073881830798883275 0.2478657501268112 0 -0.062123260855438088 0.23587091022131021 0 -0.083689519318301361 0.2496791884595774 0 -0.080144703349692259 0.2375713963114964 0 -0.092313062287334366 0.2439339110423025 0 -0.073881830798883275 0.2478657501268112 0 -0.083689519318301361 0.2496791884595774 0 -0.080144703349692259 0.2375713963114964 0 -0.09035930154992089 0.2330728055910429 0 -0.080144703349692259 0.2375713963114964 0 -0.092313062287334366 0.2439339110423025 0 -0.057390474112463452 0.25529612272236962 0 -0.040644801569715699 0.23903706466270749 0 -0.030607976561314879 0.24914407433863051 0 -0.040644801569715699 0.23903706466270749 0 -0.026586338578970459 0.24132816029063531 0 -0.030607976561314879 0.24914407433863051 0 -0.040644801569715699 0.23903706466270749 0 -0.02715773252845596 0.23347714262579369 0 -0.026586338578970459 0.24132816029063531 0 -0.057390474112463452 0.25529612272236962 0 -0.040644801569715699 0.23903706466270749 0 -0.062123260855438088 0.23587091022131021 0 -0.064731611444050138 0.21815453035332991 0 -0.045944671986253127 0.22581583648956191 0 -0.040644801569715699 0.23903706466270749 0 -0.062123260855438088 0.23587091022131021 0 -0.045944671986253127 0.22581583648956191 0 -0.064731611444050138 0.21815453035332991 0 -0.062123260855438088 0.23587091022131021 0 -0.045944671986253127 0.22581583648956191 0 -0.040644801569715699 0.23903706466270749 0 -0.045944671986253127 0.22581583648956191 0 -0.02715773252845596 0.23347714262579369 0 -0.045944671986253127 0.22581583648956191 0 -0.028859003804068899 0.21010148236622089 0 -0.02715773252845596 0.23347714262579369 0 -0.045944671986253127 0.22581583648956191 0 -0.02715773252845596 0.23347714262579369 0 -0.045944671986253127 0.22581583648956191 0 -0.045088437531830942 0.20960128821106419 0 -0.028859003804068899 0.21010148236622089 0 -0.064731611444050138 0.21815453035332991 0 -0.045944671986253127 0.22581583648956191 0 -0.045088437531830942 0.20960128821106419 0 -0.064731611444050138 0.21815453035332991 0 -0.045088437531830942 0.20960128821106419 0 -0.057039412990764517 0.19860952316187219 0 -0.045088437531830942 0.20960128821106419 0 -0.028859003804068899 0.21010148236622089 0 -0.0305602750796822 0.18672582210664801 0 -0.045088437531830942 0.20960128821106419 0 -0.057039412990764517 0.19860952316187219 0 -0.0305602750796822 0.18672582210664801 0 -0.057039412990764517 0.19860952316187219 0 -0.0305602750796822 0.18672582210664801 0 -0.01528533086514591 0.19483742912199131 0 -0.028859003804068899 0.21010148236622089 0 -0.0305602750796822 0.18672582210664801 0 -0.028859003804068899 0.21010148236622089 0 -0.0305602750796822 0.18672582210664801 0 -0.01528533086514591 0.19483742912199131 0 -0.0033409293665109712 0.18987861945848691 0 -0.01595763631495339 0.18017223285158279 0 -0.0033409293665109712 0.18987861945848691 0 -0.0041862342159543391 0.20221448064915409 0 0.0064253170443337422 0.1994628317062932 0 -0.01528533086514591 0.19483742912199131 0 -0.0033409293665109712 0.18987861945848691 0 -0.0041862342159543391 0.20221448064915409 0 -0.01528533086514591 0.19483742912199131 0 -0.0041862342159543391 0.20221448064915409 0 -0.01384519569179248 0.20777286983834711 0 -0.0041862342159543391 0.20221448064915409 0 -0.0049133572815684033 0.21374507306154791 0 0.0039345892832965742 0.20873124612309329 0 -0.0041862342159543391 0.20221448064915409 0 -0.01384519569179248 0.20777286983834711 0 -0.0049133572815684033 0.21374507306154791 0 -0.0049133572815684033 0.21374507306154791 0 -0.0043940024179732308 0.2245289383231 0 0.0034681343392300242 0.21780582288858169 0 -0.01384519569179248 0.20777286983834711 0 -0.0049133572815684033 0.21374507306154791 0 -0.01445743498621698 0.22141708054701109 0 -0.01384519569179248 0.20777286983834711 0 -0.028859003804068899 0.21010148236622089 0 -0.01445743498621698 0.22141708054701109 0 -0.01528533086514591 0.19483742912199131 0 -0.01384519569179248 0.20777286983834711 0 -0.028859003804068899 0.21010148236622089 0 -0.028859003804068899 0.21010148236622089 0 -0.02715773252845596 0.23347714262579369 0 -0.028859003804068899 0.21010148236622089 0 -0.02715773252845596 0.23347714262579369 0 -0.01445743498621698 0.22141708054701109 0 -0.02715773252845596 0.23347714262579369 0 -0.01445743498621698 0.22141708054701109 0 -0.013266993290119411 0.23259890497335381 0 -0.0049133572815684033 0.21374507306154791 0 -0.01445743498621698 0.22141708054701109 0 -0.0043940024179732308 0.2245289383231 0 -0.01445743498621698 0.22141708054701109 0 -0.0043940024179732308 0.2245289383231 0 -0.0083795939761273051 0.22991402769397279 0 -0.0043940024179732308 0.2245289383231 0 -0.0035385722334345319 0.23259324494001909 0 -0.0083795939761273051 0.22991402769397279 0 -0.0035385722334345319 0.23259324494001909 0 -0.0083795939761273051 0.22991402769397279 0 -0.0037125514449662602 0.23781967638154031 0 -0.0043940024179732308 0.2245289383231 0 0.003633430085715296 0.22656761900649491 0 0.00034957618362370439 0.23069080924624799 0 -0.0043940024179732308 0.2245289383231 0 -0.0035385722334345319 0.23259324494001909 0 0.00034957618362370439 0.23069080924624799 0 -0.0035385722334345319 0.23259324494001909 0 0.001227787271709478 0.23622629842462789 0 0.00034957618362370439 0.23069080924624799 0 -0.013266993290119411 0.23259890497335381 0 -0.0083795939761273051 0.22991402769397279 0 -0.0037125514449662602 0.23781967638154031 0 -0.01445743498621698 0.22141708054701109 0 -0.013266993290119411 0.23259890497335381 0 -0.0083795939761273051 0.22991402769397279 0 -0.02715773252845596 0.23347714262579369 0 -0.0038254790101660422 0.2429920259548923 0 -0.02715773252845596 0.23347714262579369 0 -0.013266993290119411 0.23259890497335381 0 -0.0038254790101660422 0.2429920259548923 0 -0.0038254790101660422 0.2429920259548923 0 -0.01039659283100491 0.2485002137533103 0 -0.030607976561314879 0.24914407433863051 0 -0.013266993290119411 0.23259890497335381 0 -0.0037125514449662602 0.23781967638154031 0 -0.0038254790101660422 0.2429920259548923 0 -0.002240369875262493 0.240623613202707 0 -0.00044177489149930979 0.23934395803639541 0 -0.0037125514449662602 0.23781967638154031 0 -0.002240369875262493 0.240623613202707 0 -0.0037125514449662602 0.23781967638154031 0 -0.0038254790101660422 0.2429920259548923 0 -0.002240369875262493 0.240623613202707 0 -0.00098167415441836187 0.24233879243799991 0 -0.0038254790101660422 0.2429920259548923 0 -0.002240369875262493 0.240623613202707 0 -0.00044177489149930979 0.23934395803639541 0 -0.00098167415441836187 0.24233879243799991 0 -0.00044177489149930979 0.23934395803639541 0 -0.0037125514449662602 0.23781967638154031 0 0.001227787271709478 0.23622629842462789 0 -0.0035385722334345319 0.23259324494001909 0 -0.0037125514449662602 0.23781967638154031 0 0.001227787271709478 0.23622629842462789 0 -0.0045345189142265169 0.25350634819326018 0 -0.002005662434308564 0.24836598281606709 0 -0.0049448924825990581 0.2473268840360312 0 -0.002005662434308564 0.24836598281606709 0 -0.0021052929507955069 0.24583497749543229 0 -0.0049448924825990581 0.2473268840360312 0 -0.002005662434308564 0.24836598281606709 0 -0.0021052929507955069 0.24583497749543229 0 0.001636127094255771 0.24521926666408339 0 -0.0038254790101660422 0.2429920259548923 0 -0.0021052929507955069 0.24583497749543229 0 -0.0049448924825990581 0.2473268840360312 0 -0.0038254790101660422 0.2429920259548923 0 -0.0021052929507955069 0.24583497749543229 0 0.001636127094255771 0.24521926666408339 0 -0.00098167415441836187 0.24233879243799991 0 -0.0038254790101660422 0.2429920259548923 0 0.001636127094255771 0.24521926666408339 0 -0.0038254790101660422 0.2429920259548923 0 0.001636127094255771 0.24521926666408339 0 -0.00098167415441836187 0.24233879243799991 0 -0.0038254790101660422 0.2429920259548923 0 -0.0038254790101660422 0.2429920259548923 0 -0.0049448924825990581 0.2473268840360312 0 -0.01039659283100491 0.2485002137533103 0 -0.0045345189142265169 0.25350634819326018 0 -0.0049448924825990581 0.2473268840360312 0 -0.01039659283100491 0.2485002137533103 0 -0.0038254790101660422 0.2429920259548923 0 -0.030607976561314879 0.24914407433863051 0 -0.02715773252845596 0.23347714262579369 0 -0.0038254790101660422 0.2429920259548923 0 -0.026586338578970459 0.24132816029063531 0 -0.0038254790101660422 0.2429920259548923 0 -0.026586338578970459 0.24132816029063531 0 -0.030607976561314879 0.24914407433863051 0 -0.02715773252845596 0.23347714262579369 0 -0.026586338578970459 0.24132816029063531 0 -0.03404187933667352 0.13888818478432019 0 -0.03222939594736253 0.16379191209809671 0 -0.044796011731006669 0.14897689365178959 0 -0.03404187933667352 0.13888818478432019 0 -0.054086200503068803 0.13790093864678549 0 -0.044796011731006669 0.14897689365178959 0 -0.03404187933667352 0.13888818478432019 0 -0.03222939594736253 0.16379191209809671 0 -0.03404187933667352 0.13888818478432019 0 -0.035854362725984142 0.1139844574705437 0 -0.048736154732834359 0.1243732871323918 0 -0.03404187933667352 0.13888818478432019 0 -0.054086200503068803 0.13790093864678549 0 -0.048736154732834359 0.1243732871323918 0 -0.03404187933667352 0.13888818478432019 0 -0.035854362725984142 0.1139844574705437 0 -0.054086200503068803 0.13790093864678549 0 -0.048736154732834359 0.1243732871323918 0 -0.062212319198069077 0.1217736679822289 0 -0.064760867122807458 0.13500046796392981 0 -0.054086200503068803 0.13790093864678549 0 -0.062212319198069077 0.1217736679822289 0 -0.044796011731006669 0.14897689365178959 0 -0.054086200503068803 0.13790093864678549 0 -0.058826571136921503 0.15532653907795599 0 -0.044796011731006669 0.14897689365178959 0 -0.058826571136921503 0.15532653907795599 0 -0.041512189263051703 0.16083737623005359 0 -0.069381172526284299 0.14525615309989021 0 -0.054086200503068803 0.13790093864678549 0 -0.058826571136921503 0.15532653907795599 0 -0.061867810619961848 0.17362334474316921 0 -0.043561395452826383 0.17653166829390801 0 -0.041512189263051703 0.16083737623005359 0 -0.061867810619961848 0.17362334474316921 0 -0.041512189263051703 0.16083737623005359 0 -0.058826571136921503 0.15532653907795599 0 -0.041512189263051703 0.16083737623005359 0 -0.058826571136921503 0.15532653907795599 0 -0.061867810619961848 0.17362334474316921 0 -0.041512189263051703 0.16083737623005359 0 -0.057039412990764517 0.19860952316187219 0 -0.061867810619961848 0.17362334474316921 0 -0.043561395452826383 0.17653166829390801 0 -0.057039412990764517 0.19860952316187219 0 -0.043561395452826383 0.17653166829390801 0 -0.0305602750796822 0.18672582210664801 0 -0.03222939594736253 0.16379191209809671 0 -0.0305602750796822 0.18672582210664801 0 -0.043561395452826383 0.17653166829390801 0 -0.03222939594736253 0.16379191209809671 0 -0.0305602750796822 0.18672582210664801 0 -0.043561395452826383 0.17653166829390801 0 -0.041512189263051703 0.16083737623005359 0 -0.03222939594736253 0.16379191209809671 0 -0.044796011731006669 0.14897689365178959 0 -0.041512189263051703 0.16083737623005359 0 -0.03222939594736253 0.16379191209809671 0 -0.041512189263051703 0.16083737623005359 0 -0.03222939594736253 0.16379191209809671 0 -0.03222939594736253 0.16379191209809671 0 -0.016792196748793561 0.16870527784730591 0 -0.019879571714442119 0.15169784893587979 0 -0.03222939594736253 0.16379191209809671 0 -0.016792196748793561 0.16870527784730591 0 -0.016792196748793561 0.16870527784730591 0 -0.0305602750796822 0.18672582210664801 0 -0.01595763631495339 0.18017223285158279 0 -0.03222939594736253 0.16379191209809671 0 -0.016792196748793561 0.16870527784730591 0 -0.0305602750796822 0.18672582210664801 0 -0.01528533086514591 0.19483742912199131 0 -0.0305602750796822 0.18672582210664801 0 -0.01595763631495339 0.18017223285158279 0 -0.0305602750796822 0.18672582210664801 0 -0.01595763631495339 0.18017223285158279 0 -0.0033409293665109712 0.18987861945848691 0 -0.01595763631495339 0.18017223285158279 0 -0.001354997550225002 0.1736186435965166 0 -0.016792196748793561 0.16870527784730591 0 -0.01595763631495339 0.18017223285158279 0 -0.001354997550225002 0.1736186435965166 0 -0.01595763631495339 0.18017223285158279 0 -0.001354997550225002 0.1736186435965166 0 -0.016792196748793561 0.16870527784730591 0 -0.0037010412524152371 0.14888078615867709 0 -0.019879571714442119 0.15169784893587979 0 -0.016792196748793561 0.16870527784730591 0 -0.0037010412524152371 0.14888078615867709 0 0.0041639884908149429 0.16056727500179069 0 -0.016792196748793561 0.16870527784730591 0 -0.001354997550225002 0.1736186435965166 0 0.0041639884908149429 0.16056727500179069 0 -0.016792196748793561 0.16870527784730591 0 -0.001354997550225002 0.1736186435965166 0 -0.0037010412524152371 0.14888078615867709 0 -0.019879571714442119 0.15169784893587979 0 -0.01347869227200605 0.1375147966792219 0 -0.03404187933667352 0.13888818478432019 0 -0.019879571714442119 0.15169784893587979 0 -0.01347869227200605 0.1375147966792219 0 -0.03404187933667352 0.13888818478432019 0 -0.03222939594736253 0.16379191209809671 0 -0.019879571714442119 0.15169784893587979 0 -0.03404187933667352 0.13888818478432019 0 -0.01347869227200605 0.1375147966792219 0 -0.014653178200833389 0.1179466396929325 0 -0.01347869227200605 0.1375147966792219 0 -0.014653178200833389 0.1179466396929325 0 0.0048822091443339937 0.1301605238242998 0 -0.0037010412524152371 0.14888078615867709 0 -0.01347869227200605 0.1375147966792219 0 0.0048822091443339937 0.1301605238242998 0 -0.014653178200833389 0.1179466396929325 0 -0.0062757738786398919 0.097973495785085324 0 -0.022845616506789311 0.095274693822282319 0 -0.014653178200833389 0.1179466396929325 0 -0.0062757738786398919 0.097973495785085324 0 0.01386301077930052 0.1067503783981619 0 -0.014653178200833389 0.1179466396929325 0 -0.022845616506789311 0.095274693822282319 0 -0.035854362725984142 0.1139844574705437 0 -0.03404187933667352 0.13888818478432019 0 -0.014653178200833389 0.1179466396929325 0 -0.035854362725984142 0.1139844574705437 0 -0.0042660718709032937 0.064752717198481941 0 -0.01061801220259052 0.082013814110628108 0 0.0060949717525474812 0.081637648255242959 0 -0.0042660718709032937 0.064752717198481941 0 -0.01061801220259052 0.082013814110628108 0 -0.025797570509167578 0.070430515492047957 0 -0.0062757738786398919 0.097973495785085324 0 -0.022845616506789311 0.095274693822282319 0 -0.01061801220259052 0.082013814110628108 0 -0.0062757738786398919 0.097973495785085324 0 -0.01061801220259052 0.082013814110628108 0 0.0060949717525474812 0.081637648255242959 0 -0.022845616506789311 0.095274693822282319 0 -0.025797570509167578 0.070430515492047957 0 -0.041641791204771919 0.089874851135064521 0 -0.022845616506789311 0.095274693822282319 0 -0.01061801220259052 0.082013814110628108 0 -0.025797570509167578 0.070430515492047957 0 -0.025797570509167578 0.070430515492047957 0 -0.043634998659472617 0.068440440645636827 0 -0.031888340196912383 0.059391053768455312 0 -0.025797570509167578 0.070430515492047957 0 -0.043634998659472617 0.068440440645636827 0 -0.041641791204771919 0.089874851135064521 0 -0.043634998659472617 0.068440440645636827 0 -0.041641791204771919 0.089874851135064521 0 -0.054487969780558927 0.081715139905200324 0 -0.025797570509167578 0.070430515492047957 0 -0.041641791204771919 0.089874851135064521 0 -0.041641791204771919 0.089874851135064521 0 -0.054487969780558927 0.081715139905200324 0 -0.060212864270754438 0.09380671882614644 0 -0.054487969780558927 0.081715139905200324 0 -0.060212864270754438 0.09380671882614644 0 -0.068276377337952054 0.080291335544886502 0 -0.043634998659472617 0.068440440645636827 0 -0.054487969780558927 0.081715139905200324 0 -0.057269140137880287 0.070010564942569728 0 -0.054487969780558927 0.081715139905200324 0 -0.057269140137880287 0.070010564942569728 0 -0.068276377337952054 0.080291335544886502 0 -0.057269140137880287 0.070010564942569728 0 -0.068032787614105944 0.064580008102436068 0 -0.055297638312560897 0.059830595490155361 0 -0.043634998659472617 0.068440440645636827 0 -0.057269140137880287 0.070010564942569728 0 -0.055297638312560897 0.059830595490155361 0 -0.022845616506789311 0.095274693822282319 0 -0.041641791204771919 0.089874851135064521 0 -0.035854362725984142 0.1139844574705437 0 -0.041641791204771919 0.089874851135064521 0 -0.035854362725984142 0.1139844574705437 0 -0.057486011900376263 0.1093191867780811 0 -0.041641791204771919 0.089874851135064521 0 -0.057486011900376263 0.1093191867780811 0 -0.041641791204771919 0.089874851135064521 0 -0.060212864270754438 0.09380671882614644 0 -0.057486011900376263 0.1093191867780811 0 -0.060212864270754438 0.09380671882614644 0 -0.057486011900376263 0.1093191867780811 0 -0.067224358083750047 0.1023691063163775 0 -0.035854362725984142 0.1139844574705437 0 -0.057486011900376263 0.1093191867780811 0 -0.048736154732834359 0.1243732871323918 0 -0.057486011900376263 0.1093191867780811 0 -0.048736154732834359 0.1243732871323918 0 -0.062212319198069077 0.1217736679822289 0 -0.073330232595980371 0.12876352242109801 0 -0.057486011900376263 0.1093191867780811 0 -0.077162328827295235 0.11175260852575759 0 -0.073330232595980371 0.12876352242109801 0 -0.077162328827295235 0.11175260852575759 0 -0.083130252531738974 0.1211689289794653 0 -0.073330232595980371 0.12876352242109801 0 -0.057486011900376263 0.1093191867780811 0 -0.062212319198069077 0.1217736679822289 0 -0.073330232595980371 0.12876352242109801 0 -0.057486011900376263 0.1093191867780811 0 -0.077162328827295235 0.11175260852575759 0 -0.083130252531738974 0.1211689289794653 0 -0.086799037615779909 0.1133569028137221 0 -0.086799037615779909 0.1133569028137221 0 -0.092505723778405144 0.1220922436829039 0 -0.099727530821448362 0.10941599956994209 0 -0.086282766221117635 0.12992386505995021 0 -0.083130252531738974 0.1211689289794653 0 -0.092505723778405144 0.1220922436829039 0 -0.083130252531738974 0.1211689289794653 0 -0.086799037615779909 0.1133569028137221 0 -0.092505723778405144 0.1220922436829039 0 -0.087562117325396219 0.1029869552980881 0 -0.074036227336574237 0.09459791113552489 0 -0.084754799030209452 0.085362482484687724 0 -0.077162328827295235 0.11175260852575759 0 -0.087562117325396219 0.1029869552980881 0 -0.074036227336574237 0.09459791113552489 0 -0.086799037615779909 0.1133569028137221 0 -0.087562117325396219 0.1029869552980881 0 -0.099727530821448362 0.10941599956994209 0 -0.077162328827295235 0.11175260852575759 0 -0.086799037615779909 0.1133569028137221 0 -0.087562117325396219 0.1029869552980881 0 -0.057486011900376263 0.1093191867780811 0 -0.077162328827295235 0.11175260852575759 0 -0.067224358083750047 0.1023691063163775 0 -0.077162328827295235 0.11175260852575759 0 -0.074036227336574237 0.09459791113552489 0 -0.067224358083750047 0.1023691063163775 0 -0.060212864270754438 0.09380671882614644 0 -0.074036227336574237 0.09459791113552489 0 -0.067224358083750047 0.1023691063163775 0 -0.068276377337952054 0.080291335544886502 0 -0.080794183098505667 0.070924839837263387 0 -0.084754799030209452 0.085362482484687724 0 -0.074036227336574237 0.09459791113552489 0 -0.068276377337952054 0.080291335544886502 0 -0.084754799030209452 0.085362482484687724 0 -0.060212864270754438 0.09380671882614644 0 -0.074036227336574237 0.09459791113552489 0 -0.068276377337952054 0.080291335544886502 0 -0.068276377337952054 0.080291335544886502 0 -0.068032787614105944 0.064580008102436068 0 -0.080794183098505667 0.070924839837263387 0 -0.057269140137880287 0.070010564942569728 0 -0.068276377337952054 0.080291335544886502 0 -0.068032787614105944 0.064580008102436068 0 -0.068032787614105944 0.064580008102436068 0 -0.080794183098505667 0.070924839837263387 0 -0.079428449533967993 0.058781410192725897 0 -0.080794183098505667 0.070924839837263387 0 -0.089241077322883611 0.059963824654260298 0 -0.079428449533967993 0.058781410192725897 0 -0.080794183098505667 0.070924839837263387 0 -0.08933953536863623 0.075705458572444068 0 -0.084754799030209452 0.085362482484687724 0 -0.080794183098505667 0.070924839837263387 0 -0.08933953536863623 0.075705458572444068 0 -0.094336331688691044 0.067772386408041702 0 -0.080794183098505667 0.070924839837263387 0 -0.094336331688691044 0.067772386408041702 0 -0.089241077322883611 0.059963824654260298 0 -0.087562117325396219 0.1029869552980881 0 -0.084754799030209452 0.085362482484687724 0 -0.096646877647685564 0.092737048470556444 0 -0.084754799030209452 0.085362482484687724 0 -0.096646877647685564 0.092737048470556444 0 -0.098414701785109485 0.07934553498015931 0 -0.08933953536863623 0.075705458572444068 0 -0.084754799030209452 0.085362482484687724 0 -0.098414701785109485 0.07934553498015931 0 -0.096646877647685564 0.092737048470556444 0 -0.098414701785109485 0.07934553498015931 0 -0.108941900917156 0.083904819939939757 0 -0.096646877647685564 0.092737048470556444 0 -0.108941900917156 0.083904819939939757 0 -0.10908254174546431 0.097712103802008288 0 -0.08933953536863623 0.075705458572444068 0 -0.098414701785109485 0.07934553498015931 0 -0.094336331688691044 0.067772386408041702 0 -0.098414701785109485 0.07934553498015931 0 -0.094336331688691044 0.067772386408041702 0 -0.10886234532650001 0.070610772633777893 0 -0.098414701785109485 0.07934553498015931 0 -0.108941900917156 0.083904819939939757 0 -0.10886234532650001 0.070610772633777893 0 -0.094336331688691044 0.067772386408041702 0 -0.10886234532650001 0.070610772633777893 0 -0.1038131223448288 0.059502691017654159 0 -0.10886234532650001 0.070610772633777893 0 -0.1200770937022317 0.061032803681047812 0 -0.1038131223448288 0.059502691017654159 0 -0.10886234532650001 0.070610772633777893 0 -0.12078255002608961 0.07635017351281656 0 -0.1200770937022317 0.061032803681047812 0 -0.108941900917156 0.083904819939939757 0 -0.10886234532650001 0.070610772633777893 0 -0.12078255002608961 0.07635017351281656 0 -0.1339595528402274 0.065748159677748177 0 -0.12078255002608961 0.07635017351281656 0 -0.1200770937022317 0.061032803681047812 0 -0.13374486391322971 0.085725862664189578 0 -0.12078255002608961 0.07635017351281656 0 -0.11795489244031131 0.090591650721755998 0 -0.108941900917156 0.083904819939939757 0 -0.11795489244031131 0.090591650721755998 0 -0.10908254174546431 0.097712103802008288 0 -0.108941900917156 0.083904819939939757 0 -0.12078255002608961 0.07635017351281656 0 -0.11795489244031131 0.090591650721755998 0 -0.12784379276086391 0.095530604182346684 0 -0.11795489244031131 0.090591650721755998 0 -0.1223370802615215 0.10490829852774609 0 -0.11795489244031131 0.090591650721755998 0 -0.1223370802615215 0.10490829852774609 0 -0.10908254174546431 0.097712103802008288 0 -0.11206336746789999 0.1078302962267898 0 -0.1223370802615215 0.10490829852774609 0 -0.10908254174546431 0.097712103802008288 0 -0.11206336746789999 0.1078302962267898 0 -0.1223370802615215 0.10490829852774609 0 -0.1214559596300985 0.11542114779049401 0 -0.12157897914838039 0.127252633109814 0 -0.1214559596300985 0.11542114779049401 0 -0.1125299285127915 0.1181039196147015 0 -0.12157897914838039 0.127252633109814 0 -0.1096003078444298 0.12657837668202451 0 -0.1125299285127915 0.1181039196147015 0 -0.11206336746789999 0.1078302962267898 0 -0.1214559596300985 0.11542114779049401 0 -0.1125299285127915 0.1181039196147015 0 -0.1125299285127915 0.1181039196147015 0 -0.10253192977079099 0.1208391027340967 0 -0.099727530821448362 0.10941599956994209 0 -0.11206336746789999 0.1078302962267898 0 -0.1125299285127915 0.1181039196147015 0 -0.099727530821448362 0.10941599956994209 0 -0.1096003078444298 0.12657837668202451 0 -0.1125299285127915 0.1181039196147015 0 -0.10253192977079099 0.1208391027340967 0 -0.092505723778405144 0.1220922436829039 0 -0.10253192977079099 0.1208391027340967 0 -0.099727530821448362 0.10941599956994209 0 -0.10092647217737109 0.12996042752134149 0 -0.092505723778405144 0.1220922436829039 0 -0.10253192977079099 0.1208391027340967 0 -0.087562117325396219 0.1029869552980881 0 -0.096646877647685564 0.092737048470556444 0 -0.099727530821448362 0.10941599956994209 0 -0.096646877647685564 0.092737048470556444 0 -0.099727530821448362 0.10941599956994209 0 -0.10908254174546431 0.097712103802008288 0 -0.11206336746789999 0.1078302962267898 0 -0.099727530821448362 0.10941599956994209 0 -0.10908254174546431 0.097712103802008288 0 -0.10855897242352611 0.017575420843814089 0 -0.095258415211334879 0.021134969281983471 0 -0.1104644629119769 0.028637878782569161 0 -0.10855897242352611 0.017575420843814089 0 -0.095258415211334879 0.021134969281983471 0 -0.10271726065552091 0.0097110788566243285 0 -0.095258415211334879 0.021134969281983471 0 -0.1104644629119769 0.028637878782569161 0 -0.099494681897820625 0.034159993191892377 0 -0.095258415211334879 0.021134969281983471 0 -0.099494681897820625 0.034159993191892377 0 -0.086719315752356252 0.031603191370789777 0 -0.095258415211334879 0.021134969281983471 0 -0.10271726065552091 0.0097110788566243285 0 -0.093541370402312474 0.0098172135897937607 0 -0.097921128137241215 0.0020243512805800138 0 -0.10271726065552091 0.0097110788566243285 0 -0.093541370402312474 0.0098172135897937607 0 -0.1092426205505718 -0.001834213791223281 0 -0.097921128137241215 0.0020243512805800138 0 -0.10271726065552091 0.0097110788566243285 0 -0.1092426205505718 -0.001834213791223281 0 -0.10271726065552091 0.0097110788566243285 0 -0.11411799673607929 0.008443453245583897 0 -0.10855897242352611 0.017575420843814089 0 -0.10271726065552091 0.0097110788566243285 0 -0.11411799673607929 0.008443453245583897 0 -0.10855897242352611 0.017575420843814089 0 -0.11411799673607929 0.008443453245583897 0 -0.1202367266027186 0.019949724052309568 0 -0.1092426205505718 -0.001834213791223281 0 -0.12684239433194619 -0.0024106449572988912 0 -0.11411799673607929 0.008443453245583897 0 -0.1356972964359357 0.0087647184508017305 0 -0.11411799673607929 0.008443453245583897 0 -0.1202367266027186 0.019949724052309568 0 -0.10855897242352611 0.017575420843814089 0 -0.1202367266027186 0.019949724052309568 0 -0.1104644629119769 0.028637878782569161 0 -0.1202367266027186 0.019949724052309568 0 -0.1104644629119769 0.028637878782569161 0 -0.1245186675874371 0.032491580885138947 0 -0.1104644629119769 0.028637878782569161 0 -0.1245186675874371 0.032491580885138947 0 -0.1179558061503731 0.045547451865388978 0 -0.13508918552537111 0.048437573378901158 0 -0.1179558061503731 0.045547451865388978 0 -0.1200770937022317 0.061032803681047812 0 -0.1179558061503731 0.045547451865388978 0 -0.1200770937022317 0.061032803681047812 0 -0.1038131223448288 0.059502691017654159 0 -0.1179558061503731 0.045547451865388978 0 -0.1038131223448288 0.059502691017654159 0 -0.092591933996788098 0.050893051038491559 0 -0.1038131223448288 0.059502691017654159 0 -0.089241077322883611 0.059963824654260298 0 -0.092591933996788098 0.050893051038491559 0 -0.094336331688691044 0.067772386408041702 0 -0.1038131223448288 0.059502691017654159 0 -0.089241077322883611 0.059963824654260298 0 -0.1179558061503731 0.045547451865388978 0 -0.0879387266253117 0.043332427165649258 0 -0.1104644629119769 0.028637878782569161 0 -0.1179558061503731 0.045547451865388978 0 -0.099494681897820625 0.034159993191892377 0 -0.1179558061503731 0.045547451865388978 0 -0.0879387266253117 0.043332427165649258 0 -0.092591933996788098 0.050893051038491559 0 -0.1179558061503731 0.045547451865388978 0 -0.099494681897820625 0.034159993191892377 0 -0.0879387266253117 0.043332427165649258 0 -0.099494681897820625 0.034159993191892377 0 -0.086719315752356252 0.031603191370789777 0 -0.0879387266253117 0.043332427165649258 0 -0.0879387266253117 0.043332427165649258 0 -0.080854876799911712 0.035396517182263922 0 -0.072136661975692282 0.036870988263070309 0 -0.086719315752356252 0.031603191370789777 0 -0.0879387266253117 0.043332427165649258 0 -0.080854876799911712 0.035396517182263922 0 -0.086719315752356252 0.031603191370789777 0 -0.080854876799911712 0.035396517182263922 0 -0.076624802846286574 0.029779461929546329 0 -0.092591933996788098 0.050893051038491559 0 -0.067179318721874812 0.05027448241032223 0 -0.0879387266253117 0.043332427165649258 0 -0.092591933996788098 0.050893051038491559 0 -0.067179318721874812 0.05027448241032223 0 -0.092591933996788098 0.050893051038491559 0 -0.079428449533967993 0.058781410192725897 0 -0.067179318721874812 0.05027448241032223 0 -0.089241077322883611 0.059963824654260298 0 -0.092591933996788098 0.050893051038491559 0 -0.079428449533967993 0.058781410192725897 0 -0.068032787614105944 0.064580008102436068 0 -0.079428449533967993 0.058781410192725897 0 -0.067179318721874812 0.05027448241032223 0 -0.068032787614105944 0.064580008102436068 0 -0.067179318721874812 0.05027448241032223 0 -0.055297638312560897 0.059830595490155361 0 -0.0879387266253117 0.043332427165649258 0 -0.067179318721874812 0.05027448241032223 0 -0.057921647100250051 0.041117402465909537 0 -0.0879387266253117 0.043332427165649258 0 -0.072136661975692282 0.036870988263070309 0 -0.057921647100250051 0.041117402465909537 0 -0.0879387266253117 0.043332427165649258 0 -0.057921647100250051 0.041117402465909537 0 -0.072136661975692282 0.036870988263070309 0 -0.06561961973803479 0.02835497416527568 0 -0.076624802846286574 0.029779461929546329 0 -0.080854876799911712 0.035396517182263922 0 -0.072136661975692282 0.036870988263070309 0 -0.076624802846286574 0.029779461929546329 0 -0.072136661975692282 0.036870988263070309 0 -0.06561961973803479 0.02835497416527568 0 -0.057921647100250051 0.041117402465909537 0 -0.06561961973803479 0.02835497416527568 0 -0.071524228544342858 0.021622626057776949 0 -0.062066625528552438 0.015435047064348249 0 -0.071524228544342858 0.021622626057776949 0 -0.073808383268641739 0.013268938332740799 0 -0.062066625528552438 0.015435047064348249 0 -0.071524228544342858 0.021622626057776949 0 -0.082199633015980822 0.02219064302757694 0 -0.073808383268641739 0.013268938332740799 0 -0.06561961973803479 0.02835497416527568 0 -0.071524228544342858 0.021622626057776949 0 -0.076624802846286574 0.029779461929546329 0 -0.071524228544342858 0.021622626057776949 0 -0.076624802846286574 0.029779461929546329 0 -0.082199633015980822 0.02219064302757694 0 -0.086719315752356252 0.031603191370789777 0 -0.076624802846286574 0.029779461929546329 0 -0.082199633015980822 0.02219064302757694 0 -0.082199633015980822 0.02219064302757694 0 -0.085507680904317221 0.013160345813307869 0 -0.073808383268641739 0.013268938332740799 0 -0.095258415211334879 0.021134969281983471 0 -0.082199633015980822 0.02219064302757694 0 -0.085507680904317221 0.013160345813307869 0 -0.095258415211334879 0.021134969281983471 0 -0.086719315752356252 0.031603191370789777 0 -0.082199633015980822 0.02219064302757694 0 -0.097921128137241215 0.0020243512805800138 0 -0.08924030644861769 0.001862120829466571 0 -0.093541370402312474 0.0098172135897937607 0 -0.095258415211334879 0.021134969281983471 0 -0.093541370402312474 0.0098172135897937607 0 -0.085507680904317221 0.013160345813307869 0 -0.08924030644861769 0.001862120829466571 0 -0.093541370402312474 0.0098172135897937607 0 -0.085507680904317221 0.013160345813307869 0 -0.085507680904317221 0.013160345813307869 0 -0.079256587518855212 0.0063215507336732606 0 -0.073808383268641739 0.013268938332740799 0 -0.08924030644861769 0.001862120829466571 0 -0.085507680904317221 0.013160345813307869 0 -0.079256587518855212 0.0063215507336732606 0 -0.07999044300750352 -0.003657782716673298 0 -0.08924030644861769 0.001862120829466571 0 -0.079256587518855212 0.0063215507336732606 0 -0.079256587518855212 0.0063215507336732606 0 -0.073808383268641739 0.013268938332740799 0 -0.067907753424216635 0.002033453052028423 0 -0.07999044300750352 -0.003657782716673298 0 -0.079256587518855212 0.0063215507336732606 0 -0.067907753424216635 0.002033453052028423 0 -0.073808383268641739 0.013268938332740799 0 -0.067907753424216635 0.002033453052028423 0 -0.062066625528552438 0.015435047064348249 0 -0.067907753424216635 0.002033453052028423 0 -0.055028287529294832 0.0036901326515541141 0 -0.062066625528552438 0.015435047064348249 0 -0.055028287529294832 0.0036901326515541141 0 -0.062066625528552438 0.015435047064348249 0 -0.045776894683851078 0.01552028473232844 0 -0.062066625528552438 0.015435047064348249 0 -0.05480492475959331 0.02614124288919514 0 -0.045776894683851078 0.01552028473232844 0 -0.06561961973803479 0.02835497416527568 0 -0.062066625528552438 0.015435047064348249 0 -0.05480492475959331 0.02614124288919514 0 -0.05480492475959331 0.02614124288919514 0 -0.042639836747278198 0.03027850601811382 0 -0.045776894683851078 0.01552028473232844 0 -0.042639836747278198 0.03027850601811382 0 -0.027904567575188399 0.038902377766169803 0 -0.026003451689153918 0.021045509818484381 0 -0.042639836747278198 0.03027850601811382 0 -0.045776894683851078 0.01552028473232844 0 -0.026003451689153918 0.021045509818484381 0 -0.035192282316726747 -0.002915282895884485 0 -0.045776894683851078 0.01552028473232844 0 -0.026003451689153918 0.021045509818484381 0 -0.035192282316726747 -0.002915282895884485 0 -0.055028287529294832 0.0036901326515541141 0 -0.045776894683851078 0.01552028473232844 0 -0.067179318721874812 0.05027448241032223 0 -0.057921647100250051 0.041117402465909537 0 -0.041766703446961352 0.049655913782152901 0 -0.067179318721874812 0.05027448241032223 0 -0.055297638312560897 0.059830595490155361 0 -0.041766703446961352 0.049655913782152901 0 -0.043634998659472617 0.068440440645636827 0 -0.055297638312560897 0.059830595490155361 0 -0.041766703446961352 0.049655913782152901 0 -0.067179318721874812 0.05027448241032223 0 -0.041766703446961352 0.049655913782152901 0 -0.06561961973803479 0.02835497416527568 0 -0.05480492475959331 0.02614124288919514 0 -0.057921647100250051 0.041117402465909537 0 -0.05480492475959331 0.02614124288919514 0 -0.042639836747278198 0.03027850601811382 0 -0.057921647100250051 0.041117402465909537 0 -0.057921647100250051 0.041117402465909537 0 -0.027904567575188399 0.038902377766169803 0 -0.057921647100250051 0.041117402465909537 0 -0.041766703446961352 0.049655913782152901 0 -0.027904567575188399 0.038902377766169803 0 -0.042639836747278198 0.03027850601811382 0 -0.057921647100250051 0.041117402465909537 0 -0.027904567575188399 0.038902377766169803 0 -0.043634998659472617 0.068440440645636827 0 -0.041766703446961352 0.049655913782152901 0 -0.031888340196912383 0.059391053768455312 0 -0.041766703446961352 0.049655913782152901 0 -0.01635408817204799 0.049037345153983572 0 -0.041766703446961352 0.049655913782152901 0 -0.031888340196912383 0.059391053768455312 0 -0.01635408817204799 0.049037345153983572 0 -0.025797570509167578 0.070430515492047957 0 -0.031888340196912383 0.059391053768455312 0 -0.01635408817204799 0.049037345153983572 0 -0.041766703446961352 0.049655913782152901 0 -0.01635408817204799 0.049037345153983572 0 -0.027904567575188399 0.038902377766169803 0 -0.027904567575188399 0.038902377766169803 0 -0.014870040676798689 0.036198685617870777 0 -0.026003451689153918 0.021045509818484381 0 -0.01635408817204799 0.049037345153983572 0 -0.027904567575188399 0.038902377766169803 0 -0.014870040676798689 0.036198685617870777 0 -0.01635408817204799 0.049037345153983572 0 -0.00010055596612229201 0.045408295712000613 0 -0.014870040676798689 0.036198685617870777 0 -0.00010055596612229201 0.045408295712000613 0 -0.014870040676798689 0.036198685617870777 0 -0.003987539981480822 0.026599899638715559 0 -0.0042660718709032937 0.064752717198481941 0 -0.025797570509167578 0.070430515492047957 0 -0.01635408817204799 0.049037345153983572 0 -0.0042660718709032937 0.064752717198481941 0 -0.01635408817204799 0.049037345153983572 0 -0.00010055596612229201 0.045408295712000613 0 -0.035192282316726747 -0.002915282895884485 0 -0.026003451689153918 0.021045509818484381 0 -0.01107981885403149 0.0016360662863579461 0 -0.026003451689153918 0.021045509818484381 0 -0.003987539981480822 0.026599899638715559 0 -0.01107981885403149 0.0016360662863579461 0 -0.014870040676798689 0.036198685617870777 0 -0.026003451689153918 0.021045509818484381 0 -0.003987539981480822 0.026599899638715559 0 -0.003987539981480822 0.026599899638715559 0 -0.01107981885403149 0.0016360662863579461 0 -0.003987539981480822 0.026599899638715559 0 -0.01107981885403149 0.0016360662863579461 0 0.015406173142220409 0.0064609396898271127 0 -0.003987539981480822 0.026599899638715559 0 0.02526803851867036 0.021584402852655359 0 0.015547991322429591 0.038658915711461878 0 -0.003987539981480822 0.026599899638715559 0 0.015406173142220409 0.0064609396898271127 0 0.02526803851867036 0.021584402852655359 0 0.015406173142220409 0.0064609396898271127 0 0.038220791075143361 0.0092760175726167814 0 0.031763877584191129 -0.0062805157547672387 0 0.015406173142220409 0.0064609396898271127 0 0.02526803851867036 0.021584402852655359 0 0.038220791075143361 0.0092760175726167814 0 -0.0042660718709032937 0.064752717198481941 0 -0.00010055596612229201 0.045408295712000613 0 0.018369484547570581 0.05759024229978324 0 -0.00010055596612229201 0.045408295712000613 0 0.015547991322429591 0.038658915711461878 0 0.018369484547570581 0.05759024229978324 0 -0.00010055596612229201 0.045408295712000613 0 -0.003987539981480822 0.026599899638715559 0 0.015547991322429591 0.038658915711461878 0 0.02526803851867036 0.021584402852655359 0 0.015547991322429591 0.038658915711461878 0 0.03819052949351015 0.042111738054154642 0 0.015547991322429591 0.038658915711461878 0 0.018369484547570581 0.05759024229978324 0 0.03819052949351015 0.042111738054154642 0 0.018369484547570581 0.05759024229978324 0 0.03819052949351015 0.042111738054154642 0 0.037147149604829413 0.064448090460939605 0 0.03819052949351015 0.042111738054154642 0 0.055123544718176633 0.059479387833866908 0 0.037147149604829413 0.064448090460939605 0 0.03819052949351015 0.042111738054154642 0 0.059908466783656307 0.044788045962714781 0 0.054812177023541471 0.02444586426153033 0 0.03819052949351015 0.042111738054154642 0 0.059908466783656307 0.044788045962714781 0 0.055123544718176633 0.059479387833866908 0 0.038220791075143361 0.0092760175726167814 0 0.053944165240844943 0.0024058838617552502 0 0.031763877584191129 -0.0062805157547672387 0 0.02526803851867036 0.021584402852655359 0 0.03819052949351015 0.042111738054154642 0 0.054812177023541471 0.02444586426153033 0 0.02526803851867036 0.021584402852655359 0 0.038220791075143361 0.0092760175726167814 0 0.054812177023541471 0.02444586426153033 0 0.054812177023541471 0.02444586426153033 0 0.053944165240844943 0.0024058838617552502 0 0.070570503255415779 0.0122646252730993 0 0.038220791075143361 0.0092760175726167814 0 0.054812177023541471 0.02444586426153033 0 0.053944165240844943 0.0024058838617552502 0 0.053944165240844943 0.0024058838617552502 0 0.070570503255415779 0.0122646252730993 0 0.070763749078664451 0.00153649197816739 0 0.070570503255415779 0.0122646252730993 0 0.070763749078664451 0.00153649197816739 0 0.091196029608631157 0.0095852164545678527 0 0.070570503255415779 0.0122646252730993 0 0.091196029608631157 0.0095852164545678527 0 0.080762701568252659 0.024393656425579099 0 0.070763749078664451 0.00153649197816739 0 0.091196029608631157 0.0095852164545678527 0 0.075497164155096025 -0.0089720185191537044 0 0.091196029608631157 0.0095852164545678527 0 0.080762701568252659 0.024393656425579099 0 0.10432089990596111 0.032647868822406792 0 0.054812177023541471 0.02444586426153033 0 0.070570503255415779 0.0122646252730993 0 0.080762701568252659 0.024393656425579099 0 0.054812177023541471 0.02444586426153033 0 0.080762701568252659 0.024393656425579099 0 0.077376973536653612 0.041763460418949877 0 0.059908466783656307 0.044788045962714781 0 0.054812177023541471 0.02444586426153033 0 0.077376973536653612 0.041763460418949877 0 0.059908466783656307 0.044788045962714781 0 0.055123544718176633 0.059479387833866908 0 0.075203715816402075 0.061868089708246379 0 0.059908466783656307 0.044788045962714781 0 0.077376973536653612 0.041763460418949877 0 0.075203715816402075 0.061868089708246379 0 0.077376973536653612 0.041763460418949877 0 0.075203715816402075 0.061868089708246379 0 0.098568665092158086 0.059220940007835551 0 0.077376973536653612 0.041763460418949877 0 0.10432089990596111 0.032647868822406792 0 0.098568665092158086 0.059220940007835551 0 0.080762701568252659 0.024393656425579099 0 0.077376973536653612 0.041763460418949877 0 0.10432089990596111 0.032647868822406792 0 0.10432089990596111 0.032647868822406792 0 0.098568665092158086 0.059220940007835551 0 0.11816806286939591 0.047038968090737467 0 0.098568665092158086 0.059220940007835551 0 0.11816806286939591 0.047038968090737467 0 0.1229128465412201 0.064342378436089392 0 0.10432089990596111 0.032647868822406792 0 0.11816806286939591 0.047038968090737467 0 0.12909259059593919 0.032264746589815423 0 0.10432089990596111 0.032647868822406792 0 0.117715754831061 0.017624516067968821 0 0.12909259059593919 0.032264746589815423 0 0.117715754831061 0.017624516067968821 0 0.109810942898761 0.00085303163549272656 0 0.12879430821262439 0.0027572904785835642 0 0.091196029608631157 0.0095852164545678527 0 0.109810942898761 0.00085303163549272656 0 0.099116565494595854 -0.0045790823182699008 0 0.091196029608631157 0.0095852164545678527 0 0.117715754831061 0.017624516067968821 0 0.109810942898761 0.00085303163549272656 0 0.091196029608631157 0.0095852164545678527 0 0.10432089990596111 0.032647868822406792 0 0.117715754831061 0.017624516067968821 0 0.091196029608631157 0.0095852164545678527 0 0.10432089990596111 0.032647868822406792 0 0.1054444128069779 0.10021705665785829 0 0.10993038885643069 0.11890538589914761 0 0.088741365401102099 0.11740677417611151 0 0.10993038885643069 0.11890538589914761 0 0.088741365401102099 0.11740677417611151 0 0.098269621445183183 0.1319777360925056 0 0.10993038885643069 0.11890538589914761 0 0.12690760393507261 0.1272026692018251 0 0.1361765349106592 0.1000957998559688 0 0.1054444128069779 0.10021705665785829 0 0.114324721259707 0.081852659343666631 0 0.1361765349106592 0.1000957998559688 0 0.1054444128069779 0.10021705665785829 0 0.10993038885643069 0.11890538589914761 0 0.1361765349106592 0.1000957998559688 0 0.114324721259707 0.081852659343666631 0 0.1229128465412201 0.064342378436089392 0 0.13670389610601039 0.079566463234652843 0 0.098568665092158086 0.059220940007835551 0 0.114324721259707 0.081852659343666631 0 0.1229128465412201 0.064342378436089392 0 0.098568665092158086 0.059220940007835551 0 0.114324721259707 0.081852659343666631 0 0.08623603098182156 0.087324432997728837 0 0.1054444128069779 0.10021705665785829 0 0.114324721259707 0.081852659343666631 0 0.08623603098182156 0.087324432997728837 0 0.075203715816402075 0.061868089708246379 0 0.098568665092158086 0.059220940007835551 0 0.08623603098182156 0.087324432997728837 0 0.075203715816402075 0.061868089708246379 0 0.08623603098182156 0.087324432997728837 0 0.056127302274246879 0.085732191682850026 0 0.08623603098182156 0.087324432997728837 0 0.071884277836780475 0.10869244932173761 0 0.056127302274246879 0.085732191682850026 0 0.08623603098182156 0.087324432997728837 0 0.071884277836780475 0.10869244932173761 0 0.088741365401102099 0.11740677417611151 0 0.1054444128069779 0.10021705665785829 0 0.08623603098182156 0.087324432997728837 0 0.088741365401102099 0.11740677417611151 0 0.071884277836780475 0.10869244932173761 0 0.054074719142478141 0.1120635837521344 0 0.067928686760601376 0.13366285142998091 0 0.071884277836780475 0.10869244932173761 0 0.088741365401102099 0.11740677417611151 0 0.067928686760601376 0.13366285142998091 0 0.054074719142478141 0.1120635837521344 0 0.046451641282746488 0.1287820728762103 0 0.067928686760601376 0.13366285142998091 0 0.071884277836780475 0.10869244932173761 0 0.054074719142478141 0.1120635837521344 0 0.056127302274246879 0.085732191682850026 0 0.054074719142478141 0.1120635837521344 0 0.037090922371021157 0.1050514626840679 0 0.056127302274246879 0.085732191682850026 0 0.037090922371021157 0.1050514626840679 0 0.046451641282746488 0.1287820728762103 0 0.054074719142478141 0.1120635837521344 0 0.037090922371021157 0.1050514626840679 0 0.046451641282746488 0.1287820728762103 0 0.037090922371021157 0.1050514626840679 0 0.025374418346804178 0.12601095652255659 0 0.046451641282746488 0.1287820728762103 0 0.055123544718176633 0.059479387833866908 0 0.056127302274246879 0.085732191682850026 0 0.037147149604829413 0.064448090460939605 0 0.055123544718176633 0.059479387833866908 0 0.075203715816402075 0.061868089708246379 0 0.056127302274246879 0.085732191682850026 0 0.037090922371021157 0.1050514626840679 0 0.027730203459295891 0.081320852491925597 0 0.037090922371021157 0.1050514626840679 0 0.056127302274246879 0.085732191682850026 0 0.027730203459295891 0.081320852491925597 0 0.056127302274246879 0.085732191682850026 0 0.037147149604829413 0.064448090460939605 0 0.027730203459295891 0.081320852491925597 0 0.018369484547570581 0.05759024229978324 0 0.027730203459295891 0.081320852491925597 0 0.018369484547570581 0.05759024229978324 0 0.037147149604829413 0.064448090460939605 0 0.027730203459295891 0.081320852491925597 0 0.018369484547570581 0.05759024229978324 0 0.027730203459295891 0.081320852491925597 0 0.0060949717525474812 0.081637648255242959 0 0.027730203459295891 0.081320852491925597 0 0.0060949717525474812 0.081637648255242959 0 0.01386301077930052 0.1067503783981619 0 -0.0042660718709032937 0.064752717198481941 0 0.018369484547570581 0.05759024229978324 0 0.0060949717525474812 0.081637648255242959 0 0.037090922371021157 0.1050514626840679 0 0.01386301077930052 0.1067503783981619 0 0.025374418346804178 0.12601095652255659 0 0.037090922371021157 0.1050514626840679 0 0.027730203459295891 0.081320852491925597 0 0.01386301077930052 0.1067503783981619 0 -0.0062757738786398919 0.097973495785085324 0 0.0060949717525474812 0.081637648255242959 0 0.01386301077930052 0.1067503783981619 0 -0.014653178200833389 0.1179466396929325 0 0.01386301077930052 0.1067503783981619 0 0.0048822091443339937 0.1301605238242998 0 0.01386301077930052 0.1067503783981619 0 0.0048822091443339937 0.1301605238242998 0 0.025374418346804178 0.12601095652255659 0 0.0048822091443339937 0.1301605238242998 0 0.025374418346804178 0.12601095652255659 0 0.01457251297159768 0.1441086957940366 0 0.025374418346804178 0.12601095652255659 0 0.01457251297159768 0.1441086957940366 0 0.033716678111417327 0.14297104247084361 0 0.01457251297159768 0.1441086957940366 0 0.02298795826066239 0.15771796754480241 0 0.033716678111417327 0.14297104247084361 0 -0.0037010412524152371 0.14888078615867709 0 0.01457251297159768 0.1441086957940366 0 0.0041639884908149429 0.16056727500179069 0 0.01457251297159768 0.1441086957940366 0 0.0041639884908149429 0.16056727500179069 0 0.02298795826066239 0.15771796754480241 0 -0.0037010412524152371 0.14888078615867709 0 0.0048822091443339937 0.1301605238242998 0 0.01457251297159768 0.1441086957940366 0 0.0041639884908149429 0.16056727500179069 0 0.013546703702292461 0.16693083663339681 0 0.02298795826066239 0.15771796754480241 0 -0.001354997550225002 0.1736186435965166 0 0.0041639884908149429 0.16056727500179069 0 0.013546703702292461 0.16693083663339681 0 -0.001354997550225002 0.1736186435965166 0 0.013546703702292461 0.16693083663339681 0 -0.001354997550225002 0.1736186435965166 0 0.013546703702292461 0.16693083663339681 0 0.01719065850706563 0.17952137181142069 0 -0.001354997550225002 0.1736186435965166 0 0.01719065850706563 0.17952137181142069 0 -0.001354997550225002 0.1736186435965166 0 0.01719065850706563 0.17952137181142069 0 0.0098783435714585571 0.18826853158479781 0 -0.0033409293665109712 0.18987861945848691 0 -0.001354997550225002 0.1736186435965166 0 0.0098783435714585571 0.18826853158479781 0 0.01719065850706563 0.17952137181142069 0 0.035736314564355803 0.18542410002632609 0 0.022049419007393871 0.19062902305285931 0 0.01719065850706563 0.17952137181142069 0 0.02968607831704264 0.16908236071777191 0 0.035736314564355803 0.18542410002632609 0 0.01719065850706563 0.17952137181142069 0 0.035736314564355803 0.18542410002632609 0 0.01719065850706563 0.17952137181142069 0 0.0098783435714585571 0.18826853158479781 0 0.022049419007393871 0.19062902305285931 0 0.013546703702292461 0.16693083663339681 0 0.02298795826066239 0.15771796754480241 0 0.02968607831704264 0.16908236071777191 0 0.013546703702292461 0.16693083663339681 0 0.01719065850706563 0.17952137181142069 0 0.02968607831704264 0.16908236071777191 0 0.02298795826066239 0.15771796754480241 0 0.02968607831704264 0.16908236071777191 0 0.041734637969951777 0.1571401855647527 0 0.02968607831704264 0.16908236071777191 0 0.041734637969951777 0.1571401855647527 0 0.054579000787331897 0.17160015188770361 0 0.02968607831704264 0.16908236071777191 0 0.035736314564355803 0.18542410002632609 0 0.054579000787331897 0.17160015188770361 0 0.035736314564355803 0.18542410002632609 0 0.054579000787331897 0.17160015188770361 0 0.054056020310466919 0.1875764284120072 0 0.054579000787331897 0.17160015188770361 0 0.054056020310466919 0.1875764284120072 0 0.065927334940788757 0.17838892676943169 0 0.041734637969951777 0.1571401855647527 0 0.061674113481240217 0.158148135442161 0 0.054579000787331897 0.17160015188770361 0 0.061674113481240217 0.158148135442161 0 0.051178899836741461 0.14406637652270321 0 0.067928686760601376 0.13366285142998091 0 0.041734637969951777 0.1571401855647527 0 0.061674113481240217 0.158148135442161 0 0.051178899836741461 0.14406637652270321 0 0.051178899836741461 0.14406637652270321 0 0.046451641282746488 0.1287820728762103 0 0.067928686760601376 0.13366285142998091 0 0.051178899836741461 0.14406637652270321 0 0.046451641282746488 0.1287820728762103 0 0.033716678111417327 0.14297104247084361 0 0.025374418346804178 0.12601095652255659 0 0.046451641282746488 0.1287820728762103 0 0.033716678111417327 0.14297104247084361 0 0.041734637969951777 0.1571401855647527 0 0.051178899836741461 0.14406637652270321 0 0.033716678111417327 0.14297104247084361 0 0.02298795826066239 0.15771796754480241 0 0.041734637969951777 0.1571401855647527 0 0.033716678111417327 0.14297104247084361 0 0.029317925332254139 0.24478168446463211 0 0.016216237630125741 0.2401422836731702 0 0.025543637339675369 0.23327964103602231 0 0.029317925332254139 0.24478168446463211 0 0.025543637339675369 0.23327964103602231 0 0.034998646829231331 0.2348859335779365 0 0.016216237630125741 0.2401422836731702 0 0.01537995498709081 0.2303252409960235 0 0.025543637339675369 0.23327964103602231 0 0.029317925332254139 0.24478168446463211 0 0.016216237630125741 0.2401422836731702 0 0.015906929713197151 0.2495792049620342 0 0.016216237630125741 0.2401422836731702 0 0.015906929713197151 0.2495792049620342 0 0.0089932618375068996 0.2470316380379072 0 0.016216237630125741 0.2401422836731702 0 0.0089932618375068996 0.2470316380379072 0 0.0085519394094101427 0.2407863080981669 0 0.0089932618375068996 0.2470316380379072 0 0.0049532390291931357 0.24476194340842461 0 0.0025002592476698329 0.2499952992231734 0 0.0089932618375068996 0.2470316380379072 0 0.0049532390291931357 0.24476194340842461 0 0.0085519394094101427 0.2407863080981669 0 0.0049532390291931357 0.24476194340842461 0 0.001636127094255771 0.24521926666408339 0 0.0030846075571230301 0.2407772050187918 0 -0.00098167415441836187 0.24233879243799991 0 0.001636127094255771 0.24521926666408339 0 0.0030846075571230301 0.2407772050187918 0 -0.002005662434308564 0.24836598281606709 0 0.001636127094255771 0.24521926666408339 0 0.0025002592476698329 0.2499952992231734 0 0.0049532390291931357 0.24476194340842461 0 0.001636127094255771 0.24521926666408339 0 0.0025002592476698329 0.2499952992231734 0 0.001227787271709478 0.23622629842462789 0 0.0030846075571230301 0.2407772050187918 0 0.0067619768626107583 0.236639208178896 0 -0.00044177489149930979 0.23934395803639541 0 0.001227787271709478 0.23622629842462789 0 0.0030846075571230301 0.2407772050187918 0 -0.00044177489149930979 0.23934395803639541 0 -0.00098167415441836187 0.24233879243799991 0 0.0030846075571230301 0.2407772050187918 0 0.0049532390291931357 0.24476194340842461 0 0.0030846075571230301 0.2407772050187918 0 0.0085519394094101427 0.2407863080981669 0 0.0030846075571230301 0.2407772050187918 0 0.0067619768626107583 0.236639208178896 0 0.0085519394094101427 0.2407863080981669 0 0.001227787271709478 0.23622629842462789 0 0.0067619768626107583 0.236639208178896 0 0.0041361557875554634 0.23224801319006391 0 0.0067619768626107583 0.236639208178896 0 0.01102084287862622 0.23597570905837459 0 0.0087080085341180828 0.23111613109405249 0 0.016216237630125741 0.2401422836731702 0 0.01102084287862622 0.23597570905837459 0 0.01537995498709081 0.2303252409960235 0 0.0067619768626107583 0.236639208178896 0 0.01102084287862622 0.23597570905837459 0 0.0085519394094101427 0.2407863080981669 0 0.016216237630125741 0.2401422836731702 0 0.01102084287862622 0.23597570905837459 0 0.0085519394094101427 0.2407863080981669 0 0.01537995498709081 0.2303252409960235 0 0.0087080085341180828 0.23111613109405249 0 0.011014765770023921 0.22228739790162999 0 0.01102084287862622 0.23597570905837459 0 0.01537995498709081 0.2303252409960235 0 0.0087080085341180828 0.23111613109405249 0 0.0067619768626107583 0.236639208178896 0 0.0087080085341180828 0.23111613109405249 0 0.0041361557875554634 0.23224801319006391 0 0.0087080085341180828 0.23111613109405249 0 0.003633430085715296 0.22656761900649491 0 0.011014765770023921 0.22228739790162999 0 0.0087080085341180828 0.23111613109405249 0 0.0041361557875554634 0.23224801319006391 0 0.003633430085715296 0.22656761900649491 0 0.0041361557875554634 0.23224801319006391 0 0.003633430085715296 0.22656761900649491 0 0.00034957618362370439 0.23069080924624799 0 0.001227787271709478 0.23622629842462789 0 0.0041361557875554634 0.23224801319006391 0 0.00034957618362370439 0.23069080924624799 0 -0.0043940024179732308 0.2245289383231 0 0.003633430085715296 0.22656761900649491 0 0.0034681343392300242 0.21780582288858169 0 0.003633430085715296 0.22656761900649491 0 0.011014765770023921 0.22228739790162999 0 0.0034681343392300242 0.21780582288858169 0 0.01537995498709081 0.2303252409960235 0 0.011014765770023921 0.22228739790162999 0 0.017059955139855271 0.22409346260401741 0 0.011014765770023921 0.22228739790162999 0 0.017059955139855271 0.22409346260401741 0 0.018585431944718449 0.21588953293306931 0 0.023388159962214151 0.22459451508295111 0 0.017059955139855271 0.22409346260401741 0 0.018585431944718449 0.21588953293306931 0 0.01537995498709081 0.2303252409960235 0 0.023388159962214151 0.22459451508295111 0 0.017059955139855271 0.22409346260401741 0 0.01537995498709081 0.2303252409960235 0 0.023388159962214151 0.22459451508295111 0 0.025543637339675369 0.23327964103602231 0 0.023388159962214151 0.22459451508295111 0 0.025543637339675369 0.23327964103602231 0 0.033689517325796371 0.2252453292100044 0 0.023388159962214151 0.22459451508295111 0 0.030934445233765019 0.21396319295911881 0 0.033689517325796371 0.2252453292100044 0 0.030934445233765019 0.21396319295911881 0 0.022174403614632091 0.20733710087209339 0 0.018585431944718449 0.21588953293306931 0 0.023388159962214151 0.22459451508295111 0 0.030934445233765019 0.21396319295911881 0 0.018585431944718449 0.21588953293306931 0 0.030934445233765019 0.21396319295911881 0 0.022174403614632091 0.20733710087209339 0 0.029577948731691509 0.2009910818779696 0 0.022174403614632091 0.20733710087209339 0 0.018585431944718449 0.21588953293306931 0 0.013910362500587621 0.20690166662652679 0 0.022174403614632091 0.20733710087209339 0 0.013910362500587621 0.20690166662652679 0 0.017863829662397829 0.19894002996378241 0 0.011014765770023921 0.22228739790162999 0 0.018585431944718449 0.21588953293306931 0 0.010182656767571321 0.21432313329458019 0 0.018585431944718449 0.21588953293306931 0 0.010182656767571321 0.21432313329458019 0 0.013910362500587621 0.20690166662652679 0 0.011014765770023921 0.22228739790162999 0 0.010182656767571321 0.21432313329458019 0 0.0034681343392300242 0.21780582288858169 0 -0.0049133572815684033 0.21374507306154791 0 0.0034681343392300242 0.21780582288858169 0 0.0039345892832965742 0.20873124612309329 0 0.010182656767571321 0.21432313329458019 0 0.0034681343392300242 0.21780582288858169 0 0.0039345892832965742 0.20873124612309329 0 -0.0041862342159543391 0.20221448064915409 0 0.0039345892832965742 0.20873124612309329 0 0.0064253170443337422 0.1994628317062932 0 0.0039345892832965742 0.20873124612309329 0 0.013910362500587621 0.20690166662652679 0 0.0064253170443337422 0.1994628317062932 0 0.010182656767571321 0.21432313329458019 0 0.0039345892832965742 0.20873124612309329 0 0.013910362500587621 0.20690166662652679 0 0.0064253170443337422 0.1994628317062932 0 0.0098783435714585571 0.18826853158479781 0 0.017863829662397829 0.19894002996378241 0 0.013910362500587621 0.20690166662652679 0 0.0064253170443337422 0.1994628317062932 0 0.017863829662397829 0.19894002996378241 0 -0.0033409293665109712 0.18987861945848691 0 0.0064253170443337422 0.1994628317062932 0 0.0098783435714585571 0.18826853158479781 0 0.0098783435714585571 0.18826853158479781 0 0.022049419007393871 0.19062902305285931 0 0.017863829662397829 0.19894002996378241 0 0.022049419007393871 0.19062902305285931 0 0.017863829662397829 0.19894002996378241 0 0.029577948731691509 0.2009910818779696 0 0.022174403614632091 0.20733710087209339 0 0.017863829662397829 0.19894002996378241 0 0.029577948731691509 0.2009910818779696 0 0.035736314564355803 0.18542410002632609 0 0.022049419007393871 0.19062902305285931 0 0.029577948731691509 0.2009910818779696 0 0.035736314564355803 0.18542410002632609 0 0.029577948731691509 0.2009910818779696 0 0.044831474103679991 0.2054924821447778 0 0.035736314564355803 0.18542410002632609 0 0.054056020310466919 0.1875764284120072 0 0.044831474103679991 0.2054924821447778 0 0.054056020310466919 0.1875764284120072 0 0.060374653672307488 0.20047319831893659 0 0.044831474103679991 0.2054924821447778 0 0.054056020310466919 0.1875764284120072 0 0.060374653672307488 0.20047319831893659 0 0.06903264599349547 0.18894208239268201 0 0.060374653672307488 0.20047319831893659 0 0.056877000522461071 0.2137028467103633 0 0.044831474103679991 0.2054924821447778 0 0.060374653672307488 0.20047319831893659 0 0.056877000522461071 0.2137028467103633 0 0.070167950921258687 0.21300603475774069 0 0.056877000522461071 0.2137028467103633 0 0.044831474103679991 0.2054924821447778 0 0.044190317809012669 0.21893301633221729 0 0.030934445233765019 0.21396319295911881 0 0.044831474103679991 0.2054924821447778 0 0.044190317809012669 0.21893301633221729 0 0.030934445233765019 0.21396319295911881 0 0.029577948731691509 0.2009910818779696 0 0.044831474103679991 0.2054924821447778 0 0.030934445233765019 0.21396319295911881 0 0.033689517325796371 0.2252453292100044 0 0.044190317809012669 0.21893301633221729 0 0.033689517325796371 0.2252453292100044 0 0.044034613252717347 0.23191966382065671 0 0.034998646829231331 0.2348859335779365 0 0.025543637339675369 0.23327964103602231 0 0.033689517325796371 0.2252453292100044 0 0.034998646829231331 0.2348859335779365 0 0.033689517325796371 0.2252453292100044 0 0.044034613252717347 0.23191966382065671 0 0.044190317809012669 0.21893301633221729 0 0.056877000522461071 0.2137028467103633 0 0.044190317809012669 0.21893301633221729 0 0.054899006996784412 0.2251351573227533 0 0.044034613252717347 0.23191966382065671 0 0.044190317809012669 0.21893301633221729 0 0.054899006996784412 0.2251351573227533 0 0.056877000522461071 0.2137028467103633 0 0.054899006996784412 0.2251351573227533 0 0.066885584791140235 0.22453284202447299 0 0.054899006996784412 0.2251351573227533 0 0.061265883623445268 0.2339931843857625 0 0.053016299154498188 0.2345959730238667 0 0.054899006996784412 0.2251351573227533 0 0.061265883623445268 0.2339931843857625 0 0.066885584791140235 0.22453284202447299 0 0.044034613252717347 0.23191966382065671 0 0.054899006996784412 0.2251351573227533 0 0.053016299154498188 0.2345959730238667 0 0.044034613252717347 0.23191966382065671 0 0.053016299154498188 0.2345959730238667 0 0.048525816408706908 0.24252437539858079 0 0.053016299154498188 0.2345959730238667 0 0.057705625510572491 0.24195181240903099 0 0.048525816408706908 0.24252437539858079 0 0.061265883623445268 0.2339931843857625 0 0.053016299154498188 0.2345959730238667 0 0.057705625510572491 0.24195181240903099 0 0.061265883623445268 0.2339931843857625 0 0.057705625510572491 0.24195181240903099 0 0.064238874878330868 0.24090225254599179 0 0.057705625510572491 0.24195181240903099 0 0.061959460249100262 0.24783207319966391 0 0.054094366050189149 0.2518637416210574 0 0.057705625510572491 0.24195181240903099 0 0.061959460249100262 0.24783207319966391 0 0.064238874878330868 0.24090225254599179 0 0.057705625510572491 0.24195181240903099 0 0.048525816408706908 0.24252437539858079 0 0.054094366050189149 0.2518637416210574 0 0.048525816408706908 0.24252437539858079 0 0.041404363608824643 0.25348224301858052 0 0.054094366050189149 0.2518637416210574 0 0.048525816408706908 0.24252437539858079 0 0.03934069387508176 0.24206345023507159 0 0.041404363608824643 0.25348224301858052 0 0.044034613252717347 0.23191966382065671 0 0.03934069387508176 0.24206345023507159 0 0.034998646829231331 0.2348859335779365 0 0.044034613252717347 0.23191966382065671 0 0.048525816408706908 0.24252437539858079 0 0.03934069387508176 0.24206345023507159 0 0.029317925332254139 0.24478168446463211 0 0.03934069387508176 0.24206345023507159 0 0.034998646829231331 0.2348859335779365 0 0.029317925332254139 0.24478168446463211 0 0.03934069387508176 0.24206345023507159 0 0.041404363608824643 0.25348224301858052 0 0.070399523447451276 0.24374680135240501 0 0.097379252948702755 0.24331431243700979 0 0.084124974478697226 0.25421320340662601 0 0.070399523447451276 0.24374680135240501 0 0.079797279486996053 0.22373129750852749 0 0.097379252948702755 0.24331431243700979 0 0.070399523447451276 0.24374680135240501 0 0.069863881561085056 0.23698739138309649 0 0.079797279486996053 0.22373129750852749 0 0.061959460249100262 0.24783207319966391 0 0.070399523447451276 0.24374680135240501 0 0.064238874878330868 0.24090225254599179 0 0.061265883623445268 0.2339931843857625 0 0.064238874878330868 0.24090225254599179 0 0.069863881561085056 0.23698739138309649 0 0.070399523447451276 0.24374680135240501 0 0.069863881561085056 0.23698739138309649 0 0.070399523447451276 0.24374680135240501 0 0.064238874878330868 0.24090225254599179 0 0.069863881561085056 0.23698739138309649 0 0.069863881561085056 0.23698739138309649 0 0.066885584791140235 0.22453284202447299 0 0.079797279486996053 0.22373129750852749 0 0.070399523447451276 0.24374680135240501 0 0.079797279486996053 0.22373129750852749 0 0.061265883623445268 0.2339931843857625 0 0.069863881561085056 0.23698739138309649 0 0.066885584791140235 0.22453284202447299 0 0.066885584791140235 0.22453284202447299 0 0.079797279486996053 0.22373129750852749 0 0.070167950921258687 0.21300603475774069 0 0.079797279486996053 0.22373129750852749 0 0.097379252948702755 0.24331431243700979 0 0.079797279486996053 0.22373129750852749 0 0.095913015147263539 0.22694651721723441 0 0.097379252948702755 0.24331431243700979 0 0.079797279486996053 0.22373129750852749 0 0.088891636436359542 0.21208869723431159 0 0.095913015147263539 0.22694651721723441 0 0.079797279486996053 0.22373129750852749 0 0.087327401209319061 0.20769351363288771 0 0.079342693907348605 0.21065423938529121 0 0.079797279486996053 0.22373129750852749 0 0.087327401209319061 0.20769351363288771 0 0.079797279486996053 0.22373129750852749 0 0.088891636436359542 0.21208869723431159 0 0.087327401209319061 0.20769351363288771 0 0.088891636436359542 0.21208869723431159 0 0.087327401209319061 0.20769351363288771 0 0.10158332727800549 0.20401144647294911 0 0.087327401209319061 0.20769351363288771 0 0.082329604024274694 0.2048418480574542 0 0.079342693907348605 0.21065423938529121 0 0.087327401209319061 0.20769351363288771 0 0.082329604024274694 0.2048418480574542 0 0.084201232174558521 0.1986234649117391 0 0.082329604024274694 0.2048418480574542 0 0.079342693907348605 0.21065423938529121 0 0.076864350542990512 0.20426663025732031 0 0.079797279486996053 0.22373129750852749 0 0.070167950921258687 0.21300603475774069 0 0.079797279486996053 0.22373129750852749 0 0.079342693907348605 0.21065423938529121 0 0.070167950921258687 0.21300603475774069 0 0.056877000522461071 0.2137028467103633 0 0.066885584791140235 0.22453284202447299 0 0.070167950921258687 0.21300603475774069 0 0.060374653672307488 0.20047319831893659 0 0.070167950921258687 0.21300603475774069 0 0.070123613000681123 0.19879613675018759 0 0.079342693907348605 0.21065423938529121 0 0.070167950921258687 0.21300603475774069 0 0.076864350542990512 0.20426663025732031 0 0.070167950921258687 0.21300603475774069 0 0.076864350542990512 0.20426663025732031 0 0.070123613000681123 0.19879613675018759 0 0.076864350542990512 0.20426663025732031 0 0.070123613000681123 0.19879613675018759 0 0.077645164991551191 0.1932503259003801 0 0.060374653672307488 0.20047319831893659 0 0.070123613000681123 0.19879613675018759 0 0.06903264599349547 0.18894208239268201 0 0.070123613000681123 0.19879613675018759 0 0.06903264599349547 0.18894208239268201 0 0.077645164991551191 0.1932503259003801 0 0.087327401209319061 0.20769351363288771 0 0.084201232174558521 0.1986234649117391 0 0.094857522931646093 0.19165572975724979 0 0.087327401209319061 0.20769351363288771 0 0.094857522931646093 0.19165572975724979 0 0.077645164991551191 0.1932503259003801 0 0.084201232174558521 0.1986234649117391 0 0.086876647899674697 0.18898085467314121 0 0.076864350542990512 0.20426663025732031 0 0.077645164991551191 0.1932503259003801 0 0.084201232174558521 0.1986234649117391 0 0.082329604024274694 0.2048418480574542 0 0.076864350542990512 0.20426663025732031 0 0.084201232174558521 0.1986234649117391 0 0.084201232174558521 0.1986234649117391 0 0.086876647899674697 0.18898085467314121 0 0.094857522931646093 0.19165572975724979 0 0.087327401209319061 0.20769351363288771 0 0.094857522931646093 0.19165572975724979 0 0.10158332727800549 0.20401144647294911 0 0.094857522931646093 0.19165572975724979 0 0.12088091603083589 0.1924983184744338 0 0.10158332727800549 0.20401144647294911 0 0.094857522931646093 0.19165572975724979 0 0.12088091603083589 0.1924983184744338 0 0.09715048593604049 0.18114207609050151 0 0.12088091603083589 0.1924983184744338 0 0.11595915978186699 0.2161209732658628 0 0.1287782952245102 0.20646777831267851 0 0.12088091603083589 0.1924983184744338 0 0.11595915978186699 0.2161209732658628 0 0.10158332727800549 0.20401144647294911 0 0.088891636436359542 0.21208869723431159 0 0.11595915978186699 0.2161209732658628 0 0.088891636436359542 0.21208869723431159 0 0.11595915978186699 0.2161209732658628 0 0.095913015147263539 0.22694651721723441 0 0.088891636436359542 0.21208869723431159 0 0.11595915978186699 0.2161209732658628 0 0.10158332727800549 0.20401144647294911 0 0.11595915978186699 0.2161209732658628 0 0.095913015147263539 0.22694651721723441 0 0.108679914141004 0.2349232809689189 0 0.11595915978186699 0.2161209732658628 0 0.12210385901552651 0.23965088722650391 0 0.108679914141004 0.2349232809689189 0 0.12210385901552651 0.23965088722650391 0 0.11204428381166009 0.24858371469798371 0 0.108679914141004 0.2349232809689189 0 0.12210385901552651 0.23965088722650391 0 0.11204428381166009 0.24858371469798371 0 0.1240282856996692 0.25140477374661241 0 0.11204428381166009 0.24858371469798371 0 0.108679914141004 0.2349232809689189 0 0.097379252948702755 0.24331431243700979 0 0.095913015147263539 0.22694651721723441 0 0.108679914141004 0.2349232809689189 0 0.097379252948702755 0.24331431243700979 0 0.079132531122533156 0.15328775584661761 0 0.085098378429707494 0.13818851017206299 0 0.095651293022274389 0.14803502777410699 0 0.079132531122533156 0.15328775584661761 0 0.091292695005482025 0.16538353577602849 0 0.095651293022274389 0.14803502777410699 0 0.088741365401102099 0.11740677417611151 0 0.085098378429707494 0.13818851017206299 0 0.098269621445183183 0.1319777360925056 0 0.088741365401102099 0.11740677417611151 0 0.085098378429707494 0.13818851017206299 0 0.067928686760601376 0.13366285142998091 0 0.085098378429707494 0.13818851017206299 0 0.095651293022274389 0.14803502777410699 0 0.098269621445183183 0.1319777360925056 0 0.061674113481240217 0.158148135442161 0 0.079132531122533156 0.15328775584661761 0 0.067928686760601376 0.13366285142998091 0 0.079132531122533156 0.15328775584661761 0 0.085098378429707494 0.13818851017206299 0 0.067928686760601376 0.13366285142998091 0 0.061674113481240217 0.158148135442161 0 0.054579000787331897 0.17160015188770361 0 0.072758403291587004 0.16762668123740809 0 0.061674113481240217 0.158148135442161 0 0.079132531122533156 0.15328775584661761 0 0.072758403291587004 0.16762668123740809 0 0.054579000787331897 0.17160015188770361 0 0.072758403291587004 0.16762668123740809 0 0.065927334940788757 0.17838892676943169 0 0.054056020310466919 0.1875764284120072 0 0.06903264599349547 0.18894208239268201 0 0.065927334940788757 0.17838892676943169 0 0.072758403291587004 0.16762668123740809 0 0.065927334940788757 0.17838892676943169 0 0.080528833464577176 0.1802326767058354 0 0.06903264599349547 0.18894208239268201 0 0.065927334940788757 0.17838892676943169 0 0.080528833464577176 0.1802326767058354 0 0.06903264599349547 0.18894208239268201 0 0.077645164991551191 0.1932503259003801 0 0.080528833464577176 0.1802326767058354 0 0.086876647899674697 0.18898085467314121 0 0.080528833464577176 0.1802326767058354 0 0.09715048593604049 0.18114207609050151 0 0.080528833464577176 0.1802326767058354 0 0.091292695005482025 0.16538353577602849 0 0.09715048593604049 0.18114207609050151 0 0.077645164991551191 0.1932503259003801 0 0.086876647899674697 0.18898085467314121 0 0.080528833464577176 0.1802326767058354 0 0.086876647899674697 0.18898085467314121 0 0.094857522931646093 0.19165572975724979 0 0.09715048593604049 0.18114207609050151 0 0.079132531122533156 0.15328775584661761 0 0.072758403291587004 0.16762668123740809 0 0.091292695005482025 0.16538353577602849 0 0.072758403291587004 0.16762668123740809 0 0.080528833464577176 0.1802326767058354 0 0.091292695005482025 0.16538353577602849 0 0.10331729006138279 0.17052546615845721 0 0.1146503743238735 0.17504577249549819 0 0.1096256660054413 0.15720863938998669 0 0.091292695005482025 0.16538353577602849 0 0.10331729006138279 0.17052546615845721 0 0.1096256660054413 0.15720863938998669 0 0.091292695005482025 0.16538353577602849 0 0.1096256660054413 0.15720863938998669 0 0.095651293022274389 0.14803502777410699 0 0.10331729006138279 0.17052546615845721 0 0.09715048593604049 0.18114207609050151 0 0.1146503743238735 0.17504577249549819 0 0.12088091603083589 0.1924983184744338 0 0.09715048593604049 0.18114207609050151 0 0.091292695005482025 0.16538353577602849 0 0.10331729006138279 0.17052546615845721 0 0.09715048593604049 0.18114207609050151 0 0.12088091603083589 0.1924983184744338 0 0.1146503743238735 0.17504577249549819 0 0.13409665402341719 0.1841771340528128 0 0.12088091603083589 0.1924983184744338 0 0.09715048593604049 0.18114207609050151 0 0.1146503743238735 0.17504577249549819 0 0.1146503743238735 0.17504577249549819 0 0.1096256660054413 0.15720863938998669 0 0.13065744004624449 0.16778777968392941 0 0.1096256660054413 0.15720863938998669 0 0.11260466892687759 0.13887778659694461 0 0.13589389753359599 0.15101029102572269 0 0.1096256660054413 0.15720863938998669 0 0.095651293022274389 0.14803502777410699 0 0.11260466892687759 0.13887778659694461 0 0.095651293022274389 0.14803502777410699 0 0.098269621445183183 0.1319777360925056 0 0.11260466892687759 0.13887778659694461 0 0.10993038885643069 0.11890538589914761 0 0.098269621445183183 0.1319777360925056 0 0.11260466892687759 0.13887778659694461 0 0.10993038885643069 0.11890538589914761 0 0.11260466892687759 0.13887778659694461 0 0.12690760393507261 0.1272026692018251 0 0.12690760393507261 0.1272026692018251 0 0.14785171823245391 0.1288751956060781 0 0.13589389753359599 0.15101029102572269 0 0.11260466892687759 0.13887778659694461 0 0.12690760393507261 0.1272026692018251 0 0.13589389753359599 0.15101029102572269 0 0.13589389753359599 0.15101029102572269 0 0.14627743778975419 0.16511693764642629 0 0.16121990290741769 0.1521806320581717 0 0.14785171823245391 0.1288751956060781 0 0.13589389753359599 0.15101029102572269 0 0.16121990290741769 0.1521806320581717 0 0.1096256660054413 0.15720863938998669 0 0.13589389753359599 0.15101029102572269 0 0.13065744004624449 0.16778777968392941 0 0.13589389753359599 0.15101029102572269 0 0.13065744004624449 0.16778777968392941 0 0.14627743778975419 0.16511693764642629 0 0.13065744004624449 0.16778777968392941 0 0.14466433109356081 0.17726108031137719 0 0.14627743778975419 0.16511693764642629 0 0.1146503743238735 0.17504577249549819 0 0.13065744004624449 0.16778777968392941 0 0.13409665402341719 0.1841771340528128 0 0.13065744004624449 0.16778777968392941 0 0.13409665402341719 0.1841771340528128 0 0.14466433109356081 0.17726108031137719 0 0.13409665402341719 0.1841771340528128 0 0.14466433109356081 0.17726108031137719 0 0.1491155165203574 0.18861529249327219 0 0.14466433109356081 0.17726108031137719 0 0.14627743778975419 0.16511693764642629 0 0.1589516173679521 0.17734490515293061 0 0.14466433109356081 0.17726108031137719 0 0.1589516173679521 0.17734490515293061 0 0.1491155165203574 0.18861529249327219 0 0.14627743778975419 0.16511693764642629 0 0.1589516173679521 0.17734490515293061 0 0.16121990290741769 0.1521806320581717 0 0.1589516173679521 0.17734490515293061 0 0.17478474845308539 0.17191229914732661 0 0.16121990290741769 0.1521806320581717 0 0.1589516173679521 0.17734490515293061 0 0.17478474845308539 0.17191229914732661 0 0.1712538672799514 0.1880001881164407 0 0.1589516173679521 0.17734490515293061 0 0.1491155165203574 0.18861529249327219 0 0.16162700199713809 0.19475265636628189 0 0.1589516173679521 0.17734490515293061 0 0.16162700199713809 0.19475265636628189 0 0.1712538672799514 0.1880001881164407 0 0.17478474845308539 0.17191229914732661 0 0.18314398492344741 0.18343386462236189 0 0.194901954537963 0.16944645219746149 0 0.17478474845308539 0.17191229914732661 0 0.18314398492344741 0.18343386462236189 0 0.1712538672799514 0.1880001881164407 0 0.17478474845308539 0.17191229914732661 0 0.18476367364700619 0.15006352396100611 0 0.194901954537963 0.16944645219746149 0 0.17478474845308539 0.17191229914732661 0 0.18476367364700619 0.15006352396100611 0 0.16121990290741769 0.1521806320581717 0 0.18476367364700619 0.15006352396100611 0 0.17214980101653271 0.12861947788116659 0 0.16121990290741769 0.1521806320581717 0 0.18476367364700619 0.15006352396100611 0 0.17214980101653271 0.12861947788116659 0 0.1999558879733139 0.12893622275722949 0 0.14785171823245391 0.1288751956060781 0 0.17214980101653271 0.12861947788116659 0 0.16121990290741769 0.1521806320581717 0 0.1523823758574599 0.2440195334531422 0 0.15196666562546371 0.23334108455560021 0 0.16056522708951179 0.23773248819960219 0 0.1523823758574599 0.2440195334531422 0 0.1374701248178074 0.2354586345522052 0 0.15196666562546371 0.23334108455560021 0 0.1523823758574599 0.2440195334531422 0 0.1374701248178074 0.2354586345522052 0 0.14322756819817459 0.25050553645822832 0 0.1322822907628694 0.24644128385446659 0 0.1374701248178074 0.2354586345522052 0 0.14322756819817459 0.25050553645822832 0 0.12210385901552651 0.23965088722650391 0 0.1322822907628694 0.24644128385446659 0 0.1240282856996692 0.25140477374661241 0 0.12210385901552651 0.23965088722650391 0 0.1322822907628694 0.24644128385446659 0 0.1374701248178074 0.2354586345522052 0 0.11595915978186699 0.2161209732658628 0 0.12210385901552651 0.23965088722650391 0 0.1374701248178074 0.2354586345522052 0 0.11595915978186699 0.2161209732658628 0 0.1374701248178074 0.2354586345522052 0 0.14302668312737449 0.22015324929741389 0 0.14302668312737449 0.22015324929741389 0 0.15196666562546371 0.23334108455560021 0 0.159092415299491 0.23013654216727891 0 0.1374701248178074 0.2354586345522052 0 0.14302668312737449 0.22015324929741389 0 0.15196666562546371 0.23334108455560021 0 0.14302668312737449 0.22015324929741389 0 0.1446113461256312 0.2038545608583662 0 0.16834177622042659 0.21521080324229849 0 0.11595915978186699 0.2161209732658628 0 0.14302668312737449 0.22015324929741389 0 0.1287782952245102 0.20646777831267851 0 0.14302668312737449 0.22015324929741389 0 0.1446113461256312 0.2038545608583662 0 0.1287782952245102 0.20646777831267851 0 0.11595915978186699 0.2161209732658628 0 0.14302668312737449 0.22015324929741389 0 0.12088091603083589 0.1924983184744338 0 0.1446113461256312 0.2038545608583662 0 0.1287782952245102 0.20646777831267851 0 0.12088091603083589 0.1924983184744338 0 0.13409665402341719 0.1841771340528128 0 0.1446113461256312 0.2038545608583662 0 0.12088091603083589 0.1924983184744338 0 0.1446113461256312 0.2038545608583662 0 0.13409665402341719 0.1841771340528128 0 0.1446113461256312 0.2038545608583662 0 0.1491155165203574 0.18861529249327219 0 0.1446113461256312 0.2038545608583662 0 0.1491155165203574 0.18861529249327219 0 0.16162700199713809 0.19475265636628189 0 0.1446113461256312 0.2038545608583662 0 0.16162700199713809 0.19475265636628189 0 0.16574489605975329 0.20434753561527569 0 0.16162700199713809 0.19475265636628189 0 0.1712538672799514 0.1880001881164407 0 0.1791455624341706 0.19889906796902429 0 0.16162700199713809 0.19475265636628189 0 0.1791455624341706 0.19889906796902429 0 0.16574489605975329 0.20434753561527569 0 0.18314398492344741 0.18343386462236189 0 0.1712538672799514 0.1880001881164407 0 0.1791455624341706 0.19889906796902429 0 0.18314398492344741 0.18343386462236189 0 0.1791455624341706 0.19889906796902429 0 0.1956337919120662 0.18891131568155611 0 0.1791455624341706 0.19889906796902429 0 0.1749987935214003 0.2090205896404074 0 0.16574489605975329 0.20434753561527569 0 0.1791455624341706 0.19889906796902429 0 0.1749987935214003 0.2090205896404074 0 0.18359763226654069 0.20886897665059431 0 0.1791455624341706 0.19889906796902429 0 0.18359763226654069 0.20886897665059431 0 0.1962298191582498 0.2045905584680624 0 0.18359763226654069 0.20886897665059431 0 0.1781068059931887 0.2160982287289373 0 0.1895071802256941 0.21573643844654011 0 0.1749987935214003 0.2090205896404074 0 0.1781068059931887 0.2160982287289373 0 0.16834177622042659 0.21521080324229849 0 0.1781068059931887 0.2160982287289373 0 0.16834177622042659 0.21521080324229849 0 0.1700942064728822 0.22418552532896521 0 0.1749987935214003 0.2090205896404074 0 0.18359763226654069 0.20886897665059431 0 0.1781068059931887 0.2160982287289373 0 0.1446113461256312 0.2038545608583662 0 0.16834177622042659 0.21521080324229849 0 0.1446113461256312 0.2038545608583662 0 0.16834177622042659 0.21521080324229849 0 0.16574489605975329 0.20434753561527569 0 0.1749987935214003 0.2090205896404074 0 0.16834177622042659 0.21521080324229849 0 0.16574489605975329 0.20434753561527569 0 0.14302668312737449 0.22015324929741389 0 0.159092415299491 0.23013654216727891 0 0.1700942064728822 0.22418552532896521 0 0.14302668312737449 0.22015324929741389 0 0.1700942064728822 0.22418552532896521 0 0.14302668312737449 0.22015324929741389 0 0.16834177622042659 0.21521080324229849 0 0.1700942064728822 0.22418552532896521 0 0.15196666562546371 0.23334108455560021 0 0.159092415299491 0.23013654216727891 0 0.16056522708951179 0.23773248819960219 0 0.1700942064728822 0.22418552532896521 0 0.1756954214245669 0.2301994593045027 0 0.16980929418222299 0.23527036345481281 0 0.159092415299491 0.23013654216727891 0 0.1700942064728822 0.22418552532896521 0 0.16980929418222299 0.23527036345481281 0 0.1781068059931887 0.2160982287289373 0 0.1700942064728822 0.22418552532896521 0 0.18247485328372159 0.22556346952045281 0 0.1781068059931887 0.2160982287289373 0 0.18247485328372159 0.22556346952045281 0 0.1895071802256941 0.21573643844654011 0 0.18247485328372159 0.22556346952045281 0 0.1804033317594407 0.23577847891377979 0 0.19231371774265749 0.23357223333623769 0 0.1756954214245669 0.2301994593045027 0 0.1804033317594407 0.23577847891377979 0 0.16980929418222299 0.23527036345481281 0 0.18247485328372159 0.22556346952045281 0 0.1756954214245669 0.2301994593045027 0 0.1804033317594407 0.23577847891377979 0 0.1700942064728822 0.22418552532896521 0 0.18247485328372159 0.22556346952045281 0 0.1756954214245669 0.2301994593045027 0 0.1804033317594407 0.23577847891377979 0 0.1766762930459298 0.24533440230458961 0 0.16980929418222299 0.23527036345481281 0 0.1804033317594407 0.23577847891377979 0 0.18878081200359581 0.24566942103034811 0 0.19231371774265749 0.23357223333623769 0 0.1766762930459298 0.24533440230458961 0 0.18878081200359581 0.24566942103034811 0 0.18490779442650609 0.25559020776125357 0 0.1804033317594407 0.23577847891377979 0 0.1766762930459298 0.24533440230458961 0 0.18878081200359581 0.24566942103034811 0 0.1766762930459298 0.24533440230458961 0 0.16441212985479001 0.24511593227421499 0 0.17218655778912109 0.25430338789713453 0 0.16441212985479001 0.24511593227421499 0 0.16980929418222299 0.23527036345481281 0 0.16056522708951179 0.23773248819960219 0 0.1766762930459298 0.24533440230458961 0 0.16441212985479001 0.24511593227421499 0 0.16980929418222299 0.23527036345481281 0 0.159092415299491 0.23013654216727891 0 0.16980929418222299 0.23527036345481281 0 0.16056522708951179 0.23773248819960219 0 0.1523823758574599 0.2440195334531422 0 0.16441212985479001 0.24511593227421499 0 0.15772030681778071 0.25039649848589418 0 0.1523823758574599 0.2440195334531422 0 0.16441212985479001 0.24511593227421499 0 0.16056522708951179 0.23773248819960219 0 0.2103244671141446 0.24815240516277451 0 0.21832393209863341 0.23370034890758881 0 0.22340588306546499 0.24648829058061131 0 0.20696752867152121 0.23730651719759921 0 0.2103244671141446 0.24815240516277451 0 0.21832393209863341 0.23370034890758881 0 0.20696752867152121 0.23730651719759921 0 0.2103244671141446 0.24815240516277451 0 0.19942420770430511 0.24470851503301741 0 0.19942420770430511 0.24470851503301741 0 0.18878081200359581 0.24566942103034811 0 0.19895952734273589 0.2590326888332104 0 0.19942420770430511 0.24470851503301741 0 0.18878081200359581 0.24566942103034811 0 0.19231371774265749 0.23357223333623769 0 0.20696752867152121 0.23730651719759921 0 0.19942420770430511 0.24470851503301741 0 0.19231371774265749 0.23357223333623769 0 0.19231371774265749 0.23357223333623769 0 0.19221570672955121 0.22401039546489879 0 0.20350521735755289 0.22676488048795859 0 0.20696752867152121 0.23730651719759921 0 0.19231371774265749 0.23357223333623769 0 0.20350521735755289 0.22676488048795859 0 0.18247485328372159 0.22556346952045281 0 0.19231371774265749 0.23357223333623769 0 0.19221570672955121 0.22401039546489879 0 0.19221570672955121 0.22401039546489879 0 0.1987954532145923 0.2166574567792191 0 0.1895071802256941 0.21573643844654011 0 0.18247485328372159 0.22556346952045281 0 0.19221570672955121 0.22401039546489879 0 0.1895071802256941 0.21573643844654011 0 0.19221570672955121 0.22401039546489879 0 0.20350521735755289 0.22676488048795859 0 0.1987954532145923 0.2166574567792191 0 0.20350521735755289 0.22676488048795859 0 0.21832393209863341 0.23370034890758881 0 0.2211935804899382 0.22129573812119821 0 0.20350521735755289 0.22676488048795859 0 0.21028667960615499 0.21167897315752551 0 0.2211935804899382 0.22129573812119821 0 0.20696752867152121 0.23730651719759921 0 0.20350521735755289 0.22676488048795859 0 0.21832393209863341 0.23370034890758881 0 0.21028667960615499 0.21167897315752551 0 0.21456542736041551 0.1921131458771127 0 0.22492689428569709 0.2076436843277453 0 0.20350521735755289 0.22676488048795859 0 0.21028667960615499 0.21167897315752551 0 0.1987954532145923 0.2166574567792191 0 0.21028667960615499 0.21167897315752551 0 0.1987954532145923 0.2166574567792191 0 0.1962298191582498 0.2045905584680624 0 0.1987954532145923 0.2166574567792191 0 0.1895071802256941 0.21573643844654011 0 0.1962298191582498 0.2045905584680624 0 0.18359763226654069 0.20886897665059431 0 0.1895071802256941 0.21573643844654011 0 0.1962298191582498 0.2045905584680624 0 0.1791455624341706 0.19889906796902429 0 0.1962298191582498 0.2045905584680624 0 0.1956337919120662 0.18891131568155611 0 0.1962298191582498 0.2045905584680624 0 0.1956337919120662 0.18891131568155611 0 0.21456542736041551 0.1921131458771127 0 0.21028667960615499 0.21167897315752551 0 0.1962298191582498 0.2045905584680624 0 0.21456542736041551 0.1921131458771127 0 0.21456542736041551 0.1921131458771127 0 0.23044858182325401 0.19475572098252261 0 0.22492689428569709 0.2076436843277453 0 0.23044858182325401 0.19475572098252261 0 0.24190545341244329 0.2051566678978386 0 0.22492689428569709 0.2076436843277453 0 0.21456542736041551 0.1921131458771127 0 0.23044858182325401 0.19475572098252261 0 0.23221757921089561 0.18061268687309329 0 0.24190545341244329 0.2051566678978386 0 0.2473586422174934 0.17909700040676241 0 0.25755075896001339 0.20267407045912511 0 0.23044858182325401 0.19475572098252261 0 0.24190545341244329 0.2051566678978386 0 0.2473586422174934 0.17909700040676241 0 0.24190545341244329 0.2051566678978386 0 0.22492689428569709 0.2076436843277453 0 0.237442936396044 0.22253522446368521 0 0.24190545341244329 0.2051566678978386 0 0.237442936396044 0.22253522446368521 0 0.25139918172692383 0.21816380135630009 0 0.22492689428569709 0.2076436843277453 0 0.2211935804899382 0.22129573812119821 0 0.237442936396044 0.22253522446368521 0 0.21028667960615499 0.21167897315752551 0 0.22492689428569709 0.2076436843277453 0 0.2211935804899382 0.22129573812119821 0 0.2211935804899382 0.22129573812119821 0 0.237442936396044 0.22253522446368521 0 0.23038537072264781 0.23439164759485201 0 0.21832393209863341 0.23370034890758881 0 0.2211935804899382 0.22129573812119821 0 0.23038537072264781 0.23439164759485201 0 0.237442936396044 0.22253522446368521 0 0.2520651424548192 0.2338049592035665 0 0.25139918172692383 0.21816380135630009 0 0.237442936396044 0.22253522446368521 0 0.24032814660690011 0.23770761085345751 0 0.2520651424548192 0.2338049592035665 0 0.237442936396044 0.22253522446368521 0 0.24032814660690011 0.23770761085345751 0 0.23038537072264781 0.23439164759485201 0 0.24032814660690011 0.23770761085345751 0 0.23585449422308771 0.2462814536726553 0 0.23038537072264781 0.23439164759485201 0 0.24032814660690011 0.23770761085345751 0 0.24711866831732671 0.24511003521626959 0 0.2520651424548192 0.2338049592035665 0 0.24711866831732671 0.24511003521626959 0 0.23585449422308771 0.2462814536726553 0 0.24481430044314709 0.25516863214587021 0 0.24032814660690011 0.23770761085345751 0 0.24711866831732671 0.24511003521626959 0 0.23585449422308771 0.2462814536726553 0 0.23585449422308771 0.2462814536726553 0 0.23038537072264781 0.23439164759485201 0 0.22340588306546499 0.24648829058061131 0 0.21832393209863341 0.23370034890758881 0 0.23038537072264781 0.23439164759485201 0 0.22340588306546499 0.24648829058061131 0 0.2055697469937246 0.14928605972468109 0 0.2186310220044122 0.1429039814243673 0 0.22895380988173189 0.15389960673320249 0 0.2055697469937246 0.14928605972468109 0 0.22895380988173189 0.15389960673320249 0 0.2055697469937246 0.14928605972468109 0 0.2186310220044122 0.1429039814243673 0 0.1999558879733139 0.12893622275722949 0 0.2186310220044122 0.1429039814243673 0 0.1999558879733139 0.12893622275722949 0 0.22336809220234899 0.1236004933914872 0 0.18476367364700619 0.15006352396100611 0 0.2055697469937246 0.14928605972468109 0 0.1999558879733139 0.12893622275722949 0 0.18476367364700619 0.15006352396100611 0 0.2055697469937246 0.14928605972468109 0 0.194901954537963 0.16944645219746149 0 0.1956337919120662 0.18891131568155611 0 0.194901954537963 0.16944645219746149 0 0.20641080865036229 0.18033123619401131 0 0.18314398492344741 0.18343386462236189 0 0.1956337919120662 0.18891131568155611 0 0.194901954537963 0.16944645219746149 0 0.194901954537963 0.16944645219746149 0 0.20641080865036229 0.18033123619401131 0 0.2205420607910043 0.17085403101991509 0 0.1956337919120662 0.18891131568155611 0 0.21456542736041551 0.1921131458771127 0 0.20641080865036229 0.18033123619401131 0 0.21456542736041551 0.1921131458771127 0 0.20641080865036229 0.18033123619401131 0 0.2205420607910043 0.17085403101991509 0 0.2055697469937246 0.14928605972468109 0 0.194901954537963 0.16944645219746149 0 0.2205420607910043 0.17085403101991509 0 0.2055697469937246 0.14928605972468109 0 0.2205420607910043 0.17085403101991509 0 0.22895380988173189 0.15389960673320249 0 0.2205420607910043 0.17085403101991509 0 0.2332477235152195 0.16799665107747469 0 0.22895380988173189 0.15389960673320249 0 0.2205420607910043 0.17085403101991509 0 0.22895380988173189 0.15389960673320249 0 0.2332477235152195 0.16799665107747469 0 0.2371665254749723 0.15551993035440001 0 0.22895380988173189 0.15389960673320249 0 0.21456542736041551 0.1921131458771127 0 0.2205420607910043 0.17085403101991509 0 0.23221757921089561 0.18061268687309329 0 0.2205420607910043 0.17085403101991509 0 0.2332477235152195 0.16799665107747469 0 0.23221757921089561 0.18061268687309329 0 0.23044858182325401 0.19475572098252261 0 0.23221757921089561 0.18061268687309329 0 0.2473586422174934 0.17909700040676241 0 0.2332477235152195 0.16799665107747469 0 0.23221757921089561 0.18061268687309329 0 0.2473586422174934 0.17909700040676241 0 0.2473586422174934 0.17909700040676241 0 0.2371665254749723 0.15551993035440001 0 0.2371665254749723 0.15551993035440001 0 0.25898227684926389 0.1598240581261029 0 0.2473586422174934 0.17909700040676241 0 0.2371665254749723 0.15551993035440001 0 0.25898227684926389 0.1598240581261029 0 0.2332477235152195 0.16799665107747469 0 0.2473586422174934 0.17909700040676241 0 0.2371665254749723 0.15551993035440001 0 0.2371665254749723 0.15551993035440001 0 0.25079872324042868 0.14386359070849269 0 0.25898227684926389 0.1598240581261029 0 0.2371665254749723 0.15551993035440001 0 0.23296825870988311 0.14580822550253969 0 0.25079872324042868 0.14386359070849269 0 0.2371665254749723 0.15551993035440001 0 0.23296825870988311 0.14580822550253969 0 0.2371665254749723 0.15551993035440001 0 0.22895380988173189 0.15389960673320249 0 0.23296825870988311 0.14580822550253969 0 0.22895380988173189 0.15389960673320249 0 0.23296825870988311 0.14580822550253969 0 0.2371665254749723 0.15551993035440001 0 0.22895380988173189 0.15389960673320249 0 0.2186310220044122 0.1429039814243673 0 0.22895380988173189 0.15389960673320249 0 0.23296825870988311 0.14580822550253969 0 0.23296825870988311 0.14580822550253969 0 0.22336809220234899 0.1236004933914872 0 0.2186310220044122 0.1429039814243673 0 0.23296825870988311 0.14580822550253969 0 0.22336809220234899 0.1236004933914872 0 0.23296825870988311 0.14580822550253969 0 0.243794950737863 0.1239863275495639 0 0.22336809220234899 0.1236004933914872 0 0.23296825870988311 0.14580822550253969 0 0.243794950737863 0.1239863275495639 0 0.23296825870988311 0.14580822550253969 0 0.243794950737863 0.1239863275495639 0 0.25079872324042868 0.14386359070849269 0 0.243794950737863 0.1239863275495639 0 0.25462164276584198 0.10216442959658779 0 0.243794950737863 0.1239863275495639 0 0.2353974528268821 0.10296473775492861 0 0.25462164276584198 0.10216442959658779 0 0.2353974528268821 0.10296473775492861 0 0.25013484754435239 0.089312210651446719 0 0.25462164276584198 0.10216442959658779 0 0.2353974528268821 0.10296473775492861 0 0.23631640620475919 0.089786214883944671 0 0.25013484754435239 0.089312210651446719 0 0.2353974528268821 0.10296473775492861 0 0.21376792569481559 0.1013927612804344 0 0.2243334793988461 0.089880171910496465 0 0.2353974528268821 0.10296473775492861 0 0.22336809220234899 0.1236004933914872 0 0.21376792569481559 0.1013927612804344 0 0.2353974528268821 0.10296473775492861 0 0.2243334793988461 0.089880171910496465 0 0.23631640620475919 0.089786214883944671 0 0.243794950737863 0.1239863275495639 0 0.2353974528268821 0.10296473775492861 0 0.22336809220234899 0.1236004933914872 0 0.22336809220234899 0.1236004933914872 0 0.21376792569481559 0.1013927612804344 0 0.1999558879733139 0.12893622275722949 0 0.22336809220234899 0.1236004933914872 0 0.21376792569481559 0.1013927612804344 0 0.21376792569481559 0.1013927612804344 0 0.19357369295727 0.091029019402396591 0 0.18280532478067821 0.107557288760172 0 0.1999558879733139 0.12893622275722949 0 0.21376792569481559 0.1013927612804344 0 0.18280532478067821 0.107557288760172 0 0.21230659309943509 0.064842857568477047 0 0.19387519691047031 0.052920437468004497 0 0.1869299070365098 0.076593838330974245 0 0.20416775918728219 0.079185029169381693 0 0.21230659309943509 0.064842857568477047 0 0.1869299070365098 0.076593838330974245 0 0.21230659309943509 0.064842857568477047 0 0.1869299070365098 0.076593838330974245 0 0.19357369295727 0.091029019402396591 0 0.20416775918728219 0.079185029169381693 0 0.1869299070365098 0.076593838330974245 0 0.20416775918728219 0.079185029169381693 0 0.21796391981381441 0.077748738156074582 0 0.2243334793988461 0.089880171910496465 0 0.21376792569481559 0.1013927612804344 0 0.19357369295727 0.091029019402396591 0 0.20416775918728219 0.079185029169381693 0 0.21376792569481559 0.1013927612804344 0 0.20416775918728219 0.079185029169381693 0 0.2243334793988461 0.089880171910496465 0 0.21376792569481559 0.1013927612804344 0 0.20416775918728219 0.079185029169381693 0 0.20416775918728219 0.079185029169381693 0 0.21796391981381441 0.077748738156074582 0 0.21230659309943509 0.064842857568477047 0 0.21230659309943509 0.064842857568477047 0 0.21414528369460939 0.063991429696512059 0 0.2257897129884551 0.066480682179063111 0 0.21230659309943509 0.064842857568477047 0 0.21414528369460939 0.063991429696512059 0 0.2131489118825261 0.0613186900886835 0 0.21230659309943509 0.064842857568477047 0 0.21414528369460939 0.063991429696512059 0 0.21230659309943509 0.064842857568477047 0 0.2257897129884551 0.066480682179063111 0 0.2312207203218937 0.077077534109961945 0 0.21230659309943509 0.064842857568477047 0 0.2312207203218937 0.077077534109961945 0 0.21414528369460939 0.063991429696512059 0 0.2257897129884551 0.066480682179063111 0 0.2178651574880282 0.058015885660395977 0 0.2257897129884551 0.066480682179063111 0 0.2312207203218937 0.077077534109961945 0 0.23598468486298441 0.061177265399028069 0 0.21796391981381441 0.077748738156074582 0 0.21230659309943509 0.064842857568477047 0 0.2312207203218937 0.077077534109961945 0 0.21796391981381441 0.077748738156074582 0 0.2312207203218937 0.077077534109961945 0 0.2243334793988461 0.089880171910496465 0 0.2312207203218937 0.077077534109961945 0 0.2243334793988461 0.089880171910496465 0 0.23631640620475919 0.089786214883944671 0 0.2312207203218937 0.077077534109961945 0 0.23631640620475919 0.089786214883944671 0 0.25013484754435239 0.089312210651446719 0 0.2312207203218937 0.077077534109961945 0 0.25013484754435239 0.089312210651446719 0 0.2312207203218937 0.077077534109961945 0 0.23598468486298441 0.061177265399028069 0 0.25076260917159371 0.067604295308239623 0 0.2312207203218937 0.077077534109961945 0 0.25076260917159371 0.067604295308239623 0 0.25013484754435239 0.089312210651446719 0 0.23598468486298441 0.061177265399028069 0 0.24324862580501719 0.043699375385111268 0 0.22890175602796239 0.051024440012764398 0 0.23598468486298441 0.061177265399028069 0 0.24324862580501719 0.043699375385111268 0 0.25076260917159371 0.067604295308239623 0 0.24324862580501719 0.043699375385111268 0 0.2303560944758109 0.034554223624098858 0 0.25035344126441311 0.024856540025677429 0 0.2303560944758109 0.034554223624098858 0 0.22890175602796239 0.051024440012764398 0 0.21613840432333101 0.04691246852366434 0 0.2303560944758109 0.034554223624098858 0 0.21613840432333101 0.04691246852366434 0 0.21454968486992709 0.034646852871839773 0 0.24324862580501719 0.043699375385111268 0 0.2303560944758109 0.034554223624098858 0 0.22890175602796239 0.051024440012764398 0 0.22890175602796239 0.051024440012764398 0 0.2178651574880282 0.058015885660395977 0 0.21613840432333101 0.04691246852366434 0 0.2257897129884551 0.066480682179063111 0 0.22890175602796239 0.051024440012764398 0 0.2178651574880282 0.058015885660395977 0 0.2257897129884551 0.066480682179063111 0 0.23598468486298441 0.061177265399028069 0 0.22890175602796239 0.051024440012764398 0 0.22489898562157759 0.013333890121236831 0 0.25086621734364162 0.0024580881529454729 0 0.22489898562157759 0.013333890121236831 0 0.25035344126441311 0.024856540025677429 0 0.25086621734364162 0.0024580881529454729 0 0.2303560944758109 0.034554223624098858 0 0.22489898562157759 0.013333890121236831 0 0.25035344126441311 0.024856540025677429 0 0.2303560944758109 0.034554223624098858 0 0.22489898562157759 0.013333890121236831 0 0.21454968486992709 0.034646852871839773 0 0.22489898562157759 0.013333890121236831 0 0.25086621734364162 0.0024580881529454729 0 0.22616044121600959 -0.01376572990933354 0 0.19893175389951359 0.024209692089528188 0 0.1816648446934781 0.01096575827495024 0 0.20090512928805779 -0.0090201127844871404 0 0.22489898562157759 0.013333890121236831 0 0.19893175389951359 0.024209692089528188 0 0.20090512928805779 -0.0090201127844871404 0 0.22489898562157759 0.013333890121236831 0 0.19893175389951359 0.024209692089528188 0 0.22489898562157759 0.013333890121236831 0 0.19893175389951359 0.024209692089528188 0 0.21454968486992709 0.034646852871839773 0 0.21230659309943509 0.064842857568477047 0 0.21038064728337519 0.058272630182254342 0 0.19387519691047031 0.052920437468004497 0 0.20506064061351759 0.049319327094041063 0 0.21038064728337519 0.058272630182254342 0 0.21613840432333101 0.04691246852366434 0 0.21230659309943509 0.064842857568477047 0 0.21038064728337519 0.058272630182254342 0 0.2131489118825261 0.0613186900886835 0 0.21038064728337519 0.058272630182254342 0 0.2131489118825261 0.0613186900886835 0 0.2178651574880282 0.058015885660395977 0 0.21414528369460939 0.063991429696512059 0 0.2131489118825261 0.0613186900886835 0 0.2178651574880282 0.058015885660395977 0 0.21038064728337519 0.058272630182254342 0 0.2178651574880282 0.058015885660395977 0 0.21613840432333101 0.04691246852366434 0 0.19893175389951359 0.024209692089528188 0 0.21454968486992709 0.034646852871839773 0 0.2002657967359503 0.040360221369006667 0 0.20506064061351759 0.049319327094041063 0 0.21613840432333101 0.04691246852366434 0 0.2002657967359503 0.040360221369006667 0 0.21613840432333101 0.04691246852366434 0 0.21454968486992709 0.034646852871839773 0 0.2002657967359503 0.040360221369006667 0 0.19893175389951359 0.024209692089528188 0 0.2002657967359503 0.040360221369006667 0 0.17544380072150559 0.040998017367531822 0 0.2002657967359503 0.040360221369006667 0 0.19387519691047031 0.052920437468004497 0 0.17544380072150559 0.040998017367531822 0 0.21230659309943509 0.064842857568477047 0 0.19387519691047031 0.052920437468004497 0 0.20506064061351759 0.049319327094041063 0 0.21038064728337519 0.058272630182254342 0 0.19387519691047031 0.052920437468004497 0 0.20506064061351759 0.049319327094041063 0 0.2002657967359503 0.040360221369006667 0 0.19387519691047031 0.052920437468004497 0 0.19387519691047031 0.052920437468004497 0 0.17544380072150559 0.040998017367531822 0 0.19387519691047031 0.052920437468004497 0 0.17966387786689339 0.060688201631993621 0 0.17544380072150559 0.040998017367531822 0 0.17966387786689339 0.060688201631993621 0 0.17544380072150559 0.040998017367531822 0 0.16395897849296939 0.049298334342000101 0 0.17544380072150559 0.040998017367531822 0 0.15701240453254089 0.029075597267059178 0 0.17544380072150559 0.040998017367531822 0 0.16395897849296939 0.049298334342000101 0 0.15701240453254089 0.029075597267059178 0 0.16395897849296939 0.049298334342000101 0 0.15701240453254089 0.029075597267059178 0 0.15200404121094321 0.041690714603833202 0 0.17966387786689339 0.060688201631993621 0 0.16395897849296939 0.049298334342000101 0 0.1672701881807459 0.067400711095601307 0 0.16395897849296939 0.049298334342000101 0 0.14874027460609179 0.062498889700335708 0 0.1672701881807459 0.067400711095601307 0 0.1816648446934781 0.01096575827495024 0 0.16619471446895351 0.010561337939631399 0 0.1756498173601061 -0.0042744956596407558 0 0.1816648446934781 0.01096575827495024 0 0.17315857574830401 0.023666888943340261 0 0.16619471446895351 0.010561337939631399 0 0.19893175389951359 0.024209692089528188 0 0.1816648446934781 0.01096575827495024 0 0.17315857574830401 0.023666888943340261 0 0.19893175389951359 0.024209692089528188 0 0.17544380072150559 0.040998017367531822 0 0.17315857574830401 0.023666888943340261 0 0.17544380072150559 0.040998017367531822 0 0.17315857574830401 0.023666888943340261 0 0.15701240453254089 0.029075597267059178 0 0.17315857574830401 0.023666888943340261 0 0.15701240453254089 0.029075597267059178 0 0.1605485522124066 0.01920951036045344 0 0.15701240453254089 0.029075597267059178 0 0.1605485522124066 0.01920951036045344 0 0.15119927332154959 0.021080918034519489 0 0.1605485522124066 0.01920951036045344 0 0.15708426135876599 0.012830721949952561 0 0.15119927332154959 0.021080918034519489 0 0.17315857574830401 0.023666888943340261 0 0.1605485522124066 0.01920951036045344 0 0.16619471446895351 0.010561337939631399 0 0.16619471446895351 0.010561337939631399 0 0.1503945054321543 0.00047112146520590192 0 0.1756498173601061 -0.0042744956596407558 0 0.16619471446895351 0.010561337939631399 0 0.15708426135876599 0.012830721949952561 0 0.1503945054321543 0.00047112146520590192 0 0.1605485522124066 0.01920951036045344 0 0.16619471446895351 0.010561337939631399 0 0.15708426135876599 0.012830721949952561 0 0.1503945054321543 0.00047112146520590192 0 0.15119927332154959 0.021080918034519489 0 0.14727149059413749 0.0010579537616636049 0 0.15119927332154959 0.021080918034519489 0 0.13991310363042661 0.01214854201131791 0 0.15708426135876599 0.012830721949952561 0 0.1503945054321543 0.00047112146520590192 0 0.15119927332154959 0.021080918034519489 0 0.14727149059413749 0.0010579537616636049 0 0.1503945054321543 0.00047112146520590192 0 0.15119927332154959 0.021080918034519489 0 0.14727149059413749 0.0010579537616636049 0 0.13991310363042661 0.01214854201131791 0 0.13903681548494021 0.0038552356457439 0 0.14727149059413749 0.0010579537616636049 0 0.13903681548494021 0.0038552356457439 0 0.13807058767544719 -0.002590351377979395 0 0.14727149059413749 0.0010579537616636049 0 0.1503945054321543 0.00047112146520590192 0 0.15701240453254089 0.029075597267059178 0 0.15119927332154959 0.021080918034519489 0 0.15200404121094321 0.041690714603833202 0 0.15119927332154959 0.021080918034519489 0 0.1400803875580498 0.02302083511499119 0 0.13991310363042661 0.01214854201131791 0 0.15119927332154959 0.021080918034519489 0 0.1400803875580498 0.02302083511499119 0 0.1421779159889601 0.032754388059182342 0 0.1400803875580498 0.02302083511499119 0 0.1421779159889601 0.032754388059182342 0 0.12909259059593919 0.032264746589815423 0 0.13064193881695429 0.01906261638735246 0 0.1400803875580498 0.02302083511499119 0 0.12909259059593919 0.032264746589815423 0 0.117715754831061 0.017624516067968821 0 0.13064193881695429 0.01906261638735246 0 0.12909259059593919 0.032264746589815423 0 0.13064193881695429 0.01906261638735246 0 0.1400803875580498 0.02302083511499119 0 0.13991310363042661 0.01214854201131791 0 0.117715754831061 0.017624516067968821 0 0.13064193881695429 0.01906261638735246 0 0.12879430821262439 0.0027572904785835642 0 0.13064193881695429 0.01906261638735246 0 0.13991310363042661 0.01214854201131791 0 0.12879430821262439 0.0027572904785835642 0 0.12879430821262439 0.0027572904785835642 0 0.13903681548494021 0.0038552356457439 0 0.13807058767544719 -0.002590351377979395 0 0.13991310363042661 0.01214854201131791 0 0.12879430821262439 0.0027572904785835642 0 0.13903681548494021 0.0038552356457439 0 0.16395897849296939 0.049298334342000101 0 0.14874027460609179 0.062498889700335708 0 0.15200404121094321 0.041690714603833202 0 0.14874027460609179 0.062498889700335708 0 0.15200404121094321 0.041690714603833202 0 0.13594531221170089 0.046718906597540209 0 0.15200404121094321 0.041690714603833202 0 0.1421779159889601 0.032754388059182342 0 0.13594531221170089 0.046718906597540209 0 0.15119927332154959 0.021080918034519489 0 0.15200404121094321 0.041690714603833202 0 0.1421779159889601 0.032754388059182342 0 0.15119927332154959 0.021080918034519489 0 0.15200404121094321 0.041690714603833202 0 0.11816806286939591 0.047038968090737467 0 0.13594531221170089 0.046718906597540209 0 0.12909259059593919 0.032264746589815423 0 0.1421779159889601 0.032754388059182342 0 0.13594531221170089 0.046718906597540209 0 0.12909259059593919 0.032264746589815423 0 0.11816806286939591 0.047038968090737467 0 0.1229128465412201 0.064342378436089392 0 0.13594531221170089 0.046718906597540209 0 0.1229128465412201 0.064342378436089392 0 0.14874027460609179 0.062498889700335708 0 0.13594531221170089 0.046718906597540209 0 0.1229128465412201 0.064342378436089392 0 0.14874027460609179 0.062498889700335708 0 0.13670389610601039 0.079566463234652843 0 0.14874027460609179 0.062498889700335708 0 0.13670389610601039 0.079566463234652843 0 0.1615532209735844 0.088344819093471583 0 0.13670389610601039 0.079566463234652843 0 0.1361765349106592 0.1000957998559688 0 0.1615532209735844 0.088344819093471583 0 0.114324721259707 0.081852659343666631 0 0.13670389610601039 0.079566463234652843 0 0.1361765349106592 0.1000957998559688 0 0.12690760393507261 0.1272026692018251 0 0.14785171823245391 0.1288751956060781 0 0.1361765349106592 0.1000957998559688 0 0.14785171823245391 0.1288751956060781 0 0.1361765349106592 0.1000957998559688 0 0.16010731998278169 0.11069851623937139 0 0.1361765349106592 0.1000957998559688 0 0.1615532209735844 0.088344819093471583 0 0.1361765349106592 0.1000957998559688 0 0.16010731998278169 0.11069851623937139 0 0.1615532209735844 0.088344819093471583 0 0.16010731998278169 0.11069851623937139 0 0.18280532478067821 0.107557288760172 0 0.1615532209735844 0.088344819093471583 0 0.19357369295727 0.091029019402396591 0 0.18280532478067821 0.107557288760172 0 0.1615532209735844 0.088344819093471583 0 0.17214980101653271 0.12861947788116659 0 0.16010731998278169 0.11069851623937139 0 0.18280532478067821 0.107557288760172 0 0.14785171823245391 0.1288751956060781 0 0.17214980101653271 0.12861947788116659 0 0.16010731998278169 0.11069851623937139 0 0.17214980101653271 0.12861947788116659 0 0.1999558879733139 0.12893622275722949 0 0.18280532478067821 0.107557288760172 0 0.19357369295727 0.091029019402396591 0 0.1869299070365098 0.076593838330974245 0 0.1615532209735844 0.088344819093471583 0 0.1869299070365098 0.076593838330974245 0 0.1615532209735844 0.088344819093471583 0 0.1869299070365098 0.076593838330974245 0 0.1672701881807459 0.067400711095601307 0 0.1615532209735844 0.088344819093471583 0 0.17966387786689339 0.060688201631993621 0 0.1869299070365098 0.076593838330974245 0 0.1672701881807459 0.067400711095601307 0 0.19387519691047031 0.052920437468004497 0 0.17966387786689339 0.060688201631993621 0 0.1869299070365098 0.076593838330974245 0 0.14874027460609179 0.062498889700335708 0 0.1672701881807459 0.067400711095601307 0 0.1615532209735844 0.088344819093471583 0 0.1041141734898597 0.47138112176481939 0 0.1008074909692281 0.48329127705566832 0 0.1164440145956645 0.47969537334431189 0 0.1041141734898597 0.47138112176481939 0 0.1008074909692281 0.48329127705566832 0 0.089605175585703301 0.47204481769441009 0 0.1212288328225988 0.49620131360993158 0 0.093282080515218233 0.49999999999999911 0 0.1008074909692281 0.48329127705566832 0 0.1212288328225988 0.49620131360993158 0 0.093282080515218233 0.49999999999999911 0 0.1212288328225988 0.49620131360993158 0 0.1203303519234782 0.5 0 0.093282080515218233 0.49999999999999911 0 0.1008074909692281 0.48329127705566832 0 0.1212288328225988 0.49620131360993158 0 0.1164440145956645 0.47969537334431189 0 0.1212288328225988 0.49620131360993158 0 0.1164440145956645 0.47969537334431189 0 0.1307851997139666 0.48262718452972148 0 0.1164440145956645 0.47969537334431189 0 0.1238474612440929 0.47392924218746268 0 0.1307851997139666 0.48262718452972148 0 0.1041141734898597 0.47138112176481939 0 0.1164440145956645 0.47969537334431189 0 0.1145093192272847 0.46521156931690771 0 0.1164440145956645 0.47969537334431189 0 0.1238474612440929 0.47392924218746268 0 0.1145093192272847 0.46521156931690771 0 0.12076980168030139 0.45622433849141653 0 0.1145093192272847 0.46521156931690771 0 0.12510763250347909 0.46549675427369858 0 0.1238474612440929 0.47392924218746268 0 0.1145093192272847 0.46521156931690771 0 0.12510763250347909 0.46549675427369858 0 0.12076980168030139 0.45622433849141653 0 0.1145093192272847 0.46521156931690771 0 0.1102295409683039 0.45035485323088309 0 0.1247819217563655 0.44545259418403022 0 0.1102295409683039 0.45035485323088309 0 0.11599547710088939 0.43470317518431412 0 0.1247819217563655 0.44545259418403022 0 0.11599547710088939 0.43470317518431412 0 0.13091002303884949 0.43417971959796903 0 0.12076980168030139 0.45622433849141653 0 0.1247819217563655 0.44545259418403022 0 0.1102295409683039 0.45035485323088309 0 0.12076980168030139 0.45622433849141653 0 0.1247819217563655 0.44545259418403022 0 0.1292205939460738 0.4546059214515632 0 0.1102295409683039 0.45035485323088309 0 0.10097650532538451 0.43732810616974283 0 0.11599547710088939 0.43470317518431412 0 0.1102295409683039 0.45035485323088309 0 0.09730799903317866 0.44846151111146609 0 0.098447556431330047 0.46054857621812417 0 0.1102295409683039 0.45035485323088309 0 0.09730799903317866 0.44846151111146609 0 0.10097650532538451 0.43732810616974283 0 0.09730799903317866 0.44846151111146609 0 0.085635522430358199 0.44451447217192891 0 0.10097650532538451 0.43732810616974283 0 0.1041141734898597 0.47138112176481939 0 0.1145093192272847 0.46521156931690771 0 0.098447556431330047 0.46054857621812417 0 0.1145093192272847 0.46521156931690771 0 0.1102295409683039 0.45035485323088309 0 0.098447556431330047 0.46054857621812417 0 0.1041141734898597 0.47138112176481939 0 0.098447556431330047 0.46054857621812417 0 0.089605175585703301 0.47204481769441009 0 0.082178678664365609 0.45914853997710109 0 0.072195616239848631 0.47245419020378299 0 0.089605175585703301 0.47204481769441009 0 0.082178678664365609 0.45914853997710109 0 0.085635522430358199 0.44451447217192891 0 0.067033583753834378 0.45812703619180878 0 0.098447556431330047 0.46054857621812417 0 0.082178678664365609 0.45914853997710109 0 0.089605175585703301 0.47204481769441009 0 0.09730799903317866 0.44846151111146609 0 0.098447556431330047 0.46054857621812417 0 0.082178678664365609 0.45914853997710109 0 0.09730799903317866 0.44846151111146609 0 0.082178678664365609 0.45914853997710109 0 0.085635522430358199 0.44451447217192891 0 0.085635522430358199 0.44451447217192891 0 0.065127687355097566 0.44151573190129789 0 0.067033583753834378 0.45812703619180878 0 0.082178678664365609 0.45914853997710109 0 0.067033583753834378 0.45812703619180878 0 0.072195616239848631 0.47245419020378299 0 0.067033583753834378 0.45812703619180878 0 0.072195616239848631 0.47245419020378299 0 0.057196313516143772 0.4795234767028792 0 0.072195616239848631 0.47245419020378299 0 0.079712997635261434 0.48664999277586363 0 0.057196313516143772 0.4795234767028792 0 0.072195616239848631 0.47245419020378299 0 0.089605175585703301 0.47204481769441009 0 0.079712997635261434 0.48664999277586363 0 0.1008074909692281 0.48329127705566832 0 0.089605175585703301 0.47204481769441009 0 0.079712997635261434 0.48664999277586363 0 0.1008074909692281 0.48329127705566832 0 0.079712997635261434 0.48664999277586363 0 0.093282080515218233 0.49999999999999911 0 0.079712997635261434 0.48664999277586363 0 0.093282080515218233 0.49999999999999911 0 0.068671392108316354 0.5 0 0.079712997635261434 0.48664999277586363 0 0.068671392108316354 0.5 0 0.057196313516143772 0.4795234767028792 0 0.068671392108316354 0.5 0 0.057196313516143772 0.4795234767028792 0 0.044060703701414461 0.5 0 0.057196313516143772 0.4795234767028792 0 0.032292951929841343 0.47700871819601559 0 0.048702753496582638 0.45764617908868999 0 0.057196313516143772 0.4795234767028792 0 0.032292951929841343 0.47700871819601559 0 0.044060703701414461 0.5 0 0.032292951929841343 0.47700871819601559 0 0.044060703701414461 0.5 0 0.019450015294512572 0.5 0 0.032292951929841343 0.47700871819601559 0 0.019450015294512572 0.5 0 0.0063674400442363492 0.47858960545643919 0 0.032292951929841343 0.47700871819601559 0 0.0063674400442363492 0.47858960545643919 0 0.01715747563867721 0.45669826171354772 0 -0.0051606731123892994 0.499999999999997 0 0.019450015294512572 0.5 0 0.0063674400442363492 0.47858960545643919 0 0.0042115827931327541 0.44204597406121049 0 0.01715747563867721 0.45669826171354772 0 0.018186176599555109 0.43780380970710081 0 -0.0072893729514081169 0.45840656644439642 0 0.0042115827931327541 0.44204597406121049 0 0.01715747563867721 0.45669826171354772 0 -0.0072893729514081169 0.45840656644439642 0 0.0063674400442363492 0.47858960545643919 0 0.01715747563867721 0.45669826171354772 0 0.01715747563867721 0.45669826171354772 0 0.032634737545622988 0.44276983958434041 0 0.032654912638515908 0.46053201518300491 0 0.032292951929841343 0.47700871819601559 0 0.01715747563867721 0.45669826171354772 0 0.032654912638515908 0.46053201518300491 0 0.01715747563867721 0.45669826171354772 0 0.018186176599555109 0.43780380970710081 0 0.032634737545622988 0.44276983958434041 0 0.032634737545622988 0.44276983958434041 0 0.048702753496582638 0.45764617908868999 0 0.048695303071311057 0.43439862826022868 0 0.032292951929841343 0.47700871819601559 0 0.032654912638515908 0.46053201518300491 0 0.048702753496582638 0.45764617908868999 0 0.032634737545622988 0.44276983958434041 0 0.032654912638515908 0.46053201518300491 0 0.048702753496582638 0.45764617908868999 0 0.067033583753834378 0.45812703619180878 0 0.057196313516143772 0.4795234767028792 0 0.048702753496582638 0.45764617908868999 0 0.065127687355097566 0.44151573190129789 0 0.048702753496582638 0.45764617908868999 0 0.048695303071311057 0.43439862826022868 0 0.065127687355097566 0.44151573190129789 0 0.048702753496582638 0.45764617908868999 0 0.065127687355097566 0.44151573190129789 0 0.067033583753834378 0.45812703619180878 0 0.048702753496582638 0.45764617908868999 0 0.048695303071311057 0.43439862826022868 0 0.047013741929883897 0.41844027182847848 0 0.066723148063125237 0.42284336927077221 0 0.065127687355097566 0.44151573190129789 0 0.048695303071311057 0.43439862826022868 0 0.066723148063125237 0.42284336927077221 0 0.058984843581362113 0.41017407157467689 0 0.047013741929883897 0.41844027182847848 0 0.066723148063125237 0.42284336927077221 0 0.058984843581362113 0.41017407157467689 0 0.047013741929883897 0.41844027182847848 0 0.04892962440177185 0.40756043032529832 0 0.04892962440177185 0.40756043032529832 0 0.03626440300120392 0.41209656917989151 0 0.039440406737661089 0.40385936687291779 0 0.047013741929883897 0.41844027182847848 0 0.04892962440177185 0.40756043032529832 0 0.03626440300120392 0.41209656917989151 0 0.047013741929883897 0.41844027182847848 0 0.03626440300120392 0.41209656917989151 0 0.037461362055126388 0.42513820793681267 0 0.03626440300120392 0.41209656917989151 0 0.037461362055126388 0.42513820793681267 0 0.022901711702546169 0.4162914052785695 0 0.03626440300120392 0.41209656917989151 0 0.030691567134193191 0.40285899001516168 0 0.039440406737661089 0.40385936687291779 0 0.048695303071311057 0.43439862826022868 0 0.047013741929883897 0.41844027182847848 0 0.037461362055126388 0.42513820793681267 0 0.032634737545622988 0.44276983958434041 0 0.048695303071311057 0.43439862826022868 0 0.037461362055126388 0.42513820793681267 0 0.032634737545622988 0.44276983958434041 0 0.037461362055126388 0.42513820793681267 0 0.02542560157065912 0.42804420487496181 0 0.018186176599555109 0.43780380970710081 0 0.032634737545622988 0.44276983958434041 0 0.02542560157065912 0.42804420487496181 0 0.018186176599555109 0.43780380970710081 0 0.02542560157065912 0.42804420487496181 0 0.0106644531092533 0.42702894684686882 0 0.02542560157065912 0.42804420487496181 0 0.022901711702546169 0.4162914052785695 0 0.0106644531092533 0.42702894684686882 0 0.037461362055126388 0.42513820793681267 0 0.02542560157065912 0.42804420487496181 0 0.022901711702546169 0.4162914052785695 0 0.03626440300120392 0.41209656917989151 0 0.022901711702546169 0.4162914052785695 0 0.024365390828332879 0.40582686971899579 0 0.03626440300120392 0.41209656917989151 0 0.024365390828332879 0.40582686971899579 0 0.030691567134193191 0.40285899001516168 0 0.022901711702546169 0.4162914052785695 0 0.015331258736116651 0.40697903712609818 0 0.024365390828332879 0.40582686971899579 0 0.022901711702546169 0.4162914052785695 0 0.01075795515766652 0.41390528923822473 0 0.015331258736116651 0.40697903712609818 0 0.022901711702546169 0.4162914052785695 0 0.01075795515766652 0.41390528923822473 0 0.0106644531092533 0.42702894684686882 0 0.01075795515766652 0.41390528923822473 0 0.015331258736116651 0.40697903712609818 0 0.0044069364506871553 0.40568486893445671 0 -0.00038355306998572887 0.41585143691210003 0 0.01075795515766652 0.41390528923822473 0 0.0044069364506871553 0.40568486893445671 0 -0.00038355306998572887 0.41585143691210003 0 0.01075795515766652 0.41390528923822473 0 0.0106644531092533 0.42702894684686882 0 -0.0014430470430802831 0.43092486066266011 0 -0.00038355306998572887 0.41585143691210003 0 0.0106644531092533 0.42702894684686882 0 -0.0014430470430802831 0.43092486066266011 0 0.0042115827931327541 0.44204597406121049 0 0.0106644531092533 0.42702894684686882 0 0.0042115827931327541 0.44204597406121049 0 0.018186176599555109 0.43780380970710081 0 0.0106644531092533 0.42702894684686882 0 -0.01143385495550101 0.3859344594522614 0 0.01265598891722541 0.39124247204332541 0 -0.01143385495550101 0.3859344594522614 0 0.0022235162913747282 0.38095520847074132 0 0.01265598891722541 0.39124247204332541 0 0.012248446231169351 0.38088933154667121 0 0.01265598891722541 0.39124247204332541 0 0.01742076284184586 0.38358056670973423 0 0.012248446231169351 0.38088933154667121 0 0.0022235162913747282 0.38095520847074132 0 0.01265598891722541 0.39124247204332541 0 0.012248446231169351 0.38088933154667121 0 0.02029422461508304 0.37629410019498832 0 0.01344792743963805 0.37253334067852989 0 0.012248446231169351 0.38088933154667121 0 0.0022235162913747282 0.38095520847074132 0 0.0044235126858082636 0.3702359270180301 0 -0.0062544524671355028 0.37638733941255759 0 0.0022235162913747282 0.38095520847074132 0 0.0044235126858082636 0.3702359270180301 0 -0.01369148164194851 0.3999764975518546 0 0.0044069364506871553 0.40568486893445671 0 0.011527175574001659 0.39826349109312198 0 -0.0036441878871156619 0.39605022870726359 0 0.011527175574001659 0.39826349109312198 0 0.020098844772861169 0.39441104805915322 0 -0.0036441878871156619 0.39605022870726359 0 0.01265598891722541 0.39124247204332541 0 0.020098844772861169 0.39441104805915322 0 -0.0036441878871156619 0.39605022870726359 0 0.020098844772861169 0.39441104805915322 0 0.015331258736116651 0.40697903712609818 0 0.0044069364506871553 0.40568486893445671 0 0.011527175574001659 0.39826349109312198 0 0.011527175574001659 0.39826349109312198 0 0.020098844772861169 0.39441104805915322 0 0.036745832789951902 0.39655048463438941 0 0.011527175574001659 0.39826349109312198 0 0.030691567134193191 0.40285899001516168 0 0.036745832789951902 0.39655048463438941 0 0.01265598891722541 0.39124247204332541 0 0.020098844772861169 0.39441104805915322 0 0.036745832789951902 0.39655048463438941 0 0.01265598891722541 0.39124247204332541 0 0.02748484960095058 0.38979176975814039 0 0.036745832789951902 0.39655048463438941 0 0.011527175574001659 0.39826349109312198 0 0.024365390828332879 0.40582686971899579 0 0.030691567134193191 0.40285899001516168 0 0.011527175574001659 0.39826349109312198 0 0.036745832789951902 0.39655048463438941 0 0.01265598891722541 0.39124247204332541 0 0.036745832789951902 0.39655048463438941 0 0.015331258736116651 0.40697903712609818 0 0.011527175574001659 0.39826349109312198 0 0.024365390828332879 0.40582686971899579 0 0.02748484960095058 0.38979176975814039 0 0.024484391603905632 0.38589636305395181 0 0.03605318509271941 0.38547775930089501 0 0.01265598891722541 0.39124247204332541 0 0.024484391603905632 0.38589636305395181 0 0.01742076284184586 0.38358056670973423 0 0.01265598891722541 0.39124247204332541 0 0.02748484960095058 0.38979176975814039 0 0.024484391603905632 0.38589636305395181 0 0.012248446231169351 0.38088933154667121 0 0.01742076284184586 0.38358056670973423 0 0.02029422461508304 0.37629410019498832 0 0.024484391603905632 0.38589636305395181 0 0.01742076284184586 0.38358056670973423 0 0.02029422461508304 0.37629410019498832 0 0.024484391603905632 0.38589636305395181 0 0.029908330426398209 0.37544179742880629 0 0.03605318509271941 0.38547775930089501 0 0.024484391603905632 0.38589636305395181 0 0.02029422461508304 0.37629410019498832 0 0.029908330426398209 0.37544179742880629 0 0.02748484960095058 0.38979176975814039 0 0.03605318509271941 0.38547775930089501 0 0.036745832789951902 0.39655048463438941 0 0.03605318509271941 0.38547775930089501 0 0.048129490794252272 0.37626257757039161 0 0.047117483909740847 0.3881286314907868 0 0.03605318509271941 0.38547775930089501 0 0.036745832789951902 0.39655048463438941 0 0.047117483909740847 0.3881286314907868 0 0.030691567134193191 0.40285899001516168 0 0.036745832789951902 0.39655048463438941 0 0.039440406737661089 0.40385936687291779 0 0.036745832789951902 0.39655048463438941 0 0.044511686703503132 0.39826163106486329 0 0.04892962440177185 0.40756043032529832 0 0.044511686703503132 0.39826163106486329 0 0.039440406737661089 0.40385936687291779 0 0.036745832789951902 0.39655048463438941 0 0.044511686703503132 0.39826163106486329 0 0.039440406737661089 0.40385936687291779 0 0.04892962440177185 0.40756043032529832 0 0.044511686703503132 0.39826163106486329 0 0.06308533873653302 0.39476134322928041 0 0.036745832789951902 0.39655048463438941 0 0.06308533873653302 0.39476134322928041 0 0.047117483909740847 0.3881286314907868 0 0.06308533873653302 0.39476134322928041 0 0.036745832789951902 0.39655048463438941 0 0.047117483909740847 0.3881286314907868 0 0.06308533873653302 0.39476134322928041 0 0.036745832789951902 0.39655048463438941 0 0.044511686703503132 0.39826163106486329 0 0.06308533873653302 0.39476134322928041 0 0.058984843581362113 0.41017407157467689 0 0.04892962440177185 0.40756043032529832 0 0.06308533873653302 0.39476134322928041 0 0.047117483909740847 0.3881286314907868 0 0.060132563889222237 0.38188610911424142 0 0.06308533873653302 0.39476134322928041 0 0.048129490794252272 0.37626257757039161 0 0.047117483909740847 0.3881286314907868 0 0.060132563889222237 0.38188610911424142 0 0.048129490794252272 0.37626257757039161 0 0.060132563889222237 0.38188610911424142 0 0.058268591642916083 0.36898983518666562 0 0.060132563889222237 0.38188610911424142 0 0.070018904211660488 0.37715479625288101 0 0.073683568506998545 0.38577886064090883 0 0.060132563889222237 0.38188610911424142 0 0.070018904211660488 0.37715479625288101 0 0.058268591642916083 0.36898983518666562 0 0.060132563889222237 0.38188610911424142 0 0.073683568506998545 0.38577886064090883 0 0.06308533873653302 0.39476134322928041 0 0.070018904211660488 0.37715479625288101 0 0.073683568506998545 0.38577886064090883 0 0.081161299882042764 0.37955257153404282 0 0.093499588301248257 0.38599434564663992 0 0.083419211460208462 0.39338014140681871 0 0.103753084183884 0.39199893958435722 0 0.073683568506998545 0.38577886064090883 0 0.081161299882042764 0.37955257153404282 0 0.085587774242007558 0.38592790282825701 0 0.073683568506998545 0.38577886064090883 0 0.085587774242007558 0.38592790282825701 0 0.083419211460208462 0.39338014140681871 0 0.085587774242007558 0.38592790282825701 0 0.093499588301248257 0.38599434564663992 0 0.083419211460208462 0.39338014140681871 0 0.081161299882042764 0.37955257153404282 0 0.085587774242007558 0.38592790282825701 0 0.09323172905830629 0.37580652320104879 0 0.085587774242007558 0.38592790282825701 0 0.093499588301248257 0.38599434564663992 0 0.09323172905830629 0.37580652320104879 0 0.080531446904330353 0.40200809037789759 0 0.097977555072127923 0.40925483752651431 0 0.083419211460208462 0.39338014140681871 0 0.103753084183884 0.39199893958435722 0 0.089035675696838151 0.40075766560143589 0 0.080531446904330353 0.40200809037789759 0 0.097977555072127923 0.40925483752651431 0 0.089035675696838151 0.40075766560143589 0 0.097977555072127923 0.40925483752651431 0 0.094214489350685909 0.3983875930945131 0 0.089035675696838151 0.40075766560143589 0 0.083419211460208462 0.39338014140681871 0 0.094214489350685909 0.3983875930945131 0 0.089035675696838151 0.40075766560143589 0 0.083419211460208462 0.39338014140681871 0 0.080531446904330353 0.40200809037789759 0 0.083419211460208462 0.39338014140681871 0 0.080531446904330353 0.40200809037789759 0 0.06308533873653302 0.39476134322928041 0 0.083419211460208462 0.39338014140681871 0 0.06308533873653302 0.39476134322928041 0 0.073683568506998545 0.38577886064090883 0 0.083419211460208462 0.39338014140681871 0 0.06308533873653302 0.39476134322928041 0 0.080531446904330353 0.40200809037789759 0 0.06308533873653302 0.39476134322928041 0 0.069672423606603626 0.40879618026772058 0 0.080531446904330353 0.40200809037789759 0 0.06308533873653302 0.39476134322928041 0 0.058984843581362113 0.41017407157467689 0 0.06308533873653302 0.39476134322928041 0 0.069672423606603626 0.40879618026772058 0 0.058984843581362113 0.41017407157467689 0 0.069672423606603626 0.40879618026772058 0 0.066723148063125237 0.42284336927077221 0 0.069672423606603626 0.40879618026772058 0 0.066723148063125237 0.42284336927077221 0 0.078138611448505008 0.41382351630628128 0 0.066723148063125237 0.42284336927077221 0 0.081552621213612453 0.4253852847139058 0 0.078138611448505008 0.41382351630628128 0 0.080531446904330353 0.40200809037789759 0 0.069672423606603626 0.40879618026772058 0 0.078138611448505008 0.41382351630628128 0 0.065127687355097566 0.44151573190129789 0 0.081552621213612453 0.4253852847139058 0 0.065127687355097566 0.44151573190129789 0 0.066723148063125237 0.42284336927077221 0 0.081552621213612453 0.4253852847139058 0 0.085635522430358199 0.44451447217192891 0 0.065127687355097566 0.44151573190129789 0 0.081552621213612453 0.4253852847139058 0 0.085635522430358199 0.44451447217192891 0 0.081552621213612453 0.4253852847139058 0 0.10097650532538451 0.43732810616974283 0 0.081552621213612453 0.4253852847139058 0 0.078138611448505008 0.41382351630628128 0 0.097977555072127923 0.40925483752651431 0 0.081552621213612453 0.4253852847139058 0 0.097977555072127923 0.40925483752651431 0 0.080531446904330353 0.40200809037789759 0 0.078138611448505008 0.41382351630628128 0 0.097977555072127923 0.40925483752651431 0 0.097977555072127923 0.40925483752651431 0 0.1053155422202199 0.42344589710492447 0 0.12209716532440459 0.41927361736785862 0 0.081552621213612453 0.4253852847139058 0 0.097977555072127923 0.40925483752651431 0 0.1053155422202199 0.42344589710492447 0 0.097977555072127923 0.40925483752651431 0 0.12209716532440459 0.41927361736785862 0 0.10804367358929361 0.39936919691926059 0 0.081552621213612453 0.4253852847139058 0 0.10097650532538451 0.43732810616974283 0 0.1053155422202199 0.42344589710492447 0 0.10097650532538451 0.43732810616974283 0 0.1053155422202199 0.42344589710492447 0 0.11599547710088939 0.43470317518431412 0 0.1053155422202199 0.42344589710492447 0 0.11599547710088939 0.43470317518431412 0 0.12209716532440459 0.41927361736785862 0 0.11599547710088939 0.43470317518431412 0 0.12209716532440459 0.41927361736785862 0 0.13091002303884949 0.43417971959796903 0 0.12209716532440459 0.41927361736785862 0 0.1181964086858121 0.40111120032160019 0 0.12594638543343259 0.40194870844401698 0 0.097977555072127923 0.40925483752651431 0 0.12209716532440459 0.41927361736785862 0 0.12209716532440459 0.41927361736785862 0 0.1181964086858121 0.40111120032160019 0 0.10804367358929361 0.39936919691926059 0 0.1181964086858121 0.40111120032160019 0 0.1211167618675844 0.39395211339862252 0 0.12594638543343259 0.40194870844401698 0 0.1181964086858121 0.40111120032160019 0 0.11377805721434529 0.39101236547824209 0 0.10804367358929361 0.39936919691926059 0 0.1181964086858121 0.40111120032160019 0 0.11377805721434529 0.39101236547824209 0 0.1211167618675844 0.39395211339862252 0 0.11377805721434529 0.39101236547824209 0 0.1211167618675844 0.39395211339862252 0 0.1218628618241696 0.38699886071587752 0 0.1211167618675844 0.39395211339862252 0 0.1218628618241696 0.38699886071587752 0 0.12801317874929941 0.39394867087186097 0 0.11377805721434529 0.39101236547824209 0 0.1218628618241696 0.38699886071587752 0 0.11668808758245559 0.37991546276989502 0 0.1218628618241696 0.38699886071587752 0 0.11668808758245559 0.37991546276989502 0 0.12552755411527511 0.37811666214524831 0 0.11668808758245559 0.37991546276989502 0 0.12262063578902491 0.36878957885284092 0 0.12552755411527511 0.37811666214524831 0 0.11668808758245559 0.37991546276989502 0 0.108879188487668 0.38441129947895097 0 0.108683718722243 0.37791567043272251 0 0.11668808758245559 0.37991546276989502 0 0.108683718722243 0.37791567043272251 0 0.1130939827657748 0.37172498939171389 0 0.11377805721434529 0.39101236547824209 0 0.11668808758245559 0.37991546276989502 0 0.108879188487668 0.38441129947895097 0 0.11377805721434529 0.39101236547824209 0 0.108879188487668 0.38441129947895097 0 0.103753084183884 0.39199893958435722 0 0.108879188487668 0.38441129947895097 0 0.1014929947354119 0.38121405912953871 0 0.103753084183884 0.39199893958435722 0 0.108683718722243 0.37791567043272251 0 0.1014929947354119 0.38121405912953871 0 0.1046685387659522 0.37032621978942032 0 0.108879188487668 0.38441129947895097 0 0.108683718722243 0.37791567043272251 0 0.1014929947354119 0.38121405912953871 0 0.09323172905830629 0.37580652320104879 0 0.1014929947354119 0.38121405912953871 0 0.1046685387659522 0.37032621978942032 0 0.093499588301248257 0.38599434564663992 0 0.09323172905830629 0.37580652320104879 0 0.1014929947354119 0.38121405912953871 0 0.093499588301248257 0.38599434564663992 0 0.1014929947354119 0.38121405912953871 0 0.103753084183884 0.39199893958435722 0 0.094214489350685909 0.3983875930945131 0 0.1010304171603227 0.39851794827248782 0 0.103753084183884 0.39199893958435722 0 0.083419211460208462 0.39338014140681871 0 0.094214489350685909 0.3983875930945131 0 0.103753084183884 0.39199893958435722 0 0.097977555072127923 0.40925483752651431 0 0.094214489350685909 0.3983875930945131 0 0.1010304171603227 0.39851794827248782 0 0.097977555072127923 0.40925483752651431 0 0.10804367358929361 0.39936919691926059 0 0.097977555072127923 0.40925483752651431 0 0.1010304171603227 0.39851794827248782 0 0.10804367358929361 0.39936919691926059 0 0.11377805721434529 0.39101236547824209 0 0.10804367358929361 0.39936919691926059 0 0.103753084183884 0.39199893958435722 0 0.1010304171603227 0.39851794827248782 0 0.10804367358929361 0.39936919691926059 0 0.103753084183884 0.39199893958435722 0 0.096797017614593833 0.35369654491265817 0 0.1128089329691984 0.36167801511369108 0 0.1142450906268816 0.34800317061833358 0 0.096797017614593833 0.35369654491265817 0 0.1142450906268816 0.34800317061833358 0 0.1003623061708814 0.33158656662426772 0 0.096797017614593833 0.35369654491265817 0 0.1046685387659522 0.37032621978942032 0 0.1128089329691984 0.36167801511369108 0 0.09323172905830629 0.37580652320104879 0 0.096797017614593833 0.35369654491265817 0 0.09323172905830629 0.37580652320104879 0 0.096797017614593833 0.35369654491265817 0 0.1046685387659522 0.37032621978942032 0 0.108683718722243 0.37791567043272251 0 0.1046685387659522 0.37032621978942032 0 0.1130939827657748 0.37172498939171389 0 0.1128089329691984 0.36167801511369108 0 0.1130939827657748 0.37172498939171389 0 0.12262063578902491 0.36878957885284092 0 0.1046685387659522 0.37032621978942032 0 0.1128089329691984 0.36167801511369108 0 0.1130939827657748 0.37172498939171389 0 0.11668808758245559 0.37991546276989502 0 0.1130939827657748 0.37172498939171389 0 0.12262063578902491 0.36878957885284092 0 0.1128089329691984 0.36167801511369108 0 0.12262063578902491 0.36878957885284092 0 0.12494773803156189 0.35830786049319269 0 0.1128089329691984 0.36167801511369108 0 0.12494773803156189 0.35830786049319269 0 0.1142450906268816 0.34800317061833358 0 0.12494773803156189 0.35830786049319269 0 0.1142450906268816 0.34800317061833358 0 0.12926528544088481 0.34707087424054112 0 0.1142450906268816 0.34800317061833358 0 0.1211824295008295 0.3366626843910176 0 0.12926528544088481 0.34707087424054112 0 0.1142450906268816 0.34800317061833358 0 0.1211824295008295 0.3366626843910176 0 0.1003623061708814 0.33158656662426772 0 0.1211824295008295 0.3366626843910176 0 0.12102629459858701 0.32270040812114892 0 0.1003623061708814 0.33158656662426772 0 0.12102629459858701 0.32270040812114892 0 0.1039275947271685 0.30947658833587688 0 0.11562347922934189 0.30764927530771308 0 0.12102629459858701 0.32270040812114892 0 0.1039275947271685 0.30947658833587688 0 0.12102629459858701 0.32270040812114892 0 0.11562347922934189 0.30764927530771308 0 0.12577500289224269 0.31096640210294513 0 0.1003623061708814 0.33158656662426772 0 0.088461903001347014 0.31122628168028788 0 0.1039275947271685 0.30947658833587688 0 0.12102629459858701 0.32270040812114892 0 0.1003623061708814 0.33158656662426772 0 0.1039275947271685 0.30947658833587688 0 0.1003623061708814 0.33158656662426772 0 0.1039275947271685 0.30947658833587688 0 0.096797017614593833 0.35369654491265817 0 0.1003623061708814 0.33158656662426772 0 0.089278333063605816 0.34114169354335239 0 0.096797017614593833 0.35369654491265817 0 0.1003623061708814 0.33158656662426772 0 0.089278333063605816 0.34114169354335239 0 0.076714847096275157 0.32344158011756319 0 0.078938073489158947 0.35149707582580297 0 0.1003623061708814 0.33158656662426772 0 0.089278333063605816 0.34114169354335239 0 0.076714847096275157 0.32344158011756319 0 0.1003623061708814 0.33158656662426772 0 0.076714847096275157 0.32344158011756319 0 0.088461903001347014 0.31122628168028788 0 0.076714847096275157 0.32344158011756319 0 0.053228567317211817 0.31710083041647108 0 0.065800555384307638 0.30814355487550332 0 0.076714847096275157 0.32344158011756319 0 0.063359293131495839 0.33704756089774918 0 0.053228567317211817 0.31710083041647108 0 0.076714847096275157 0.32344158011756319 0 0.063359293131495839 0.33704756089774918 0 0.078938073489158947 0.35149707582580297 0 0.076714847096275157 0.32344158011756319 0 0.078938073489158947 0.35149707582580297 0 0.063359293131495839 0.33704756089774918 0 0.078938073489158947 0.35149707582580297 0 0.060411537845785582 0.3533051780842964 0 0.078938073489158947 0.35149707582580297 0 0.069858082520959222 0.36614801343964459 0 0.060411537845785582 0.3533051780842964 0 0.096797017614593833 0.35369654491265817 0 0.078938073489158947 0.35149707582580297 0 0.087532030011025441 0.36513817886838817 0 0.096797017614593833 0.35369654491265817 0 0.089278333063605816 0.34114169354335239 0 0.078938073489158947 0.35149707582580297 0 0.081161299882042764 0.37955257153404282 0 0.078938073489158947 0.35149707582580297 0 0.087532030011025441 0.36513817886838817 0 0.081161299882042764 0.37955257153404282 0 0.078938073489158947 0.35149707582580297 0 0.09323172905830629 0.37580652320104879 0 0.096797017614593833 0.35369654491265817 0 0.087532030011025441 0.36513817886838817 0 0.081161299882042764 0.37955257153404282 0 0.09323172905830629 0.37580652320104879 0 0.087532030011025441 0.36513817886838817 0 0.070018904211660488 0.37715479625288101 0 0.081161299882042764 0.37955257153404282 0 0.069858082520959222 0.36614801343964459 0 0.081161299882042764 0.37955257153404282 0 0.078938073489158947 0.35149707582580297 0 0.069858082520959222 0.36614801343964459 0 0.069858082520959222 0.36614801343964459 0 0.058268591642916083 0.36898983518666562 0 0.060411537845785582 0.3533051780842964 0 0.070018904211660488 0.37715479625288101 0 0.069858082520959222 0.36614801343964459 0 0.058268591642916083 0.36898983518666562 0 0.058268591642916083 0.36898983518666562 0 0.060411537845785582 0.3533051780842964 0 0.041778312500883548 0.36268544967275368 0 0.048129490794252272 0.37626257757039161 0 0.058268591642916083 0.36898983518666562 0 0.041778312500883548 0.36268544967275368 0 0.060411537845785582 0.3533051780842964 0 0.041778312500883548 0.36268544967275368 0 0.047503439909047693 0.33989314004461241 0 0.034165905045574117 0.34760799821626959 0 0.041778312500883548 0.36268544967275368 0 0.047503439909047693 0.33989314004461241 0 0.034165905045574117 0.34760799821626959 0 0.041778312500883548 0.36268544967275368 0 0.025116438145064649 0.3561685739589302 0 0.041778312500883548 0.36268544967275368 0 0.047503439909047693 0.33989314004461241 0 0.03605318509271941 0.38547775930089501 0 0.041778312500883548 0.36268544967275368 0 0.041778312500883548 0.36268544967275368 0 0.026931538319399449 0.36685531492144252 0 0.025116438145064649 0.3561685739589302 0 0.03605318509271941 0.38547775930089501 0 0.048129490794252272 0.37626257757039161 0 0.041778312500883548 0.36268544967275368 0 0.029908330426398209 0.37544179742880629 0 0.03605318509271941 0.38547775930089501 0 0.041778312500883548 0.36268544967275368 0 0.029908330426398209 0.37544179742880629 0 0.041778312500883548 0.36268544967275368 0 0.026931538319399449 0.36685531492144252 0 0.01639688060109409 0.36462353576251111 0 0.025116438145064649 0.3561685739589302 0 0.0074186831050153824 0.35788237341767198 0 0.02029422461508304 0.37629410019498832 0 0.029908330426398209 0.37544179742880629 0 0.026931538319399449 0.36685531492144252 0 0.02029422461508304 0.37629410019498832 0 0.01639688060109409 0.36462353576251111 0 0.026931538319399449 0.36685531492144252 0 0.02029422461508304 0.37629410019498832 0 0.01639688060109409 0.36462353576251111 0 0.01344792743963805 0.37253334067852989 0 0.01639688060109409 0.36462353576251111 0 0.026931538319399449 0.36685531492144252 0 0.025116438145064649 0.3561685739589302 0 0.025116438145064649 0.3561685739589302 0 0.023308853961476691 0.34578563302783327 0 0.0054316382214814139 0.34340772387522239 0 0.034165905045574117 0.34760799821626959 0 0.025116438145064649 0.3561685739589302 0 0.023308853961476691 0.34578563302783327 0 0.025116438145064649 0.3561685739589302 0 0.0054316382214814139 0.34340772387522239 0 0.025116438145064649 0.3561685739589302 0 0.0074186831050153824 0.35788237341767198 0 0.0054316382214814139 0.34340772387522239 0 -0.00058261298582594902 0.36214223963337289 0 -0.0052547447410189289 0.35493171298831649 0 0.0074186831050153824 0.35788237341767198 0 -0.0052547447410189289 0.35493171298831649 0 0.0074186831050153824 0.35788237341767198 0 0.0054316382214814139 0.34340772387522239 0 -0.00058261298582594902 0.36214223963337289 0 0.0074186831050153824 0.35788237341767198 0 0.0044235126858082636 0.3702359270180301 0 0.01639688060109409 0.36462353576251111 0 0.0044235126858082636 0.3702359270180301 0 0.01344792743963805 0.37253334067852989 0 0.012248446231169351 0.38088933154667121 0 0.0044235126858082636 0.3702359270180301 0 0.01344792743963805 0.37253334067852989 0 0.01639688060109409 0.36462353576251111 0 0.0074186831050153824 0.35788237341767198 0 0.0044235126858082636 0.3702359270180301 0 0.0054719494297279236 0.32178229628192118 0 0.02692562576239756 0.31906190744947788 0 0.01327332522908113 0.3061638347626815 0 0.023308853961476691 0.34578563302783327 0 0.01528451684377089 0.33250939015861369 0 0.0054316382214814139 0.34340772387522239 0 0.0054719494297279236 0.32178229628192118 0 0.01528451684377089 0.33250939015861369 0 0.0054316382214814139 0.34340772387522239 0 0.023308853961476691 0.34578563302783327 0 0.01528451684377089 0.33250939015861369 0 0.02692562576239756 0.31906190744947788 0 0.023308853961476691 0.34578563302783327 0 0.02692562576239756 0.31906190744947788 0 0.034545220393520287 0.33364666502361567 0 0.023308853961476691 0.34578563302783327 0 0.02692562576239756 0.31906190744947788 0 0.034165905045574117 0.34760799821626959 0 0.023308853961476691 0.34578563302783327 0 0.034545220393520287 0.33364666502361567 0 0.0054719494297279236 0.32178229628192118 0 0.01528451684377089 0.33250939015861369 0 0.02692562576239756 0.31906190744947788 0 0.02692562576239756 0.31906190744947788 0 0.053228567317211817 0.31710083041647108 0 0.042894210624462338 0.30484232493009877 0 0.02692562576239756 0.31906190744947788 0 0.034545220393520287 0.33364666502361567 0 0.053228567317211817 0.31710083041647108 0 0.034545220393520287 0.33364666502361567 0 0.047503439909047693 0.33989314004461241 0 0.053228567317211817 0.31710083041647108 0 0.034165905045574117 0.34760799821626959 0 0.034545220393520287 0.33364666502361567 0 0.047503439909047693 0.33989314004461241 0 0.063359293131495839 0.33704756089774918 0 0.047503439909047693 0.33989314004461241 0 0.053228567317211817 0.31710083041647108 0 0.063359293131495839 0.33704756089774918 0 0.060411537845785582 0.3533051780842964 0 0.047503439909047693 0.33989314004461241 0 0.047503439909047693 0.33989314004461241 0 0.053228567317211817 0.31710083041647108 0 0.053228567317211817 0.31710083041647108 0 0.058953694725378633 0.29430852078833047 0 0.042894210624462338 0.30484232493009877 0 0.053228567317211817 0.31710083041647108 0 0.058953694725378633 0.29430852078833047 0 0.065800555384307638 0.30814355487550332 0 0.053228567317211817 0.31710083041647108 0 0.058953694725378633 0.29430852078833047 0 0.0603370137426101 0.2888013882640238 0 0.051054986392335119 0.27914442509448001 0 0.059164909388193312 0.28052243804906268 0 0.0603370137426101 0.2888013882640238 0 0.058953694725378633 0.29430852078833047 0 0.051054986392335119 0.27914442509448001 0 0.0603370137426101 0.2888013882640238 0 0.059164909388193312 0.28052243804906268 0 0.065388282690892835 0.28583600257435449 0 0.0603370137426101 0.2888013882640238 0 0.058953694725378633 0.29430852078833047 0 0.066920692674787702 0.29049488898998421 0 0.0603370137426101 0.2888013882640238 0 0.058953694725378633 0.29430852078833047 0 0.058953694725378633 0.29430852078833047 0 0.03054239756331845 0.29233818187112259 0 0.058953694725378633 0.29430852078833047 0 0.03054239756331845 0.29233818187112259 0 0.051054986392335119 0.27914442509448001 0 0.02692562576239756 0.31906190744947788 0 0.042894210624462338 0.30484232493009877 0 0.03054239756331845 0.29233818187112259 0 0.058953694725378633 0.29430852078833047 0 0.042894210624462338 0.30484232493009877 0 0.03054239756331845 0.29233818187112259 0 0.02692562576239756 0.31906190744947788 0 0.03054239756331845 0.29233818187112259 0 0.01327332522908113 0.3061638347626815 0 0.02692562576239756 0.31906190744947788 0 0.03054239756331845 0.29233818187112259 0 0.03054239756331845 0.29233818187112259 0 0.0051532246264746244 0.29057742891331739 0 0.03054239756331845 0.29233818187112259 0 0.0051532246264746244 0.29057742891331739 0 0.01327332522908113 0.3061638347626815 0 0.03054239756331845 0.29233818187112259 0 0.0051532246264746244 0.29057742891331739 0 0.01518067924924457 0.27495472374295499 0 -0.01138623567278192 0.30772728779636788 0 0.0054719494297279236 0.32178229628192118 0 0.01327332522908113 0.3061638347626815 0 -0.01138623567278192 0.30772728779636788 0 0.0051532246264746244 0.29057742891331739 0 0.01327332522908113 0.3061638347626815 0 0.0061444404131493161 0.25560857947974502 0 0.007655591454257097 0.2668807235761424 0 0.015840432649346779 0.26229796203476202 0 0.015906929713197151 0.2495792049620342 0 0.0089932618375068996 0.2470316380379072 0 0.0061444404131493161 0.25560857947974502 0 0.015906929713197151 0.2495792049620342 0 0.0061444404131493161 0.25560857947974502 0 0.015840432649346779 0.26229796203476202 0 -0.0045345189142265169 0.25350634819326018 0 0.0025002592476698329 0.2499952992231734 0 0.0061444404131493161 0.25560857947974502 0 0.0089932618375068996 0.2470316380379072 0 0.0025002592476698329 0.2499952992231734 0 0.0061444404131493161 0.25560857947974502 0 -0.0011349209720409371 0.26279785135494871 0 -0.0045345189142265169 0.25350634819326018 0 0.0061444404131493161 0.25560857947974502 0 -0.0011349209720409371 0.26279785135494871 0 0.0061444404131493161 0.25560857947974502 0 0.007655591454257097 0.2668807235761424 0 -0.0018737250005754109 0.27596360980912138 0 -0.0011349209720409371 0.26279785135494871 0 0.007655591454257097 0.2668807235761424 0 -0.0018737250005754109 0.27596360980912138 0 0.007655591454257097 0.2668807235761424 0 0.01518067924924457 0.27495472374295499 0 -0.0018737250005754109 0.27596360980912138 0 0.0051532246264746244 0.29057742891331739 0 0.01518067924924457 0.27495472374295499 0 0.007655591454257097 0.2668807235761424 0 0.01518067924924457 0.27495472374295499 0 0.015840432649346779 0.26229796203476202 0 0.03054239756331845 0.29233818187112259 0 0.01518067924924457 0.27495472374295499 0 0.034314522416885769 0.26446657841293342 0 0.01518067924924457 0.27495472374295499 0 0.015840432649346779 0.26229796203476202 0 0.034314522416885769 0.26446657841293342 0 0.015906929713197151 0.2495792049620342 0 0.015840432649346779 0.26229796203476202 0 0.034314522416885769 0.26446657841293342 0 0.029317925332254139 0.24478168446463211 0 0.015906929713197151 0.2495792049620342 0 0.034314522416885769 0.26446657841293342 0 0.029317925332254139 0.24478168446463211 0 0.034314522416885769 0.26446657841293342 0 0.041404363608824643 0.25348224301858052 0 0.034314522416885769 0.26446657841293342 0 0.041404363608824643 0.25348224301858052 0 0.051315823133100763 0.26286021747402533 0 0.034314522416885769 0.26446657841293342 0 0.051054986392335119 0.27914442509448001 0 0.051315823133100763 0.26286021747402533 0 0.03054239756331845 0.29233818187112259 0 0.034314522416885769 0.26446657841293342 0 0.03054239756331845 0.29233818187112259 0 0.034314522416885769 0.26446657841293342 0 0.051054986392335119 0.27914442509448001 0 0.051054986392335119 0.27914442509448001 0 0.060363888548155137 0.27147993938740689 0 0.051315823133100763 0.26286021747402533 0 0.051054986392335119 0.27914442509448001 0 0.060363888548155137 0.27147993938740689 0 0.059164909388193312 0.28052243804906268 0 0.060363888548155137 0.27147993938740689 0 0.059164909388193312 0.28052243804906268 0 0.067157989864518874 0.28103965266616288 0 0.041404363608824643 0.25348224301858052 0 0.054094366050189149 0.2518637416210574 0 0.051315823133100763 0.26286021747402533 0 0.060363888548155137 0.27147993938740689 0 0.051315823133100763 0.26286021747402533 0 0.062372882510697142 0.26084208046447199 0 0.054094366050189149 0.2518637416210574 0 0.051315823133100763 0.26286021747402533 0 0.062372882510697142 0.26084208046447199 0 0.061959460249100262 0.24783207319966391 0 0.054094366050189149 0.2518637416210574 0 0.062372882510697142 0.26084208046447199 0 0.070399523447451276 0.24374680135240501 0 0.072079422412066996 0.26494590115750011 0 0.061959460249100262 0.24783207319966391 0 0.070399523447451276 0.24374680135240501 0 0.062372882510697142 0.26084208046447199 0 0.070399523447451276 0.24374680135240501 0 0.062372882510697142 0.26084208046447199 0 0.070399523447451276 0.24374680135240501 0 0.072079422412066996 0.26494590115750011 0 0.084124974478697226 0.25421320340662601 0 0.070399523447451276 0.24374680135240501 0 0.062372882510697142 0.26084208046447199 0 0.072079422412066996 0.26494590115750011 0 0.072079422412066996 0.26494590115750011 0 0.084124974478697226 0.25421320340662601 0 0.084216586236967844 0.26483708490271002 0 0.084216586236967844 0.26483708490271002 0 0.092243756161492316 0.27165220705175808 0 0.098373003703041542 0.25834744764961443 0 0.084124974478697226 0.25421320340662601 0 0.084216586236967844 0.26483708490271002 0 0.098373003703041542 0.25834744764961443 0 0.097379252948702755 0.24331431243700979 0 0.084124974478697226 0.25421320340662601 0 0.098373003703041542 0.25834744764961443 0 0.092243756161492316 0.27165220705175808 0 0.087711130703939183 0.28289480131464889 0 0.097420073201952576 0.27974746149149288 0 0.092243756161492316 0.27165220705175808 0 0.081203681313127662 0.2745141394292358 0 0.087711130703939183 0.28289480131464889 0 0.072079422412066996 0.26494590115750011 0 0.084216586236967844 0.26483708490271002 0 0.081203681313127662 0.2745141394292358 0 0.084216586236967844 0.26483708490271002 0 0.092243756161492316 0.27165220705175808 0 0.081203681313127662 0.2745141394292358 0 0.081203681313127662 0.2745141394292358 0 0.073759321376684506 0.28614500096259499 0 0.087711130703939183 0.28289480131464889 0 0.072079422412066996 0.26494590115750011 0 0.067157989864518874 0.28103965266616288 0 0.073759321376684506 0.28614500096259499 0 0.060363888548155137 0.27147993938740689 0 0.072079422412066996 0.26494590115750011 0 0.067157989864518874 0.28103965266616288 0 0.072079422412066996 0.26494590115750011 0 0.073759321376684506 0.28614500096259499 0 0.072079422412066996 0.26494590115750011 0 0.081203681313127662 0.2745141394292358 0 0.073759321376684506 0.28614500096259499 0 0.060363888548155137 0.27147993938740689 0 0.062372882510697142 0.26084208046447199 0 0.072079422412066996 0.26494590115750011 0 0.067157989864518874 0.28103965266616288 0 0.065388282690892835 0.28583600257435449 0 0.073759321376684506 0.28614500096259499 0 0.059164909388193312 0.28052243804906268 0 0.067157989864518874 0.28103965266616288 0 0.065388282690892835 0.28583600257435449 0 0.065388282690892835 0.28583600257435449 0 0.066920692674787702 0.29049488898998421 0 0.073759321376684506 0.28614500096259499 0 0.0603370137426101 0.2888013882640238 0 0.065388282690892835 0.28583600257435449 0 0.066920692674787702 0.29049488898998421 0 0.058953694725378633 0.29430852078833047 0 0.074491620703390674 0.29538608440932362 0 0.058953694725378633 0.29430852078833047 0 0.066920692674787702 0.29049488898998421 0 0.074491620703390674 0.29538608440932362 0 0.066920692674787702 0.29049488898998421 0 0.074491620703390674 0.29538608440932362 0 0.073759321376684506 0.28614500096259499 0 0.074491620703390674 0.29538608440932362 0 0.073759321376684506 0.28614500096259499 0 0.067157989864518874 0.28103965266616288 0 0.073759321376684506 0.28614500096259499 0 0.076714847096275157 0.32344158011756319 0 0.074491620703390674 0.29538608440932362 0 0.076714847096275157 0.32344158011756319 0 0.074491620703390674 0.29538608440932362 0 0.065800555384307638 0.30814355487550332 0 0.058953694725378633 0.29430852078833047 0 0.074491620703390674 0.29538608440932362 0 0.065800555384307638 0.30814355487550332 0 0.076714847096275157 0.32344158011756319 0 0.074491620703390674 0.29538608440932362 0 0.088461903001347014 0.31122628168028788 0 0.074491620703390674 0.29538608440932362 0 0.088461903001347014 0.31122628168028788 0 0.08681314630901818 0.29624058891440919 0 0.088461903001347014 0.31122628168028788 0 0.08681314630901818 0.29624058891440919 0 0.1039275947271685 0.30947658833587688 0 0.073759321376684506 0.28614500096259499 0 0.08681314630901818 0.29624058891440919 0 0.087711130703939183 0.28289480131464889 0 0.074491620703390674 0.29538608440932362 0 0.073759321376684506 0.28614500096259499 0 0.08681314630901818 0.29624058891440919 0 0.074491620703390674 0.29538608440932362 0 0.08681314630901818 0.29624058891440919 0 0.073759321376684506 0.28614500096259499 0 0.08681314630901818 0.29624058891440919 0 0.08681314630901818 0.29624058891440919 0 0.087711130703939183 0.28289480131464889 0 0.096862678275791453 0.28866115830056222 0 0.08681314630901818 0.29624058891440919 0 0.096862678275791453 0.28866115830056222 0 0.10584905475116189 0.29756073952259798 0 0.087711130703939183 0.28289480131464889 0 0.096862678275791453 0.28866115830056222 0 0.097420073201952576 0.27974746149149288 0 0.096862678275791453 0.28866115830056222 0 0.10832373166621311 0.28221414078344942 0 0.097420073201952576 0.27974746149149288 0 0.096862678275791453 0.28866115830056222 0 0.10832373166621311 0.28221414078344942 0 0.10584905475116189 0.29756073952259798 0 0.10832373166621311 0.28221414078344942 0 0.10584905475116189 0.29756073952259798 0 0.08681314630901818 0.29624058891440919 0 0.10584905475116189 0.29756073952259798 0 0.1039275947271685 0.30947658833587688 0 0.08681314630901818 0.29624058891440919 0 0.10584905475116189 0.29756073952259798 0 0.08681314630901818 0.29624058891440919 0 0.1039275947271685 0.30947658833587688 0 0.10584905475116189 0.29756073952259798 0 0.1039275947271685 0.30947658833587688 0 0.10584905475116189 0.29756073952259798 0 0.1039275947271685 0.30947658833587688 0 0.11562347922934189 0.30764927530771308 0 0.10584905475116189 0.29756073952259798 0 0.11562347922934189 0.30764927530771308 0 0.12329675456455159 0.29877074699821582 0 0.10584905475116189 0.29756073952259798 0 0.12329675456455159 0.29877074699821582 0 0.11562347922934189 0.30764927530771308 0 0.12329675456455159 0.29877074699821582 0 0.12577500289224269 0.31096640210294513 0 0.10584905475116189 0.29756073952259798 0 0.12329675456455159 0.29877074699821582 0 0.1147640143567934 0.2904021221859967 0 0.12329675456455159 0.29877074699821582 0 0.1147640143567934 0.2904021221859967 0 0.1204581301985483 0.28010322961660511 0 0.10832373166621311 0.28221414078344942 0 0.1147640143567934 0.2904021221859967 0 0.1204581301985483 0.28010322961660511 0 0.10832373166621311 0.28221414078344942 0 0.10584905475116189 0.29756073952259798 0 0.1147640143567934 0.2904021221859967 0 0.1204581301985483 0.28010322961660511 0 0.1107984085812669 0.26686754204430141 0 0.11496122641040819 0.26289732736549321 0 0.11496122641040819 0.26289732736549321 0 0.13254319987211369 0.28248034229397673 0 0.1204581301985483 0.28010322961660511 0 0.11496122641040819 0.26289732736549321 0 0.13254319987211369 0.28248034229397673 0 0.11496122641040819 0.26289732736549321 0 0.12673653375000171 0.2626100833873915 0 0.13254319987211369 0.28248034229397673 0 0.10832373166621311 0.28221414078344942 0 0.1204581301985483 0.28010322961660511 0 0.1107984085812669 0.26686754204430141 0 0.10832373166621311 0.28221414078344942 0 0.1107984085812669 0.26686754204430141 0 0.1194425824179348 0.25637397479937019 0 0.11496122641040819 0.26289732736549321 0 0.12673653375000171 0.2626100833873915 0 0.11204428381166009 0.24858371469798371 0 0.1194425824179348 0.25637397479937019 0 0.1240282856996692 0.25140477374661241 0 0.1194425824179348 0.25637397479937019 0 0.1240282856996692 0.25140477374661241 0 0.12673653375000171 0.2626100833873915 0 0.11204428381166009 0.24858371469798371 0 0.1194425824179348 0.25637397479937019 0 0.11496122641040819 0.26289732736549321 0 0.1107984085812669 0.26686754204430141 0 0.11496122641040819 0.26289732736549321 0 0.10280947780585541 0.26519788354599061 0 0.11496122641040819 0.26289732736549321 0 0.10280947780585541 0.26519788354599061 0 0.098373003703041542 0.25834744764961443 0 0.097379252948702755 0.24331431243700979 0 0.11496122641040819 0.26289732736549321 0 0.097379252948702755 0.24331431243700979 0 0.11496122641040819 0.26289732736549321 0 0.098373003703041542 0.25834744764961443 0 0.11204428381166009 0.24858371469798371 0 0.097379252948702755 0.24331431243700979 0 0.11496122641040819 0.26289732736549321 0 0.092243756161492316 0.27165220705175808 0 0.10280947780585541 0.26519788354599061 0 0.098373003703041542 0.25834744764961443 0 0.092243756161492316 0.27165220705175808 0 0.10280947780585541 0.26519788354599061 0 0.10195906920232679 0.27331500000704628 0 0.092243756161492316 0.27165220705175808 0 0.097420073201952576 0.27974746149149288 0 0.10195906920232679 0.27331500000704628 0 0.10832373166621311 0.28221414078344942 0 0.097420073201952576 0.27974746149149288 0 0.10195906920232679 0.27331500000704628 0 0.10832373166621311 0.28221414078344942 0 0.1107984085812669 0.26686754204430141 0 0.10195906920232679 0.27331500000704628 0 0.1107984085812669 0.26686754204430141 0 0.10280947780585541 0.26519788354599061 0 0.10195906920232679 0.27331500000704628 0 0.1422850593476386 0.27213349956795591 0 0.15070173040235371 0.27735377000522698 0 0.15169911548474971 0.26760484736665591 0 0.1422850593476386 0.27213349956795591 0 0.15169911548474971 0.26760484736665591 0 0.14353220234306061 0.26143113699992537 0 0.1422850593476386 0.27213349956795591 0 0.14325990122047419 0.27980080521219791 0 0.15070173040235371 0.27735377000522698 0 0.15070173040235371 0.27735377000522698 0 0.15169911548474971 0.26760484736665591 0 0.15996655016580361 0.27362316985669421 0 0.15169911548474971 0.26760484736665591 0 0.15152431857734219 0.25612087984620308 0 0.15951615304138189 0.26477129102397429 0 0.15169911548474971 0.26760484736665591 0 0.15152431857734219 0.25612087984620308 0 0.14353220234306061 0.26143113699992537 0 0.1523823758574599 0.2440195334531422 0 0.15152431857734219 0.25612087984620308 0 0.15772030681778071 0.25039649848589418 0 0.1523823758574599 0.2440195334531422 0 0.15152431857734219 0.25612087984620308 0 0.14322756819817459 0.25050553645822832 0 0.15152431857734219 0.25612087984620308 0 0.14322756819817459 0.25050553645822832 0 0.14353220234306061 0.26143113699992537 0 0.14353220234306061 0.26143113699992537 0 0.13429906300114289 0.25612289094044183 0 0.13530936985621869 0.26659165996000739 0 0.14322756819817459 0.25050553645822832 0 0.14353220234306061 0.26143113699992537 0 0.13429906300114289 0.25612289094044183 0 0.1322822907628694 0.24644128385446659 0 0.14322756819817459 0.25050553645822832 0 0.13429906300114289 0.25612289094044183 0 0.1240282856996692 0.25140477374661241 0 0.13429906300114289 0.25612289094044183 0 0.12673653375000171 0.2626100833873915 0 0.1322822907628694 0.24644128385446659 0 0.1240282856996692 0.25140477374661241 0 0.13429906300114289 0.25612289094044183 0 0.13429906300114289 0.25612289094044183 0 0.12673653375000171 0.2626100833873915 0 0.13530936985621869 0.26659165996000739 0 0.1422850593476386 0.27213349956795591 0 0.13530936985621869 0.26659165996000739 0 0.13254319987211369 0.28248034229397673 0 0.12673653375000171 0.2626100833873915 0 0.13530936985621869 0.26659165996000739 0 0.13254319987211369 0.28248034229397673 0 0.1422850593476386 0.27213349956795591 0 0.14353220234306061 0.26143113699992537 0 0.13530936985621869 0.26659165996000739 0 0.1422850593476386 0.27213349956795591 0 0.14325990122047419 0.27980080521219791 0 0.13254319987211369 0.28248034229397673 0 0.12329675456455159 0.29877074699821582 0 0.1204581301985483 0.28010322961660511 0 0.13254319987211369 0.28248034229397673 0 0.13254319987211369 0.28248034229397673 0 0.136975930060173 0.29825808967594492 0 0.1501251733338192 0.30206335722246019 0 0.12329675456455159 0.29877074699821582 0 0.13254319987211369 0.28248034229397673 0 0.136975930060173 0.29825808967594492 0 0.12329675456455159 0.29877074699821582 0 0.12577500289224269 0.31096640210294513 0 0.13509647177844589 0.30785748145049951 0 0.12329675456455159 0.29877074699821582 0 0.136975930060173 0.29825808967594492 0 0.13509647177844589 0.30785748145049951 0 0.136975930060173 0.29825808967594492 0 0.13509647177844589 0.30785748145049951 0 0.14215392240107561 0.30408700315747172 0 0.13509647177844589 0.30785748145049951 0 0.14641811443186439 0.30816908428098211 0 0.13734662506429299 0.32031111572158699 0 0.14641811443186439 0.30816908428098211 0 0.14215392240107561 0.30408700315747172 0 0.1501251733338192 0.30206335722246019 0 0.13509647177844589 0.30785748145049951 0 0.14641811443186439 0.30816908428098211 0 0.14215392240107561 0.30408700315747172 0 0.136975930060173 0.29825808967594492 0 0.14215392240107561 0.30408700315747172 0 0.1501251733338192 0.30206335722246019 0 0.1501251733338192 0.30206335722246019 0 0.15551309555653789 0.29318510255866959 0 0.1627840818251349 0.30346341975383168 0 0.14641811443186439 0.30816908428098211 0 0.1501251733338192 0.30206335722246019 0 0.15435501258338871 0.31562908771085679 0 0.13254319987211369 0.28248034229397673 0 0.1501251733338192 0.30206335722246019 0 0.13254319987211369 0.28248034229397673 0 0.1501251733338192 0.30206335722246019 0 0.14750961525979081 0.28723560898163192 0 0.14325990122047419 0.27980080521219791 0 0.13254319987211369 0.28248034229397673 0 0.14750961525979081 0.28723560898163192 0 0.14325990122047419 0.27980080521219791 0 0.15070173040235371 0.27735377000522698 0 0.14750961525979081 0.28723560898163192 0 0.1501251733338192 0.30206335722246019 0 0.14750961525979081 0.28723560898163192 0 0.15551309555653789 0.29318510255866959 0 0.14750961525979081 0.28723560898163192 0 0.15551309555653789 0.29318510255866959 0 0.16041125185095551 0.2839418320002719 0 0.15070173040235371 0.27735377000522698 0 0.14750961525979081 0.28723560898163192 0 0.16041125185095551 0.2839418320002719 0 0.15551309555653789 0.29318510255866959 0 0.16041125185095551 0.2839418320002719 0 0.16586450505785741 0.29483049963678271 0 0.16586450505785741 0.29483049963678271 0 0.1694448305692659 0.28727171398123608 0 0.17803255337780119 0.29418226422681959 0 0.1694448305692659 0.28727171398123608 0 0.17615278716534549 0.28053017828948651 0 0.16675610246121961 0.27923442443345298 0 0.16041125185095551 0.2839418320002719 0 0.16586450505785741 0.29483049963678271 0 0.1694448305692659 0.28727171398123608 0 0.16041125185095551 0.2839418320002719 0 0.1694448305692659 0.28727171398123608 0 0.16675610246121961 0.27923442443345298 0 0.1627840818251349 0.30346341975383168 0 0.17471048838193559 0.3055917672003024 0 0.16770714679552459 0.32164637215094372 0 0.1501251733338192 0.30206335722246019 0 0.1627840818251349 0.30346341975383168 0 0.16770714679552459 0.32164637215094372 0 0.1501251733338192 0.30206335722246019 0 0.16770714679552459 0.32164637215094372 0 0.15551309555653789 0.29318510255866959 0 0.16586450505785741 0.29483049963678271 0 0.1627840818251349 0.30346341975383168 0 0.16586450505785741 0.29483049963678271 0 0.1627840818251349 0.30346341975383168 0 0.17471048838193559 0.3055917672003024 0 0.17471048838193559 0.3055917672003024 0 0.18730527963334009 0.30147064841813931 0 0.19110803961997111 0.3183208502837131 0 0.16586450505785741 0.29483049963678271 0 0.17471048838193559 0.3055917672003024 0 0.17803255337780119 0.29418226422681959 0 0.17471048838193559 0.3055917672003024 0 0.18730527963334009 0.30147064841813931 0 0.17803255337780119 0.29418226422681959 0 0.1694448305692659 0.28727171398123608 0 0.17803255337780119 0.29418226422681959 0 0.17615278716534549 0.28053017828948651 0 0.18730527963334009 0.30147064841813931 0 0.17803255337780119 0.29418226422681959 0 0.18843591228954309 0.28689045307196981 0 0.17803255337780119 0.29418226422681959 0 0.17615278716534549 0.28053017828948651 0 0.18843591228954309 0.28689045307196981 0 0.18525540769551499 0.2690689029640092 0 0.17615278716534549 0.28053017828948651 0 0.18843591228954309 0.28689045307196981 0 0.18525540769551499 0.2690689029640092 0 0.16982558549393639 0.26745804994163691 0 0.17794421433320551 0.26117797264466169 0 0.18525540769551499 0.2690689029640092 0 0.17615278716534549 0.28053017828948651 0 0.16982558549393639 0.26745804994163691 0 0.17615278716534549 0.28053017828948651 0 0.16675610246121961 0.27923442443345298 0 0.16982558549393639 0.26745804994163691 0 0.16675610246121961 0.27923442443345298 0 0.16982558549393639 0.26745804994163691 0 0.15996655016580361 0.27362316985669421 0 0.15169911548474971 0.26760484736665591 0 0.15996655016580361 0.27362316985669421 0 0.15951615304138189 0.26477129102397429 0 0.16982558549393639 0.26745804994163691 0 0.15996655016580361 0.27362316985669421 0 0.15951615304138189 0.26477129102397429 0 0.15070173040235371 0.27735377000522698 0 0.16041125185095551 0.2839418320002719 0 0.15996655016580361 0.27362316985669421 0 0.16041125185095551 0.2839418320002719 0 0.16675610246121961 0.27923442443345298 0 0.15996655016580361 0.27362316985669421 0 0.16441212985479001 0.24511593227421499 0 0.1625624029815306 0.25632964837001643 0 0.15772030681778071 0.25039649848589418 0 0.15152431857734219 0.25612087984620308 0 0.1625624029815306 0.25632964837001643 0 0.15772030681778071 0.25039649848589418 0 0.16982558549393639 0.26745804994163691 0 0.1625624029815306 0.25632964837001643 0 0.15951615304138189 0.26477129102397429 0 0.15152431857734219 0.25612087984620308 0 0.1625624029815306 0.25632964837001643 0 0.15951615304138189 0.26477129102397429 0 0.16982558549393639 0.26745804994163691 0 0.1625624029815306 0.25632964837001643 0 0.17218655778912109 0.25430338789713453 0 0.16441212985479001 0.24511593227421499 0 0.1625624029815306 0.25632964837001643 0 0.17218655778912109 0.25430338789713453 0 0.17218655778912109 0.25430338789713453 0 0.17794421433320551 0.26117797264466169 0 0.18490779442650609 0.25559020776125357 0 0.1766762930459298 0.24533440230458961 0 0.17218655778912109 0.25430338789713453 0 0.18490779442650609 0.25559020776125357 0 0.16982558549393639 0.26745804994163691 0 0.17218655778912109 0.25430338789713453 0 0.17794421433320551 0.26117797264466169 0 0.18525540769551499 0.2690689029640092 0 0.17794421433320551 0.26117797264466169 0 0.18490779442650609 0.25559020776125357 0 0.18878081200359581 0.24566942103034811 0 0.18490779442650609 0.25559020776125357 0 0.19895952734273589 0.2590326888332104 0 0.18525540769551499 0.2690689029640092 0 0.18490779442650609 0.25559020776125357 0 0.19895952734273589 0.2590326888332104 0 0.2103244671141446 0.24815240516277451 0 0.19942420770430511 0.24470851503301741 0 0.19895952734273589 0.2590326888332104 0 0.18525540769551499 0.2690689029640092 0 0.20065045968354389 0.27670279064443237 0 0.18843591228954309 0.28689045307196981 0 0.18525540769551499 0.2690689029640092 0 0.19895952734273589 0.2590326888332104 0 0.20065045968354389 0.27670279064443237 0 0.20065045968354389 0.27670279064443237 0 0.21159081674854741 0.27014892374042271 0 0.2188678523075511 0.28212520022786342 0 0.21159081674854741 0.27014892374042271 0 0.2164058008929178 0.25892793604895742 0 0.2272937320727591 0.27028068031713331 0 0.19895952734273589 0.2590326888332104 0 0.20065045968354389 0.27670279064443237 0 0.21159081674854741 0.27014892374042271 0 0.19895952734273589 0.2590326888332104 0 0.21159081674854741 0.27014892374042271 0 0.2164058008929178 0.25892793604895742 0 0.2103244671141446 0.24815240516277451 0 0.19895952734273589 0.2590326888332104 0 0.2164058008929178 0.25892793604895742 0 0.2103244671141446 0.24815240516277451 0 0.22340588306546499 0.24648829058061131 0 0.2164058008929178 0.25892793604895742 0 0.23106382864926731 0.25736069936046208 0 0.2272937320727591 0.27028068031713331 0 0.24296828946706911 0.26741023230351141 0 0.22340588306546499 0.24648829058061131 0 0.2164058008929178 0.25892793604895742 0 0.23106382864926731 0.25736069936046208 0 0.23585449422308771 0.2462814536726553 0 0.22340588306546499 0.24648829058061131 0 0.23106382864926731 0.25736069936046208 0 0.2164058008929178 0.25892793604895742 0 0.23106382864926731 0.25736069936046208 0 0.2272937320727591 0.27028068031713331 0 0.2272937320727591 0.27028068031713331 0 0.2433501264534004 0.28528960826854249 0 0.2188678523075511 0.28212520022786342 0 0.21159081674854741 0.27014892374042271 0 0.2272937320727591 0.27028068031713331 0 0.2188678523075511 0.28212520022786342 0 0.2272937320727591 0.27028068031713331 0 0.24296828946706911 0.26741023230351141 0 0.2433501264534004 0.28528960826854249 0 0.24296828946706911 0.26741023230351141 0 0.2433501264534004 0.28528960826854249 0 0.26071280896537702 0.27408179763909629 0 0.24296828946706911 0.26741023230351141 0 0.24481430044314709 0.25516863214587021 0 0.25675448368687909 0.26214945467590839 0 0.24711866831732671 0.24511003521626959 0 0.24481430044314709 0.25516863214587021 0 0.25512603831525271 0.25269991764641409 0 0.23585449422308771 0.2462814536726553 0 0.23106382864926731 0.25736069936046208 0 0.24481430044314709 0.25516863214587021 0 0.23106382864926731 0.25736069936046208 0 0.24296828946706911 0.26741023230351141 0 0.24481430044314709 0.25516863214587021 0 0.2433501264534004 0.28528960826854249 0 0.23319686173334611 0.30897877613083241 0 0.26166485869090539 0.30713892627832817 0 0.2433501264534004 0.28528960826854249 0 0.2188678523075511 0.28212520022786342 0 0.22152650121773371 0.29711885598069671 0 0.2433501264534004 0.28528960826854249 0 0.22152650121773371 0.29711885598069671 0 0.23319686173334611 0.30897877613083241 0 0.22152650121773371 0.29711885598069671 0 0.23319686173334611 0.30897877613083241 0 0.210019097728395 0.31279273480627329 0 0.22152650121773371 0.29711885598069671 0 0.20219856786597601 0.29640796046997159 0 0.210019097728395 0.31279273480627329 0 0.2188678523075511 0.28212520022786342 0 0.22152650121773371 0.29711885598069671 0 0.20219856786597601 0.29640796046997159 0 0.20065045968354389 0.27670279064443237 0 0.2188678523075511 0.28212520022786342 0 0.20219856786597601 0.29640796046997159 0 0.20065045968354389 0.27670279064443237 0 0.20219856786597601 0.29640796046997159 0 0.18843591228954309 0.28689045307196981 0 0.18730527963334009 0.30147064841813931 0 0.20219856786597601 0.29640796046997159 0 0.18843591228954309 0.28689045307196981 0 0.18730527963334009 0.30147064841813931 0 0.20219856786597601 0.29640796046997159 0 0.19110803961997111 0.3183208502837131 0 0.20219856786597601 0.29640796046997159 0 0.19110803961997111 0.3183208502837131 0 0.210019097728395 0.31279273480627329 0 0.19110803961997111 0.3183208502837131 0 0.2011257097452957 0.33085247086387798 0 0.210019097728395 0.31279273480627329 0 0.19110803961997111 0.3183208502837131 0 0.2011257097452957 0.33085247086387798 0 0.18528912025722999 0.34122938707942713 0 0.2011257097452957 0.33085247086387798 0 0.201758750213514 0.34449152048830373 0 0.18528912025722999 0.34122938707942713 0 0.2011257097452957 0.33085247086387798 0 0.21111664908688221 0.33941257993938562 0 0.21939984380622871 0.32660495319242028 0 0.2011257097452957 0.33085247086387798 0 0.21111664908688221 0.33941257993938562 0 0.201758750213514 0.34449152048830373 0 0.21111664908688221 0.33941257993938562 0 0.21939984380622871 0.32660495319242028 0 0.22507675182809719 0.33994055198787471 0 0.21111664908688221 0.33941257993938562 0 0.22507675182809719 0.33994055198787471 0 0.21336502919274869 0.34920792947018803 0 0.2011257097452957 0.33085247086387798 0 0.210019097728395 0.31279273480627329 0 0.21939984380622871 0.32660495319242028 0 0.23319686173334611 0.30897877613083241 0 0.21939984380622871 0.32660495319242028 0 0.24070235444249319 0.32908650917810622 0 0.23319686173334611 0.30897877613083241 0 0.210019097728395 0.31279273480627329 0 0.21939984380622871 0.32660495319242028 0 0.21939984380622871 0.32660495319242028 0 0.22507675182809719 0.33994055198787471 0 0.24070235444249319 0.32908650917810622 0 0.22507675182809719 0.33994055198787471 0 0.24070235444249319 0.32908650917810622 0 0.25058270844242481 0.35582498215290642 0 0.23319686173334611 0.30897877613083241 0 0.24070235444249319 0.32908650917810622 0 0.26166485869090539 0.30713892627832817 0 0.23639772929814989 0.37453979668752158 0 0.22672690108067881 0.35831869208041051 0 0.25058270844242481 0.35582498215290642 0 0.22672690108067881 0.35831869208041051 0 0.25058270844242481 0.35582498215290642 0 0.22507675182809719 0.33994055198787471 0 0.22672690108067881 0.35831869208041051 0 0.25058270844242481 0.35582498215290642 0 0.22507675182809719 0.33994055198787471 0 0.22672690108067881 0.35831869208041051 0 0.21336502919274869 0.34920792947018803 0 0.23639772929814989 0.37453979668752158 0 0.22672690108067881 0.35831869208041051 0 0.21772363313381571 0.37735534024638501 0 0.22672690108067881 0.35831869208041051 0 0.20287109371893269 0.36081240200791259 0 0.21772363313381571 0.37735534024638501 0 0.20287109371893269 0.36081240200791259 0 0.21772363313381571 0.37735534024638501 0 0.22672690108067881 0.35831869208041051 0 0.20287109371893269 0.36081240200791259 0 0.2011812467034251 0.37132403958804328 0 0.20287109371893269 0.36081240200791259 0 0.21772363313381571 0.37735534024638501 0 0.22672690108067881 0.35831869208041051 0 0.21336502919274869 0.34920792947018803 0 0.20287109371893269 0.36081240200791259 0 0.21336502919274869 0.34920792947018803 0 0.201758750213514 0.34449152048830373 0 0.20287109371893269 0.36081240200791259 0 0.21111664908688221 0.33941257993938562 0 0.21336502919274869 0.34920792947018803 0 0.201758750213514 0.34449152048830373 0 0.201758750213514 0.34449152048830373 0 0.20287109371893269 0.36081240200791259 0 0.18528912025722999 0.34122938707942713 0 0.20287109371893269 0.36081240200791259 0 0.19125140383609709 0.36202703857736518 0 0.18592661653693529 0.3528402860863859 0 0.20287109371893269 0.36081240200791259 0 0.18592661653693529 0.3528402860863859 0 0.18528912025722999 0.34122938707942713 0 0.20287109371893269 0.36081240200791259 0 0.18528912025722999 0.34122938707942713 0 0.20287109371893269 0.36081240200791259 0 0.19125140383609709 0.36202703857736518 0 0.2011812467034251 0.37132403958804328 0 0.20287109371893269 0.36081240200791259 0 0.19125140383609709 0.36202703857736518 0 0.2011812467034251 0.37132403958804328 0 0.19125140383609709 0.36202703857736518 0 0.1896868307780788 0.37511319615928579 0 0.1758004222326599 0.35409421475027208 0 0.17694119960773161 0.37501241677474079 0 0.1896868307780788 0.37511319615928579 0 0.19125140383609709 0.36202703857736518 0 0.1758004222326599 0.35409421475027208 0 0.1896868307780788 0.37511319615928579 0 0.1683296654567252 0.36223812056093668 0 0.1758004222326599 0.35409421475027208 0 0.17694119960773161 0.37501241677474079 0 0.1758004222326599 0.35409421475027208 0 0.1896868307780788 0.37511319615928579 0 0.1683296654567252 0.36223812056093668 0 0.15945035916672251 0.36881788715759212 0 0.15733932676241291 0.35078423886864651 0 0.1683296654567252 0.36223812056093668 0 0.15945035916672251 0.36881788715759212 0 0.17694119960773161 0.37501241677474079 0 0.15945035916672251 0.36881788715759212 0 0.15522369434142519 0.34914804769169178 0 0.15945035916672251 0.36881788715759212 0 0.15733932676241291 0.35078423886864651 0 0.15522369434142519 0.34914804769169178 0 0.16240007885868149 0.34738844299533728 0 0.15733932676241291 0.35078423886864651 0 0.16677474767121339 0.35129656494308881 0 0.16240007885868149 0.34738844299533728 0 0.15898093320197901 0.3452404098180904 0 0.16216577599569629 0.34277745434395379 0 0.16240007885868149 0.34738844299533728 0 0.1667199837866922 0.34505766803275723 0 0.16216577599569629 0.34277745434395379 0 0.16240007885868149 0.34738844299533728 0 0.15898093320197901 0.3452404098180904 0 0.15733932676241291 0.35078423886864651 0 0.15898093320197901 0.3452404098180904 0 0.15733932676241291 0.35078423886864651 0 0.15522369434142519 0.34914804769169178 0 0.15733932676241291 0.35078423886864651 0 0.15522369434142519 0.34914804769169178 0 0.1683296654567252 0.36223812056093668 0 0.16677474767121339 0.35129656494308881 0 0.1758004222326599 0.35409421475027208 0 0.1683296654567252 0.36223812056093668 0 0.15733932676241291 0.35078423886864651 0 0.16677474767121339 0.35129656494308881 0 0.16240007885868149 0.34738844299533728 0 0.16677474767121339 0.35129656494308881 0 0.1667199837866922 0.34505766803275723 0 0.16677474767121339 0.35129656494308881 0 0.1667199837866922 0.34505766803275723 0 0.17442104263975669 0.34603838801695258 0 0.16677474767121339 0.35129656494308881 0 0.17442104263975669 0.34603838801695258 0 0.1758004222326599 0.35409421475027208 0 0.17442104263975669 0.34603838801695258 0 0.1758004222326599 0.35409421475027208 0 0.18592661653693529 0.3528402860863859 0 0.19125140383609709 0.36202703857736518 0 0.1758004222326599 0.35409421475027208 0 0.18592661653693529 0.3528402860863859 0 0.17442104263975669 0.34603838801695258 0 0.18592661653693529 0.3528402860863859 0 0.18528912025722999 0.34122938707942713 0 0.17442104263975669 0.34603838801695258 0 0.18528912025722999 0.34122938707942713 0 0.16596816540023679 0.33744107815534452 0 0.18528912025722999 0.34122938707942713 0 0.16770714679552459 0.32164637215094372 0 0.16596816540023679 0.33744107815534452 0 0.18528912025722999 0.34122938707942713 0 0.16770714679552459 0.32164637215094372 0 0.19110803961997111 0.3183208502837131 0 0.18528912025722999 0.34122938707942713 0 0.16770714679552459 0.32164637215094372 0 0.17471048838193559 0.3055917672003024 0 0.19110803961997111 0.3183208502837131 0 0.16770714679552459 0.32164637215094372 0 0.1501251733338192 0.30206335722246019 0 0.16770714679552459 0.32164637215094372 0 0.15435501258338871 0.31562908771085679 0 0.16770714679552459 0.32164637215094372 0 0.15082090438664461 0.32865856598633703 0 0.15435501258338871 0.31562908771085679 0 0.16770714679552459 0.32164637215094372 0 0.16596816540023679 0.33744107815534452 0 0.1577757900516791 0.33610386519082258 0 0.16770714679552459 0.32164637215094372 0 0.1577757900516791 0.33610386519082258 0 0.15082090438664461 0.32865856598633703 0 0.1667199837866922 0.34505766803275723 0 0.17442104263975669 0.34603838801695258 0 0.16596816540023679 0.33744107815534452 0 0.1667199837866922 0.34505766803275723 0 0.16596816540023679 0.33744107815534452 0 0.16216577599569629 0.34277745434395379 0 0.15898093320197901 0.3452404098180904 0 0.1577757900516791 0.33610386519082258 0 0.15522369434142519 0.34914804769169178 0 0.15898093320197901 0.3452404098180904 0 0.1577757900516791 0.33610386519082258 0 0.16216577599569629 0.34277745434395379 0 0.16596816540023679 0.33744107815534452 0 0.1577757900516791 0.33610386519082258 0 0.16216577599569629 0.34277745434395379 0 0.15082090438664461 0.32865856598633703 0 0.15522369434142519 0.34914804769169178 0 0.15082090438664461 0.32865856598633703 0 0.1381249944700062 0.33592422790642018 0 0.15522369434142519 0.34914804769169178 0 0.1577757900516791 0.33610386519082258 0 0.15082090438664461 0.32865856598633703 0 0.15522369434142519 0.34914804769169178 0 0.1381249944700062 0.33592422790642018 0 0.15522369434142519 0.34914804769169178 0 0.15082090438664461 0.32865856598633703 0 0.13734662506429299 0.32031111572158699 0 0.1381249944700062 0.33592422790642018 0 0.14641811443186439 0.30816908428098211 0 0.15082090438664461 0.32865856598633703 0 0.15435501258338871 0.31562908771085679 0 0.14641811443186439 0.30816908428098211 0 0.15082090438664461 0.32865856598633703 0 0.13734662506429299 0.32031111572158699 0 0.14641811443186439 0.30816908428098211 0 0.15082090438664461 0.32865856598633703 0 0.12102629459858701 0.32270040812114892 0 0.13734662506429299 0.32031111572158699 0 0.1381249944700062 0.33592422790642018 0 0.12102629459858701 0.32270040812114892 0 0.12577500289224269 0.31096640210294513 0 0.13734662506429299 0.32031111572158699 0 0.12577500289224269 0.31096640210294513 0 0.13509647177844589 0.30785748145049951 0 0.13734662506429299 0.32031111572158699 0 0.1211824295008295 0.3366626843910176 0 0.12102629459858701 0.32270040812114892 0 0.1381249944700062 0.33592422790642018 0 0.12102629459858701 0.32270040812114892 0 0.1381249944700062 0.33592422790642018 0 0.1211824295008295 0.3366626843910176 0 0.1381249944700062 0.33592422790642018 0 0.12926528544088481 0.34707087424054112 0 0.1381249944700062 0.33592422790642018 0 0.12926528544088481 0.34707087424054112 0 0.1382427714134386 0.34806341321138362 0 0.1381249944700062 0.33592422790642018 0 0.1382427714134386 0.34806341321138362 0 0.14524998736157549 0.34869512245689072 0 0.12926528544088481 0.34707087424054112 0 0.1382427714134386 0.34806341321138362 0 0.13740460050413819 0.35644980160071088 0 0.1382427714134386 0.34806341321138362 0 0.13740460050413819 0.35644980160071088 0 0.1442833071368613 0.35333484435914819 0 0.12494773803156189 0.35830786049319269 0 0.12926528544088481 0.34707087424054112 0 0.13740460050413819 0.35644980160071088 0 0.12262063578902491 0.36878957885284092 0 0.12494773803156189 0.35830786049319269 0 0.1326464078241556 0.36842598090079359 0 0.12494773803156189 0.35830786049319269 0 0.13740460050413819 0.35644980160071088 0 0.1326464078241556 0.36842598090079359 0 0.1326464078241556 0.36842598090079359 0 0.13342974416523409 0.37840538249869199 0 0.12552755411527511 0.37811666214524831 0 0.12262063578902491 0.36878957885284092 0 0.1326464078241556 0.36842598090079359 0 0.12552755411527511 0.37811666214524831 0 0.1326464078241556 0.36842598090079359 0 0.1414655169105194 0.37559681561125469 0 0.13342974416523409 0.37840538249869199 0 0.1326464078241556 0.36842598090079359 0 0.1418694612623303 0.3644162693996893 0 0.1414655169105194 0.37559681561125469 0 0.13740460050413819 0.35644980160071088 0 0.1326464078241556 0.36842598090079359 0 0.1418694612623303 0.3644162693996893 0 0.13740460050413819 0.35644980160071088 0 0.1418694612623303 0.3644162693996893 0 0.1446227089872851 0.35886423725666572 0 0.1418694612623303 0.3644162693996893 0 0.14945128859936821 0.37052266606802209 0 0.14918100658694919 0.36311519180797053 0 0.14918100658694919 0.36311519180797053 0 0.15037516944614629 0.35700507911580981 0 0.1446227089872851 0.35886423725666572 0 0.1418694612623303 0.3644162693996893 0 0.14918100658694919 0.36311519180797053 0 0.1446227089872851 0.35886423725666572 0 0.1418694612623303 0.3644162693996893 0 0.14945128859936821 0.37052266606802209 0 0.1414655169105194 0.37559681561125469 0 0.15945035916672251 0.36881788715759212 0 0.14945128859936821 0.37052266606802209 0 0.14918100658694919 0.36311519180797053 0 0.15945035916672251 0.36881788715759212 0 0.14945128859936821 0.37052266606802209 0 0.15030682792213779 0.37981021630389089 0 0.15945035916672251 0.36881788715759212 0 0.14918100658694919 0.36311519180797053 0 0.15037516944614629 0.35700507911580981 0 0.15037516944614629 0.35700507911580981 0 0.15522369434142519 0.34914804769169178 0 0.14524998736157549 0.34869512245689072 0 0.15945035916672251 0.36881788715759212 0 0.15037516944614629 0.35700507911580981 0 0.15522369434142519 0.34914804769169178 0 0.1381249944700062 0.33592422790642018 0 0.15522369434142519 0.34914804769169178 0 0.14524998736157549 0.34869512245689072 0 0.1382427714134386 0.34806341321138362 0 0.14524998736157549 0.34869512245689072 0 0.1442833071368613 0.35333484435914819 0 0.15037516944614629 0.35700507911580981 0 0.14524998736157549 0.34869512245689072 0 0.1442833071368613 0.35333484435914819 0 0.13740460050413819 0.35644980160071088 0 0.1442833071368613 0.35333484435914819 0 0.1446227089872851 0.35886423725666572 0 0.15037516944614629 0.35700507911580981 0 0.1442833071368613 0.35333484435914819 0 0.1446227089872851 0.35886423725666572 0 0.1475247491385831 0.39404946506844912 0 0.1420074076684551 0.39802234545860299 0 0.148470233011751 0.39846405557241188 0 0.1475247491385831 0.39404946506844912 0 0.1438614968362234 0.3919262369534865 0 0.14794650069907969 0.38820273702009311 0 0.1438614968362234 0.3919262369534865 0 0.13947807644221449 0.38913063547536142 0 0.13859934779910049 0.39373219347481447 0 0.1475247491385831 0.39404946506844912 0 0.1438614968362234 0.3919262369534865 0 0.1420074076684551 0.39802234545860299 0 0.1438614968362234 0.3919262369534865 0 0.1420074076684551 0.39802234545860299 0 0.13859934779910049 0.39373219347481447 0 0.1420074076684551 0.39802234545860299 0 0.14652287066416389 0.40461561073147567 0 0.1351486975306008 0.40658960038989678 0 0.1420074076684551 0.39802234545860299 0 0.14652287066416389 0.40461561073147567 0 0.148470233011751 0.39846405557241188 0 0.14652287066416389 0.40461561073147567 0 0.148470233011751 0.39846405557241188 0 0.1548912014347886 0.40054330661930232 0 0.1548912014347886 0.40054330661930232 0 0.15144700557346591 0.3958483894244369 0 0.15548671196349231 0.39415057744384813 0 0.148470233011751 0.39846405557241188 0 0.1548912014347886 0.40054330661930232 0 0.15144700557346591 0.3958483894244369 0 0.1475247491385831 0.39404946506844912 0 0.148470233011751 0.39846405557241188 0 0.15144700557346591 0.3958483894244369 0 0.1475247491385831 0.39404946506844912 0 0.15144700557346591 0.3958483894244369 0 0.15086213231871429 0.39203454241817282 0 0.1475247491385831 0.39404946506844912 0 0.15086213231871429 0.39203454241817282 0 0.14794650069907969 0.38820273702009311 0 0.15144700557346591 0.3958483894244369 0 0.15086213231871429 0.39203454241817282 0 0.15548671196349231 0.39415057744384813 0 0.15086213231871429 0.39203454241817282 0 0.15548671196349231 0.39415057744384813 0 0.1542817518698707 0.39007052467329723 0 0.15548671196349231 0.39415057744384813 0 0.1542817518698707 0.39007052467329723 0 0.15703811460741579 0.39030490692032971 0 0.1542817518698707 0.39007052467329723 0 0.15703811460741579 0.39030490692032971 0 0.15691460538756841 0.3870553961256985 0 0.15086213231871429 0.39203454241817282 0 0.1542817518698707 0.39007052467329723 0 0.15302308462149991 0.3867118687607804 0 0.15302308462149991 0.3867118687607804 0 0.15030682792213779 0.37981021630389089 0 0.15833170853334161 0.38355121550259752 0 0.15302308462149991 0.3867118687607804 0 0.15030682792213779 0.37981021630389089 0 0.14794650069907969 0.38820273702009311 0 0.1542817518698707 0.39007052467329723 0 0.15302308462149991 0.3867118687607804 0 0.15691460538756841 0.3870553961256985 0 0.15302308462149991 0.3867118687607804 0 0.15833170853334161 0.38355121550259752 0 0.15691460538756841 0.3870553961256985 0 0.15086213231871429 0.39203454241817282 0 0.15302308462149991 0.3867118687607804 0 0.14794650069907969 0.38820273702009311 0 0.15945035916672251 0.36881788715759212 0 0.15030682792213779 0.37981021630389089 0 0.15833170853334161 0.38355121550259752 0 0.14945128859936821 0.37052266606802209 0 0.15030682792213779 0.37981021630389089 0 0.1414655169105194 0.37559681561125469 0 0.15030682792213779 0.37981021630389089 0 0.1414655169105194 0.37559681561125469 0 0.1433785314193109 0.38496596890628038 0 0.15030682792213779 0.37981021630389089 0 0.14794650069907969 0.38820273702009311 0 0.1433785314193109 0.38496596890628038 0 0.1438614968362234 0.3919262369534865 0 0.14794650069907969 0.38820273702009311 0 0.1433785314193109 0.38496596890628038 0 0.1438614968362234 0.3919262369534865 0 0.1433785314193109 0.38496596890628038 0 0.13947807644221449 0.38913063547536142 0 0.13947807644221449 0.38913063547536142 0 0.1369903561056133 0.38399075406986871 0 0.13411601593830921 0.3904935230668426 0 0.1433785314193109 0.38496596890628038 0 0.13947807644221449 0.38913063547536142 0 0.1369903561056133 0.38399075406986871 0 0.1369903561056133 0.38399075406986871 0 0.13411601593830921 0.3904935230668426 0 0.13007425175809201 0.38535219886078093 0 0.1414655169105194 0.37559681561125469 0 0.1369903561056133 0.38399075406986871 0 0.13342974416523409 0.37840538249869199 0 0.1414655169105194 0.37559681561125469 0 0.1433785314193109 0.38496596890628038 0 0.1369903561056133 0.38399075406986871 0 0.1369903561056133 0.38399075406986871 0 0.13342974416523409 0.37840538249869199 0 0.13007425175809201 0.38535219886078093 0 0.13342974416523409 0.37840538249869199 0 0.12552755411527511 0.37811666214524831 0 0.13007425175809201 0.38535219886078093 0 0.1218628618241696 0.38699886071587752 0 0.13007425175809201 0.38535219886078093 0 0.12801317874929941 0.39394867087186097 0 0.13411601593830921 0.3904935230668426 0 0.13007425175809201 0.38535219886078093 0 0.12801317874929941 0.39394867087186097 0 0.1218628618241696 0.38699886071587752 0 0.12552755411527511 0.37811666214524831 0 0.13007425175809201 0.38535219886078093 0 0.1211167618675844 0.39395211339862252 0 0.12801317874929941 0.39394867087186097 0 0.12594638543343259 0.40194870844401698 0 0.12801317874929941 0.39394867087186097 0 0.1339718388531996 0.39745584028433922 0 0.12594638543343259 0.40194870844401698 0 0.13411601593830921 0.3904935230668426 0 0.12801317874929941 0.39394867087186097 0 0.1339718388531996 0.39745584028433922 0 0.1420074076684551 0.39802234545860299 0 0.1339718388531996 0.39745584028433922 0 0.13859934779910049 0.39373219347481447 0 0.13411601593830921 0.3904935230668426 0 0.1339718388531996 0.39745584028433922 0 0.13859934779910049 0.39373219347481447 0 0.13947807644221449 0.38913063547536142 0 0.13411601593830921 0.3904935230668426 0 0.13859934779910049 0.39373219347481447 0 0.1420074076684551 0.39802234545860299 0 0.1339718388531996 0.39745584028433922 0 0.1351486975306008 0.40658960038989678 0 0.1339718388531996 0.39745584028433922 0 0.12594638543343259 0.40194870844401698 0 0.1351486975306008 0.40658960038989678 0 0.12209716532440459 0.41927361736785862 0 0.12594638543343259 0.40194870844401698 0 0.1351486975306008 0.40658960038989678 0 0.12209716532440459 0.41927361736785862 0 0.1462167755766812 0.42929239720920259 0 0.1408856673007455 0.41571148176764389 0 0.12209716532440459 0.41927361736785862 0 0.1351486975306008 0.40658960038989678 0 0.1408856673007455 0.41571148176764389 0 0.12209716532440459 0.41927361736785862 0 0.1462167755766812 0.42929239720920259 0 0.12209716532440459 0.41927361736785862 0 0.13091002303884949 0.43417971959796903 0 0.1462167755766812 0.42929239720920259 0 0.13091002303884949 0.43417971959796903 0 0.1462167755766812 0.42929239720920259 0 0.14397343538957069 0.44066688699828122 0 0.1462167755766812 0.42929239720920259 0 0.15402452668355479 0.41560822773460088 0 0.14397343538957069 0.44066688699828122 0 0.15402452668355479 0.41560822773460088 0 0.16319424910177191 0.43313313346791182 0 0.14397343538957069 0.44066688699828122 0 0.15402452668355479 0.41560822773460088 0 0.14397343538957069 0.44066688699828122 0 0.14652287066416389 0.40461561073147567 0 0.1351486975306008 0.40658960038989678 0 0.1408856673007455 0.41571148176764389 0 0.14652287066416389 0.40461561073147567 0 0.1408856673007455 0.41571148176764389 0 0.15402452668355479 0.41560822773460088 0 0.1462167755766812 0.42929239720920259 0 0.1408856673007455 0.41571148176764389 0 0.15402452668355479 0.41560822773460088 0 0.14652287066416389 0.40461561073147567 0 0.1548912014347886 0.40054330661930232 0 0.15402452668355479 0.41560822773460088 0 0.16319424910177191 0.43313313346791182 0 0.1700677243547512 0.40407277512132622 0 0.15402452668355479 0.41560822773460088 0 0.16319424910177191 0.43313313346791182 0 0.1700677243547512 0.40407277512132622 0 0.16319424910177191 0.43313313346791182 0 0.17798468606602419 0.41417834226594258 0 0.1700677243547512 0.40407277512132622 0 0.16319424910177191 0.43313313346791182 0 0.17798468606602419 0.41417834226594258 0 0.16319424910177191 0.43313313346791182 0 0.17939437829037169 0.43002654411823038 0 0.17798468606602419 0.41417834226594258 0 0.17939437829037169 0.43002654411823038 0 0.17798468606602419 0.41417834226594258 0 0.18910357503360781 0.42445835143808969 0 0.16319424910177191 0.43313313346791182 0 0.17939437829037169 0.43002654411823038 0 0.17791394991056619 0.4432436590298946 0 0.17939437829037169 0.43002654411823038 0 0.18910357503360781 0.42445835143808969 0 0.18877543133988869 0.43511923438931299 0 0.17939437829037169 0.43002654411823038 0 0.18877543133988869 0.43511923438931299 0 0.17791394991056619 0.4432436590298946 0 0.17798468606602419 0.41417834226594258 0 0.1927751230302755 0.39522355106397261 0 0.17798468606602419 0.41417834226594258 0 0.18092016672892491 0.39914403593149522 0 0.1927751230302755 0.39522355106397261 0 0.18092016672892491 0.39914403593149522 0 0.1700677243547512 0.40407277512132622 0 0.18264268145965501 0.38801748012655402 0 0.18092016672892491 0.39914403593149522 0 0.18264268145965501 0.38801748012655402 0 0.1927751230302755 0.39522355106397261 0 0.17798468606602419 0.41417834226594258 0 0.18092016672892491 0.39914403593149522 0 0.1700677243547512 0.40407277512132622 0 0.15402452668355479 0.41560822773460088 0 0.1700677243547512 0.40407277512132622 0 0.16407561797753881 0.39054956847092048 0 0.1548912014347886 0.40054330661930232 0 0.15402452668355479 0.41560822773460088 0 0.16407561797753881 0.39054956847092048 0 0.15402452668355479 0.41560822773460088 0 0.16407561797753881 0.39054956847092048 0 0.1548912014347886 0.40054330661930232 0 0.15548671196349231 0.39415057744384813 0 0.16407561797753881 0.39054956847092048 0 0.15548671196349231 0.39415057744384813 0 0.16033116732365679 0.3901627063836271 0 0.16407561797753881 0.39054956847092048 0 0.15548671196349231 0.39415057744384813 0 0.15703811460741579 0.39030490692032971 0 0.16033116732365679 0.3901627063836271 0 0.1700677243547512 0.40407277512132622 0 0.16407561797753881 0.39054956847092048 0 0.17694119960773161 0.37501241677474079 0 0.15945035916672251 0.36881788715759212 0 0.16367702399202011 0.38848772662349229 0 0.15945035916672251 0.36881788715759212 0 0.16367702399202011 0.38848772662349229 0 0.17694119960773161 0.37501241677474079 0 0.15945035916672251 0.36881788715759212 0 0.15833170853334161 0.38355121550259752 0 0.16367702399202011 0.38848772662349229 0 0.15833170853334161 0.38355121550259752 0 0.15691460538756841 0.3870553961256985 0 0.16007571537829571 0.38795841671098291 0 0.15703811460741579 0.39030490692032971 0 0.15691460538756841 0.3870553961256985 0 0.1585899006742342 0.38887035653515961 0 0.15691460538756841 0.3870553961256985 0 0.16007571537829571 0.38795841671098291 0 0.1585899006742342 0.38887035653515961 0 0.15703811460741579 0.39030490692032971 0 0.1585899006742342 0.38887035653515961 0 0.16033116732365679 0.3901627063836271 0 0.16007571537829571 0.38795841671098291 0 0.1585899006742342 0.38887035653515961 0 0.16033116732365679 0.3901627063836271 0 0.16007571537829571 0.38795841671098291 0 0.16033116732365679 0.3901627063836271 0 0.16203988116787779 0.3892896045472557 0 0.16007571537829571 0.38795841671098291 0 0.16203988116787779 0.3892896045472557 0 0.16367702399202011 0.38848772662349229 0 0.16033116732365679 0.3901627063836271 0 0.16203988116787779 0.3892896045472557 0 0.16407561797753881 0.39054956847092048 0 0.16203988116787779 0.3892896045472557 0 0.16367702399202011 0.38848772662349229 0 0.16407561797753881 0.39054956847092048 0 0.15833170853334161 0.38355121550259752 0 0.16007571537829571 0.38795841671098291 0 0.16367702399202011 0.38848772662349229 0 0.16367702399202011 0.38848772662349229 0 0.16407561797753881 0.39054956847092048 0 0.17694119960773161 0.37501241677474079 0 0.1700677243547512 0.40407277512132622 0 0.17694119960773161 0.37501241677474079 0 0.18264268145965501 0.38801748012655402 0 0.1700677243547512 0.40407277512132622 0 0.17694119960773161 0.37501241677474079 0 0.17694119960773161 0.37501241677474079 0 0.18264268145965501 0.38801748012655402 0 0.1896868307780788 0.37511319615928579 0 0.1896868307780788 0.37511319615928579 0 0.20357323932349761 0.39613217756829933 0 0.1896868307780788 0.37511319615928579 0 0.1927751230302755 0.39522355106397261 0 0.20357323932349761 0.39613217756829933 0 0.1896868307780788 0.37511319615928579 0 0.20357323932349761 0.39613217756829933 0 0.20437327205020139 0.38131222094926792 0 0.18264268145965501 0.38801748012655402 0 0.1896868307780788 0.37511319615928579 0 0.1927751230302755 0.39522355106397261 0 0.2011812467034251 0.37132403958804328 0 0.1896868307780788 0.37511319615928579 0 0.20437327205020139 0.38131222094926792 0 0.17798468606602419 0.41417834226594258 0 0.1927751230302755 0.39522355106397261 0 0.19755728376993009 0.4047426647328673 0 0.1927751230302755 0.39522355106397261 0 0.19755728376993009 0.4047426647328673 0 0.20357323932349761 0.39613217756829933 0 0.20357323932349761 0.39613217756829933 0 0.2129810685792039 0.38850165166686518 0 0.2246561684060249 0.39730011210468769 0 0.19755728376993009 0.4047426647328673 0 0.20357323932349761 0.39613217756829933 0 0.21745964786891639 0.41715115897731297 0 0.20357323932349761 0.39613217756829933 0 0.2246561684060249 0.39730011210468769 0 0.21745964786891639 0.41715115897731297 0 0.2129810685792039 0.38850165166686518 0 0.21772363313381571 0.37735534024638501 0 0.2246561684060249 0.39730011210468769 0 0.2011812467034251 0.37132403958804328 0 0.20437327205020139 0.38131222094926792 0 0.21772363313381571 0.37735534024638501 0 0.20357323932349761 0.39613217756829933 0 0.20437327205020139 0.38131222094926792 0 0.2129810685792039 0.38850165166686518 0 0.20437327205020139 0.38131222094926792 0 0.2129810685792039 0.38850165166686518 0 0.21772363313381571 0.37735534024638501 0 0.23639772929814989 0.37453979668752158 0 0.21772363313381571 0.37735534024638501 0 0.2246561684060249 0.39730011210468769 0 0.2246561684060249 0.39730011210468769 0 0.2465826641860438 0.39149057765701079 0 0.24019024828624891 0.41384027048791411 0 0.23639772929814989 0.37453979668752158 0 0.2465826641860438 0.39149057765701079 0 0.26442798559971697 0.37618170985839988 0 0.23639772929814989 0.37453979668752158 0 0.2246561684060249 0.39730011210468769 0 0.2465826641860438 0.39149057765701079 0 0.24019024828624891 0.41384027048791411 0 0.23134605641433531 0.43817014038632662 0 0.25078358422659819 0.43403052903071249 0 0.2246561684060249 0.39730011210468769 0 0.24019024828624891 0.41384027048791411 0 0.21745964786891639 0.41715115897731297 0 0.24019024828624891 0.41384027048791411 0 0.21745964786891639 0.41715115897731297 0 0.23134605641433531 0.43817014038632662 0 0.21745964786891639 0.41715115897731297 0 0.23134605641433531 0.43817014038632662 0 0.20463057304399071 0.432499833175504 0 0.21745964786891639 0.41715115897731297 0 0.23134605641433531 0.43817014038632662 0 0.20463057304399071 0.432499833175504 0 0.21745964786891639 0.41715115897731297 0 0.1969134649646973 0.41472875653224262 0 0.19755728376993009 0.4047426647328673 0 0.21745964786891639 0.41715115897731297 0 0.1969134649646973 0.41472875653224262 0 0.20357323932349761 0.39613217756829933 0 0.21745964786891639 0.41715115897731297 0 0.17798468606602419 0.41417834226594258 0 0.19755728376993009 0.4047426647328673 0 0.1969134649646973 0.41472875653224262 0 0.17798468606602419 0.41417834226594258 0 0.1969134649646973 0.41472875653224262 0 0.18910357503360781 0.42445835143808969 0 0.20463057304399071 0.432499833175504 0 0.1969134649646973 0.41472875653224262 0 0.18910357503360781 0.42445835143808969 0 0.20463057304399071 0.432499833175504 0 0.18910357503360781 0.42445835143808969 0 0.18877543133988869 0.43511923438931299 0 0.20463057304399071 0.432499833175504 0 0.18877543133988869 0.43511923438931299 0 0.19370806465783399 0.45078126067058222 0 0.19370806465783399 0.45078126067058222 0 0.19227898145482991 0.46600926684944338 0 0.20864825566823059 0.46642647455958569 0 0.19370806465783399 0.45078126067058222 0 0.19227898145482991 0.46600926684944338 0 0.1780698997230856 0.46288065094800662 0 0.19370806465783399 0.45078126067058222 0 0.20864825566823059 0.46642647455958569 0 0.21664537861619221 0.4510447894553582 0 0.20463057304399071 0.432499833175504 0 0.19370806465783399 0.45078126067058222 0 0.21664537861619221 0.4510447894553582 0 0.20463057304399071 0.432499833175504 0 0.21664537861619221 0.4510447894553582 0 0.23134605641433531 0.43817014038632662 0 0.21664537861619221 0.4510447894553582 0 0.23134605641433531 0.43817014038632662 0 0.23420125513175599 0.46238754769225487 0 0.20864825566823059 0.46642647455958569 0 0.21664537861619221 0.4510447894553582 0 0.23420125513175599 0.46238754769225487 0 0.23420125513175599 0.46238754769225487 0 0.25677020879491552 0.4513598776161506 0 0.25637036323221118 0.46726791933433809 0 0.23134605641433531 0.43817014038632662 0 0.23420125513175599 0.46238754769225487 0 0.25677020879491552 0.4513598776161506 0 0.23134605641433531 0.43817014038632662 0 0.25677020879491552 0.4513598776161506 0 0.25078358422659819 0.43403052903071249 0 0.24324035560738619 0.50000000000000167 0 0.24648317544538559 0.47917600915291741 0 0.22215627786653411 0.48248266366965431 0 0.23420125513175599 0.46238754769225487 0 0.24648317544538559 0.47917600915291741 0 0.25637036323221118 0.46726791933433809 0 0.24648317544538559 0.47917600915291741 0 0.22215627786653411 0.48248266366965431 0 0.23420125513175599 0.46238754769225487 0 0.24648317544538559 0.47917600915291741 0 0.22215627786653411 0.48248266366965431 0 0.20864825566823059 0.46642647455958569 0 0.23420125513175599 0.46238754769225487 0 0.22215627786653411 0.48248266366965431 0 0.24324035560738619 0.50000000000000167 0 0.22215627786653411 0.48248266366965431 0 0.21927492253847419 0.5 0 0.21927492253847419 0.5 0 0.19782938028768249 0.48578931818639121 0 0.1953094894695622 0.5 0 0.22215627786653411 0.48248266366965431 0 0.21927492253847419 0.5 0 0.19782938028768249 0.48578931818639121 0 0.22215627786653411 0.48248266366965431 0 0.19782938028768249 0.48578931818639121 0 0.20864825566823059 0.46642647455958569 0 0.22215627786653411 0.48248266366965431 0 0.19782938028768249 0.48578931818639121 0 0.19227898145482991 0.46600926684944338 0 0.19782938028768249 0.48578931818639121 0 0.1817948678307332 0.47606467826700138 0 0.19227898145482991 0.46600926684944338 0 0.20864825566823059 0.46642647455958569 0 0.19782938028768249 0.48578931818639121 0 0.19782938028768249 0.48578931818639121 0 0.1953094894695622 0.5 0 0.17350248270883101 0.4890959727031281 0 0.19782938028768249 0.48578931818639121 0 0.17350248270883101 0.4890959727031281 0 0.1953094894695622 0.5 0 0.17350248270883101 0.4890959727031281 0 0.1713440564006502 0.5 0 0.17350248270883101 0.4890959727031281 0 0.1713440564006502 0.5 0 0.1491755851299793 0.49240262721986389 0 0.17350248270883101 0.4890959727031281 0 0.1491755851299793 0.49240262721986389 0 0.17350248270883101 0.4890959727031281 0 0.166949004627928 0.47630275355685608 0 0.1491755851299793 0.49240262721986389 0 0.166949004627928 0.47630275355685608 0 0.1491755851299793 0.49240262721986389 0 0.1538484731205744 0.47264612930254601 0 0.166949004627928 0.47630275355685608 0 0.16513147109179799 0.46392975235663081 0 0.1538484731205744 0.47264612930254601 0 0.19782938028768249 0.48578931818639121 0 0.17350248270883101 0.4890959727031281 0 0.1817948678307332 0.47606467826700138 0 0.166949004627928 0.47630275355685608 0 0.1817948678307332 0.47606467826700138 0 0.1780698997230856 0.46288065094800662 0 0.17350248270883101 0.4890959727031281 0 0.166949004627928 0.47630275355685608 0 0.1817948678307332 0.47606467826700138 0 0.19227898145482991 0.46600926684944338 0 0.1817948678307332 0.47606467826700138 0 0.1780698997230856 0.46288065094800662 0 0.19370806465783399 0.45078126067058222 0 0.1780698997230856 0.46288065094800662 0 0.17791394991056619 0.4432436590298946 0 0.18877543133988869 0.43511923438931299 0 0.19370806465783399 0.45078126067058222 0 0.17791394991056619 0.4432436590298946 0 0.1780698997230856 0.46288065094800662 0 0.17791394991056619 0.4432436590298946 0 0.16856618618767891 0.45121536543753449 0 0.16319424910177191 0.43313313346791182 0 0.1585213611111726 0.45288963138522881 0 0.16319424910177191 0.43313313346791182 0 0.17791394991056619 0.4432436590298946 0 0.16856618618767891 0.45121536543753449 0 0.16319424910177191 0.43313313346791182 0 0.16856618618767891 0.45121536543753449 0 0.1585213611111726 0.45288963138522881 0 0.16319424910177191 0.43313313346791182 0 0.1585213611111726 0.45288963138522881 0 0.1476389739810457 0.45306810852748841 0 0.1585213611111726 0.45288963138522881 0 0.16513147109179799 0.46392975235663081 0 0.1538484731205744 0.47264612930254601 0 0.166949004627928 0.47630275355685608 0 0.1780698997230856 0.46288065094800662 0 0.16513147109179799 0.46392975235663081 0 0.1780698997230856 0.46288065094800662 0 0.16856618618767891 0.45121536543753449 0 0.16513147109179799 0.46392975235663081 0 0.16856618618767891 0.45121536543753449 0 0.1585213611111726 0.45288963138522881 0 0.16513147109179799 0.46392975235663081 0 0.1585213611111726 0.45288963138522881 0 0.1476389739810457 0.45306810852748841 0 0.1538484731205744 0.47264612930254601 0 0.1476389739810457 0.45306810852748841 0 0.14397343538957069 0.44066688699828122 0 0.13392234409558659 0.46572554626196139 0 0.1476389739810457 0.45306810852748841 0 0.13208369886031859 0.47300308358706439 0 0.14383725773330211 0.46936066642599689 0 0.1585213611111726 0.45288963138522881 0 0.1538484731205744 0.47264612930254601 0 0.1476389739810457 0.45306810852748841 0 0.1538484731205744 0.47264612930254601 0 0.14383725773330211 0.46936066642599689 0 0.16319424910177191 0.43313313346791182 0 0.1476389739810457 0.45306810852748841 0 0.14397343538957069 0.44066688699828122 0 0.16319424910177191 0.43313313346791182 0 0.1476389739810457 0.45306810852748841 0 0.1247819217563655 0.44545259418403022 0 0.13091002303884949 0.43417971959796903 0 0.14397343538957069 0.44066688699828122 0 0.1247819217563655 0.44545259418403022 0 0.14397343538957069 0.44066688699828122 0 0.1292205939460738 0.4546059214515632 0 0.1476389739810457 0.45306810852748841 0 0.13208369886031859 0.47300308358706439 0 0.1476389739810457 0.45306810852748841 0 0.13392234409558659 0.46572554626196139 0 0.13208369886031859 0.47300308358706439 0 0.14397343538957069 0.44066688699828122 0 0.13392234409558659 0.46572554626196139 0 0.1292205939460738 0.4546059214515632 0 0.14397343538957069 0.44066688699828122 0 0.13392234409558659 0.46572554626196139 0 0.12076980168030139 0.45622433849141653 0 0.1292205939460738 0.4546059214515632 0 0.12510763250347909 0.46549675427369858 0 0.13392234409558659 0.46572554626196139 0 0.12510763250347909 0.46549675427369858 0 0.13208369886031859 0.47300308358706439 0 0.13392234409558659 0.46572554626196139 0 0.1292205939460738 0.4546059214515632 0 0.12510763250347909 0.46549675427369858 0 0.1238474612440929 0.47392924218746268 0 0.12510763250347909 0.46549675427369858 0 0.13208369886031859 0.47300308358706439 0 0.1238474612440929 0.47392924218746268 0 0.13208369886031859 0.47300308358706439 0 0.1307851997139666 0.48262718452972148 0 0.13208369886031859 0.47300308358706439 0 0.14383725773330211 0.46936066642599689 0 0.14177788497126961 0.47872534428688901 0 0.13208369886031859 0.47300308358706439 0 0.1307851997139666 0.48262718452972148 0 0.14177788497126961 0.47872534428688901 0 0.1212288328225988 0.49620131360993158 0 0.1473786233317381 0.49999999999999911 0 0.1491755851299793 0.49240262721986389 0 0.1212288328225988 0.49620131360993158 0 0.1203303519234782 0.5 0 0.1473786233317381 0.49999999999999911 0 0.1307851997139666 0.48262718452972148 0 0.1491755851299793 0.49240262721986389 0 0.14177788497126961 0.47872534428688901 0 0.1212288328225988 0.49620131360993158 0 0.1491755851299793 0.49240262721986389 0 0.1212288328225988 0.49620131360993158 0 0.1307851997139666 0.48262718452972148 0 0.1491755851299793 0.49240262721986389 0 0.1713440564006502 0.5 0 0.1473786233317381 0.49999999999999911 0 0.1491755851299793 0.49240262721986389 0 0.1473786233317381 0.49999999999999911 0 0.1491755851299793 0.49240262721986389 0 0.1491755851299793 0.49240262721986389 0 0.1538484731205744 0.47264612930254601 0 0.1491755851299793 0.49240262721986389 0 0.1538484731205744 0.47264612930254601 0 0.14177788497126961 0.47872534428688901 0 0.1538484731205744 0.47264612930254601 0 0.14383725773330211 0.46936066642599689 0 0.14177788497126961 0.47872534428688901 0 0.35051666246725399 0.48145449174104837 0 0.34900479259481493 0.4658411481377992 0 0.33413886605706311 0.48071010921342172 0 0.35051666246725399 0.48145449174104837 0 0.36819409338618181 0.47926670961297257 0 0.34900479259481493 0.4658411481377992 0 0.35051666246725399 0.48145449174104837 0 0.3507288978309564 0.5 0 0.33413886605706311 0.48071010921342172 0 0.35051666246725399 0.48145449174104837 0 0.3507288978309564 0.5 0 0.36819409338618181 0.47926670961297257 0 0.3507288978309564 0.5 0 0.36819409338618181 0.47926670961297257 0 0.37760103338684892 0.5 0 0.36819409338618181 0.47926670961297257 0 0.36143216700608077 0.45045313570551532 0 0.38096937117826202 0.45237270787408979 0 0.36819409338618181 0.47926670961297257 0 0.36143216700608077 0.45045313570551532 0 0.34900479259481493 0.4658411481377992 0 0.36143216700608077 0.45045313570551532 0 0.37228618046380763 0.4257445769310389 0 0.38096937117826202 0.45237270787408979 0 0.36143216700608077 0.45045313570551532 0 0.34257463656701659 0.44558499118687461 0 0.35484261765666131 0.43328101083942422 0 0.36143216700608077 0.45045313570551532 0 0.34900479259481493 0.4658411481377992 0 0.34257463656701659 0.44558499118687461 0 0.34900479259481493 0.4658411481377992 0 0.32931122290698961 0.46007430212985773 0 0.34257463656701659 0.44558499118687461 0 0.34257463656701659 0.44558499118687461 0 0.3227612430631378 0.44392487422197202 0 0.33344038861615338 0.43646466766072112 0 0.32931122290698961 0.46007430212985773 0 0.34257463656701659 0.44558499118687461 0 0.3227612430631378 0.44392487422197202 0 0.32931122290698961 0.46007430212985773 0 0.3227612430631378 0.44392487422197202 0 0.31502325370839979 0.454906660627103 0 0.3227612430631378 0.44392487422197202 0 0.30962258601859349 0.44629048556323209 0 0.30552164477846622 0.43352575280771061 0 0.3227612430631378 0.44392487422197202 0 0.31502325370839979 0.454906660627103 0 0.30962258601859349 0.44629048556323209 0 0.32931122290698961 0.46007430212985773 0 0.31502325370839979 0.454906660627103 0 0.31737471005966889 0.47101029748175471 0 0.31737471005966889 0.47101029748175471 0 0.33413886605706311 0.48071010921342172 0 0.31490592679053381 0.48653617845672648 0 0.32931122290698961 0.46007430212985773 0 0.31737471005966889 0.47101029748175471 0 0.33413886605706311 0.48071010921342172 0 0.34900479259481493 0.4658411481377992 0 0.32931122290698961 0.46007430212985773 0 0.33413886605706311 0.48071010921342172 0 0.3507288978309564 0.5 0 0.33413886605706311 0.48071010921342172 0 0.32385676227506388 0.5 0 0.33413886605706311 0.48071010921342172 0 0.32385676227506388 0.5 0 0.31490592679053381 0.48653617845672648 0 0.31490592679053381 0.48653617845672648 0 0.29698462671917131 0.5 0 0.30217466884170158 0.48096048558845589 0 0.32385676227506388 0.5 0 0.31490592679053381 0.48653617845672648 0 0.29698462671917131 0.5 0 0.31737471005966889 0.47101029748175471 0 0.30217466884170158 0.48096048558845589 0 0.30567307114906211 0.46339573949376112 0 0.30217466884170158 0.48096048558845589 0 0.28486216596850372 0.47559715966250837 0 0.30567307114906211 0.46339573949376112 0 0.31737471005966889 0.47101029748175471 0 0.31490592679053381 0.48653617845672648 0 0.30217466884170158 0.48096048558845589 0 0.28486216596850372 0.47559715966250837 0 0.30567307114906211 0.46339573949376112 0 0.30217466884170158 0.48096048558845589 0 0.28486216596850372 0.47559715966250837 0 0.29134701377252192 0.48664374722997877 0 0.28486216596850372 0.47559715966250837 0 0.29134701377252192 0.48664374722997877 0 0.28136659356071131 0.49001734366895111 0 0.29698462671917131 0.5 0 0.28136659356071131 0.49001734366895111 0 0.27011249116327868 0.5 0 0.29698462671917131 0.5 0 0.30217466884170158 0.48096048558845589 0 0.29134701377252192 0.48664374722997877 0 0.29698462671917131 0.5 0 0.29134701377252192 0.48664374722997877 0 0.28136659356071131 0.49001734366895111 0 0.28136659356071131 0.49001734366895111 0 0.27011249116327868 0.5 0 0.26405126078794527 0.48779857983125557 0 0.28486216596850372 0.47559715966250837 0 0.28136659356071131 0.49001734366895111 0 0.26405126078794527 0.48779857983125557 0 0.28486216596850372 0.47559715966250837 0 0.2708100730242371 0.47586935463618052 0 0.26405126078794527 0.48779857983125557 0 0.28486216596850372 0.47559715966250837 0 0.26405126078794527 0.48779857983125557 0 0.28486216596850372 0.47559715966250837 0 0.2708100730242371 0.47586935463618052 0 0.26952214191002188 0.46534790117429048 0 0.24648317544538559 0.47917600915291741 0 0.2708100730242371 0.47586935463618052 0 0.26405126078794527 0.48779857983125557 0 0.24648317544538559 0.47917600915291741 0 0.2708100730242371 0.47586935463618052 0 0.24648317544538559 0.47917600915291741 0 0.2708100730242371 0.47586935463618052 0 0.25637036323221118 0.46726791933433809 0 0.2708100730242371 0.47586935463618052 0 0.25637036323221118 0.46726791933433809 0 0.26952214191002188 0.46534790117429048 0 0.24324035560738619 0.50000000000000167 0 0.24648317544538559 0.47917600915291741 0 0.26405126078794527 0.48779857983125557 0 0.24324035560738619 0.50000000000000167 0 0.27011249116327868 0.5 0 0.26405126078794527 0.48779857983125557 0 0.24324035560738619 0.50000000000000167 0 0.26405126078794527 0.48779857983125557 0 0.25677020879491552 0.4513598776161506 0 0.27963408541685641 0.43676422105608298 0 0.25078358422659819 0.43403052903071249 0 0.25677020879491552 0.4513598776161506 0 0.25637036323221118 0.46726791933433809 0 0.26952214191002188 0.46534790117429048 0 0.25677020879491552 0.4513598776161506 0 0.27879789853024228 0.45664519462227487 0 0.26952214191002188 0.46534790117429048 0 0.28486216596850372 0.47559715966250837 0 0.27879789853024228 0.45664519462227487 0 0.26952214191002188 0.46534790117429048 0 0.25677020879491552 0.4513598776161506 0 0.27879789853024228 0.45664519462227487 0 0.27963408541685641 0.43676422105608298 0 0.29850439773826271 0.45388725926891887 0 0.27963408541685641 0.43676422105608298 0 0.27879789853024228 0.45664519462227487 0 0.29850439773826271 0.45388725926891887 0 0.27963408541685641 0.43676422105608298 0 0.29850439773826271 0.45388725926891887 0 0.30552164477846622 0.43352575280771061 0 0.27963408541685641 0.43676422105608298 0 0.28486216596850372 0.47559715966250837 0 0.29134608037953369 0.46272005199549482 0 0.30567307114906211 0.46339573949376112 0 0.28486216596850372 0.47559715966250837 0 0.27879789853024228 0.45664519462227487 0 0.29134608037953369 0.46272005199549482 0 0.27879789853024228 0.45664519462227487 0 0.29134608037953369 0.46272005199549482 0 0.29850439773826271 0.45388725926891887 0 0.31737471005966889 0.47101029748175471 0 0.29850439773826271 0.45388725926891887 0 0.30567307114906211 0.46339573949376112 0 0.31502325370839979 0.454906660627103 0 0.31737471005966889 0.47101029748175471 0 0.29850439773826271 0.45388725926891887 0 0.31737471005966889 0.47101029748175471 0 0.29850439773826271 0.45388725926891887 0 0.29134608037953369 0.46272005199549482 0 0.29850439773826271 0.45388725926891887 0 0.30567307114906211 0.46339573949376112 0 0.29850439773826271 0.45388725926891887 0 0.30962258601859349 0.44629048556323209 0 0.30552164477846622 0.43352575280771061 0 0.31502325370839979 0.454906660627103 0 0.29850439773826271 0.45388725926891887 0 0.30962258601859349 0.44629048556323209 0 0.30552164477846622 0.43352575280771061 0 0.29472048681373181 0.42011929071783177 0 0.31346367203539771 0.41247098163244611 0 0.29472048681373181 0.42011929071783177 0 0.29642245474742118 0.39847581870698839 0 0.31346367203539771 0.41247098163244611 0 0.29472048681373181 0.42011929071783177 0 0.27993773909185388 0.41080344598091978 0 0.29642245474742118 0.39847581870698839 0 0.29472048681373181 0.42011929071783177 0 0.27963408541685641 0.43676422105608298 0 0.27993773909185388 0.41080344598091978 0 0.30552164477846622 0.43352575280771061 0 0.29472048681373181 0.42011929071783177 0 0.27963408541685641 0.43676422105608298 0 0.27963408541685641 0.43676422105608298 0 0.26076377309545018 0.41964118284324708 0 0.27963408541685641 0.43676422105608298 0 0.27993773909185388 0.41080344598091978 0 0.26076377309545018 0.41964118284324708 0 0.27993773909185388 0.41080344598091978 0 0.26076377309545018 0.41964118284324708 0 0.26705146271575181 0.39787470585822232 0 0.24019024828624891 0.41384027048791411 0 0.26076377309545018 0.41964118284324708 0 0.26705146271575181 0.39787470585822232 0 0.27963408541685641 0.43676422105608298 0 0.26076377309545018 0.41964118284324708 0 0.25078358422659819 0.43403052903071249 0 0.24019024828624891 0.41384027048791411 0 0.26076377309545018 0.41964118284324708 0 0.25078358422659819 0.43403052903071249 0 0.2465826641860438 0.39149057765701079 0 0.26442798559971697 0.37618170985839988 0 0.26705146271575181 0.39787470585822232 0 0.2465826641860438 0.39149057765701079 0 0.24019024828624891 0.41384027048791411 0 0.26705146271575181 0.39787470585822232 0 0.27993773909185388 0.41080344598091978 0 0.26705146271575181 0.39787470585822232 0 0.28132108051219029 0.39016290807710252 0 0.26442798559971697 0.37618170985839988 0 0.26705146271575181 0.39787470585822232 0 0.28132108051219029 0.39016290807710252 0 0.26442798559971697 0.37618170985839988 0 0.28132108051219029 0.39016290807710252 0 0.29256104525274079 0.37386114888800009 0 0.28132108051219029 0.39016290807710252 0 0.29642245474742118 0.39847581870698839 0 0.29256104525274079 0.37386114888800009 0 0.27993773909185388 0.41080344598091978 0 0.28132108051219029 0.39016290807710252 0 0.29642245474742118 0.39847581870698839 0 0.29642245474742118 0.39847581870698839 0 0.31307494515143403 0.388929616820056 0 0.31346367203539771 0.41247098163244611 0 0.29642245474742118 0.39847581870698839 0 0.31307494515143403 0.388929616820056 0 0.29256104525274079 0.37386114888800009 0 0.31307494515143403 0.388929616820056 0 0.31417807142600501 0.36978673733477962 0 0.29256104525274079 0.37386114888800009 0 0.31307494515143403 0.388929616820056 0 0.32841941774452971 0.38293758833518282 0 0.33207676215400839 0.39876660475658099 0 0.31307494515143403 0.388929616820056 0 0.32841941774452971 0.38293758833518282 0 0.31417807142600501 0.36978673733477962 0 0.32841941774452971 0.38293758833518282 0 0.35122444699245953 0.38201405080828088 0 0.33505860110135988 0.36994816169833789 0 0.32841941774452971 0.38293758833518282 0 0.33207676215400839 0.39876660475658099 0 0.35122444699245953 0.38201405080828088 0 0.31307494515143403 0.388929616820056 0 0.33207676215400839 0.39876660475658099 0 0.31346367203539771 0.41247098163244611 0 0.31346367203539771 0.41247098163244611 0 0.32473503350705851 0.42820033293430032 0 0.33203194357976201 0.41540956575624682 0 0.33207676215400839 0.39876660475658099 0 0.31346367203539771 0.41247098163244611 0 0.33203194357976201 0.41540956575624682 0 0.3227612430631378 0.44392487422197202 0 0.30552164477846622 0.43352575280771061 0 0.32473503350705851 0.42820033293430032 0 0.30552164477846622 0.43352575280771061 0 0.31346367203539771 0.41247098163244611 0 0.32473503350705851 0.42820033293430032 0 0.3227612430631378 0.44392487422197202 0 0.32473503350705851 0.42820033293430032 0 0.33344038861615338 0.43646466766072112 0 0.32473503350705851 0.42820033293430032 0 0.34080310157283039 0.42757834301789333 0 0.33344038861615338 0.43646466766072112 0 0.34257463656701659 0.44558499118687461 0 0.34080310157283039 0.42757834301789333 0 0.33344038861615338 0.43646466766072112 0 0.32473503350705851 0.42820033293430032 0 0.34080310157283039 0.42757834301789333 0 0.33203194357976201 0.41540956575624682 0 0.34080310157283039 0.42757834301789333 0 0.33203194357976201 0.41540956575624682 0 0.35082717781903222 0.41157072800001843 0 0.33207676215400839 0.39876660475658099 0 0.33203194357976201 0.41540956575624682 0 0.35082717781903222 0.41157072800001843 0 0.34080310157283039 0.42757834301789333 0 0.35082717781903222 0.41157072800001843 0 0.35484261765666131 0.43328101083942422 0 0.34257463656701659 0.44558499118687461 0 0.34080310157283039 0.42757834301789333 0 0.35484261765666131 0.43328101083942422 0 0.35082717781903222 0.41157072800001843 0 0.35484261765666131 0.43328101083942422 0 0.37228618046380763 0.4257445769310389 0 0.36143216700608077 0.45045313570551532 0 0.35484261765666131 0.43328101083942422 0 0.37228618046380763 0.4257445769310389 0 0.35082717781903222 0.41157072800001843 0 0.37228618046380763 0.4257445769310389 0 0.36941155775392392 0.39991819380793292 0 0.36941155775392392 0.39991819380793292 0 0.35122444699245953 0.38201405080828088 0 0.37790201188100231 0.37895028113332768 0 0.35082717781903222 0.41157072800001843 0 0.36941155775392392 0.39991819380793292 0 0.35122444699245953 0.38201405080828088 0 0.33207676215400839 0.39876660475658099 0 0.35082717781903222 0.41157072800001843 0 0.35122444699245953 0.38201405080828088 0 0.34655355451408132 0.35779823729985771 0 0.36253696311018291 0.35997636431757463 0 0.35562436408010961 0.33518178394679787 0 0.34655355451408132 0.35779823729985771 0 0.35562436408010961 0.33518178394679787 0 0.33589707545452718 0.34690684826832591 0 0.35122444699245953 0.38201405080828088 0 0.34655355451408132 0.35779823729985771 0 0.36253696311018291 0.35997636431757463 0 0.35122444699245953 0.38201405080828088 0 0.34655355451408132 0.35779823729985771 0 0.33505860110135988 0.36994816169833789 0 0.35122444699245953 0.38201405080828088 0 0.36253696311018291 0.35997636431757463 0 0.37790201188100231 0.37895028113332768 0 0.36253696311018291 0.35997636431757463 0 0.37692614338843361 0.35668425330612358 0 0.37790201188100231 0.37895028113332768 0 0.36253696311018291 0.35997636431757463 0 0.36859037937660938 0.34471274598668389 0 0.37692614338843361 0.35668425330612358 0 0.36253696311018291 0.35997636431757463 0 0.36859037937660938 0.34471274598668389 0 0.35562436408010961 0.33518178394679787 0 0.36859037937660938 0.34471274598668389 0 0.37333342264148162 0.31905074169549469 0 0.35562436408010961 0.33518178394679787 0 0.36859037937660938 0.34471274598668389 0 0.37333342264148162 0.31905074169549469 0 0.38297826173861838 0.3396108722628422 0 0.37333342264148162 0.31905074169549469 0 0.36237966200104937 0.31261525078399149 0 0.35562436408010961 0.33518178394679787 0 0.35562436408010961 0.33518178394679787 0 0.33969740955771321 0.32728398364798872 0 0.35009208018828641 0.31192499945291507 0 0.36237966200104937 0.31261525078399149 0 0.35562436408010961 0.33518178394679787 0 0.35009208018828641 0.31192499945291507 0 0.35562436408010961 0.33518178394679787 0 0.33969740955771321 0.32728398364798872 0 0.33589707545452718 0.34690684826832591 0 0.33969740955771321 0.32728398364798872 0 0.32346762986627309 0.33118009911066082 0 0.33589707545452718 0.34690684826832591 0 0.33969740955771321 0.32728398364798872 0 0.33166573112871173 0.30684392146629219 0 0.35009208018828641 0.31192499945291507 0 0.33969740955771321 0.32728398364798872 0 0.32346762986627309 0.33118009911066082 0 0.33166573112871173 0.30684392146629219 0 0.31014577931849258 0.32062490368508828 0 0.33166573112871173 0.30684392146629219 0 0.32346762986627309 0.33118009911066082 0 0.31014577931849258 0.32062490368508828 0 0.33166573112871173 0.30684392146629219 0 0.32346762986627309 0.33118009911066082 0 0.31709569931022191 0.34887220528311202 0 0.30353330455699512 0.33250743797616328 0 0.32346762986627309 0.33118009911066082 0 0.31709569931022191 0.34887220528311202 0 0.33589707545452718 0.34690684826832591 0 0.31709569931022191 0.34887220528311202 0 0.33589707545452718 0.34690684826832591 0 0.31709569931022191 0.34887220528311202 0 0.32760574523347402 0.35850207914164378 0 0.33589707545452718 0.34690684826832591 0 0.31709569931022191 0.34887220528311202 0 0.32760574523347402 0.35850207914164378 0 0.31417807142600501 0.36978673733477962 0 0.34655355451408132 0.35779823729985771 0 0.32760574523347402 0.35850207914164378 0 0.33589707545452718 0.34690684826832591 0 0.34655355451408132 0.35779823729985771 0 0.32760574523347402 0.35850207914164378 0 0.33505860110135988 0.36994816169833789 0 0.32841941774452971 0.38293758833518282 0 0.33505860110135988 0.36994816169833789 0 0.31417807142600501 0.36978673733477962 0 0.32760574523347402 0.35850207914164378 0 0.33505860110135988 0.36994816169833789 0 0.31417807142600501 0.36978673733477962 0 0.31417807142600501 0.36978673733477962 0 0.29829432316591648 0.35083756229789892 0 0.31417807142600501 0.36978673733477962 0 0.29829432316591648 0.35083756229789892 0 0.29256104525274079 0.37386114888800009 0 0.31709569931022191 0.34887220528311202 0 0.29829432316591648 0.35083756229789892 0 0.31709569931022191 0.34887220528311202 0 0.29829432316591648 0.35083756229789892 0 0.30353330455699512 0.33250743797616328 0 0.31709569931022191 0.34887220528311202 0 0.31417807142600501 0.36978673733477962 0 0.29829432316591648 0.35083756229789892 0 0.29829432316591648 0.35083756229789892 0 0.27443851580417061 0.35333127222540223 0 0.29829432316591648 0.35083756229789892 0 0.29256104525274079 0.37386114888800009 0 0.27443851580417061 0.35333127222540223 0 0.29829432316591648 0.35083756229789892 0 0.27443851580417061 0.35333127222540223 0 0.27997959092841052 0.32898824428811391 0 0.26442798559971697 0.37618170985839988 0 0.29256104525274079 0.37386114888800009 0 0.27443851580417061 0.35333127222540223 0 0.27443851580417061 0.35333127222540223 0 0.25058270844242481 0.35582498215290642 0 0.27443851580417061 0.35333127222540223 0 0.25058270844242481 0.35582498215290642 0 0.26073316656297751 0.3350234417754866 0 0.23639772929814989 0.37453979668752158 0 0.26442798559971697 0.37618170985839988 0 0.25058270844242481 0.35582498215290642 0 0.26442798559971697 0.37618170985839988 0 0.27443851580417061 0.35333127222540223 0 0.25058270844242481 0.35582498215290642 0 0.24070235444249319 0.32908650917810622 0 0.26073316656297751 0.3350234417754866 0 0.26166485869090539 0.30713892627832817 0 0.24070235444249319 0.32908650917810622 0 0.25058270844242481 0.35582498215290642 0 0.26073316656297751 0.3350234417754866 0 0.27443851580417061 0.35333127222540223 0 0.26073316656297751 0.3350234417754866 0 0.27997959092841052 0.32898824428811391 0 0.26073316656297751 0.3350234417754866 0 0.27997959092841052 0.32898824428811391 0 0.26166485869090539 0.30713892627832817 0 0.27997959092841052 0.32898824428811391 0 0.29215695620278781 0.31383661091463683 0 0.26166485869090539 0.30713892627832817 0 0.27997959092841052 0.32898824428811391 0 0.26166485869090539 0.30713892627832817 0 0.27997959092841052 0.32898824428811391 0 0.29215695620278781 0.31383661091463683 0 0.30353330455699512 0.33250743797616328 0 0.29829432316591648 0.35083756229789892 0 0.27997959092841052 0.32898824428811391 0 0.30353330455699512 0.33250743797616328 0 0.29829432316591648 0.35083756229789892 0 0.27997959092841052 0.32898824428811391 0 0.32346762986627309 0.33118009911066082 0 0.30353330455699512 0.33250743797616328 0 0.31014577931849258 0.32062490368508828 0 0.29215695620278781 0.31383661091463683 0 0.30353330455699512 0.33250743797616328 0 0.31014577931849258 0.32062490368508828 0 0.29215695620278781 0.31383661091463683 0 0.31014577931849258 0.32062490368508828 0 0.30860339331588049 0.2941832189735939 0 0.30860339331588049 0.2941832189735939 0 0.28838855518022238 0.2921997904550902 0 0.29588669024166048 0.27225339795478237 0 0.28838855518022238 0.2921997904550902 0 0.27576252834212173 0.28073278609000968 0 0.28445016627426101 0.27622645995481998 0 0.29215695620278781 0.31383661091463683 0 0.30860339331588049 0.2941832189735939 0 0.28838855518022238 0.2921997904550902 0 0.29215695620278781 0.31383661091463683 0 0.28838855518022238 0.2921997904550902 0 0.26166485869090539 0.30713892627832817 0 0.26030897449448481 0.28836473067775359 0 0.26166485869090539 0.30713892627832817 0 0.27576252834212173 0.28073278609000968 0 0.28838855518022238 0.2921997904550902 0 0.26166485869090539 0.30713892627832817 0 0.27576252834212173 0.28073278609000968 0 0.2433501264534004 0.28528960826854249 0 0.26166485869090539 0.30713892627832817 0 0.2433501264534004 0.28528960826854249 0 0.26030897449448481 0.28836473067775359 0 0.26071280896537702 0.27408179763909629 0 0.2433501264534004 0.28528960826854249 0 0.26030897449448481 0.28836473067775359 0 0.26166485869090539 0.30713892627832817 0 0.26450171583753529 0.25620812028824202 0 0.25675448368687909 0.26214945467590839 0 0.26961450207623883 0.2637804078754622 0 0.26450171583753529 0.25620812028824202 0 0.25512603831525271 0.25269991764641409 0 0.25675448368687909 0.26214945467590839 0 0.26450171583753529 0.25620812028824202 0 0.25512603831525271 0.25269991764641409 0 0.26677012129226879 0.24853012077798581 0 0.24481430044314709 0.25516863214587021 0 0.25512603831525271 0.25269991764641409 0 0.25675448368687909 0.26214945467590839 0 0.24296828946706911 0.26741023230351141 0 0.25675448368687909 0.26214945467590839 0 0.26071280896537702 0.27408179763909629 0 0.26030897449448481 0.28836473067775359 0 0.26071280896537702 0.27408179763909629 0 0.27576252834212173 0.28073278609000968 0 0.25675448368687909 0.26214945467590839 0 0.26071280896537702 0.27408179763909629 0 0.26961450207623883 0.2637804078754622 0 0.26071280896537702 0.27408179763909629 0 0.27561389003773068 0.27063101805128292 0 0.26961450207623883 0.2637804078754622 0 0.26071280896537702 0.27408179763909629 0 0.27576252834212173 0.28073278609000968 0 0.27561389003773068 0.27063101805128292 0 0.27576252834212173 0.28073278609000968 0 0.27561389003773068 0.27063101805128292 0 0.28445016627426101 0.27622645995481998 0 0.27561389003773068 0.27063101805128292 0 0.27734267444283539 0.26169730864998941 0 0.2833607335760665 0.26515129390516778 0 0.27561389003773068 0.27063101805128292 0 0.2833607335760665 0.26515129390516778 0 0.28445016627426101 0.27622645995481998 0 0.27561389003773068 0.27063101805128292 0 0.27734267444283539 0.26169730864998941 0 0.26961450207623883 0.2637804078754622 0 0.27734267444283539 0.26169730864998941 0 0.27393285555007241 0.25210679209901049 0 0.28873450965048891 0.25975596681429841 0 0.27734267444283539 0.26169730864998941 0 0.26961450207623883 0.2637804078754622 0 0.27086760071166388 0.25746536851346408 0 0.26450171583753529 0.25620812028824202 0 0.26961450207623883 0.2637804078754622 0 0.27086760071166388 0.25746536851346408 0 0.27393285555007241 0.25210679209901049 0 0.2779349924450536 0.24982821056385049 0 0.26677012129226879 0.24853012077798581 0 0.26450171583753529 0.25620812028824202 0 0.26894625565163738 0.25353421365461631 0 0.26677012129226879 0.24853012077798581 0 0.26450171583753529 0.25620812028824202 0 0.26894625565163738 0.25353421365461631 0 0.27086760071166388 0.25746536851346408 0 0.26894625565163738 0.25353421365461631 0 0.27086760071166388 0.25746536851346408 0 0.27393285555007241 0.25210679209901049 0 0.26894625565163738 0.25353421365461631 0 0.27393285555007241 0.25210679209901049 0 0.26677012129226879 0.24853012077798581 0 0.27734267444283539 0.26169730864998941 0 0.27086760071166388 0.25746536851346408 0 0.27393285555007241 0.25210679209901049 0 0.27393285555007241 0.25210679209901049 0 0.28284527904782331 0.25050997356174443 0 0.2779349924450536 0.24982821056385049 0 0.27393285555007241 0.25210679209901049 0 0.28873450965048891 0.25975596681429841 0 0.27393285555007241 0.25210679209901049 0 0.28284527904782331 0.25050997356174443 0 0.28873450965048891 0.25975596681429841 0 0.28284527904782331 0.25050997356174443 0 0.28873450965048891 0.25975596681429841 0 0.28992534561491962 0.2465990335553159 0 0.27734267444283539 0.26169730864998941 0 0.2833607335760665 0.26515129390516778 0 0.28873450965048891 0.25975596681429841 0 0.2833607335760665 0.26515129390516778 0 0.28873450965048891 0.25975596681429841 0 0.28873450965048891 0.25975596681429841 0 0.28992534561491962 0.2465990335553159 0 0.29583784293604187 0.2460078425053967 0 0.28838855518022238 0.2921997904550902 0 0.28445016627426101 0.27622645995481998 0 0.29588669024166048 0.27225339795478237 0 0.2833607335760665 0.26515129390516778 0 0.28445016627426101 0.27622645995481998 0 0.29588669024166048 0.27225339795478237 0 0.2833607335760665 0.26515129390516778 0 0.28873450965048891 0.25975596681429841 0 0.29588669024166048 0.27225339795478237 0 0.28873450965048891 0.25975596681429841 0 0.29588669024166048 0.27225339795478237 0 0.31021823407997001 0.27085829095869812 0 0.30860339331588049 0.2941832189735939 0 0.29588669024166048 0.27225339795478237 0 0.31021823407997001 0.27085829095869812 0 0.28873450965048891 0.25975596681429841 0 0.30803568788407731 0.24037738304617029 0 0.28873450965048891 0.25975596681429841 0 0.31021823407997001 0.27085829095869812 0 0.30803568788407731 0.24037738304617029 0 0.28873450965048891 0.25975596681429841 0 0.31021823407997001 0.27085829095869812 0 0.31021823407997001 0.27085829095869812 0 0.32807607323130622 0.26124850973904479 0 0.30803568788407731 0.24037738304617029 0 0.32807607323130622 0.26124850973904479 0 0.34864852682061509 0.26642936812908141 0 0.33799269646913971 0.24371408370356129 0 0.34864852682061509 0.26642936812908141 0 0.33799269646913971 0.24371408370356129 0 0.33170195850945011 0.28196061510309989 0 0.34682219993003949 0.28133371633405829 0 0.34864852682061509 0.26642936812908141 0 0.32807607323130622 0.26124850973904479 0 0.33170195850945011 0.28196061510309989 0 0.34864852682061509 0.26642936812908141 0 0.31021823407997001 0.27085829095869812 0 0.32807607323130622 0.26124850973904479 0 0.33170195850945011 0.28196061510309989 0 0.31021823407997001 0.27085829095869812 0 0.33170195850945011 0.28196061510309989 0 0.30860339331588049 0.2941832189735939 0 0.33166573112871173 0.30684392146629219 0 0.33170195850945011 0.28196061510309989 0 0.30860339331588049 0.2941832189735939 0 0.31021823407997001 0.27085829095869812 0 0.33170195850945011 0.28196061510309989 0 0.31014577931849258 0.32062490368508828 0 0.30860339331588049 0.2941832189735939 0 0.33166573112871173 0.30684392146629219 0 0.33166573112871173 0.30684392146629219 0 0.3531856829389321 0.29306293924749788 0 0.33170195850945011 0.28196061510309989 0 0.3531856829389321 0.29306293924749788 0 0.33166573112871173 0.30684392146629219 0 0.33170195850945011 0.28196061510309989 0 0.3531856829389321 0.29306293924749788 0 0.33170195850945011 0.28196061510309989 0 0.34682219993003949 0.28133371633405829 0 0.3531856829389321 0.29306293924749788 0 0.3531856829389321 0.29306293924749788 0 0.35930435717209019 0.28914465255460159 0 0.36368858354433892 0.29849061112815001 0 0.3531856829389321 0.29306293924749788 0 0.36368858354433892 0.29849061112815001 0 0.3531856829389321 0.29306293924749788 0 0.35930435717209019 0.28914465255460159 0 0.34682219993003949 0.28133371633405829 0 0.3531856829389321 0.29306293924749788 0 0.35930435717209019 0.28914465255460159 0 0.33166573112871173 0.30684392146629219 0 0.3531856829389321 0.29306293924749788 0 0.35009208018828641 0.31192499945291507 0 0.3531856829389321 0.29306293924749788 0 0.35009208018828641 0.31192499945291507 0 0.36368858354433892 0.29849061112815001 0 0.36237966200104937 0.31261525078399149 0 0.35009208018828641 0.31192499945291507 0 0.36368858354433892 0.29849061112815001 0 0.37333342264148162 0.31905074169549469 0 0.36237966200104937 0.31261525078399149 0 0.36368858354433892 0.29849061112815001 0 0.37333342264148162 0.31905074169549469 0 0.36824902641172108 0.30084734937072488 0 0.3798325739066285 0.30742370290028598 0 0.37333342264148162 0.31905074169549469 0 0.36368858354433892 0.29849061112815001 0 0.36824902641172108 0.30084734937072488 0 0.37333342264148162 0.31905074169549469 0 0.36368858354433892 0.29849061112815001 0 0.36368858354433892 0.29849061112815001 0 0.36824902641172108 0.30084734937072488 0 0.36368858354433892 0.29849061112815001 0 0.36824902641172108 0.30084734937072488 0 0.37044063525610887 0.29140575947347519 0 0.35930435717209019 0.28914465255460159 0 0.37044063525610887 0.29140575947347519 0 0.37925980669436771 0.27636554889024972 0 0.35930435717209019 0.28914465255460159 0 0.37925980669436771 0.27636554889024972 0 0.35930435717209019 0.28914465255460159 0 0.36368858354433892 0.29849061112815001 0 0.37044063525610887 0.29140575947347519 0 0.35930435717209019 0.28914465255460159 0 0.36368858354433892 0.29849061112815001 0 0.36824902641172108 0.30084734937072488 0 0.37044063525610887 0.29140575947347519 0 0.38170140245802991 0.29218063542364292 0 0.36951061432609211 0.25098971491638888 0 0.34864852682061509 0.26642936812908141 0 0.33799269646913971 0.24371408370356129 0 0.35930435717209019 0.28914465255460159 0 0.36329981480292223 0.27341337904278767 0 0.37925980669436771 0.27636554889024972 0 0.36329981480292223 0.27341337904278767 0 0.36951061432609211 0.25098971491638888 0 0.37925980669436771 0.27636554889024972 0 0.36329981480292223 0.27341337904278767 0 0.36951061432609211 0.25098971491638888 0 0.34864852682061509 0.26642936812908141 0 0.34682219993003949 0.28133371633405829 0 0.35930435717209019 0.28914465255460159 0 0.34864852682061509 0.26642936812908141 0 0.35930435717209019 0.28914465255460159 0 0.36329981480292223 0.27341337904278767 0 0.34864852682061509 0.26642936812908141 0 0.35930435717209019 0.28914465255460159 0 0.34864852682061509 0.26642936812908141 0 0.39921525621664639 0.26358644522589969 0 0.37925980669436771 0.27636554889024972 0 0.39698083459531791 0.2843697791580525 0 0.39921525621664639 0.26358644522589969 0 0.39698083459531791 0.2843697791580525 0 0.41285427238029698 0.27162798825599138 0 0.39921525621664639 0.26358644522589969 0 0.406054156101611 0.23776094270494191 0 0.38914290337293911 0.24913508040708501 0 0.39921525621664639 0.26358644522589969 0 0.37925980669436771 0.27636554889024972 0 0.38914290337293911 0.24913508040708501 0 0.36951061432609211 0.25098971491638888 0 0.37925980669436771 0.27636554889024972 0 0.38914290337293911 0.24913508040708501 0 0.39921525621664639 0.26358644522589969 0 0.37925980669436771 0.27636554889024972 0 0.37044063525610887 0.29140575947347519 0 0.37925980669436771 0.27636554889024972 0 0.38170140245802991 0.29218063542364292 0 0.38170140245802991 0.29218063542364292 0 0.39266171540729328 0.30384039065203622 0 0.39698083459531791 0.2843697791580525 0 0.37925980669436771 0.27636554889024972 0 0.38170140245802991 0.29218063542364292 0 0.39698083459531791 0.2843697791580525 0 0.3798325739066285 0.30742370290028598 0 0.39266171540729328 0.30384039065203622 0 0.39027702277564352 0.32125564092184672 0 0.36824902641172108 0.30084734937072488 0 0.38170140245802991 0.29218063542364292 0 0.3798325739066285 0.30742370290028598 0 0.38170140245802991 0.29218063542364292 0 0.3798325739066285 0.30742370290028598 0 0.39266171540729328 0.30384039065203622 0 0.39266171540729328 0.30384039065203622 0 0.40776337360690151 0.30220279032374181 0 0.4065123060858693 0.32099597477777031 0 0.39266171540729328 0.30384039065203622 0 0.39698083459531791 0.2843697791580525 0 0.40776337360690151 0.30220279032374181 0 0.39698083459531791 0.2843697791580525 0 0.41090131524913148 0.28734024890368198 0 0.40776337360690151 0.30220279032374181 0 0.41090131524913148 0.28734024890368198 0 0.42293413545929198 0.3029707747188119 0 0.41090131524913148 0.28734024890368198 0 0.40776337360690151 0.30220279032374181 0 0.42293413545929198 0.3029707747188119 0 0.40776337360690151 0.30220279032374181 0 0.42293413545929198 0.3029707747188119 0 0.42073603505891821 0.31673540114057619 0 0.42293413545929198 0.3029707747188119 0 0.43496695566945232 0.31860130053394181 0 0.42293413545929198 0.3029707747188119 0 0.44222212271832279 0.30481610529212388 0 0.43496695566945232 0.31860130053394181 0 0.42293413545929198 0.3029707747188119 0 0.43265695227948497 0.28918042796233212 0 0.44222212271832279 0.30481610529212388 0 0.41090131524913148 0.28734024890368198 0 0.42293413545929198 0.3029707747188119 0 0.43265695227948497 0.28918042796233212 0 0.41090131524913148 0.28734024890368198 0 0.43265695227948497 0.28918042796233212 0 0.42961605046856571 0.27176675260414362 0 0.43265695227948497 0.28918042796233212 0 0.42961605046856571 0.27176675260414362 0 0.44084584692294732 0.28111654091406568 0 0.39698083459531791 0.2843697791580525 0 0.41090131524913148 0.28734024890368198 0 0.41285427238029698 0.27162798825599138 0 0.41090131524913148 0.28734024890368198 0 0.42961605046856571 0.27176675260414362 0 0.41285427238029698 0.27162798825599138 0 0.42961605046856571 0.27176675260414362 0 0.41285427238029698 0.27162798825599138 0 0.41917070573892518 0.25080734156154982 0 0.39921525621664639 0.26358644522589969 0 0.41917070573892518 0.25080734156154982 0 0.39921525621664639 0.26358644522589969 0 0.41917070573892518 0.25080734156154982 0 0.406054156101611 0.23776094270494191 0 0.39921525621664639 0.26358644522589969 0 0.41285427238029698 0.27162798825599138 0 0.41917070573892518 0.25080734156154982 0 0.42961605046856571 0.27176675260414362 0 0.41917070573892518 0.25080734156154982 0 0.43810076971185841 0.2507607064802867 0 0.43810076971185841 0.2507607064802867 0 0.45163309517654471 0.27248807303948069 0 0.46372918670737279 0.25099853693779572 0 0.42961605046856571 0.27176675260414362 0 0.43810076971185841 0.2507607064802867 0 0.45163309517654471 0.27248807303948069 0 0.43810076971185841 0.2507607064802867 0 0.45163309517654471 0.27248807303948069 0 0.42961605046856571 0.27176675260414362 0 0.44084584692294732 0.28111654091406568 0 0.45163309517654471 0.27248807303948069 0 0.45163309517654471 0.27248807303948069 0 0.47491881276630049 0.27349257613726929 0 0.46516542064123112 0.29421543959867469 0 0.45163309517654471 0.27248807303948069 0 0.46372918670737279 0.25099853693779572 0 0.47491881276630049 0.27349257613726929 0 0.46372918670737279 0.25099853693779572 0 0.48409980502374422 0.25739444921941468 0 0.47491881276630049 0.27349257613726929 0 0.48409980502374422 0.25739444921941468 0 0.47491881276630049 0.27349257613726929 0 0.5 0.27460887474904111 0 0.47491881276630049 0.27349257613726929 0 0.5 0.27460887474904111 0 0.4846300842968238 0.28967261207393558 0 0.48409980502374422 0.25739444921941468 0 0.5 0.27460887474904111 0 0.5 0.24690516862483161 0 0.49999999999999939 0.30231258087325041 0 0.4833484702945583 0.30456966651886441 0 0.49000404478394288 0.31596783582960453 0 0.49999999999999939 0.30231258087325041 0 0.4846300842968238 0.28967261207393558 0 0.4833484702945583 0.30456966651886441 0 0.4833484702945583 0.30456966651886441 0 0.48195527877256927 0.31308350667245333 0 0.49000404478394288 0.31596783582960453 0 0.49999999999999939 0.30231258087325041 0 0.49000404478394288 0.31596783582960453 0 0.5 0.27460887474904111 0 0.49999999999999939 0.30231258087325041 0 0.4846300842968238 0.28967261207393558 0 0.47491881276630049 0.27349257613726929 0 0.4846300842968238 0.28967261207393558 0 0.46516542064123112 0.29421543959867469 0 0.4846300842968238 0.28967261207393558 0 0.4833484702945583 0.30456966651886441 0 0.46516542064123112 0.29421543959867469 0 0.46516542064123112 0.29421543959867469 0 0.47869774610591798 0.31594280615786852 0 0.4833484702945583 0.30456966651886441 0 0.47833599327278298 0.31216602406526822 0 0.46516542064123112 0.29421543959867469 0 0.47833599327278298 0.31216602406526822 0 0.46516542064123112 0.29421543959867469 0 0.47869774610591798 0.31594280615786852 0 0.46635141291264698 0.30582112308605919 0 0.46516542064123112 0.29421543959867469 0 0.47869774610591798 0.31594280615786852 0 0.4833484702945583 0.30456966651886441 0 0.47833599327278298 0.31216602406526822 0 0.48195527877256927 0.31308350667245333 0 0.46635141291264698 0.30582112308605919 0 0.47161641735365251 0.31433470448805861 0 0.47869774610591798 0.31594280615786852 0 0.46635141291264698 0.30582112308605919 0 0.46822500734503542 0.31556197204107189 0 0.47161641735365251 0.31433470448805861 0 0.46635141291264698 0.30582112308605919 0 0.46023508236945909 0.31408995165500547 0 0.46822500734503542 0.31556197204107189 0 0.46635141291264698 0.30582112308605919 0 0.45484736738224668 0.30317305857419002 0 0.46516542064123112 0.29421543959867469 0 0.46635141291264698 0.30582112308605919 0 0.45484736738224668 0.30317305857419002 0 0.46023508236945909 0.31408995165500547 0 0.45484736738224668 0.30317305857419002 0 0.44755714563449073 0.31642573490127862 0 0.46023508236945909 0.31408995165500547 0 0.45163309517654471 0.27248807303948069 0 0.46516542064123112 0.29421543959867469 0 0.44947728976719381 0.29103091005030618 0 0.45484736738224668 0.30317305857419002 0 0.46516542064123112 0.29421543959867469 0 0.44947728976719381 0.29103091005030618 0 0.45163309517654471 0.27248807303948069 0 0.46516542064123112 0.29421543959867469 0 0.44084584692294732 0.28111654091406568 0 0.45163309517654471 0.27248807303948069 0 0.44947728976719381 0.29103091005030618 0 0.43265695227948497 0.28918042796233212 0 0.44084584692294732 0.28111654091406568 0 0.44947728976719381 0.29103091005030618 0 0.43265695227948497 0.28918042796233212 0 0.44947728976719381 0.29103091005030618 0 0.44222212271832279 0.30481610529212388 0 0.45484736738224668 0.30317305857419002 0 0.44222212271832279 0.30481610529212388 0 0.44755714563449073 0.31642573490127862 0 0.44947728976719381 0.29103091005030618 0 0.44222212271832279 0.30481610529212388 0 0.45484736738224668 0.30317305857419002 0 0.44947728976719381 0.29103091005030618 0 0.44222212271832279 0.30481610529212388 0 0.44222212271832279 0.30481610529212388 0 0.43496695566945232 0.31860130053394181 0 0.44755714563449073 0.31642573490127862 0 0.44857851538412391 0.33628259484304313 0 0.45752545977748987 0.32588741097382418 0 0.44857851538412391 0.33628259484304313 0 0.43496695566945232 0.31860130053394181 0 0.49999999999999939 0.30231258087325041 0 0.49000404478394288 0.31596783582960453 0 0.49999999999999989 0.36625809529669362 0 0.44755714563449073 0.31642573490127862 0 0.44857851538412391 0.33628259484304313 0 0.43496695566945232 0.31860130053394181 0 0.44222212271832279 0.30481610529212388 0 0.44755714563449073 0.31642573490127862 0 0.43496695566945232 0.31860130053394181 0 0.44857851538412391 0.33628259484304313 0 0.43744823437965058 0.34125827118632079 0 0.43496695566945232 0.31860130053394181 0 0.44857851538412391 0.33628259484304313 0 0.44654950223321432 0.35358173161563011 0 0.43744823437965058 0.34125827118632079 0 0.44857851538412391 0.33628259484304313 0 0.46317303046258868 0.33393384216660049 0 0.46219007509879678 0.35396388915214338 0 0.46317303046258868 0.33393384216660049 0 0.48000808956788649 0.32962309078595858 0 0.46219007509879678 0.35396388915214338 0 0.44857851538412391 0.33628259484304313 0 0.46317303046258868 0.33393384216660049 0 0.45752545977748987 0.32588741097382418 0 0.44755714563449073 0.31642573490127862 0 0.46023508236945909 0.31408995165500547 0 0.45752545977748987 0.32588741097382418 0 0.46317303046258868 0.33393384216660049 0 0.45752545977748987 0.32588741097382418 0 0.46756301248464538 0.32391222507803291 0 0.46023508236945909 0.31408995165500547 0 0.45752545977748987 0.32588741097382418 0 0.46756301248464538 0.32391222507803291 0 0.46023508236945909 0.31408995165500547 0 0.46756301248464538 0.32391222507803291 0 0.46822500734503542 0.31556197204107189 0 0.48000808956788649 0.32962309078595858 0 0.49000404478394288 0.31596783582960453 0 0.48200531990997741 0.35047463111924992 0 0.46756301248464538 0.32391222507803291 0 0.46822500734503542 0.31556197204107189 0 0.47319150305100938 0.32001291666723453 0 0.46822500734503542 0.31556197204107189 0 0.47161641735365251 0.31433470448805861 0 0.47319150305100938 0.32001291666723453 0 0.47161641735365251 0.31433470448805861 0 0.47319150305100938 0.32001291666723453 0 0.47869774610591798 0.31594280615786852 0 0.47869774610591798 0.31594280615786852 0 0.48195527877256927 0.31308350667245333 0 0.49000404478394288 0.31596783582960453 0 0.47833599327278298 0.31216602406526822 0 0.47869774610591798 0.31594280615786852 0 0.47833599327278298 0.31216602406526822 0 0.47869774610591798 0.31594280615786852 0 0.48195527877256927 0.31308350667245333 0 0.47869774610591798 0.31594280615786852 0 0.48000808956788649 0.32962309078595858 0 0.49000404478394288 0.31596783582960453 0 0.47319150305100938 0.32001291666723453 0 0.47869774610591798 0.31594280615786852 0 0.48000808956788649 0.32962309078595858 0 0.47869774610591798 0.31594280615786852 0 0.48000808956788649 0.32962309078595858 0 0.46756301248464538 0.32391222507803291 0 0.47319150305100938 0.32001291666723453 0 0.48000808956788649 0.32962309078595858 0 0.48000808956788649 0.32962309078595858 0 0.48200531990997741 0.35047463111924992 0 0.46317303046258868 0.33393384216660049 0 0.46756301248464538 0.32391222507803291 0 0.48000808956788649 0.32962309078595858 0 0.48000808956788649 0.32962309078595858 0 0.46219007509879678 0.35396388915214338 0 0.48000808956788649 0.32962309078595858 0 0.49000404478394288 0.31596783582960453 0 0.49000404478394288 0.31596783582960453 0 0.49999999999999989 0.36625809529669362 0 0.48200531990997741 0.35047463111924992 0 0.49999999999999989 0.36625809529669362 0 0.48200531990997741 0.35047463111924992 0 0.48400255025206912 0.37132617145254099 0 0.49999999999999989 0.36625809529669362 0 0.49246742632698282 0.3744799583246522 0 0.48400255025206912 0.37132617145254099 0 0.48200531990997741 0.35047463111924992 0 0.48400255025206912 0.37132617145254099 0 0.46219007509879678 0.35396388915214338 0 0.48000808956788649 0.32962309078595858 0 0.48200531990997741 0.35047463111924992 0 0.46219007509879678 0.35396388915214338 0 0.48400255025206912 0.37132617145254099 0 0.46219007509879678 0.35396388915214338 0 0.48059492642628537 0.37787162638859439 0 0.46219007509879678 0.35396388915214338 0 0.47240353587193518 0.38046344998477771 0 0.48059492642628537 0.37787162638859439 0 0.46219007509879678 0.35396388915214338 0 0.48059492642628537 0.37787162638859439 0 0.48200531990997741 0.35047463111924992 0 0.48400255025206912 0.37132617145254099 0 0.46351266074724012 0.37405299690465782 0 0.46219007509879678 0.35396388915214338 0 0.47240353587193518 0.38046344998477771 0 0.46351266074724012 0.37405299690465782 0 0.45717856940319879 0.3732490152987008 0 0.46219007509879678 0.35396388915214338 0 0.45385291071246681 0.36535310637527763 0 0.45717856940319879 0.3732490152987008 0 0.46219007509879678 0.35396388915214338 0 0.45385291071246681 0.36535310637527763 0 0.46219007509879678 0.35396388915214338 0 0.45385291071246681 0.36535310637527763 0 0.45717856940319879 0.3732490152987008 0 0.4486496000466374 0.37243534142724732 0 0.44857851538412391 0.33628259484304313 0 0.46219007509879678 0.35396388915214338 0 0.45385291071246681 0.36535310637527763 0 0.46219007509879678 0.35396388915214338 0 0.44654950223321432 0.35358173161563011 0 0.44654950223321432 0.35358173161563011 0 0.43307891485419953 0.35851448411718279 0 0.43744823437965058 0.34125827118632079 0 0.44857851538412391 0.33628259484304313 0 0.46219007509879678 0.35396388915214338 0 0.44654950223321432 0.35358173161563011 0 0.44654950223321432 0.35358173161563011 0 0.44365026638162619 0.36366296035924589 0 0.43307891485419953 0.35851448411718279 0 0.45385291071246681 0.36535310637527763 0 0.44654950223321432 0.35358173161563011 0 0.44365026638162619 0.36366296035924589 0 0.45385291071246681 0.36535310637527763 0 0.4486496000466374 0.37243534142724732 0 0.44365026638162619 0.36366296035924589 0 0.44365026638162619 0.36366296035924589 0 0.43775262426269329 0.37217766864203078 0 0.43307891485419953 0.35851448411718279 0 0.4486496000466374 0.37243534142724732 0 0.44365026638162619 0.36366296035924589 0 0.43775262426269329 0.37217766864203078 0 0.41316761184507561 0.3600211891096714 0 0.43307891485419953 0.35851448411718279 0 0.42525621282126502 0.37947448204751361 0 0.43775262426269329 0.37217766864203078 0 0.43307891485419953 0.35851448411718279 0 0.42525621282126502 0.37947448204751361 0 0.41316761184507561 0.3600211891096714 0 0.40226793993289017 0.38073113339753789 0 0.42525621282126502 0.37947448204751361 0 0.41316761184507561 0.3600211891096714 0 0.40226793993289017 0.38073113339753789 0 0.41316761184507561 0.3600211891096714 0 0.42406728375726371 0.33931124482180652 0 0.40165014739588228 0.3401926533958109 0 0.41316761184507561 0.3600211891096714 0 0.42406728375726371 0.33931124482180652 0 0.43307891485419953 0.35851448411718279 0 0.42406728375726371 0.33931124482180652 0 0.43744823437965058 0.34125827118632079 0 0.41316761184507561 0.3600211891096714 0 0.43307891485419953 0.35851448411718279 0 0.42406728375726371 0.33931124482180652 0 0.42406728375726371 0.33931124482180652 0 0.43744823437965058 0.34125827118632079 0 0.43496695566945232 0.31860130053394181 0 0.42406728375726371 0.33931124482180652 0 0.43496695566945232 0.31860130053394181 0 0.42406728375726371 0.33931124482180652 0 0.43496695566945232 0.31860130053394181 0 0.42073603505891821 0.31673540114057619 0 0.42293413545929198 0.3029707747188119 0 0.43496695566945232 0.31860130053394181 0 0.42073603505891821 0.31673540114057619 0 0.40776337360690151 0.30220279032374181 0 0.4065123060858693 0.32099597477777031 0 0.42073603505891821 0.31673540114057619 0 0.42406728375726371 0.33931124482180652 0 0.4065123060858693 0.32099597477777031 0 0.42073603505891821 0.31673540114057619 0 0.42406728375726371 0.33931124482180652 0 0.4065123060858693 0.32099597477777031 0 0.40165014739588228 0.3401926533958109 0 0.40165014739588228 0.3401926533958109 0 0.39027702277564352 0.32125564092184672 0 0.38297826173861838 0.3396108722628422 0 0.39266171540729328 0.30384039065203622 0 0.4065123060858693 0.32099597477777031 0 0.39027702277564352 0.32125564092184672 0 0.4065123060858693 0.32099597477777031 0 0.40165014739588228 0.3401926533958109 0 0.39027702277564352 0.32125564092184672 0 0.37333342264148162 0.31905074169549469 0 0.3798325739066285 0.30742370290028598 0 0.39027702277564352 0.32125564092184672 0 0.37333342264148162 0.31905074169549469 0 0.39027702277564352 0.32125564092184672 0 0.38297826173861838 0.3396108722628422 0 0.37333342264148162 0.31905074169549469 0 0.38297826173861838 0.3396108722628422 0 0.38297826173861838 0.3396108722628422 0 0.39262310083575508 0.36017100283018971 0 0.38297826173861838 0.3396108722628422 0 0.37692614338843361 0.35668425330612358 0 0.39262310083575508 0.36017100283018971 0 0.36859037937660938 0.34471274598668389 0 0.38297826173861838 0.3396108722628422 0 0.37692614338843361 0.35668425330612358 0 0.37692614338843361 0.35668425330612358 0 0.39262310083575508 0.36017100283018971 0 0.37790201188100231 0.37895028113332768 0 0.41316761184507561 0.3600211891096714 0 0.39262310083575508 0.36017100283018971 0 0.40226793993289017 0.38073113339753789 0 0.39262310083575508 0.36017100283018971 0 0.40226793993289017 0.38073113339753789 0 0.39262310083575508 0.36017100283018971 0 0.40226793993289017 0.38073113339753789 0 0.37790201188100231 0.37895028113332768 0 0.40165014739588228 0.3401926533958109 0 0.38297826173861838 0.3396108722628422 0 0.39262310083575508 0.36017100283018971 0 0.41316761184507561 0.3600211891096714 0 0.40165014739588228 0.3401926533958109 0 0.39262310083575508 0.36017100283018971 0 0.40226793993289017 0.38073113339753789 0 0.38930581071095571 0.40535985398665181 0 0.41304335056566571 0.40370132992392382 0 0.40226793993289017 0.38073113339753789 0 0.38930581071095571 0.40535985398665181 0 0.40226793993289017 0.38073113339753789 0 0.37790201188100231 0.37895028113332768 0 0.38930581071095571 0.40535985398665181 0 0.36941155775392392 0.39991819380793292 0 0.37790201188100231 0.37895028113332768 0 0.38930581071095571 0.40535985398665181 0 0.37228618046380763 0.4257445769310389 0 0.36941155775392392 0.39991819380793292 0 0.38930581071095571 0.40535985398665181 0 0.37228618046380763 0.4257445769310389 0 0.38930581071095571 0.40535985398665181 0 0.39581648354397692 0.43075988948780719 0 0.37228618046380763 0.4257445769310389 0 0.39581648354397692 0.43075988948780719 0 0.38096937117826202 0.45237270787408979 0 0.38930581071095571 0.40535985398665181 0 0.39581648354397692 0.43075988948780719 0 0.41304335056566571 0.40370132992392382 0 0.42381876119843931 0.42667152645031059 0 0.41304335056566571 0.40370132992392382 0 0.39581648354397692 0.43075988948780719 0 0.42381876119843931 0.42667152645031059 0 0.41304335056566571 0.40370132992392382 0 0.42381876119843931 0.42667152645031059 0 0.4265200269383031 0.41139185966317748 0 0.41304335056566571 0.40370132992392382 0 0.39581648354397692 0.43075988948780719 0 0.42381876119843931 0.42667152645031059 0 0.41402133219271509 0.4454345830752322 0 0.43621875325714049 0.42350382736109721 0 0.43459417183121368 0.44964172297669702 0 0.42381876119843931 0.42667152645031059 0 0.43621875325714049 0.42350382736109721 0 0.43459417183121368 0.44964172297669702 0 0.43621875325714049 0.42350382736109721 0 0.43784333468306652 0.39736593174549728 0 0.43621875325714049 0.42350382736109721 0 0.4265200269383031 0.41139185966317748 0 0.43784333468306652 0.39736593174549728 0 0.42381876119843931 0.42667152645031059 0 0.43621875325714049 0.42350382736109721 0 0.4265200269383031 0.41139185966317748 0 0.4265200269383031 0.41139185966317748 0 0.41304335056566571 0.40370132992392382 0 0.43784333468306652 0.39736593174549728 0 0.41304335056566571 0.40370132992392382 0 0.42525621282126502 0.37947448204751361 0 0.43784333468306652 0.39736593174549728 0 0.40226793993289017 0.38073113339753789 0 0.41304335056566571 0.40370132992392382 0 0.40226793993289017 0.38073113339753789 0 0.41304335056566571 0.40370132992392382 0 0.42525621282126502 0.37947448204751361 0 0.42525621282126502 0.37947448204751361 0 0.43983551495183909 0.38342214544568898 0 0.43784333468306652 0.39736593174549728 0 0.43775262426269329 0.37217766864203078 0 0.42525621282126502 0.37947448204751361 0 0.43983551495183909 0.38342214544568898 0 0.4486496000466374 0.37243534142724732 0 0.43775262426269329 0.37217766864203078 0 0.43983551495183909 0.38342214544568898 0 0.4486496000466374 0.37243534142724732 0 0.43983551495183909 0.38342214544568898 0 0.45792163169857503 0.39794827314179798 0 0.43784333468306652 0.39736593174549728 0 0.45792163169857503 0.39794827314179798 0 0.45017747727662111 0.41370394924887383 0 0.43983551495183909 0.38342214544568898 0 0.43784333468306652 0.39736593174549728 0 0.45792163169857503 0.39794827314179798 0 0.45792163169857503 0.39794827314179798 0 0.47054293974282518 0.38959660287097642 0 0.47770275757425779 0.39752271323508531 0 0.4486496000466374 0.37243534142724732 0 0.45792163169857503 0.39794827314179798 0 0.45792163169857503 0.39794827314179798 0 0.46170148958506863 0.38129094660469298 0 0.47054293974282518 0.38959660287097642 0 0.4486496000466374 0.37243534142724732 0 0.45792163169857503 0.39794827314179798 0 0.46170148958506863 0.38129094660469298 0 0.45717856940319879 0.3732490152987008 0 0.4486496000466374 0.37243534142724732 0 0.46170148958506863 0.38129094660469298 0 0.46351266074724012 0.37405299690465782 0 0.45717856940319879 0.3732490152987008 0 0.46170148958506863 0.38129094660469298 0 0.46170148958506863 0.38129094660469298 0 0.47240353587193518 0.38046344998477771 0 0.47054293974282518 0.38959660287097642 0 0.46351266074724012 0.37405299690465782 0 0.46170148958506863 0.38129094660469298 0 0.47240353587193518 0.38046344998477771 0 0.48400255025206912 0.37132617145254099 0 0.48059492642628537 0.37787162638859439 0 0.48599978059416082 0.39217771178583227 0 0.5 0.37283727626861851 0 0.49529098161210638 0.39148194597042291 0 0.5 0.42711489159293842 0 0.47240353587193518 0.38046344998477771 0 0.48059492642628537 0.37787162638859439 0 0.47744878804189289 0.38752642085305322 0 0.48059492642628537 0.37787162638859439 0 0.47744878804189289 0.38752642085305322 0 0.48599978059416082 0.39217771178583227 0 0.47240353587193518 0.38046344998477771 0 0.47744878804189289 0.38752642085305322 0 0.47054293974282518 0.38959660287097642 0 0.47744878804189289 0.38752642085305322 0 0.47054293974282518 0.38959660287097642 0 0.47770275757425779 0.39752271323508531 0 0.45792163169857503 0.39794827314179798 0 0.47770275757425779 0.39752271323508531 0 0.47716903843669312 0.41138202747963692 0 0.47770275757425779 0.39752271323508531 0 0.48544572509963702 0.40185403902302591 0 0.47716903843669312 0.41138202747963692 0 0.47744878804189289 0.38752642085305322 0 0.47770275757425779 0.39752271323508531 0 0.48599978059416082 0.39217771178583227 0 0.47770275757425779 0.39752271323508531 0 0.48599978059416082 0.39217771178583227 0 0.48544572509963702 0.40185403902302591 0 0.49529098161210638 0.39148194597042291 0 0.49106606728096669 0.41670579664415203 0 0.48544572509963702 0.40185403902302591 0 0.49529098161210638 0.39148194597042291 0 0.49106606728096669 0.41670579664415203 0 0.48599978059416082 0.39217771178583227 0 0.48544572509963702 0.40185403902302591 0 0.49529098161210638 0.39148194597042291 0 0.49999999999999989 0.36625809529669362 0 0.49529098161210638 0.39148194597042291 0 0.49246742632698282 0.3744799583246522 0 0.49529098161210638 0.39148194597042291 0 0.4905718379078573 0.3830195283115766 0 0.48400255025206912 0.37132617145254099 0 0.48599978059416082 0.39217771178583227 0 0.49999999999999989 0.36625809529669362 0 0.5 0.37283727626861851 0 0.49529098161210638 0.39148194597042291 0 0.49999999999999989 0.36625809529669362 0 0.49246742632698282 0.3744799583246522 0 0.49529098161210638 0.39148194597042291 0 0.48400255025206912 0.37132617145254099 0 0.48599978059416082 0.39217771178583227 0 0.4882603987702675 0.38025084246865049 0 0.49246742632698282 0.3744799583246522 0 0.4882603987702675 0.38025084246865049 0 0.4905718379078573 0.3830195283115766 0 0.49246742632698282 0.3744799583246522 0 0.48400255025206912 0.37132617145254099 0 0.4882603987702675 0.38025084246865049 0 0.48599978059416082 0.39217771178583227 0 0.4882603987702675 0.38025084246865049 0 0.4905718379078573 0.3830195283115766 0 0.48599978059416082 0.39217771178583227 0 0.49529098161210638 0.39148194597042291 0 0.4905718379078573 0.3830195283115766 0 0.49529098161210638 0.39148194597042291 0 0.5 0.42711489159293842 0 0.49106606728096669 0.41670579664415203 0 0.49106606728096669 0.41670579664415203 0 0.48684115294982699 0.44192964731788131 0 0.49106606728096669 0.41670579664415203 0 0.48095804538201642 0.42816458418632092 0 0.48684115294982699 0.44192964731788131 0 0.5 0.42711489159293842 0 0.49106606728096669 0.41670579664415203 0 0.48684115294982699 0.44192964731788131 0 0.48544572509963702 0.40185403902302591 0 0.49106606728096669 0.41670579664415203 0 0.47716903843669312 0.41138202747963692 0 0.47716903843669312 0.41138202747963692 0 0.48095804538201642 0.42816458418632092 0 0.46719366335051271 0.42346120485634869 0 0.49106606728096669 0.41670579664415203 0 0.47716903843669312 0.41138202747963692 0 0.48095804538201642 0.42816458418632092 0 0.46719366335051271 0.42346120485634869 0 0.47646569500245028 0.44897413657089941 0 0.48095804538201642 0.42816458418632092 0 0.46719366335051271 0.42346120485634869 0 0.47646569500245028 0.44897413657089941 0 0.46719366335051271 0.42346120485634869 0 0.45219263353397121 0.42549577769783031 0 0.45518064025161048 0.44131412932500169 0 0.45792163169857503 0.39794827314179798 0 0.47716903843669312 0.41138202747963692 0 0.46719366335051271 0.42346120485634869 0 0.46719366335051271 0.42346120485634869 0 0.45017747727662111 0.41370394924887383 0 0.45219263353397121 0.42549577769783031 0 0.45792163169857503 0.39794827314179798 0 0.46719366335051271 0.42346120485634869 0 0.45017747727662111 0.41370394924887383 0 0.45792163169857503 0.39794827314179798 0 0.46719366335051271 0.42346120485634869 0 0.43621875325714049 0.42350382736109721 0 0.43784333468306652 0.39736593174549728 0 0.45017747727662111 0.41370394924887383 0 0.43621875325714049 0.42350382736109721 0 0.45017747727662111 0.41370394924887383 0 0.45219263353397121 0.42549577769783031 0 0.43621875325714049 0.42350382736109721 0 0.45219263353397121 0.42549577769783031 0 0.45518064025161048 0.44131412932500169 0 0.5 0.42711489159293842 0 0.5 0.5 0 0.48573772665438802 0.47448706828545018 0 0.46088312500403472 0.46125479244565942 0 0.45518064025161048 0.44131412932500169 0 0.43459417183121368 0.44964172297669702 0 0.43621875325714049 0.42350382736109721 0 0.45518064025161048 0.44131412932500169 0 0.43459417183121368 0.44964172297669702 0 0.44640580594286972 0.47482086148834851 0 0.43315595277057101 0.47278123391751981 0 0.43459417183121368 0.44964172297669702 0 0.46088312500403472 0.46125479244565942 0 0.44640580594286972 0.47482086148834851 0 0.43459417183121368 0.44964172297669702 0 0.44640580594286972 0.47482086148834851 0 0.43459417183121368 0.44964172297669702 0 0.46719366335051271 0.42346120485634869 0 0.45518064025161048 0.44131412932500169 0 0.47646569500245028 0.44897413657089941 0 0.46088312500403472 0.46125479244565942 0 0.45518064025161048 0.44131412932500169 0 0.47646569500245028 0.44897413657089941 0 0.5 0.42711489159293842 0 0.48684115294982699 0.44192964731788131 0 0.48573772665438802 0.47448706828545018 0 0.47646569500245028 0.44897413657089941 0 0.48684115294982699 0.44192964731788131 0 0.48573772665438802 0.47448706828545018 0 0.48095804538201642 0.42816458418632092 0 0.47646569500245028 0.44897413657089941 0 0.48684115294982699 0.44192964731788131 0 0.46088312500403472 0.46125479244565942 0 0.47646569500245028 0.44897413657089941 0 0.48573772665438802 0.47448706828545018 0 0.47646569500245028 0.44897413657089941 0 0.48573772665438802 0.47448706828545018 0 0.49500975830632588 0.50000000000000089 0 0.48573772665438802 0.47448706828545018 0 0.49500975830632588 0.50000000000000089 0 0.48573772665438802 0.47448706828545018 0 0.47661359918042612 0.5 0 0.49500975830632588 0.50000000000000089 0 0.5 0.5 0 0.48573772665438802 0.47448706828545018 0 0.46088312500403472 0.46125479244565942 0 0.48573772665438802 0.47448706828545018 0 0.46627280887118061 0.48108990858044581 0 0.48573772665438802 0.47448706828545018 0 0.47661359918042612 0.5 0 0.46627280887118061 0.48108990858044581 0 0.47661359918042612 0.5 0 0.45821744005452641 0.49999999999999989 0 0.46627280887118061 0.48108990858044581 0 0.45821744005452641 0.49999999999999989 0 0.46627280887118061 0.48108990858044581 0 0.44640580594286972 0.47482086148834851 0 0.46088312500403472 0.46125479244565942 0 0.46627280887118061 0.48108990858044581 0 0.44640580594286972 0.47482086148834851 0 0.44640580594286972 0.47482086148834851 0 0.4392145824268362 0.48500967392097971 0 0.43315595277057101 0.47278123391751981 0 0.45821744005452641 0.49999999999999989 0 0.44640580594286972 0.47482086148834851 0 0.45821744005452641 0.49999999999999989 0 0.43171773370992728 0.49592074485834259 0 0.43134530449863379 0.5 0 0.45821744005452641 0.49999999999999989 0 0.44640580594286972 0.47482086148834851 0 0.4392145824268362 0.48500967392097971 0 0.45821744005452641 0.49999999999999989 0 0.4392145824268362 0.48500967392097971 0 0.43171773370992728 0.49592074485834259 0 0.4392145824268362 0.48500967392097971 0 0.43171773370992728 0.49592074485834259 0 0.43315595277057101 0.47278123391751981 0 0.43171773370992728 0.49592074485834259 0 0.43134530449863379 0.5 0 0.41590389641447301 0.48332339639712579 0 0.43134530449863379 0.5 0 0.41590389641447301 0.48332339639712579 0 0.40447316894274138 0.5 0 0.43171773370992728 0.49592074485834259 0 0.43315595277057101 0.47278123391751981 0 0.43171773370992728 0.49592074485834259 0 0.41590389641447301 0.48332339639712579 0 0.43315595277057101 0.47278123391751981 0 0.41590389641447301 0.48332339639712579 0 0.43315595277057101 0.47278123391751981 0 0.42173580449601189 0.46163142693982179 0 0.43315595277057101 0.47278123391751981 0 0.43459417183121368 0.44964172297669702 0 0.43315595277057101 0.47278123391751981 0 0.43459417183121368 0.44964172297669702 0 0.42173580449601189 0.46163142693982179 0 0.42381876119843931 0.42667152645031059 0 0.43459417183121368 0.44964172297669702 0 0.41402133219271509 0.4454345830752322 0 0.42381876119843931 0.42667152645031059 0 0.43459417183121368 0.44964172297669702 0 0.43459417183121368 0.44964172297669702 0 0.41402133219271509 0.4454345830752322 0 0.42173580449601189 0.46163142693982179 0 0.41402133219271509 0.4454345830752322 0 0.42173580449601189 0.46163142693982179 0 0.40421936366646072 0.46092940807125232 0 0.41590389641447301 0.48332339639712579 0 0.42173580449601189 0.46163142693982179 0 0.40421936366646072 0.46092940807125232 0 0.40421936366646072 0.46092940807125232 0 0.39688043639555459 0.44739686636013942 0 0.38096937117826202 0.45237270787408979 0 0.40421936366646072 0.46092940807125232 0 0.38096937117826202 0.45237270787408979 0 0.39189348782916128 0.47931537032590682 0 0.39581648354397692 0.43075988948780719 0 0.39688043639555459 0.44739686636013942 0 0.38096937117826202 0.45237270787408979 0 0.39581648354397692 0.43075988948780719 0 0.41402133219271509 0.4454345830752322 0 0.39688043639555459 0.44739686636013942 0 0.41402133219271509 0.4454345830752322 0 0.40421936366646072 0.46092940807125232 0 0.39688043639555459 0.44739686636013942 0 0.36819409338618181 0.47926670961297257 0 0.38096937117826202 0.45237270787408979 0 0.39189348782916128 0.47931537032590682 0 0.36819409338618181 0.47926670961297257 0 0.37760103338684892 0.5 0 0.39189348782916128 0.47931537032590682 0 0.37760103338684892 0.5 0 0.40447316894274138 0.5 0 0.39189348782916128 0.47931537032590682 0 0.41590389641447301 0.48332339639712579 0 0.40447316894274138 0.5 0 0.39189348782916128 0.47931537032590682 0 0.41590389641447301 0.48332339639712579 0 0.40421936366646072 0.46092940807125232 0 0.39189348782916128 0.47931537032590682 0 0.33084858947157703 0.089998825023147322 0 0.34074649950639402 0.1032015510217993 0 0.35251364129216339 0.087079308351046394 0 0.33084858947157703 0.089998825023147322 0 0.33985807354288211 0.076996445446451747 0 0.35251364129216339 0.087079308351046394 0 0.33084858947157703 0.089998825023147322 0 0.33985807354288211 0.076996445446451747 0 0.31821388168179943 0.076078290926211711 0 0.33172706180817441 0.063843790847581627 0 0.33985807354288211 0.076996445446451747 0 0.31821388168179943 0.076078290926211711 0 0.33172706180817441 0.063843790847581627 0 0.33985807354288211 0.076996445446451747 0 0.35080820585408512 0.066210145633817372 0 0.33172706180817441 0.063843790847581627 0 0.31821388168179943 0.076078290926211711 0 0.31393056250474283 0.05484690131054596 0 0.33084858947157703 0.089998825023147322 0 0.31821388168179943 0.076078290926211711 0 0.31220083511900287 0.093292636420348921 0 0.32155860568722078 0.1033447179730258 0 0.31807112355588502 0.11375114916785289 0 0.30489438339285552 0.1097509593024167 0 0.32155860568722078 0.1033447179730258 0 0.31220083511900287 0.093292636420348921 0 0.30489438339285552 0.1097509593024167 0 0.33084858947157703 0.089998825023147322 0 0.32155860568722078 0.1033447179730258 0 0.31220083511900287 0.093292636420348921 0 0.31807112355588502 0.11375114916785289 0 0.32322348553757979 0.12164932985998619 0 0.30965627205411328 0.1209779382579915 0 0.32322348553757979 0.12164932985998619 0 0.30965627205411328 0.1209779382579915 0 0.31547262408842208 0.12915382217636601 0 0.32155860568722078 0.1033447179730258 0 0.31807112355588502 0.11375114916785289 0 0.33102287110765538 0.113032800445844 0 0.31807112355588502 0.11375114916785289 0 0.32322348553757979 0.12164932985998619 0 0.33102287110765538 0.113032800445844 0 0.32322348553757979 0.12164932985998619 0 0.33188430642590211 0.12459448939780431 0 0.33102287110765538 0.113032800445844 0 0.33188430642590211 0.12459448939780431 0 0.33102287110765538 0.113032800445844 0 0.34198889311284741 0.1185914792614596 0 0.33102287110765538 0.113032800445844 0 0.34198889311284741 0.1185914792614596 0 0.34074649950639402 0.1032015510217993 0 0.33188430642590211 0.12459448939780431 0 0.34198889311284741 0.1185914792614596 0 0.33901669724782929 0.12925315040062671 0 0.32155860568722078 0.1033447179730258 0 0.33102287110765538 0.113032800445844 0 0.34074649950639402 0.1032015510217993 0 0.33084858947157703 0.089998825023147322 0 0.32155860568722078 0.1033447179730258 0 0.34074649950639402 0.1032015510217993 0 0.34074649950639402 0.1032015510217993 0 0.35319309787704672 0.1000963117811578 0 0.35251364129216339 0.087079308351046394 0 0.34074649950639402 0.1032015510217993 0 0.35319309787704672 0.1000963117811578 0 0.35323040185675159 0.11079724557365329 0 0.35319309787704672 0.1000963117811578 0 0.35323040185675159 0.11079724557365329 0 0.36549102641238479 0.1016940222820566 0 0.35319309787704672 0.1000963117811578 0 0.36549102641238479 0.1016940222820566 0 0.35251364129216339 0.087079308351046394 0 0.35124181243179958 0.12391753768900871 0 0.35323040185675159 0.11079724557365329 0 0.36850939876642852 0.1140914575861406 0 0.34198889311284741 0.1185914792614596 0 0.35124181243179958 0.12391753768900871 0 0.33901669724782929 0.12925315040062671 0 0.34198889311284741 0.1185914792614596 0 0.35124181243179958 0.12391753768900871 0 0.35323040185675159 0.11079724557365329 0 0.34198889311284741 0.1185914792614596 0 0.34074649950639402 0.1032015510217993 0 0.35323040185675159 0.11079724557365329 0 0.36850939876642852 0.1140914575861406 0 0.36411487662952369 0.13090937959614579 0 0.38616381998567911 0.11657679266716089 0 0.35124181243179958 0.12391753768900871 0 0.36850939876642852 0.1140914575861406 0 0.36411487662952369 0.13090937959614579 0 0.36549102641238479 0.1016940222820566 0 0.35251364129216339 0.087079308351046394 0 0.37623785132629661 0.094160230158270186 0 0.35323040185675159 0.11079724557365329 0 0.36850939876642852 0.1140914575861406 0 0.36549102641238479 0.1016940222820566 0 0.36850939876642852 0.1140914575861406 0 0.37291575093450607 0.1050707582973348 0 0.37998068770391968 0.1085975596436005 0 0.36850939876642852 0.1140914575861406 0 0.36549102641238479 0.1016940222820566 0 0.37291575093450607 0.1050707582973348 0 0.36549102641238479 0.1016940222820566 0 0.37291575093450607 0.1050707582973348 0 0.37623785132629661 0.094160230158270186 0 0.35251364129216339 0.087079308351046394 0 0.37022502229348098 0.075346759730714766 0 0.37623785132629661 0.094160230158270186 0 0.33985807354288211 0.076996445446451747 0 0.35251364129216339 0.087079308351046394 0 0.35080820585408512 0.066210145633817372 0 0.35251364129216339 0.087079308351046394 0 0.35080820585408512 0.066210145633817372 0 0.37022502229348098 0.075346759730714766 0 0.35080820585408512 0.066210145633817372 0 0.37022502229348098 0.075346759730714766 0 0.36656895479983798 0.048158329610884142 0 0.36656895479983798 0.048158329610884142 0 0.37367913366601208 0.025587236983636279 0 0.355616891105628 0.0272615201971807 0 0.36656895479983798 0.048158329610884142 0 0.355616891105628 0.0272615201971807 0 0.33939432436403028 0.043598398523210832 0 0.35080820585408512 0.066210145633817372 0 0.36656895479983798 0.048158329610884142 0 0.33939432436403028 0.043598398523210832 0 0.36610373341147812 0.005968604800277522 0 0.37367913366601208 0.025587236983636279 0 0.355616891105628 0.0272615201971807 0 0.355616891105628 0.0272615201971807 0 0.33987270167036532 0.01288206682049987 0 0.33939432436403028 0.043598398523210832 0 0.36610373341147812 0.005968604800277522 0 0.355616891105628 0.0272615201971807 0 0.33987270167036532 0.01288206682049987 0 0.36610373341147812 0.005968604800277522 0 0.33987270167036532 0.01288206682049987 0 0.3477410257926245 -0.0142345229108566 0 0.33987270167036532 0.01288206682049987 0 0.32216879617297589 0.026533170301402679 0 0.32546835434140409 -0.001818073725263207 0 0.33987270167036532 0.01288206682049987 0 0.32216879617297589 0.026533170301402679 0 0.33939432436403028 0.043598398523210832 0 0.32216879617297589 0.026533170301402679 0 0.2950640457745351 0.010950668119169451 0 0.32546835434140409 -0.001818073725263207 0 0.32216879617297589 0.026533170301402679 0 0.32546835434140409 -0.001818073725263207 0 0.33172706180817441 0.063843790847581627 0 0.33939432436403028 0.043598398523210832 0 0.31393056250474283 0.05484690131054596 0 0.33172706180817441 0.063843790847581627 0 0.35080820585408512 0.066210145633817372 0 0.33939432436403028 0.043598398523210832 0 0.32216879617297589 0.026533170301402679 0 0.33939432436403028 0.043598398523210832 0 0.31393056250474283 0.05484690131054596 0 0.31393056250474283 0.05484690131054596 0 0.29487670373366998 0.039939020572105598 0 0.28936604322229181 0.06161075348754428 0 0.31393056250474283 0.05484690131054596 0 0.28936604322229181 0.06161075348754428 0 0.3035288777529711 0.070377432751278127 0 0.32216879617297589 0.026533170301402679 0 0.31393056250474283 0.05484690131054596 0 0.29487670373366998 0.039939020572105598 0 0.29487670373366998 0.039939020572105598 0 0.28936604322229181 0.06161075348754428 0 0.27360028429714278 0.052176245372012438 0 0.32216879617297589 0.026533170301402679 0 0.29487670373366998 0.039939020572105598 0 0.2950640457745351 0.010950668119169451 0 0.29487670373366998 0.039939020572105598 0 0.2950640457745351 0.010950668119169451 0 0.27411148817905429 0.029944088100359409 0 0.2950640457745351 0.010950668119169451 0 0.26918884814116678 0.0097677011845648219 0 0.27683344906570562 -0.00841771381534589 0 0.26918884814116678 0.0097677011845648219 0 0.25086621734364162 0.0024580881529454729 0 0.27683344906570562 -0.00841771381534589 0 0.2950640457745351 0.010950668119169451 0 0.26918884814116678 0.0097677011845648219 0 0.27411148817905429 0.029944088100359409 0 0.26918884814116678 0.0097677011845648219 0 0.27411148817905429 0.029944088100359409 0 0.25035344126441311 0.024856540025677429 0 0.26918884814116678 0.0097677011845648219 0 0.25035344126441311 0.024856540025677429 0 0.25086621734364162 0.0024580881529454729 0 0.29487670373366998 0.039939020572105598 0 0.27411148817905429 0.029944088100359409 0 0.27360028429714278 0.052176245372012438 0 0.27411148817905429 0.029944088100359409 0 0.27360028429714278 0.052176245372012438 0 0.25980382928462298 0.040238413611425328 0 0.24324862580501719 0.043699375385111268 0 0.25035344126441311 0.024856540025677429 0 0.25980382928462298 0.040238413611425328 0 0.27411148817905429 0.029944088100359409 0 0.25035344126441311 0.024856540025677429 0 0.25980382928462298 0.040238413611425328 0 0.24324862580501719 0.043699375385111268 0 0.25980382928462298 0.040238413611425328 0 0.25076260917159371 0.067604295308239623 0 0.27360028429714278 0.052176245372012438 0 0.25980382928462298 0.040238413611425328 0 0.25076260917159371 0.067604295308239623 0 0.25076260917159371 0.067604295308239623 0 0.25988787295121452 0.080529814965790522 0 0.27268103219162387 0.073720901152400417 0 0.25076260917159371 0.067604295308239623 0 0.25988787295121452 0.080529814965790522 0 0.25013484754435239 0.089312210651446719 0 0.25988787295121452 0.080529814965790522 0 0.25013484754435239 0.089312210651446719 0 0.26597300289728798 0.091481852751075329 0 0.26597300289728798 0.091481852751075329 0 0.28462276663105168 0.086787243814977613 0 0.27946672742723799 0.099246023995434224 0 0.26597300289728798 0.091481852751075329 0 0.27268103219162387 0.073720901152400417 0 0.28462276663105168 0.086787243814977613 0 0.25988787295121452 0.080529814965790522 0 0.26597300289728798 0.091481852751075329 0 0.27268103219162387 0.073720901152400417 0 0.27360028429714278 0.052176245372012438 0 0.25076260917159371 0.067604295308239623 0 0.27268103219162387 0.073720901152400417 0 0.28936604322229181 0.06161075348754428 0 0.27360028429714278 0.052176245372012438 0 0.27268103219162387 0.073720901152400417 0 0.28936604322229181 0.06161075348754428 0 0.27268103219162387 0.073720901152400417 0 0.29002739856668941 0.075264166605426161 0 0.28936604322229181 0.06161075348754428 0 0.29002739856668941 0.075264166605426161 0 0.3035288777529711 0.070377432751278127 0 0.27268103219162387 0.073720901152400417 0 0.29002739856668941 0.075264166605426161 0 0.28462276663105168 0.086787243814977613 0 0.28462276663105168 0.086787243814977613 0 0.29993827303550868 0.083824501820930319 0 0.29529908527900173 0.096635524698416131 0 0.29002739856668941 0.075264166605426161 0 0.28462276663105168 0.086787243814977613 0 0.29993827303550868 0.083824501820930319 0 0.31821388168179943 0.076078290926211711 0 0.31220083511900287 0.093292636420348921 0 0.29993827303550868 0.083824501820930319 0 0.31220083511900287 0.093292636420348921 0 0.29993827303550868 0.083824501820930319 0 0.29529908527900173 0.096635524698416131 0 0.31821388168179943 0.076078290926211711 0 0.31393056250474283 0.05484690131054596 0 0.3035288777529711 0.070377432751278127 0 0.31821388168179943 0.076078290926211711 0 0.29993827303550868 0.083824501820930319 0 0.3035288777529711 0.070377432751278127 0 0.29002739856668941 0.075264166605426161 0 0.29993827303550868 0.083824501820930319 0 0.3035288777529711 0.070377432751278127 0 0.30019588233241667 0.12288100980845471 0 0.30489438339285552 0.1097509593024167 0 0.29096759124809152 0.1171236693139559 0 0.30019588233241667 0.12288100980845471 0 0.30965627205411328 0.1209779382579915 0 0.30489438339285552 0.1097509593024167 0 0.31807112355588502 0.11375114916785289 0 0.30965627205411328 0.1209779382579915 0 0.30489438339285552 0.1097509593024167 0 0.31220083511900287 0.093292636420348921 0 0.30489438339285552 0.1097509593024167 0 0.29529908527900173 0.096635524698416131 0 0.30489438339285552 0.1097509593024167 0 0.29067152606835389 0.106911782836389 0 0.29529908527900173 0.096635524698416131 0 0.29067152606835389 0.106911782836389 0 0.29529908527900173 0.096635524698416131 0 0.27946672742723799 0.099246023995434224 0 0.28462276663105168 0.086787243814977613 0 0.29529908527900173 0.096635524698416131 0 0.27946672742723799 0.099246023995434224 0 0.29067152606835389 0.106911782836389 0 0.28137429327683422 0.11162873799620571 0 0.27946672742723799 0.099246023995434224 0 0.29067152606835389 0.106911782836389 0 0.28137429327683422 0.11162873799620571 0 0.29096759124809152 0.1171236693139559 0 0.28137429327683422 0.11162873799620571 0 0.29096759124809152 0.1171236693139559 0 0.27826144401555741 0.12161026243688031 0 0.30489438339285552 0.1097509593024167 0 0.29067152606835389 0.106911782836389 0 0.29096759124809152 0.1171236693139559 0 0.30019588233241667 0.12288100980845471 0 0.29096759124809152 0.1171236693139559 0 0.29056729084842342 0.12948543377474209 0 0.29096759124809152 0.1171236693139559 0 0.27826144401555741 0.12161026243688031 0 0.29056729084842342 0.12948543377474209 0 0.28137429327683422 0.11162873799620571 0 0.27826144401555741 0.12161026243688031 0 0.26963373366944271 0.1116028939700725 0 0.27826144401555741 0.12161026243688031 0 0.26963373366944271 0.1116028939700725 0 0.26333602300067138 0.12712579984536801 0 0.28137429327683422 0.11162873799620571 0 0.26963373366944271 0.1116028939700725 0 0.27946672742723799 0.099246023995434224 0 0.26963373366944271 0.1116028939700725 0 0.27946672742723799 0.099246023995434224 0 0.26495251774187661 0.1020987048591991 0 0.26597300289728798 0.091481852751075329 0 0.27946672742723799 0.099246023995434224 0 0.26495251774187661 0.1020987048591991 0 0.25013484754435239 0.089312210651446719 0 0.26597300289728798 0.091481852751075329 0 0.25462164276584198 0.10216442959658779 0 0.26597300289728798 0.091481852751075329 0 0.26495251774187661 0.1020987048591991 0 0.25462164276584198 0.10216442959658779 0 0.26963373366944271 0.1116028939700725 0 0.26495251774187661 0.1020987048591991 0 0.25917359664068251 0.1132297722587472 0 0.26495251774187661 0.1020987048591991 0 0.25462164276584198 0.10216442959658779 0 0.25917359664068251 0.1132297722587472 0 0.243794950737863 0.1239863275495639 0 0.25917359664068251 0.1132297722587472 0 0.26333602300067138 0.12712579984536801 0 0.243794950737863 0.1239863275495639 0 0.25462164276584198 0.10216442959658779 0 0.25917359664068251 0.1132297722587472 0 0.26963373366944271 0.1116028939700725 0 0.25917359664068251 0.1132297722587472 0 0.26333602300067138 0.12712579984536801 0 0.243794950737863 0.1239863275495639 0 0.26333602300067138 0.12712579984536801 0 0.25079872324042868 0.14386359070849269 0 0.26333602300067138 0.12712579984536801 0 0.26723243145627268 0.14139999217021809 0 0.25079872324042868 0.14386359070849269 0 0.27826144401555741 0.12161026243688031 0 0.26333602300067138 0.12712579984536801 0 0.27694480775103081 0.13391300762091429 0 0.26333602300067138 0.12712579984536801 0 0.27694480775103081 0.13391300762091429 0 0.26723243145627268 0.14139999217021809 0 0.27694480775103081 0.13391300762091429 0 0.28012101641498721 0.14606833686323589 0 0.28565450778310669 0.13773664122918669 0 0.27694480775103081 0.13391300762091429 0 0.28012101641498721 0.14606833686323589 0 0.26723243145627268 0.14139999217021809 0 0.26723243145627268 0.14139999217021809 0 0.27251235735300411 0.15263013435197381 0 0.25898227684926389 0.1598240581261029 0 0.28012101641498721 0.14606833686323589 0 0.27251235735300411 0.15263013435197381 0 0.28664352512760288 0.15371070293000791 0 0.28012101641498721 0.14606833686323589 0 0.26723243145627268 0.14139999217021809 0 0.27251235735300411 0.15263013435197381 0 0.26723243145627268 0.14139999217021809 0 0.25079872324042868 0.14386359070849269 0 0.25898227684926389 0.1598240581261029 0 0.2473586422174934 0.17909700040676241 0 0.25898227684926389 0.1598240581261029 0 0.26751806563362091 0.17399919866169461 0 0.2473586422174934 0.17909700040676241 0 0.26751806563362091 0.17399919866169461 0 0.25755075896001339 0.20267407045912511 0 0.26751806563362091 0.17399919866169461 0 0.28690640291874209 0.1724638740371017 0 0.27570822100969661 0.18837680813930449 0 0.26751806563362091 0.17399919866169461 0 0.28079802822355582 0.16412818589780509 0 0.28690640291874209 0.1724638740371017 0 0.25898227684926389 0.1598240581261029 0 0.26751806563362091 0.17399919866169461 0 0.28079802822355582 0.16412818589780509 0 0.25898227684926389 0.1598240581261029 0 0.28079802822355582 0.16412818589780509 0 0.27251235735300411 0.15263013435197381 0 0.25898227684926389 0.1598240581261029 0 0.28079802822355582 0.16412818589780509 0 0.27251235735300411 0.15263013435197381 0 0.28079802822355582 0.16412818589780509 0 0.28664352512760288 0.15371070293000791 0 0.28079802822355582 0.16412818589780509 0 0.28906376340794571 0.16396376183337791 0 0.28664352512760288 0.15371070293000791 0 0.30655364181375738 0.16832620218081659 0 0.28664352512760288 0.15371070293000791 0 0.28079802822355582 0.16412818589780509 0 0.28906376340794571 0.16396376183337791 0 0.28690640291874209 0.1724638740371017 0 0.28906376340794571 0.16396376183337791 0 0.28690640291874209 0.1724638740371017 0 0.30208469661071108 0.16716815503993521 0 0.28906376340794571 0.16396376183337791 0 0.30208469661071108 0.16716815503993521 0 0.28664352512760288 0.15371070293000791 0 0.28690640291874209 0.1724638740371017 0 0.28962675551845468 0.17932927227563411 0 0.3035452900272107 0.17028173641196079 0 0.28690640291874209 0.1724638740371017 0 0.28962675551845468 0.17932927227563411 0 0.27570822100969661 0.18837680813930449 0 0.28962675551845468 0.17932927227563411 0 0.27570822100969661 0.18837680813930449 0 0.28962675551845468 0.17932927227563411 0 0.3035452900272107 0.17028173641196079 0 0.3035452900272107 0.17028173641196079 0 0.30655364181375738 0.16832620218081659 0 0.31507662537596459 0.1948633554517894 0 0.30078226089669807 0.18658556683963351 0 0.3035452900272107 0.17028173641196079 0 0.31507662537596459 0.1948633554517894 0 0.3035452900272107 0.17028173641196079 0 0.31507662537596459 0.1948633554517894 0 0.28962675551845468 0.17932927227563411 0 0.30078226089669807 0.18658556683963351 0 0.3035452900272107 0.17028173641196079 0 0.28690640291874209 0.1724638740371017 0 0.3035452900272107 0.17028173641196079 0 0.30208469661071108 0.16716815503993521 0 0.30208469661071108 0.16716815503993521 0 0.30655364181375738 0.16832620218081659 0 0.28664352512760288 0.15371070293000791 0 0.30655364181375738 0.16832620218081659 0 0.30436787152586908 0.15043465866013181 0 0.29795474248358977 0.1537805764363625 0 0.30655364181375738 0.16832620218081659 0 0.29795474248358977 0.1537805764363625 0 0.28664352512760288 0.15371070293000791 0 0.3035452900272107 0.17028173641196079 0 0.30208469661071108 0.16716815503993521 0 0.30655364181375738 0.16832620218081659 0 0.3035452900272107 0.17028173641196079 0 0.30208469661071108 0.16716815503993521 0 0.3035452900272107 0.17028173641196079 0 0.30655364181375738 0.16832620218081659 0 0.30655364181375738 0.16832620218081659 0 0.30436787152586908 0.15043465866013181 0 0.315349654879723 0.1492648469383008 0 0.30436787152586908 0.15043465866013181 0 0.29795474248358977 0.1537805764363625 0 0.29425393146713053 0.1426507419744949 0 0.30436787152586908 0.15043465866013181 0 0.30797130861713629 0.14037939280934389 0 0.29425393146713053 0.1426507419744949 0 0.30436787152586908 0.15043465866013181 0 0.30797130861713629 0.14037939280934389 0 0.315349654879723 0.1492648469383008 0 0.30797130861713629 0.14037939280934389 0 0.3027169701584822 0.13145876680576171 0 0.31547262408842208 0.12915382217636601 0 0.30965627205411328 0.1209779382579915 0 0.3027169701584822 0.13145876680576171 0 0.31547262408842208 0.12915382217636601 0 0.30019588233241667 0.12288100980845471 0 0.3027169701584822 0.13145876680576171 0 0.29056729084842342 0.12948543377474209 0 0.30019588233241667 0.12288100980845471 0 0.30965627205411328 0.1209779382579915 0 0.3027169701584822 0.13145876680576171 0 0.30797130861713629 0.14037939280934389 0 0.3027169701584822 0.13145876680576171 0 0.29425393146713053 0.1426507419744949 0 0.29056729084842342 0.12948543377474209 0 0.28565450778310669 0.13773664122918669 0 0.29425393146713053 0.1426507419744949 0 0.3027169701584822 0.13145876680576171 0 0.29056729084842342 0.12948543377474209 0 0.29425393146713053 0.1426507419744949 0 0.27826144401555741 0.12161026243688031 0 0.27694480775103081 0.13391300762091429 0 0.29056729084842342 0.12948543377474209 0 0.27694480775103081 0.13391300762091429 0 0.29056729084842342 0.12948543377474209 0 0.28565450778310669 0.13773664122918669 0 0.28012101641498721 0.14606833686323589 0 0.28664352512760288 0.15371070293000791 0 0.29425393146713053 0.1426507419744949 0 0.28012101641498721 0.14606833686323589 0 0.28565450778310669 0.13773664122918669 0 0.29425393146713053 0.1426507419744949 0 0.29795474248358977 0.1537805764363625 0 0.28664352512760288 0.15371070293000791 0 0.29425393146713053 0.1426507419744949 0 0.2779349924450536 0.24982821056385049 0 0.28086903334085822 0.23456834899021539 0 0.26774287570253352 0.22625114051148781 0 0.2779349924450536 0.24982821056385049 0 0.26774287570253352 0.22625114051148781 0 0.2779349924450536 0.24982821056385049 0 0.26405431753362241 0.240578663440152 0 0.26774287570253352 0.22625114051148781 0 0.2779349924450536 0.24982821056385049 0 0.28086903334085822 0.23456834899021539 0 0.28412071840344222 0.24392807438366881 0 0.2779349924450536 0.24982821056385049 0 0.26677012129226879 0.24853012077798581 0 0.26405431753362241 0.240578663440152 0 0.25512603831525271 0.25269991764641409 0 0.26677012129226879 0.24853012077798581 0 0.25575845577343698 0.24447888614386939 0 0.26677012129226879 0.24853012077798581 0 0.25575845577343698 0.24447888614386939 0 0.26405431753362241 0.240578663440152 0 0.24711866831732671 0.24511003521626959 0 0.25512603831525271 0.25269991764641409 0 0.25575845577343698 0.24447888614386939 0 0.25575845577343698 0.24447888614386939 0 0.26405431753362241 0.240578663440152 0 0.2520651424548192 0.2338049592035665 0 0.24711866831732671 0.24511003521626959 0 0.25575845577343698 0.24447888614386939 0 0.2520651424548192 0.2338049592035665 0 0.26405431753362241 0.240578663440152 0 0.2520651424548192 0.2338049592035665 0 0.26774287570253352 0.22625114051148781 0 0.2520651424548192 0.2338049592035665 0 0.26774287570253352 0.22625114051148781 0 0.25139918172692383 0.21816380135630009 0 0.28086903334085822 0.23456834899021539 0 0.26774287570253352 0.22625114051148781 0 0.29228441318152332 0.2207015474973669 0 0.26774287570253352 0.22625114051148781 0 0.27727419201059339 0.20757644153538299 0 0.29228441318152332 0.2207015474973669 0 0.26774287570253352 0.22625114051148781 0 0.27727419201059339 0.20757644153538299 0 0.25755075896001339 0.20267407045912511 0 0.24190545341244329 0.2051566678978386 0 0.25139918172692383 0.21816380135630009 0 0.25755075896001339 0.20267407045912511 0 0.26774287570253352 0.22625114051148781 0 0.25139918172692383 0.21816380135630009 0 0.25755075896001339 0.20267407045912511 0 0.26774287570253352 0.22625114051148781 0 0.25755075896001339 0.20267407045912511 0 0.2473586422174934 0.17909700040676241 0 0.25755075896001339 0.20267407045912511 0 0.27727419201059339 0.20757644153538299 0 0.25755075896001339 0.20267407045912511 0 0.27570822100969661 0.18837680813930449 0 0.26751806563362091 0.17399919866169461 0 0.25755075896001339 0.20267407045912511 0 0.27570822100969661 0.18837680813930449 0 0.27727419201059339 0.20757644153538299 0 0.27570822100969661 0.18837680813930449 0 0.2930846911992 0.19987864106963049 0 0.28962675551845468 0.17932927227563411 0 0.27570822100969661 0.18837680813930449 0 0.2930846911992 0.19987864106963049 0 0.28962675551845468 0.17932927227563411 0 0.30078226089669807 0.18658556683963351 0 0.2930846911992 0.19987864106963049 0 0.30078226089669807 0.18658556683963351 0 0.2930846911992 0.19987864106963049 0 0.31507662537596459 0.1948633554517894 0 0.2930846911992 0.19987864106963049 0 0.30812675824962033 0.21629243085087671 0 0.29228441318152332 0.2207015474973669 0 0.2930846911992 0.19987864106963049 0 0.30812675824962033 0.21629243085087671 0 0.31507662537596459 0.1948633554517894 0 0.27727419201059339 0.20757644153538299 0 0.2930846911992 0.19987864106963049 0 0.29228441318152332 0.2207015474973669 0 0.28086903334085822 0.23456834899021539 0 0.29561379580358038 0.23338426742197271 0 0.29228441318152332 0.2207015474973669 0 0.30812675824962033 0.21629243085087671 0 0.29228441318152332 0.2207015474973669 0 0.30576545944162709 0.23201860149452261 0 0.30812675824962033 0.21629243085087671 0 0.30576545944162709 0.23201860149452261 0 0.31594139957468809 0.2308474651003328 0 0.29561379580358038 0.23338426742197271 0 0.30576545944162709 0.23201860149452261 0 0.3013081842486966 0.23693230354026851 0 0.29561379580358038 0.23338426742197271 0 0.29228441318152332 0.2207015474973669 0 0.30576545944162709 0.23201860149452261 0 0.30576545944162709 0.23201860149452261 0 0.3013081842486966 0.23693230354026851 0 0.30527483842466491 0.24224995570905139 0 0.28873450965048891 0.25975596681429841 0 0.30803568788407731 0.24037738304617029 0 0.30527483842466491 0.24224995570905139 0 0.29561379580358038 0.23338426742197271 0 0.3013081842486966 0.23693230354026851 0 0.29557248917997231 0.24026600598927231 0 0.29968203181016267 0.2411682504590475 0 0.3013081842486966 0.23693230354026851 0 0.29557248917997231 0.24026600598927231 0 0.29968203181016267 0.2411682504590475 0 0.3013081842486966 0.23693230354026851 0 0.30527483842466491 0.24224995570905139 0 0.30527483842466491 0.24224995570905139 0 0.31594139957468809 0.2308474651003328 0 0.30576545944162709 0.23201860149452261 0 0.30527483842466491 0.24224995570905139 0 0.31594139957468809 0.2308474651003328 0 0.30803568788407731 0.24037738304617029 0 0.30527483842466491 0.24224995570905139 0 0.31594139957468809 0.2308474651003328 0 0.29968203181016267 0.2411682504590475 0 0.30527483842466491 0.24224995570905139 0 0.29583784293604187 0.2460078425053967 0 0.29968203181016267 0.2411682504590475 0 0.29583784293604187 0.2460078425053967 0 0.29557248917997231 0.24026600598927231 0 0.28873450965048891 0.25975596681429841 0 0.30527483842466491 0.24224995570905139 0 0.29583784293604187 0.2460078425053967 0 0.28992534561491962 0.2465990335553159 0 0.29557248917997231 0.24026600598927231 0 0.28922027646855453 0.239749146068089 0 0.28992534561491962 0.2465990335553159 0 0.29583784293604187 0.2460078425053967 0 0.29557248917997231 0.24026600598927231 0 0.29561379580358038 0.23338426742197271 0 0.29557248917997231 0.24026600598927231 0 0.28922027646855453 0.239749146068089 0 0.28086903334085822 0.23456834899021539 0 0.29561379580358038 0.23338426742197271 0 0.28922027646855453 0.239749146068089 0 0.28086903334085822 0.23456834899021539 0 0.28922027646855453 0.239749146068089 0 0.28412071840344222 0.24392807438366881 0 0.28284527904782331 0.25050997356174443 0 0.2779349924450536 0.24982821056385049 0 0.28412071840344222 0.24392807438366881 0 0.28284527904782331 0.25050997356174443 0 0.28992534561491962 0.2465990335553159 0 0.28412071840344222 0.24392807438366881 0 0.28992534561491962 0.2465990335553159 0 0.28922027646855453 0.239749146068089 0 0.28412071840344222 0.24392807438366881 0 0.32807607323130622 0.26124850973904479 0 0.30803568788407731 0.24037738304617029 0 0.33799269646913971 0.24371408370356129 0 0.30803568788407731 0.24037738304617029 0 0.33799269646913971 0.24371408370356129 0 0.32733686611766449 0.22099879927804111 0 0.30803568788407731 0.24037738304617029 0 0.32733686611766449 0.22099879927804111 0 0.30812675824962033 0.21629243085087671 0 0.31594139957468809 0.2308474651003328 0 0.32660796072471671 0.21944497449161901 0 0.30803568788407731 0.24037738304617029 0 0.31594139957468809 0.2308474651003328 0 0.32733686611766449 0.22099879927804111 0 0.31594139957468809 0.2308474651003328 0 0.32733686611766449 0.22099879927804111 0 0.32660796072471671 0.21944497449161901 0 0.31594139957468809 0.2308474651003328 0 0.32660796072471671 0.21944497449161901 0 0.32733686611766449 0.22099879927804111 0 0.32660796072471671 0.21944497449161901 0 0.33799269646913971 0.24371408370356129 0 0.32733686611766449 0.22099879927804111 0 0.33799269646913971 0.24371408370356129 0 0.32733686611766449 0.22099879927804111 0 0.34282121072676691 0.2249036816524064 0 0.32660796072471671 0.21944497449161901 0 0.34679434099328282 0.19786585370478921 0 0.32660796072471671 0.21944497449161901 0 0.33001373087503072 0.1987292830412076 0 0.34679434099328282 0.19786585370478921 0 0.32660796072471671 0.21944497449161901 0 0.33810048952369132 0.21019200938687921 0 0.34679434099328282 0.19786585370478921 0 0.32733686611766449 0.22099879927804111 0 0.34282121072676691 0.2249036816524064 0 0.33810048952369132 0.21019200938687921 0 0.33810048952369132 0.21019200938687921 0 0.34886411292971842 0.1993852194957175 0 0.32733686611766449 0.22099879927804111 0 0.33810048952369132 0.21019200938687921 0 0.32733686611766449 0.22099879927804111 0 0.32660796072471671 0.21944497449161901 0 0.33810048952369132 0.21019200938687921 0 0.30812675824962033 0.21629243085087671 0 0.32660796072471671 0.21944497449161901 0 0.31507662537596459 0.1948633554517894 0 0.32660796072471671 0.21944497449161901 0 0.31507662537596459 0.1948633554517894 0 0.32660796072471671 0.21944497449161901 0 0.31507662537596459 0.1948633554517894 0 0.33001373087503072 0.1987292830412076 0 0.31507662537596459 0.1948633554517894 0 0.33001373087503072 0.1987292830412076 0 0.32667399140351888 0.18309602794280461 0 0.34679434099328282 0.19786585370478921 0 0.32667399140351888 0.18309602794280461 0 0.33001373087503072 0.1987292830412076 0 0.34679434099328282 0.19786585370478921 0 0.32667399140351888 0.18309602794280461 0 0.34679434099328282 0.19786585370478921 0 0.32667399140351888 0.18309602794280461 0 0.34933806326552691 0.18440616012382341 0 0.34679434099328282 0.19786585370478921 0 0.36264955469339649 0.1809167242926 0 0.36321833395268949 0.18497343223830279 0 0.34679434099328282 0.19786585370478921 0 0.34933806326552691 0.18440616012382341 0 0.36264955469339649 0.1809167242926 0 0.34679434099328282 0.19786585370478921 0 0.36264955469339649 0.1809167242926 0 0.34679434099328282 0.19786585370478921 0 0.34886411292971842 0.1993852194957175 0 0.36321833395268949 0.18497343223830279 0 0.33810048952369132 0.21019200938687921 0 0.34679434099328282 0.19786585370478921 0 0.34886411292971842 0.1993852194957175 0 0.34679434099328282 0.19786585370478921 0 0.34886411292971842 0.1993852194957175 0 0.34886411292971842 0.1993852194957175 0 0.36321833395268949 0.18497343223830279 0 0.34886411292971842 0.1993852194957175 0 0.36658108033818287 0.19245598319168791 0 0.36321833395268949 0.18497343223830279 0 0.37381785240378762 0.1941803970078439 0 0.36420110038823889 0.20030660911966369 0 0.36967602198503152 0.21466270108965771 0 0.34886411292971842 0.1993852194957175 0 0.36658108033818287 0.19245598319168791 0 0.36420110038823889 0.20030660911966369 0 0.36658108033818287 0.19245598319168791 0 0.37381785240378762 0.1941803970078439 0 0.37255009964400332 0.1848250870371887 0 0.36658108033818287 0.19245598319168791 0 0.37381785240378762 0.1941803970078439 0 0.36420110038823889 0.20030660911966369 0 0.34886411292971842 0.1993852194957175 0 0.36420110038823889 0.20030660911966369 0 0.36967602198503152 0.21466270108965771 0 0.34886411292971842 0.1993852194957175 0 0.36967602198503152 0.21466270108965771 0 0.34886411292971842 0.1993852194957175 0 0.36967602198503152 0.21466270108965771 0 0.35224456700415119 0.21604390647679289 0 0.33810048952369132 0.21019200938687921 0 0.34886411292971842 0.1993852194957175 0 0.35224456700415119 0.21604390647679289 0 0.34282121072676691 0.2249036816524064 0 0.33810048952369132 0.21019200938687921 0 0.35224456700415119 0.21604390647679289 0 0.36951061432609211 0.25098971491638888 0 0.33799269646913971 0.24371408370356129 0 0.36008254604690632 0.23223568944814829 0 0.33799269646913971 0.24371408370356129 0 0.34282121072676691 0.2249036816524064 0 0.36008254604690632 0.23223568944814829 0 0.34282121072676691 0.2249036816524064 0 0.35224456700415119 0.21604390647679289 0 0.36008254604690632 0.23223568944814829 0 0.36967602198503152 0.21466270108965771 0 0.36008254604690632 0.23223568944814829 0 0.39048793104034468 0.2299401826835977 0 0.36967602198503152 0.21466270108965771 0 0.35224456700415119 0.21604390647679289 0 0.36008254604690632 0.23223568944814829 0 0.36951061432609211 0.25098971491638888 0 0.36008254604690632 0.23223568944814829 0 0.39048793104034468 0.2299401826835977 0 0.3411131955191361 0.1530139201798584 0 0.32574072008567911 0.15585392798592571 0 0.3449277983576014 0.14338165379103579 0 0.33002251570748781 0.14493944275645951 0 0.32574072008567911 0.15585392798592571 0 0.3449277983576014 0.14338165379103579 0 0.32574072008567911 0.15585392798592571 0 0.3449277983576014 0.14338165379103579 0 0.33002251570748781 0.14493944275645951 0 0.34059060697741789 0.13986251371602629 0 0.3449277983576014 0.14338165379103579 0 0.34059060697741789 0.13986251371602629 0 0.33901669724782929 0.12925315040062671 0 0.33542500931161168 0.13595635798176969 0 0.35124181243179958 0.12391753768900871 0 0.34059060697741789 0.13986251371602629 0 0.33901669724782929 0.12925315040062671 0 0.33188430642590211 0.12459448939780431 0 0.33901669724782929 0.12925315040062671 0 0.3295531698279191 0.13322451740388019 0 0.33188430642590211 0.12459448939780431 0 0.3295531698279191 0.13322451740388019 0 0.3234536763714701 0.1290778295938626 0 0.33901669724782929 0.12925315040062671 0 0.3295531698279191 0.13322451740388019 0 0.33542500931161168 0.13595635798176969 0 0.33002251570748781 0.14493944275645951 0 0.3295531698279191 0.13322451740388019 0 0.33542500931161168 0.13595635798176969 0 0.33002251570748781 0.14493944275645951 0 0.34059060697741789 0.13986251371602629 0 0.33542500931161168 0.13595635798176969 0 0.33002251570748781 0.14493944275645951 0 0.3295531698279191 0.13322451740388019 0 0.31954295371612063 0.1377932393890853 0 0.3295531698279191 0.13322451740388019 0 0.3234536763714701 0.1290778295938626 0 0.31954295371612063 0.1377932393890853 0 0.32322348553757979 0.12164932985998619 0 0.33188430642590211 0.12459448939780431 0 0.3234536763714701 0.1290778295938626 0 0.32322348553757979 0.12164932985998619 0 0.3234536763714701 0.1290778295938626 0 0.31547262408842208 0.12915382217636601 0 0.3234536763714701 0.1290778295938626 0 0.31547262408842208 0.12915382217636601 0 0.31954295371612063 0.1377932393890853 0 0.30797130861713629 0.14037939280934389 0 0.31547262408842208 0.12915382217636601 0 0.31954295371612063 0.1377932393890853 0 0.30797130861713629 0.14037939280934389 0 0.31954295371612063 0.1377932393890853 0 0.315349654879723 0.1492648469383008 0 0.33002251570748781 0.14493944275645951 0 0.31954295371612063 0.1377932393890853 0 0.315349654879723 0.1492648469383008 0 0.33002251570748781 0.14493944275645951 0 0.32574072008567911 0.15585392798592571 0 0.315349654879723 0.1492648469383008 0 0.30655364181375738 0.16832620218081659 0 0.32574072008567911 0.15585392798592571 0 0.315349654879723 0.1492648469383008 0 0.30655364181375738 0.16832620218081659 0 0.32574072008567911 0.15585392798592571 0 0.32274883496233131 0.16880296608594569 0 0.30655364181375738 0.16832620218081659 0 0.32574072008567911 0.15585392798592571 0 0.32574072008567911 0.15585392798592571 0 0.32274883496233131 0.16880296608594569 0 0.33202698654637008 0.1679357062342369 0 0.30655364181375738 0.16832620218081659 0 0.32667399140351888 0.18309602794280461 0 0.30655364181375738 0.16832620218081659 0 0.31507662537596459 0.1948633554517894 0 0.32667399140351888 0.18309602794280461 0 0.30655364181375738 0.16832620218081659 0 0.32274883496233131 0.16880296608594569 0 0.32667399140351888 0.18309602794280461 0 0.32274883496233131 0.16880296608594569 0 0.32667399140351888 0.18309602794280461 0 0.33202698654637008 0.1679357062342369 0 0.32667399140351888 0.18309602794280461 0 0.34933806326552691 0.18440616012382341 0 0.34523682223154201 0.1722835980607465 0 0.32667399140351888 0.18309602794280461 0 0.33202698654637008 0.1679357062342369 0 0.34523682223154201 0.1722835980607465 0 0.3411131955191361 0.1530139201798584 0 0.32574072008567911 0.15585392798592571 0 0.34216932376146209 0.15994465156090051 0 0.32574072008567911 0.15585392798592571 0 0.33202698654637008 0.1679357062342369 0 0.34216932376146209 0.15994465156090051 0 0.33202698654637008 0.1679357062342369 0 0.34216932376146209 0.15994465156090051 0 0.34523682223154201 0.1722835980607465 0 0.34216932376146209 0.15994465156090051 0 0.35096695218568141 0.16334388410300149 0 0.35161493987180192 0.15287544738157161 0 0.35096695218568141 0.16334388410300149 0 0.35617546053707222 0.1701714783042417 0 0.34523682223154201 0.1722835980607465 0 0.34216932376146209 0.15994465156090051 0 0.35096695218568141 0.16334388410300149 0 0.34523682223154201 0.1722835980607465 0 0.35096695218568141 0.16334388410300149 0 0.35617546053707222 0.1701714783042417 0 0.35898013634376902 0.15969810037468421 0 0.35096695218568141 0.16334388410300149 0 0.35898013634376902 0.15969810037468421 0 0.35161493987180192 0.15287544738157161 0 0.34933806326552691 0.18440616012382341 0 0.34523682223154201 0.1722835980607465 0 0.35478168405041571 0.1773223426354851 0 0.35617546053707222 0.1701714783042417 0 0.34523682223154201 0.1722835980607465 0 0.35478168405041571 0.1773223426354851 0 0.35478168405041571 0.1773223426354851 0 0.36264955469339649 0.1809167242926 0 0.36004945412330919 0.17501721371010021 0 0.35617546053707222 0.1701714783042417 0 0.35478168405041571 0.1773223426354851 0 0.36004945412330919 0.17501721371010021 0 0.34933806326552691 0.18440616012382341 0 0.35478168405041571 0.1773223426354851 0 0.36264955469339649 0.1809167242926 0 0.35617546053707222 0.1701714783042417 0 0.36004945412330919 0.17501721371010021 0 0.36670742958084718 0.17083412315991289 0 0.36264955469339649 0.1809167242926 0 0.36004945412330919 0.17501721371010021 0 0.36670742958084718 0.17083412315991289 0 0.36264955469339649 0.1809167242926 0 0.36321833395268949 0.18497343223830279 0 0.37757255497566139 0.1705616449808891 0 0.36321833395268949 0.18497343223830279 0 0.37757255497566139 0.1705616449808891 0 0.36264955469339649 0.1809167242926 0 0.36670742958084718 0.17083412315991289 0 0.37757255497566139 0.1705616449808891 0 0.36658108033818287 0.19245598319168791 0 0.36321833395268949 0.18497343223830279 0 0.37255009964400332 0.1848250870371887 0 0.36321833395268949 0.18497343223830279 0 0.37255009964400332 0.1848250870371887 0 0.37757255497566139 0.1705616449808891 0 0.36881491227738061 0.1606475763413083 0 0.37769323371584712 0.15327533806430901 0 0.37757255497566139 0.1705616449808891 0 0.35898013634376902 0.15969810037468421 0 0.36881491227738061 0.1606475763413083 0 0.36312120677077819 0.14886867512674651 0 0.35898013634376902 0.15969810037468421 0 0.36670742958084718 0.17083412315991289 0 0.36881491227738061 0.1606475763413083 0 0.35617546053707222 0.1701714783042417 0 0.35898013634376902 0.15969810037468421 0 0.36670742958084718 0.17083412315991289 0 0.36670742958084718 0.17083412315991289 0 0.36881491227738061 0.1606475763413083 0 0.37757255497566139 0.1705616449808891 0 0.36881491227738061 0.1606475763413083 0 0.36312120677077819 0.14886867512674651 0 0.37769323371584712 0.15327533806430901 0 0.37488391547001421 0.14172456253660409 0 0.36312120677077819 0.14886867512674651 0 0.37769323371584712 0.15327533806430901 0 0.36312120677077819 0.14886867512674651 0 0.3449277983576014 0.14338165379103579 0 0.36411487662952369 0.13090937959614579 0 0.36312120677077819 0.14886867512674651 0 0.35161493987180192 0.15287544738157161 0 0.3449277983576014 0.14338165379103579 0 0.35898013634376902 0.15969810037468421 0 0.36312120677077819 0.14886867512674651 0 0.35161493987180192 0.15287544738157161 0 0.3411131955191361 0.1530139201798584 0 0.34216932376146209 0.15994465156090051 0 0.35161493987180192 0.15287544738157161 0 0.3411131955191361 0.1530139201798584 0 0.35161493987180192 0.15287544738157161 0 0.3449277983576014 0.14338165379103579 0 0.35124181243179958 0.12391753768900871 0 0.34059060697741789 0.13986251371602629 0 0.36411487662952369 0.13090937959614579 0 0.3449277983576014 0.14338165379103579 0 0.36411487662952369 0.13090937959614579 0 0.34059060697741789 0.13986251371602629 0 0.3449277983576014 0.14338165379103579 0 0.36411487662952369 0.13090937959614579 0 0.34059060697741789 0.13986251371602629 0 0.36411487662952369 0.13090937959614579 0 0.37488391547001421 0.14172456253660409 0 0.36411487662952369 0.13090937959614579 0 0.38108404195702977 0.13363924171809219 0 0.37488391547001421 0.14172456253660409 0 0.36312120677077819 0.14886867512674651 0 0.36411487662952369 0.13090937959614579 0 0.36411487662952369 0.13090937959614579 0 0.38587938737310451 0.1226259945379652 0 0.36411487662952369 0.13090937959614579 0 0.38108404195702977 0.13363924171809219 0 0.38587938737310451 0.1226259945379652 0 0.37488391547001421 0.14172456253660409 0 0.38108404195702977 0.13363924171809219 0 0.38840621827689209 0.14193017817772721 0 0.38108404195702977 0.13363924171809219 0 0.39161550465517808 0.1317055814314011 0 0.38840621827689209 0.14193017817772721 0 0.38108404195702977 0.13363924171809219 0 0.39161550465517808 0.1317055814314011 0 0.38587938737310451 0.1226259945379652 0 0.39161550465517808 0.1317055814314011 0 0.40227685080531372 0.1363574986668834 0 0.39979324964032831 0.12616765291782781 0 0.39161550465517808 0.1317055814314011 0 0.39979324964032831 0.12616765291782781 0 0.38587938737310451 0.1226259945379652 0 0.39161550465517808 0.1317055814314011 0 0.40227685080531372 0.1363574986668834 0 0.38840621827689209 0.14193017817772721 0 0.40227685080531372 0.1363574986668834 0 0.39979324964032831 0.12616765291782781 0 0.41251534063605783 0.12801393963922381 0 0.40565882246307228 0.15118773560161161 0 0.39192677599863351 0.15614985772347531 0 0.38840621827689209 0.14193017817772721 0 0.40227685080531372 0.1363574986668834 0 0.40565882246307228 0.15118773560161161 0 0.38840621827689209 0.14193017817772721 0 0.39192677599863351 0.15614985772347531 0 0.38840621827689209 0.14193017817772721 0 0.37769323371584712 0.15327533806430901 0 0.37488391547001421 0.14172456253660409 0 0.38840621827689209 0.14193017817772721 0 0.37769323371584712 0.15327533806430901 0 0.39192677599863351 0.15614985772347531 0 0.37757255497566139 0.1705616449808891 0 0.39292023840963841 0.17686394984262249 0 0.39192677599863351 0.15614985772347531 0 0.37769323371584712 0.15327533806430901 0 0.37757255497566139 0.1705616449808891 0 0.39192677599863351 0.15614985772347531 0 0.37757255497566139 0.1705616449808891 0 0.38156067654969511 0.1819539777672198 0 0.39292023840963841 0.17686394984262249 0 0.38831252720074461 0.19481146909123601 0 0.37381785240378762 0.1941803970078439 0 0.37255009964400332 0.1848250870371887 0 0.38156067654969511 0.1819539777672198 0 0.37255009964400332 0.1848250870371887 0 0.37757255497566139 0.1705616449808891 0 0.38156067654969511 0.1819539777672198 0 0.37757255497566139 0.1705616449808891 0 0.38156067654969511 0.1819539777672198 0 0.39292023840963841 0.17686394984262249 0 0.39292023840963841 0.17686394984262249 0 0.41400647558308712 0.16582608815038741 0 0.40390024817465192 0.18863694387275901 0 0.39292023840963841 0.17686394984262249 0 0.38831252720074461 0.19481146909123601 0 0.40390024817465192 0.18863694387275901 0 0.39192677599863351 0.15614985772347531 0 0.39292023840963841 0.17686394984262249 0 0.41400647558308712 0.16582608815038741 0 0.40565882246307228 0.15118773560161161 0 0.39192677599863351 0.15614985772347531 0 0.41400647558308712 0.16582608815038741 0 0.41400647558308712 0.16582608815038741 0 0.40390024817465192 0.18863694387275901 0 0.42015747951886462 0.19293048378662939 0 0.41400647558308712 0.16582608815038741 0 0.43504573941131619 0.17823205889173879 0 0.42015747951886462 0.19293048378662939 0 0.41400647558308712 0.16582608815038741 0 0.43504573941131619 0.17823205889173879 0 0.43550485668731609 0.1514662256137371 0 0.41400647558308712 0.16582608815038741 0 0.43550485668731609 0.1514662256137371 0 0.43550485668731609 0.1514662256137371 0 0.42570371585032268 0.1290598897063881 0 0.41903134965926209 0.14532537494732009 0 0.41400647558308712 0.16582608815038741 0 0.43550485668731609 0.1514662256137371 0 0.41903134965926209 0.14532537494732009 0 0.43550485668731609 0.1514662256137371 0 0.42570371585032268 0.1290598897063881 0 0.44109358573086899 0.13227830836771159 0 0.42570371585032268 0.1290598897063881 0 0.44109358573086899 0.13227830836771159 0 0.4334746701816079 0.1205970013821306 0 0.40227685080531372 0.1363574986668834 0 0.41251534063605783 0.12801393963922381 0 0.41903134965926209 0.14532537494732009 0 0.42570371585032268 0.1290598897063881 0 0.41251534063605783 0.12801393963922381 0 0.41903134965926209 0.14532537494732009 0 0.42570371585032268 0.1290598897063881 0 0.41251534063605783 0.12801393963922381 0 0.4218081685209038 0.11920720176589671 0 0.40227685080531372 0.1363574986668834 0 0.40565882246307228 0.15118773560161161 0 0.41903134965926209 0.14532537494732009 0 0.40565882246307228 0.15118773560161161 0 0.41400647558308712 0.16582608815038741 0 0.41903134965926209 0.14532537494732009 0 0.36967602198503152 0.21466270108965771 0 0.39048793104034468 0.2299401826835977 0 0.40410452016092457 0.2127527284929199 0 0.406054156101611 0.23776094270494191 0 0.38914290337293911 0.24913508040708501 0 0.39048793104034468 0.2299401826835977 0 0.36951061432609211 0.25098971491638888 0 0.38914290337293911 0.24913508040708501 0 0.39048793104034468 0.2299401826835977 0 0.36967602198503152 0.21466270108965771 0 0.39048793104034468 0.2299401826835977 0 0.406054156101611 0.23776094270494191 0 0.39048793104034468 0.2299401826835977 0 0.40410452016092457 0.2127527284929199 0 0.36967602198503152 0.21466270108965771 0 0.40410452016092457 0.2127527284929199 0 0.38831252720074461 0.19481146909123601 0 0.37381785240378762 0.1941803970078439 0 0.36967602198503152 0.21466270108965771 0 0.38831252720074461 0.19481146909123601 0 0.37381785240378762 0.1941803970078439 0 0.38156067654969511 0.1819539777672198 0 0.38831252720074461 0.19481146909123601 0 0.40410452016092457 0.2127527284929199 0 0.38831252720074461 0.19481146909123601 0 0.40390024817465192 0.18863694387275901 0 0.40410452016092457 0.2127527284929199 0 0.40390024817465192 0.18863694387275901 0 0.42015747951886462 0.19293048378662939 0 0.43504573941131619 0.17823205889173879 0 0.42015747951886462 0.19293048378662939 0 0.43652678583921029 0.19760088658992361 0 0.42015747951886462 0.19293048378662939 0 0.43652678583921029 0.19760088658992361 0 0.42662808808787439 0.2103554547854371 0 0.43652678583921029 0.19760088658992361 0 0.42662808808787439 0.2103554547854371 0 0.4448415950985215 0.21529534158819491 0 0.42662808808787439 0.2103554547854371 0 0.42456844424717199 0.2290333399210927 0 0.4448415950985215 0.21529534158819491 0 0.40410452016092457 0.2127527284929199 0 0.42015747951886462 0.19293048378662939 0 0.42662808808787439 0.2103554547854371 0 0.40410452016092457 0.2127527284929199 0 0.42662808808787439 0.2103554547854371 0 0.42456844424717199 0.2290333399210927 0 0.406054156101611 0.23776094270494191 0 0.40410452016092457 0.2127527284929199 0 0.42456844424717199 0.2290333399210927 0 0.43810076971185841 0.2507607064802867 0 0.42456844424717199 0.2290333399210927 0 0.41917070573892518 0.25080734156154982 0 0.43810076971185841 0.2507607064802867 0 0.42456844424717199 0.2290333399210927 0 0.43810076971185841 0.2507607064802867 0 0.42456844424717199 0.2290333399210927 0 0.44775383067776348 0.2342778648686859 0 0.41917070573892518 0.25080734156154982 0 0.406054156101611 0.23776094270494191 0 0.42456844424717199 0.2290333399210927 0 0.46372918670737279 0.25099853693779572 0 0.44775383067776348 0.2342778648686859 0 0.46752915762389302 0.22530139941605951 0 0.43810076971185841 0.2507607064802867 0 0.46372918670737279 0.25099853693779572 0 0.44775383067776348 0.2342778648686859 0 0.42456844424717199 0.2290333399210927 0 0.44775383067776348 0.2342778648686859 0 0.4448415950985215 0.21529534158819491 0 0.44775383067776348 0.2342778648686859 0 0.46752915762389302 0.22530139941605951 0 0.4448415950985215 0.21529534158819491 0 0.4614697571160975 0.20903738040888711 0 0.4448415950985215 0.21529534158819491 0 0.45596102707947522 0.19119109389761771 0 0.46752915762389302 0.22530139941605951 0 0.4614697571160975 0.20903738040888711 0 0.4448415950985215 0.21529534158819491 0 0.43504573941131619 0.17823205889173879 0 0.43652678583921029 0.19760088658992361 0 0.45596102707947522 0.19119109389761771 0 0.43652678583921029 0.19760088658992361 0 0.4448415950985215 0.21529534158819491 0 0.45596102707947522 0.19119109389761771 0 0.4614697571160975 0.20903738040888711 0 0.45596102707947522 0.19119109389761771 0 0.47754724866250048 0.20436168673367619 0 0.46752915762389302 0.22530139941605951 0 0.47754724866250048 0.20436168673367619 0 0.5 0.2192014625006222 0 0.45596102707947522 0.19119109389761771 0 0.47754724866250048 0.20436168673367619 0 0.48038043918683238 0.18372017233538501 0 0.5 0.19149775637641309 0 0.47754724866250048 0.20436168673367619 0 0.48038043918683238 0.18372017233538501 0 0.5 0.19149775637641309 0 0.47754724866250048 0.20436168673367619 0 0.5 0.2192014625006222 0 0.46752915762389302 0.22530139941605951 0 0.4614697571160975 0.20903738040888711 0 0.47754724866250048 0.20436168673367619 0 0.46752915762389302 0.22530139941605951 0 0.5 0.2192014625006222 0 0.48185102564504761 0.24096708964813579 0 0.5 0.2192014625006222 0 0.5 0.24690516862483161 0 0.48185102564504761 0.24096708964813579 0 0.48409980502374422 0.25739444921941468 0 0.5 0.24690516862483161 0 0.48185102564504761 0.24096708964813579 0 0.46372918670737279 0.25099853693779572 0 0.46752915762389302 0.22530139941605951 0 0.48185102564504761 0.24096708964813579 0 0.46372918670737279 0.25099853693779572 0 0.48409980502374422 0.25739444921941468 0 0.48185102564504761 0.24096708964813579 0 0.45700323779154522 0.13710636307708679 0 0.44938184914594631 0.1650911134720143 0 0.47031746828050253 0.16442486533957859 0 0.45700323779154522 0.13710636307708679 0 0.47850161889577408 0.12274650054043661 0 0.45700323779154522 0.13710636307708679 0 0.47850161889577408 0.12274650054043661 0 0.44902467665510598 0.11586693024065151 0 0.43550485668731609 0.1514662256137371 0 0.45700323779154522 0.13710636307708679 0 0.44109358573086899 0.13227830836771159 0 0.45700323779154522 0.13710636307708679 0 0.44109358573086899 0.13227830836771159 0 0.44902467665510598 0.11586693024065151 0 0.43550485668731609 0.1514662256137371 0 0.45700323779154522 0.13710636307708679 0 0.44938184914594631 0.1650911134720143 0 0.43550485668731609 0.1514662256137371 0 0.45700323779154522 0.13710636307708679 0 0.43504573941131619 0.17823205889173879 0 0.43550485668731609 0.1514662256137371 0 0.44938184914594631 0.1650911134720143 0 0.43504573941131619 0.17823205889173879 0 0.45596102707947522 0.19119109389761771 0 0.44938184914594631 0.1650911134720143 0 0.45596102707947522 0.19119109389761771 0 0.44938184914594631 0.1650911134720143 0 0.47031746828050253 0.16442486533957859 0 0.47031746828050253 0.16442486533957859 0 0.5 0.1637940502522037 0 0.48059697684660768 0.14506498876337551 0 0.47031746828050253 0.16442486533957859 0 0.48038043918683238 0.18372017233538501 0 0.5 0.1637940502522037 0 0.45596102707947522 0.19119109389761771 0 0.47031746828050253 0.16442486533957859 0 0.48038043918683238 0.18372017233538501 0 0.5 0.19149775637641309 0 0.48038043918683238 0.18372017233538501 0 0.5 0.1637940502522037 0 0.5 0.1637940502522037 0 0.48059697684660768 0.14506498876337551 0 0.5 0.13609034412799451 0 0.45700323779154522 0.13710636307708679 0 0.47031746828050253 0.16442486533957859 0 0.48059697684660768 0.14506498876337551 0 0.45700323779154522 0.13710636307708679 0 0.48059697684660768 0.14506498876337551 0 0.47850161889577408 0.12274650054043661 0 0.48059697684660768 0.14506498876337551 0 0.5 0.13609034412799451 0 0.47850161889577408 0.12274650054043661 0 0.50000000000000233 0.1083866380037853 0 0.47850161889577408 0.12274650054043661 0 0.5 0.13609034412799451 0 0.50000000000000233 0.1083866380037853 0 0.47850161889577408 0.12274650054043661 0 0.50000000000000233 0.1083866380037853 0 0.48354996832112962 0.095329169775142594 0 0.47850161889577408 0.12274650054043661 0 0.50000000000000233 0.1083866380037853 0 0.48354996832112962 0.095329169775142594 0 0.5 0.078631569983753091 0 0.48354996832112962 0.095329169775142594 0 0.47850161889577408 0.12274650054043661 0 0.46110630502126609 0.096249003328831878 0 0.5 0.078631569983753091 0 0.48083550890192811 0.073994682827120767 0 0.5 0.048876501963720953 0 0.48354996832112962 0.095329169775142594 0 0.5 0.078631569983753091 0 0.48083550890192811 0.073994682827120767 0 0.48354996832112962 0.095329169775142594 0 0.48083550890192811 0.073994682827120767 0 0.46110630502126609 0.096249003328831878 0 0.48083550890192811 0.073994682827120767 0 0.46090546386167669 0.070555347329745874 0 0.47945131620749648 0.054326504581530273 0 0.46090546386167669 0.070555347329745874 0 0.44732001677242428 0.083792590304154008 0 0.46110630502126609 0.096249003328831878 0 0.48083550890192811 0.073994682827120767 0 0.46090546386167669 0.070555347329745874 0 0.46110630502126609 0.096249003328831878 0 0.44732001677242428 0.083792590304154008 0 0.43853903081274298 0.067099296339700576 0 0.43026170669799008 0.087911618809190822 0 0.44732001677242428 0.083792590304154008 0 0.46110630502126609 0.096249003328831878 0 0.44342422280141058 0.097975873420886483 0 0.44732001677242428 0.083792590304154008 0 0.44342422280141058 0.097975873420886483 0 0.43026170669799008 0.087911618809190822 0 0.46090546386167669 0.070555347329745874 0 0.44732001677242428 0.083792590304154008 0 0.43853903081274298 0.067099296339700576 0 0.46090546386167669 0.070555347329745874 0 0.43853903081274298 0.067099296339700576 0 0.45566629616555449 0.052986410778758923 0 0.47850161889577408 0.12274650054043661 0 0.46110630502126609 0.096249003328831878 0 0.44902467665510598 0.11586693024065151 0 0.46110630502126609 0.096249003328831878 0 0.44342422280141058 0.097975873420886483 0 0.44902467665510598 0.11586693024065151 0 0.44342422280141058 0.097975873420886483 0 0.44902467665510598 0.11586693024065151 0 0.42940840886026621 0.10605922442160411 0 0.44109358573086899 0.13227830836771159 0 0.44902467665510598 0.11586693024065151 0 0.4334746701816079 0.1205970013821306 0 0.44902467665510598 0.11586693024065151 0 0.4334746701816079 0.1205970013821306 0 0.42940840886026621 0.10605922442160411 0 0.4334746701816079 0.1205970013821306 0 0.4218081685209038 0.11920720176589671 0 0.42940840886026621 0.10605922442160411 0 0.42570371585032268 0.1290598897063881 0 0.4334746701816079 0.1205970013821306 0 0.4218081685209038 0.11920720176589671 0 0.40764389811668528 0.1143426094797847 0 0.42940840886026621 0.10605922442160411 0 0.4218081685209038 0.11920720176589671 0 0.40764389811668528 0.1143426094797847 0 0.42940840886026621 0.10605922442160411 0 0.41251534063605783 0.12801393963922381 0 0.4218081685209038 0.11920720176589671 0 0.40764389811668528 0.1143426094797847 0 0.39979324964032831 0.12616765291782781 0 0.41251534063605783 0.12801393963922381 0 0.40764389811668528 0.1143426094797847 0 0.40764389811668528 0.1143426094797847 0 0.40821276334183471 0.1022442057381759 0 0.42940840886026621 0.10605922442160411 0 0.40821276334183471 0.1022442057381759 0 0.43026170669799008 0.087911618809190822 0 0.44342422280141058 0.097975873420886483 0 0.42940840886026621 0.10605922442160411 0 0.43026170669799008 0.087911618809190822 0 0.40821276334183471 0.1022442057381759 0 0.42940840886026621 0.10605922442160411 0 0.43026170669799008 0.087911618809190822 0 0.43853903081274298 0.067099296339700576 0 0.43026170669799008 0.087911618809190822 0 0.42430053642558091 0.074276874234145848 0 0.43853903081274298 0.067099296339700576 0 0.42430053642558091 0.074276874234145848 0 0.41811064221560329 0.060781725001792873 0 0.41029076597598713 0.081314856785899142 0 0.40320005086432498 0.067313750126359151 0 0.41811064221560329 0.060781725001792873 0 0.42430053642558091 0.074276874234145848 0 0.41029076597598713 0.081314856785899142 0 0.41811064221560329 0.060781725001792873 0 0.40821276334183471 0.1022442057381759 0 0.43026170669799008 0.087911618809190822 0 0.41029076597598713 0.081314856785899142 0 0.43026170669799008 0.087911618809190822 0 0.42430053642558091 0.074276874234145848 0 0.41029076597598713 0.081314856785899142 0 0.40821276334183471 0.1022442057381759 0 0.41029076597598713 0.081314856785899142 0 0.40121952514409093 0.090982037995142095 0 0.41029076597598713 0.081314856785899142 0 0.40121952514409093 0.090982037995142095 0 0.3893277518175437 0.085123067956590942 0 0.40121952514409093 0.090982037995142095 0 0.3893277518175437 0.085123067956590942 0 0.39714154608180652 0.096908797928987975 0 0.41029076597598713 0.081314856785899142 0 0.40320005086432498 0.067313750126359151 0 0.3893277518175437 0.085123067956590942 0 0.40320005086432498 0.067313750126359151 0 0.3893277518175437 0.085123067956590942 0 0.3888493596113306 0.060960255887139013 0 0.37022502229348098 0.075346759730714766 0 0.3893277518175437 0.085123067956590942 0 0.3888493596113306 0.060960255887139013 0 0.3893277518175437 0.085123067956590942 0 0.3888493596113306 0.060960255887139013 0 0.37022502229348098 0.075346759730714766 0 0.3893277518175437 0.085123067956590942 0 0.37623785132629661 0.094160230158270186 0 0.3893277518175437 0.085123067956590942 0 0.38980614402375691 0.109285880026043 0 0.3893277518175437 0.085123067956590942 0 0.37623785132629661 0.094160230158270186 0 0.38980614402375691 0.109285880026043 0 0.37623785132629661 0.094160230158270186 0 0.38980614402375691 0.109285880026043 0 0.37998068770391968 0.1085975596436005 0 0.37291575093450607 0.1050707582973348 0 0.37623785132629661 0.094160230158270186 0 0.37998068770391968 0.1085975596436005 0 0.36411487662952369 0.13090937959614579 0 0.38616381998567911 0.11657679266716089 0 0.36411487662952369 0.13090937959614579 0 0.38587938737310451 0.1226259945379652 0 0.38616381998567911 0.11657679266716089 0 0.36850939876642852 0.1140914575861406 0 0.37998068770391968 0.1085975596436005 0 0.38616381998567911 0.11657679266716089 0 0.38980614402375691 0.109285880026043 0 0.37998068770391968 0.1085975596436005 0 0.38616381998567911 0.11657679266716089 0 0.40764389811668528 0.1143426094797847 0 0.38587938737310451 0.1226259945379652 0 0.38616381998567911 0.11657679266716089 0 0.40821276334183471 0.1022442057381759 0 0.38616381998567911 0.11657679266716089 0 0.40764389811668528 0.1143426094797847 0 0.38587938737310451 0.1226259945379652 0 0.39979324964032831 0.12616765291782781 0 0.40764389811668528 0.1143426094797847 0 0.38587938737310451 0.1226259945379652 0 0.40764389811668528 0.1143426094797847 0 0.40821276334183471 0.1022442057381759 0 0.38616381998567911 0.11657679266716089 0 0.3893277518175437 0.085123067956590942 0 0.38980614402375691 0.109285880026043 0 0.39714154608180652 0.096908797928987975 0 0.40821276334183471 0.1022442057381759 0 0.38980614402375691 0.109285880026043 0 0.38616381998567911 0.11657679266716089 0 0.40821276334183471 0.1022442057381759 0 0.38980614402375691 0.109285880026043 0 0.39714154608180652 0.096908797928987975 0 0.40821276334183471 0.1022442057381759 0 0.40121952514409093 0.090982037995142095 0 0.39714154608180652 0.096908797928987975 0 0.40381660071057007 0.02056685208473269 0 0.38789257519890441 0.012634631748235351 0 0.38837096740511751 0.036797443817687181 0 0.38789257519890441 0.012634631748235351 0 0.40612538130006531 -0.00027456011524365671 0 0.38719321142694452 -0.0069632075071056829 0 0.40381660071057007 0.02056685208473269 0 0.38789257519890441 0.012634631748235351 0 0.40612538130006531 -0.00027456011524365671 0 0.36610373341147812 0.005968604800277522 0 0.38789257519890441 0.012634631748235351 0 0.38719321142694452 -0.0069632075071056829 0 0.36610373341147812 0.005968604800277522 0 0.37367913366601208 0.025587236983636279 0 0.38789257519890441 0.012634631748235351 0 0.37367913366601208 0.025587236983636279 0 0.38789257519890441 0.012634631748235351 0 0.38837096740511751 0.036797443817687181 0 0.38789257519890441 0.012634631748235351 0 0.38837096740511751 0.036797443817687181 0 0.36656895479983798 0.048158329610884142 0 0.37367913366601208 0.025587236983636279 0 0.38837096740511751 0.036797443817687181 0 0.37022502229348098 0.075346759730714766 0 0.36656895479983798 0.048158329610884142 0 0.3888493596113306 0.060960255887139013 0 0.38837096740511751 0.036797443817687181 0 0.3888493596113306 0.060960255887139013 0 0.36656895479983798 0.048158329610884142 0 0.38837096740511751 0.036797443817687181 0 0.3888493596113306 0.060960255887139013 0 0.38837096740511751 0.036797443817687181 0 0.3888493596113306 0.060960255887139013 0 0.40196402187388308 0.050721818214157263 0 0.40320005086432498 0.067313750126359151 0 0.3888493596113306 0.060960255887139013 0 0.40196402187388308 0.050721818214157263 0 0.40381660071057007 0.02056685208473269 0 0.38837096740511751 0.036797443817687181 0 0.41263830241386462 0.037959384778557093 0 0.38837096740511751 0.036797443817687181 0 0.40196402187388308 0.050721818214157263 0 0.41263830241386462 0.037959384778557093 0 0.40196402187388308 0.050721818214157263 0 0.41263830241386462 0.037959384778557093 0 0.41811064221560329 0.060781725001792873 0 0.40320005086432498 0.067313750126359151 0 0.40196402187388308 0.050721818214157263 0 0.41811064221560329 0.060781725001792873 0 0.43853903081274298 0.067099296339700576 0 0.41811064221560329 0.060781725001792873 0 0.43686537810755399 0.039776651560173237 0 0.41263830241386462 0.037959384778557093 0 0.41811064221560329 0.060781725001792873 0 0.43686537810755399 0.039776651560173237 0 0.41263830241386462 0.037959384778557093 0 0.43686537810755399 0.039776651560173237 0 0.42605562121750251 0.01294812747266756 0 0.40381660071057007 0.02056685208473269 0 0.41263830241386462 0.037959384778557093 0 0.42605562121750251 0.01294812747266756 0 0.40381660071057007 0.02056685208473269 0 0.42605562121750251 0.01294812747266756 0 0.40612538130006531 -0.00027456011524365671 0 0.43686537810755399 0.039776651560173237 0 0.45033086744115769 0.017332707158011891 0 0.46971530604214728 0.035427799858755431 0 0.42605562121750251 0.01294812747266756 0 0.45033086744115769 0.017332707158011891 0 0.44658415384665678 -0.0078272237682335752 0 0.43686537810755399 0.039776651560173237 0 0.42605562121750251 0.01294812747266756 0 0.45033086744115769 0.017332707158011891 0 0.45033086744115769 0.017332707158011891 0 0.46971530604214728 0.035427799858755431 0 0.47243387799192782 0.0063381806666968016 0 0.45033086744115769 0.017332707158011891 0 0.47243387799192782 0.0063381806666968016 0 0.44658415384665678 -0.0078272237682335752 0 0.43686537810755399 0.039776651560173237 0 0.45566629616555449 0.052986410778758923 0 0.46971530604214728 0.035427799858755431 0 0.43853903081274298 0.067099296339700576 0 0.43686537810755399 0.039776651560173237 0 0.45566629616555449 0.052986410778758923 0 0.46090546386167669 0.070555347329745874 0 0.45566629616555449 0.052986410778758923 0 0.47945131620749648 0.054326504581530273 0 0.45566629616555449 0.052986410778758923 0 0.47945131620749648 0.054326504581530273 0 0.46971530604214728 0.035427799858755431 0 0.47945131620749648 0.054326504581530273 0 0.46971530604214728 0.035427799858755431 0 0.5 0.048876501963720953 0 0.46971530604214728 0.035427799858755431 0 0.5 0.048876501963720953 0 0.5 0.019121433943688811 0 0.48083550890192811 0.073994682827120767 0 0.47945131620749648 0.054326504581530273 0 0.5 0.048876501963720953 0 0.46971530604214728 0.035427799858755431 0 0.47243387799192782 0.0063381806666968016 0 0.5 0.019121433943688811 0 0.47243387799192782 0.0063381806666968016 0 0.5 0.019121433943688811 0 0.5 -0.01063363407634332 0 0.47243387799192782 0.0063381806666968016 0 0.5 -0.01063363407634332 0 0.46759517451972632 -0.01616006187122521 0 0.5 -0.01063363407634332 0 0.47832447456108163 -0.036732842325334421 0 0.46759517451972632 -0.01616006187122521 0 0.5 -0.01063363407634332 0 0.5 -0.040388702096375413 0 0.47832447456108163 -0.036732842325334421 0 0.5 -0.040388702096375413 0 0.48453079673106381 -0.060750481880199728 0 0.47832447456108163 -0.036732842325334421 0 0.5 -0.040388702096375413 0 0.48453079673106381 -0.060750481880199728 0 0.5 -0.0701437701164076 0 0.48453079673106381 -0.060750481880199728 0 0.47832447456108163 -0.036732842325334421 0 0.46723062822593597 -0.055045441352959523 0 0.47832447456108163 -0.036732842325334421 0 0.46723062822593597 -0.055045441352959523 0 0.44996213853366451 -0.036613292757970893 0 0.46723062822593597 -0.055045441352959523 0 0.44996213853366451 -0.036613292757970893 0 0.45334012322067219 -0.065399361747708218 0 0.44996213853366451 -0.036613292757970893 0 0.45334012322067219 -0.065399361747708218 0 0.44080329890390502 -0.053633645979385268 0 0.44996213853366451 -0.036613292757970893 0 0.45334012322067219 -0.065399361747708218 0 0.44080329890390502 -0.053633645979385268 0 0.45334012322067219 -0.065399361747708218 0 0.43316414056465657 -0.067947802542553171 0 0.44080329890390502 -0.053633645979385268 0 0.44996213853366451 -0.036613292757970893 0 0.42674679329662668 -0.044574126869308818 0 0.44996213853366451 -0.036613292757970893 0 0.44658415384665678 -0.0078272237682335752 0 0.42685474422977032 -0.019695876988545091 0 0.44996213853366451 -0.036613292757970893 0 0.44658415384665678 -0.0078272237682335752 0 0.47243387799192782 0.0063381806666968016 0 0.44658415384665678 -0.0078272237682335752 0 0.46759517451972632 -0.01616006187122521 0 0.44996213853366451 -0.036613292757970893 0 0.44658415384665678 -0.0078272237682335752 0 0.46759517451972632 -0.01616006187122521 0 0.47832447456108163 -0.036732842325334421 0 0.44996213853366451 -0.036613292757970893 0 0.46759517451972632 -0.01616006187122521 0 0.48301986092895871 -0.1115353229676911 0 0.46009609259468748 -0.1229714997271829 0 0.48226439302790602 -0.13692774351143669 0 0.48301986092895871 -0.1115353229676911 0 0.47273094224352108 -0.09852176155301344 0 0.46009609259468748 -0.1229714997271829 0 0.48301986092895871 -0.1115353229676911 0 0.48226439302790602 -0.13692774351143669 0 0.48301986092895871 -0.1115353229676911 0 0.5 -0.099898838136439738 0 0.5 -0.1296539061564719 0 0.48301986092895871 -0.1115353229676911 0 0.5 -0.099898838136439738 0 0.48377532883001118 -0.0861429024239454 0 0.48301986092895871 -0.1115353229676911 0 0.47273094224352108 -0.09852176155301344 0 0.48377532883001118 -0.0861429024239454 0 0.48301986092895871 -0.1115353229676911 0 0.48377532883001118 -0.0861429024239454 0 0.47273094224352108 -0.09852176155301344 0 0.48377532883001118 -0.0861429024239454 0 0.46999560808319779 -0.075731228053584315 0 0.5 -0.099898838136439738 0 0.48377532883001118 -0.0861429024239454 0 0.5 -0.0701437701164076 0 0.48453079673106381 -0.060750481880199728 0 0.48377532883001118 -0.0861429024239454 0 0.5 -0.0701437701164076 0 0.48453079673106381 -0.060750481880199728 0 0.46723062822593597 -0.055045441352959523 0 0.46999560808319779 -0.075731228053584315 0 0.48453079673106381 -0.060750481880199728 0 0.48377532883001118 -0.0861429024239454 0 0.48453079673106381 -0.060750481880199728 0 0.48377532883001118 -0.0861429024239454 0 0.46999560808319779 -0.075731228053584315 0 0.46723062822593597 -0.055045441352959523 0 0.46999560808319779 -0.075731228053584315 0 0.45334012322067219 -0.065399361747708218 0 0.45334012322067219 -0.065399361747708218 0 0.44236937296493523 -0.083375321718333645 0 0.43316414056465657 -0.067947802542553171 0 0.45334012322067219 -0.065399361747708218 0 0.44236937296493523 -0.083375321718333645 0 0.45671810790767992 -0.094185430737445536 0 0.45334012322067219 -0.065399361747708218 0 0.45671810790767992 -0.094185430737445536 0 0.47273094224352108 -0.09852176155301344 0 0.46999560808319779 -0.075731228053584315 0 0.45671810790767992 -0.094185430737445536 0 0.46999560808319779 -0.075731228053584315 0 0.45334012322067219 -0.065399361747708218 0 0.45671810790767992 -0.094185430737445536 0 0.47273094224352108 -0.09852176155301344 0 0.45671810790767992 -0.094185430737445536 0 0.46009609259468748 -0.1229714997271829 0 0.45671810790767992 -0.094185430737445536 0 0.46009609259468748 -0.1229714997271829 0 0.44236937296493523 -0.083375321718333645 0 0.45671810790767992 -0.094185430737445536 0 0.44161639523016838 -0.10856284518628349 0 0.45671810790767992 -0.094185430737445536 0 0.44161639523016838 -0.10856284518628349 0 0.46009609259468748 -0.1229714997271829 0 0.44161639523016838 -0.10856284518628349 0 0.46009609259468748 -0.1229714997271829 0 0.44222101677141978 -0.12795478293019949 0 0.42146129709783398 -0.11840302637901851 0 0.40611033144855352 -0.1155173733273115 0 0.40919305284169633 -0.1293941054884252 0 0.42146129709783398 -0.11840302637901851 0 0.41610832238156009 -0.10397315948770409 0 0.40611033144855352 -0.1155173733273115 0 0.44161639523016838 -0.10856284518628349 0 0.42146129709783398 -0.11840302637901851 0 0.44222101677141978 -0.12795478293019949 0 0.42146129709783398 -0.11840302637901851 0 0.42731271883124528 -0.093175414460785852 0 0.44161639523016838 -0.10856284518628349 0 0.42146129709783398 -0.11840302637901851 0 0.42731271883124528 -0.093175414460785852 0 0.44236937296493523 -0.083375321718333645 0 0.44161639523016838 -0.10856284518628349 0 0.42731271883124528 -0.093175414460785852 0 0.42146129709783398 -0.11840302637901851 0 0.41610832238156009 -0.10397315948770409 0 0.42731271883124528 -0.093175414460785852 0 0.41610832238156009 -0.10397315948770409 0 0.4034008152946047 -0.096946555843045901 0 0.40611033144855352 -0.1155173733273115 0 0.41610832238156009 -0.10397315948770409 0 0.42731271883124528 -0.093175414460785852 0 0.4034008152946047 -0.096946555843045901 0 0.42328983214135568 -0.076121414642498844 0 0.40408977263289941 -0.075288794294514766 0 0.4034008152946047 -0.096946555843045901 0 0.42731271883124528 -0.093175414460785852 0 0.42328983214135568 -0.076121414642498844 0 0.4034008152946047 -0.096946555843045901 0 0.42328983214135568 -0.076121414642498844 0 0.4034008152946047 -0.096946555843045901 0 0.42731271883124528 -0.093175414460785852 0 0.43316414056465657 -0.067947802542553171 0 0.44236937296493523 -0.083375321718333645 0 0.42731271883124528 -0.093175414460785852 0 0.43316414056465657 -0.067947802542553171 0 0.42731271883124528 -0.093175414460785852 0 0.42328983214135568 -0.076121414642498844 0 0.43316414056465657 -0.067947802542553171 0 0.42328983214135568 -0.076121414642498844 0 0.43316414056465657 -0.067947802542553171 0 0.41820586804957022 -0.060662372688465749 0 0.42328983214135568 -0.076121414642498844 0 0.40408977263289941 -0.075288794294514766 0 0.41820586804957022 -0.060662372688465749 0 0.40408977263289941 -0.075288794294514766 0 0.38524763250256738 -0.070183871723753802 0 0.40413632023757451 -0.050288517844930249 0 0.40408977263289941 -0.075288794294514766 0 0.38524763250256738 -0.070183871723753802 0 0.38856079346673938 -0.086091956987023488 0 0.38856079346673938 -0.086091956987023488 0 0.38370680213606551 -0.097961337471225596 0 0.36635894476756042 -0.090079225602577334 0 0.38524763250256738 -0.070183871723753802 0 0.36635894476756042 -0.090079225602577334 0 0.38524763250256738 -0.070183871723753802 0 0.38856079346673938 -0.086091956987023488 0 0.36635894476756042 -0.090079225602577334 0 0.40408977263289941 -0.075288794294514766 0 0.38856079346673938 -0.086091956987023488 0 0.4034008152946047 -0.096946555843045901 0 0.38856079346673938 -0.086091956987023488 0 0.4034008152946047 -0.096946555843045901 0 0.38370680213606551 -0.097961337471225596 0 0.4034008152946047 -0.096946555843045901 0 0.39592486724349241 -0.10657187622218089 0 0.40611033144855352 -0.1155173733273115 0 0.4034008152946047 -0.096946555843045901 0 0.38351179844785338 -0.11777169704359319 0 0.4034008152946047 -0.096946555843045901 0 0.39592486724349241 -0.10657187622218089 0 0.38351179844785338 -0.11777169704359319 0 0.4034008152946047 -0.096946555843045901 0 0.38370680213606551 -0.097961337471225596 0 0.38358881620067148 -0.1073746186882706 0 0.4034008152946047 -0.096946555843045901 0 0.38358881620067148 -0.1073746186882706 0 0.38351179844785338 -0.11777169704359319 0 0.38370680213606551 -0.097961337471225596 0 0.38358881620067148 -0.1073746186882706 0 0.37302927262327212 -0.1077815484355871 0 0.39592486724349241 -0.10657187622218089 0 0.38300944660508401 -0.12652824937753429 0 0.39592486724349241 -0.10657187622218089 0 0.38351179844785338 -0.11777169704359319 0 0.38300944660508401 -0.12652824937753429 0 0.38358881620067148 -0.1073746186882706 0 0.38351179844785338 -0.11777169704359319 0 0.37429539250156219 -0.1164119546479014 0 0.38358881620067148 -0.1073746186882706 0 0.37429539250156219 -0.1164119546479014 0 0.37302927262327212 -0.1077815484355871 0 0.38351179844785338 -0.11777169704359319 0 0.36979721931647791 -0.1239124930345446 0 0.37429539250156219 -0.1164119546479014 0 0.39476750695441232 -0.1200828360850604 0 0.39222318798589811 -0.1273142468786132 0 0.38300944660508401 -0.12652824937753429 0 0.39592486724349241 -0.10657187622218089 0 0.39476750695441232 -0.1200828360850604 0 0.38300944660508401 -0.12652824937753429 0 0.39592486724349241 -0.10657187622218089 0 0.39476750695441232 -0.1200828360850604 0 0.40611033144855352 -0.1155173733273115 0 0.40611033144855352 -0.1155173733273115 0 0.39973173221415942 -0.1285909049216542 0 0.40919305284169633 -0.1293941054884252 0 0.39476750695441232 -0.1200828360850604 0 0.40611033144855352 -0.1155173733273115 0 0.39973173221415942 -0.1285909049216542 0 0.42605562121750251 0.01294812747266756 0 0.42685474422977032 -0.019695876988545091 0 0.40612538130006531 -0.00027456011524365671 0 0.42605562121750251 0.01294812747266756 0 0.44658415384665678 -0.0078272237682335752 0 0.42685474422977032 -0.019695876988545091 0 0.42685474422977032 -0.019695876988545091 0 0.42674679329662668 -0.044574126869308818 0 0.40493953501669999 -0.02113788750144676 0 0.42685474422977032 -0.019695876988545091 0 0.40493953501669999 -0.02113788750144676 0 0.40612538130006531 -0.00027456011524365671 0 0.44996213853366451 -0.036613292757970893 0 0.42685474422977032 -0.019695876988545091 0 0.42674679329662668 -0.044574126869308818 0 0.43316414056465657 -0.067947802542553171 0 0.42674679329662668 -0.044574126869308818 0 0.41820586804957022 -0.060662372688465749 0 0.44080329890390502 -0.053633645979385268 0 0.43316414056465657 -0.067947802542553171 0 0.42674679329662668 -0.044574126869308818 0 0.42674679329662668 -0.044574126869308818 0 0.41820586804957022 -0.060662372688465749 0 0.40413632023757451 -0.050288517844930249 0 0.40408977263289941 -0.075288794294514766 0 0.41820586804957022 -0.060662372688465749 0 0.40413632023757451 -0.050288517844930249 0 0.42674679329662668 -0.044574126869308818 0 0.40413632023757451 -0.050288517844930249 0 0.40493953501669999 -0.02113788750144676 0 0.40413632023757451 -0.050288517844930249 0 0.38624852307540969 -0.04952838833271845 0 0.38534862840821249 -0.031571182702324667 0 0.40413632023757451 -0.050288517844930249 0 0.38534862840821249 -0.031571182702324667 0 0.40493953501669999 -0.02113788750144676 0 0.38524763250256738 -0.070183871723753802 0 0.40413632023757451 -0.050288517844930249 0 0.38524763250256738 -0.070183871723753802 0 0.40413632023757451 -0.050288517844930249 0 0.38624852307540969 -0.04952838833271845 0 0.38524763250256738 -0.070183871723753802 0 0.38624852307540969 -0.04952838833271845 0 0.36854898126031321 -0.046830740519207353 0 0.38624852307540969 -0.04952838833271845 0 0.38534862840821249 -0.031571182702324667 0 0.36854898126031321 -0.046830740519207353 0 0.38534862840821249 -0.031571182702324667 0 0.38719321142694452 -0.0069632075071056829 0 0.36942085121588802 -0.01527459391450498 0 0.38534862840821249 -0.031571182702324667 0 0.40493953501669999 -0.02113788750144676 0 0.38719321142694452 -0.0069632075071056829 0 0.40493953501669999 -0.02113788750144676 0 0.40612538130006531 -0.00027456011524365671 0 0.38719321142694452 -0.0069632075071056829 0 0.36610373341147812 0.005968604800277522 0 0.38719321142694452 -0.0069632075071056829 0 0.36942085121588802 -0.01527459391450498 0 0.36610373341147812 0.005968604800277522 0 0.36942085121588802 -0.01527459391450498 0 0.3477410257926245 -0.0142345229108566 0 0.38534862840821249 -0.031571182702324667 0 0.36942085121588802 -0.01527459391450498 0 0.36375532972122959 -0.030365308228110059 0 0.36942085121588802 -0.01527459391450498 0 0.36375532972122959 -0.030365308228110059 0 0.3477410257926245 -0.0142345229108566 0 0.36375532972122959 -0.030365308228110059 0 0.3477410257926245 -0.0142345229108566 0 0.34865844688507341 -0.038500029135567992 0 0.33987270167036532 0.01288206682049987 0 0.3477410257926245 -0.0142345229108566 0 0.32546835434140409 -0.001818073725263207 0 0.3477410257926245 -0.0142345229108566 0 0.32876791250983339 -0.030169317751929169 0 0.32546835434140409 -0.001818073725263207 0 0.3477410257926245 -0.0142345229108566 0 0.32876791250983339 -0.030169317751929169 0 0.34865844688507341 -0.038500029135567992 0 0.32876791250983339 -0.030169317751929169 0 0.30280068078776962 -0.01929351578363725 0 0.32876791250983339 -0.030169317751929169 0 0.32546835434140409 -0.001818073725263207 0 0.32876791250983339 -0.030169317751929169 0 0.32546835434140409 -0.001818073725263207 0 0.30280068078776962 -0.01929351578363725 0 0.33173000069867459 -0.055620872409739557 0 0.31484363291229039 -0.063716809383400158 0 0.30530486723641342 -0.046981926873852803 0 0.32876791250983339 -0.030169317751929169 0 0.33173000069867459 -0.055620872409739557 0 0.30530486723641342 -0.046981926873852803 0 0.32876791250983339 -0.030169317751929169 0 0.33173000069867459 -0.055620872409739557 0 0.34865844688507341 -0.038500029135567992 0 0.32876791250983339 -0.030169317751929169 0 0.34865844688507341 -0.038500029135567992 0 0.32876791250983339 -0.030169317751929169 0 0.33173000069867459 -0.055620872409739557 0 0.34865844688507341 -0.038500029135567992 0 0.36854898126031321 -0.046830740519207353 0 0.35484053322131048 -0.067780771126681919 0 0.33173000069867459 -0.055620872409739557 0 0.34865844688507341 -0.038500029135567992 0 0.35484053322131048 -0.067780771126681919 0 0.34865844688507341 -0.038500029135567992 0 0.36854898126031321 -0.046830740519207353 0 0.36375532972122959 -0.030365308228110059 0 0.34865844688507341 -0.038500029135567992 0 0.36854898126031321 -0.046830740519207353 0 0.38534862840821249 -0.031571182702324667 0 0.36375532972122959 -0.030365308228110059 0 0.36854898126031321 -0.046830740519207353 0 0.38524763250256738 -0.070183871723753802 0 0.36854898126031321 -0.046830740519207353 0 0.35484053322131048 -0.067780771126681919 0 0.38524763250256738 -0.070183871723753802 0 0.36635894476756042 -0.090079225602577334 0 0.35484053322131048 -0.067780771126681919 0 0.36635894476756042 -0.090079225602577334 0 0.34864763754746791 -0.092178231428377694 0 0.35484053322131048 -0.067780771126681919 0 0.34864763754746791 -0.092178231428377694 0 0.35484053322131048 -0.067780771126681919 0 0.334692088887517 -0.081072427067549718 0 0.36412591368213348 -0.1189485730140513 0 0.36979721931647791 -0.1239124930345446 0 0.36343021034973771 -0.12783340222303699 0 0.36412591368213348 -0.1189485730140513 0 0.36979721931647791 -0.1239124930345446 0 0.37429539250156219 -0.1164119546479014 0 0.36412591368213348 -0.1189485730140513 0 0.37429539250156219 -0.1164119546479014 0 0.37302927262327212 -0.1077815484355871 0 0.36412591368213348 -0.1189485730140513 0 0.36098336369063261 -0.1089918652547493 0 0.35377501148893192 -0.11982233019757731 0 0.36412591368213348 -0.1189485730140513 0 0.36098336369063261 -0.1089918652547493 0 0.37302927262327212 -0.1077815484355871 0 0.38370680213606551 -0.097961337471225596 0 0.36635894476756042 -0.090079225602577334 0 0.37302927262327212 -0.1077815484355871 0 0.36635894476756042 -0.090079225602577334 0 0.36098336369063261 -0.1089918652547493 0 0.37302927262327212 -0.1077815484355871 0 0.36635894476756042 -0.090079225602577334 0 0.34747025703255352 -0.1099745794814008 0 0.34864763754746791 -0.092178231428377694 0 0.34747025703255352 -0.1099745794814008 0 0.33765417707635931 -0.1065239817253599 0 0.36635894476756042 -0.090079225602577334 0 0.34864763754746791 -0.092178231428377694 0 0.34747025703255352 -0.1099745794814008 0 0.36635894476756042 -0.090079225602577334 0 0.36098336369063261 -0.1089918652547493 0 0.34747025703255352 -0.1099745794814008 0 0.34747025703255352 -0.1099745794814008 0 0.35377501148893192 -0.11982233019757731 0 0.34061626526520161 -0.13197553638317 0 0.36098336369063261 -0.1089918652547493 0 0.34747025703255352 -0.1099745794814008 0 0.35377501148893192 -0.11982233019757731 0 0.36412591368213348 -0.1189485730140513 0 0.35377501148893192 -0.11982233019757731 0 0.35567925777413828 -0.1292210968545148 0 0.34747025703255352 -0.1099745794814008 0 0.33765417707635931 -0.1065239817253599 0 0.34061626526520161 -0.13197553638317 0 0.33765417707635931 -0.1065239817253599 0 0.34061626526520161 -0.13197553638317 0 0.33765417707635931 -0.1065239817253599 0 0.32594740397003619 -0.12103341905376171 0 0.34061626526520161 -0.13197553638317 0 0.33765417707635931 -0.1065239817253599 0 0.32490298378504129 -0.1079276679459267 0 0.32594740397003619 -0.12103341905376171 0 0.33765417707635931 -0.1065239817253599 0 0.32377337611152168 -0.095241305765475015 0 0.334692088887517 -0.081072427067549718 0 0.33765417707635931 -0.1065239817253599 0 0.334692088887517 -0.081072427067549718 0 0.33765417707635931 -0.1065239817253599 0 0.32377337611152168 -0.095241305765475015 0 0.32490298378504129 -0.1079276679459267 0 0.32377337611152168 -0.095241305765475015 0 0.31223697798224831 -0.1089119652391102 0 0.30846030351263221 -0.096281466347892364 0 0.32377337611152168 -0.095241305765475015 0 0.32490298378504129 -0.1079276679459267 0 0.31223697798224831 -0.1089119652391102 0 0.32594740397003619 -0.12103341905376171 0 0.30749390161664181 -0.1219187744144741 0 0.31223697798224831 -0.1089119652391102 0 0.32490298378504129 -0.1079276679459267 0 0.32594740397003619 -0.12103341905376171 0 0.31223697798224831 -0.1089119652391102 0 0.33173000069867459 -0.055620872409739557 0 0.334692088887517 -0.081072427067549718 0 0.33173000069867459 -0.055620872409739557 0 0.35484053322131048 -0.067780771126681919 0 0.334692088887517 -0.081072427067549718 0 0.34864763754746791 -0.092178231428377694 0 0.33765417707635931 -0.1065239817253599 0 0.334692088887517 -0.081072427067549718 0 0.32377337611152168 -0.095241305765475015 0 0.334692088887517 -0.081072427067549718 0 0.31031752295377207 -0.080853667920387631 0 0.32377337611152168 -0.095241305765475015 0 0.31031752295377207 -0.080853667920387631 0 0.30846030351263221 -0.096281466347892364 0 0.33173000069867459 -0.055620872409739557 0 0.334692088887517 -0.081072427067549718 0 0.31484363291229039 -0.063716809383400158 0 0.334692088887517 -0.081072427067549718 0 0.31484363291229039 -0.063716809383400158 0 0.31031752295377207 -0.080853667920387631 0 0.31484363291229039 -0.063716809383400158 0 0.31031752295377207 -0.080853667920387631 0 0.29210244111685513 -0.071007940914862622 0 0.31031752295377207 -0.080853667920387631 0 0.29345168497899299 -0.093553350665880289 0 0.29210244111685513 -0.071007940914862622 0 0.31031752295377207 -0.080853667920387631 0 0.29345168497899299 -0.093553350665880289 0 0.30846030351263221 -0.096281466347892364 0 0.29345168497899299 -0.093553350665880289 0 0.29210244111685513 -0.071007940914862622 0 0.27220476110437419 -0.090095923691190627 0 0.30749390161664181 -0.1219187744144741 0 0.298608896083145 -0.1103907775797599 0 0.29488597599643779 -0.12763839589580531 0 0.30749390161664181 -0.1219187744144741 0 0.298608896083145 -0.1103907775797599 0 0.31223697798224831 -0.1089119652391102 0 0.29345168497899299 -0.093553350665880289 0 0.298608896083145 -0.1103907775797599 0 0.30846030351263221 -0.096281466347892364 0 0.298608896083145 -0.1103907775797599 0 0.31223697798224831 -0.1089119652391102 0 0.30846030351263221 -0.096281466347892364 0 0.29345168497899299 -0.093553350665880289 0 0.28228645195174862 -0.11322340441528481 0 0.27220476110437419 -0.090095923691190627 0 0.29345168497899299 -0.093553350665880289 0 0.298608896083145 -0.1103907775797599 0 0.28228645195174862 -0.11322340441528481 0 0.298608896083145 -0.1103907775797599 0 0.28228645195174862 -0.11322340441528481 0 0.29488597599643779 -0.12763839589580531 0 0.28228645195174862 -0.11322340441528481 0 0.29488597599643779 -0.12763839589580531 0 0.28228645195174862 -0.11322340441528481 0 0.26674285210850163 -0.12088280224418819 0 0.26508634375158407 -0.1075533262183615 0 0.28228645195174862 -0.11322340441528481 0 0.26674285210850163 -0.12088280224418819 0 0.27479445463492369 -0.13485448994631841 0 0.28228645195174862 -0.11322340441528481 0 0.26508634375158407 -0.1075533262183615 0 0.27220476110437419 -0.090095923691190627 0 0.25385718178354683 -0.098270239605644127 0 0.26508634375158407 -0.1075533262183615 0 0.25034047180974922 -0.1152942611355 0 0.25385718178354683 -0.098270239605644127 0 0.26508634375158407 -0.1075533262183615 0 0.27220476110437419 -0.090095923691190627 0 0.26674285210850163 -0.12088280224418819 0 0.26508634375158407 -0.1075533262183615 0 0.25034047180974922 -0.1152942611355 0 0.26674285210850163 -0.12088280224418819 0 0.25034047180974922 -0.1152942611355 0 0.25754178294737229 -0.13071600479872139 0 0.29210244111685513 -0.071007940914862622 0 0.26744817982815777 -0.067486613418568014 0 0.27220476110437419 -0.090095923691190627 0 0.29210244111685513 -0.071007940914862622 0 0.26744817982815777 -0.067486613418568014 0 0.28190907318977659 -0.053581258048604988 0 0.25385718178354683 -0.098270239605644127 0 0.27220476110437419 -0.090095923691190627 0 0.24712736137610669 -0.081010114448245338 0 0.26744817982815777 -0.067486613418568014 0 0.27220476110437419 -0.090095923691190627 0 0.24712736137610669 -0.081010114448245338 0 0.26744817982815777 -0.067486613418568014 0 0.23975376712630381 -0.057066258051083833 0 0.24712736137610669 -0.081010114448245338 0 0.26744817982815777 -0.067486613418568014 0 0.26132800399236278 -0.045056464510215673 0 0.23975376712630381 -0.057066258051083833 0 0.26744817982815777 -0.067486613418568014 0 0.26132800399236278 -0.045056464510215673 0 0.28190907318977659 -0.053581258048604988 0 0.26132800399236278 -0.045056464510215673 0 0.25561305250790239 -0.022646727376996412 0 0.28340213558650018 -0.034357633577994262 0 0.26132800399236278 -0.045056464510215673 0 0.28190907318977659 -0.053581258048604988 0 0.28340213558650018 -0.034357633577994262 0 0.26132800399236278 -0.045056464510215673 0 0.25561305250790239 -0.022646727376996412 0 0.2380567425234171 -0.036497849958806748 0 0.25086621734364162 0.0024580881529454729 0 0.27683344906570562 -0.00841771381534589 0 0.25086621734364162 0.0024580881529454729 0 0.25561305250790239 -0.022646727376996412 0 0.27683344906570562 -0.00841771381534589 0 0.25561305250790239 -0.022646727376996412 0 0.27683344906570562 -0.00841771381534589 0 0.28340213558650018 -0.034357633577994262 0 0.27683344906570562 -0.00841771381534589 0 0.30280068078776962 -0.01929351578363725 0 0.28340213558650018 -0.034357633577994262 0 0.27683344906570562 -0.00841771381534589 0 0.30280068078776962 -0.01929351578363725 0 0.2950640457745351 0.010950668119169451 0 0.27683344906570562 -0.00841771381534589 0 0.30280068078776962 -0.01929351578363725 0 0.2950640457745351 0.010950668119169451 0 0.32546835434140409 -0.001818073725263207 0 0.30280068078776962 -0.01929351578363725 0 0.30280068078776962 -0.01929351578363725 0 0.30530486723641342 -0.046981926873852803 0 0.28340213558650018 -0.034357633577994262 0 0.32876791250983339 -0.030169317751929169 0 0.30280068078776962 -0.01929351578363725 0 0.30530486723641342 -0.046981926873852803 0 0.31484363291229039 -0.063716809383400158 0 0.29210244111685513 -0.071007940914862622 0 0.30530486723641342 -0.046981926873852803 0 0.29210244111685513 -0.071007940914862622 0 0.30530486723641342 -0.046981926873852803 0 0.28190907318977659 -0.053581258048604988 0 0.30530486723641342 -0.046981926873852803 0 0.28190907318977659 -0.053581258048604988 0 0.28340213558650018 -0.034357633577994262 0 0.29279783144644173 -0.2163759542514623 0 0.28328886347083021 -0.21003827669374411 0 0.27826534703925282 -0.2264109182684981 0 0.29267646404488029 -0.20732721676527679 0 0.29279783144644173 -0.2163759542514623 0 0.28328886347083021 -0.21003827669374411 0 0.29267646404488029 -0.20732721676527679 0 0.29279783144644173 -0.2163759542514623 0 0.30087884686029481 -0.20918379179091781 0 0.28328886347083021 -0.21003827669374411 0 0.28808822778631171 -0.2005698763760308 0 0.27817768550261768 -0.1993077984829292 0 0.29267646404488029 -0.20732721676527679 0 0.28328886347083021 -0.21003827669374411 0 0.28808822778631171 -0.2005698763760308 0 0.28808822778631171 -0.2005698763760308 0 0.28560605389626831 -0.1942374865260556 0 0.29288754726049843 -0.19232640229768391 0 0.28808822778631171 -0.2005698763760308 0 0.28560605389626831 -0.1942374865260556 0 0.27817768550261768 -0.1993077984829292 0 0.28130231814089651 -0.1903263510951054 0 0.28560605389626831 -0.1942374865260556 0 0.27817768550261768 -0.1993077984829292 0 0.28130231814089651 -0.1903263510951054 0 0.28560605389626831 -0.1942374865260556 0 0.28757449079101732 -0.18865700437852881 0 0.28130231814089651 -0.1903263510951054 0 0.28757449079101732 -0.18865700437852881 0 0.28538225310214188 -0.1835367118388059 0 0.28560605389626831 -0.1942374865260556 0 0.28757449079101732 -0.18865700437852881 0 0.29288754726049843 -0.19232640229768391 0 0.28757449079101732 -0.18865700437852881 0 0.29288754726049843 -0.19232640229768391 0 0.29185455762084622 -0.18503304553929401 0 0.29288754726049843 -0.19232640229768391 0 0.29185455762084622 -0.18503304553929401 0 0.2971815338879763 -0.18720840881958861 0 0.28808822778631171 -0.2005698763760308 0 0.29288754726049843 -0.19232640229768391 0 0.29832855066052322 -0.20046818471422889 0 0.29267646404488029 -0.20732721676527679 0 0.28808822778631171 -0.2005698763760308 0 0.29832855066052322 -0.20046818471422889 0 0.29832855066052322 -0.20046818471422889 0 0.30060763344794927 -0.19285048859945461 0 0.30679030881953928 -0.19773166437763309 0 0.29832855066052322 -0.20046818471422889 0 0.30679030881953928 -0.19773166437763309 0 0.30565687433444938 -0.20395201344965019 0 0.29288754726049843 -0.19232640229768391 0 0.29832855066052322 -0.20046818471422889 0 0.30060763344794927 -0.19285048859945461 0 0.29288754726049843 -0.19232640229768391 0 0.30060763344794927 -0.19285048859945461 0 0.2971815338879763 -0.18720840881958861 0 0.30060763344794927 -0.19285048859945461 0 0.3024685242039904 -0.18818829445875801 0 0.2971815338879763 -0.18720840881958861 0 0.30060763344794927 -0.19285048859945461 0 0.30599413852975699 -0.19143273216267109 0 0.30679030881953928 -0.19773166437763309 0 0.30060763344794927 -0.19285048859945461 0 0.3024685242039904 -0.18818829445875801 0 0.30599413852975699 -0.19143273216267109 0 0.3024685242039904 -0.18818829445875801 0 0.30599413852975699 -0.19143273216267109 0 0.30760611592130588 -0.18622262171548451 0 0.30599413852975699 -0.19143273216267109 0 0.31196712353831002 -0.19243178167646299 0 0.30760611592130588 -0.18622262171548451 0 0.30599413852975699 -0.19143273216267109 0 0.31196712353831002 -0.19243178167646299 0 0.30679030881953928 -0.19773166437763309 0 0.31196712353831002 -0.19243178167646299 0 0.30760611592130588 -0.18622262171548451 0 0.31261501619004928 -0.18756057878826141 0 0.30679030881953928 -0.19773166437763309 0 0.30565687433444938 -0.20395201344965019 0 0.31273909865769289 -0.2027463082668724 0 0.31196712353831002 -0.19243178167646299 0 0.30679030881953928 -0.19773166437763309 0 0.31334237436966961 -0.19737686197577739 0 0.30679030881953928 -0.19773166437763309 0 0.31273909865769289 -0.2027463082668724 0 0.31334237436966961 -0.19737686197577739 0 0.30954756667419681 -0.2096301180985988 0 0.30565687433444938 -0.20395201344965019 0 0.31273909865769289 -0.2027463082668724 0 0.30954756667419681 -0.2096301180985988 0 0.30565687433444938 -0.20395201344965019 0 0.30087884686029481 -0.20918379179091781 0 0.29267646404488029 -0.20732721676527679 0 0.29832855066052322 -0.20046818471422889 0 0.30087884686029481 -0.20918379179091781 0 0.29832855066052322 -0.20046818471422889 0 0.30565687433444938 -0.20395201344965019 0 0.30087884686029481 -0.20918379179091781 0 0.29279783144644173 -0.2163759542514623 0 0.30087884686029481 -0.20918379179091781 0 0.30505542454616419 -0.21774683618459109 0 0.30954756667419681 -0.2096301180985988 0 0.30505542454616419 -0.21774683618459109 0 0.31621987405555241 -0.21587579390444259 0 0.30954756667419681 -0.2096301180985988 0 0.30087884686029481 -0.20918379179091781 0 0.30505542454616419 -0.21774683618459109 0 0.30505542454616419 -0.21774683618459109 0 0.31011927762462388 -0.2279011094452788 0 0.31621987405555241 -0.21587579390444259 0 0.31011927762462388 -0.2279011094452788 0 0.29735663024631293 -0.22553622355674741 0 0.30054527057508201 -0.2392462996339064 0 0.29279783144644173 -0.2163759542514623 0 0.30505542454616419 -0.21774683618459109 0 0.29735663024631293 -0.22553622355674741 0 0.30505542454616419 -0.21774683618459109 0 0.31011927762462388 -0.2279011094452788 0 0.29735663024631293 -0.22553622355674741 0 0.30054527057508201 -0.2392462996339064 0 0.31012990445961619 -0.25360961348613381 0 0.29397042506590088 -0.25463924831475693 0 0.30054527057508201 -0.2392462996339064 0 0.32282519411091049 -0.25208168099931572 0 0.30054527057508201 -0.2392462996339064 0 0.32282519411091049 -0.25208168099931572 0 0.31012990445961619 -0.25360961348613381 0 0.31011927762462388 -0.2279011094452788 0 0.30054527057508201 -0.2392462996339064 0 0.31659941824500842 -0.2382968576379724 0 0.30054527057508201 -0.2392462996339064 0 0.2797126088167971 -0.24519596555511219 0 0.29397042506590088 -0.25463924831475693 0 0.30054527057508201 -0.2392462996339064 0 0.27826534703925282 -0.2264109182684981 0 0.2797126088167971 -0.24519596555511219 0 0.29279783144644173 -0.2163759542514623 0 0.29735663024631293 -0.22553622355674741 0 0.27826534703925282 -0.2264109182684981 0 0.30054527057508201 -0.2392462996339064 0 0.27826534703925282 -0.2264109182684981 0 0.29735663024631293 -0.22553622355674741 0 0.30054527057508201 -0.2392462996339064 0 0.27826534703925282 -0.2264109182684981 0 0.26704199214281499 -0.23316984783789649 0 0.27826534703925282 -0.2264109182684981 0 0.26947626501962119 -0.21423117466193151 0 0.26704199214281499 -0.23316984783789649 0 0.2797126088167971 -0.24519596555511219 0 0.26339886892923842 -0.25212127595917111 0 0.26704199214281499 -0.23316984783789649 0 0.27826534703925282 -0.2264109182684981 0 0.2797126088167971 -0.24519596555511219 0 0.26704199214281499 -0.23316984783789649 0 0.25185667136151929 -0.24251713028608249 0 0.26339886892923842 -0.25212127595917111 0 0.25185667136151929 -0.24251713028608249 0 0.2570216928513267 -0.22504576041722299 0 0.24443541936635649 -0.23116554093704181 0 0.26704199214281499 -0.23316984783789649 0 0.2570216928513267 -0.22504576041722299 0 0.26947626501962119 -0.21423117466193151 0 0.26704199214281499 -0.23316984783789649 0 0.25185667136151929 -0.24251713028608249 0 0.2570216928513267 -0.22504576041722299 0 0.2569747124512281 -0.21016832620680351 0 0.24443541936635649 -0.23116554093704181 0 0.2570216928513267 -0.22504576041722299 0 0.2569747124512281 -0.21016832620680351 0 0.24443541936635649 -0.23116554093704181 0 0.2569747124512281 -0.21016832620680351 0 0.26947626501962119 -0.21423117466193151 0 0.26541572836711108 -0.1958587194003569 0 0.2570216928513267 -0.22504576041722299 0 0.2569747124512281 -0.21016832620680351 0 0.2570216928513267 -0.22504576041722299 0 0.2569747124512281 -0.21016832620680351 0 0.26947626501962119 -0.21423117466193151 0 0.26947626501962119 -0.21423117466193151 0 0.27817768550261768 -0.1993077984829292 0 0.26541572836711108 -0.1958587194003569 0 0.28328886347083021 -0.21003827669374411 0 0.27826534703925282 -0.2264109182684981 0 0.26947626501962119 -0.21423117466193151 0 0.28328886347083021 -0.21003827669374411 0 0.26947626501962119 -0.21423117466193151 0 0.27817768550261768 -0.1993077984829292 0 0.27590261358588353 -0.19040736361760749 0 0.26541572836711108 -0.1958587194003569 0 0.27943898559178382 -0.1779236087256803 0 0.28130231814089651 -0.1903263510951054 0 0.27590261358588353 -0.19040736361760749 0 0.27817768550261768 -0.1993077984829292 0 0.28130231814089651 -0.1903263510951054 0 0.27590261358588353 -0.19040736361760749 0 0.28026855645525001 -0.18499994729950001 0 0.27590261358588353 -0.19040736361760749 0 0.27817768550261768 -0.1993077984829292 0 0.26541572836711108 -0.1958587194003569 0 0.26541572836711108 -0.1958587194003569 0 0.25690785679394712 -0.18899693046176849 0 0.26662212933436252 -0.1834101082011573 0 0.2569747124512281 -0.21016832620680351 0 0.26541572836711108 -0.1958587194003569 0 0.25690785679394712 -0.18899693046176849 0 0.2569747124512281 -0.21016832620680351 0 0.25690785679394712 -0.18899693046176849 0 0.2569747124512281 -0.21016832620680351 0 0.25690785679394712 -0.18899693046176849 0 0.2483962521489555 -0.1935428095221525 0 0.2569747124512281 -0.21016832620680351 0 0.26541572836711108 -0.1958587194003569 0 0.25690785679394712 -0.18899693046176849 0 0.2568410011366673 -0.16782553471673339 0 0.25690785679394712 -0.18899693046176849 0 0.26662212933436252 -0.1834101082011573 0 0.26674840843410708 -0.17284654436887581 0 0.25690785679394712 -0.18899693046176849 0 0.2568410011366673 -0.16782553471673339 0 0.26674840843410708 -0.17284654436887581 0 0.25690785679394712 -0.18899693046176849 0 0.2568410011366673 -0.16782553471673339 0 0.24458333138207591 -0.1793105664267399 0 0.2568410011366673 -0.16782553471673339 0 0.25677414547938748 -0.14665413897169841 0 0.2568410011366673 -0.16782553471673339 0 0.25677414547938748 -0.14665413897169841 0 0.2444436461762462 -0.1548086980679525 0 0.2738168882507509 -0.1660164280659146 0 0.27461626512423909 -0.15348332461933209 0 0.29346224281645661 -0.15998849805100371 0 0.2568410011366673 -0.16782553471673339 0 0.2738168882507509 -0.1660164280659146 0 0.26674840843410708 -0.17284654436887581 0 0.2738168882507509 -0.1660164280659146 0 0.27741652374228443 -0.17593823857362789 0 0.26674840843410708 -0.17284654436887581 0 0.2568410011366673 -0.16782553471673339 0 0.2738168882507509 -0.1660164280659146 0 0.27461626512423909 -0.15348332461933209 0 0.26541572836711108 -0.1958587194003569 0 0.27741652374228443 -0.17593823857362789 0 0.26541572836711108 -0.1958587194003569 0 0.27943898559178382 -0.1779236087256803 0 0.26541572836711108 -0.1958587194003569 0 0.27741652374228443 -0.17593823857362789 0 0.27943898559178382 -0.1779236087256803 0 0.26541572836711108 -0.1958587194003569 0 0.27741652374228443 -0.17593823857362789 0 0.26662212933436252 -0.1834101082011573 0 0.27590261358588353 -0.19040736361760749 0 0.27943898559178382 -0.1779236087256803 0 0.28026855645525001 -0.18499994729950001 0 0.27943898559178382 -0.1779236087256803 0 0.28026855645525001 -0.18499994729950001 0 0.28269563037065792 -0.1811122432316114 0 0.27741652374228443 -0.17593823857362789 0 0.26662212933436252 -0.1834101082011573 0 0.26674840843410708 -0.17284654436887581 0 0.25754178294737229 -0.13071600479872139 0 0.25677414547938748 -0.14665413897169841 0 0.23905699070429959 -0.1358943316959024 0 0.25754178294737229 -0.13071600479872139 0 0.25677414547938748 -0.14665413897169841 0 0.27479445463492369 -0.13485448994631841 0 0.2568410011366673 -0.16782553471673339 0 0.25677414547938748 -0.14665413897169841 0 0.27461626512423909 -0.15348332461933209 0 0.25677414547938748 -0.14665413897169841 0 0.27461626512423909 -0.15348332461933209 0 0.27479445463492369 -0.13485448994631841 0 0.27461626512423909 -0.15348332461933209 0 0.27479445463492369 -0.13485448994631841 0 0.28904888772263693 -0.14360361917775699 0 0.26674285210850163 -0.12088280224418819 0 0.25754178294737229 -0.13071600479872139 0 0.27479445463492369 -0.13485448994631841 0 0.27479445463492369 -0.13485448994631841 0 0.29488597599643779 -0.12763839589580531 0 0.28904888772263693 -0.14360361917775699 0 0.28228645195174862 -0.11322340441528481 0 0.27479445463492369 -0.13485448994631841 0 0.29488597599643779 -0.12763839589580531 0 0.28904888772263693 -0.14360361917775699 0 0.30748550004112729 -0.14205338737632539 0 0.29346224281645661 -0.15998849805100371 0 0.27461626512423909 -0.15348332461933209 0 0.28904888772263693 -0.14360361917775699 0 0.29346224281645661 -0.15998849805100371 0 0.30748550004112729 -0.14205338737632539 0 0.29346224281645661 -0.15998849805100371 0 0.30748550004112729 -0.14205338737632539 0 0.29346224281645661 -0.15998849805100371 0 0.31129157280251729 -0.1580392790423191 0 0.30749390161664181 -0.1219187744144741 0 0.29488597599643779 -0.12763839589580531 0 0.31346039794782582 -0.13441176364300819 0 0.29488597599643779 -0.12763839589580531 0 0.28904888772263693 -0.14360361917775699 0 0.30748550004112729 -0.14205338737632539 0 0.29488597599643779 -0.12763839589580531 0 0.30748550004112729 -0.14205338737632539 0 0.31346039794782582 -0.13441176364300819 0 0.29488597599643779 -0.12763839589580531 0 0.30748550004112729 -0.14205338737632539 0 0.30748550004112729 -0.14205338737632539 0 0.31346039794782582 -0.13441176364300819 0 0.2899160131318822 -0.1742500248119343 0 0.29524221699381159 -0.18058633499802329 0 0.30064517627642012 -0.17404361023190851 0 0.2899160131318822 -0.1742500248119343 0 0.29524221699381159 -0.18058633499802329 0 0.28973585749622582 -0.18022135411833071 0 0.29524221699381159 -0.18058633499802329 0 0.29185455762084622 -0.18503304553929401 0 0.2971815338879763 -0.18720840881958861 0 0.29524221699381159 -0.18058633499802329 0 0.29185455762084622 -0.18503304553929401 0 0.28973585749622582 -0.18022135411833071 0 0.28973585749622582 -0.18022135411833071 0 0.28538225310214188 -0.1835367118388059 0 0.28543374793853832 -0.17940878854527251 0 0.29185455762084622 -0.18503304553929401 0 0.28973585749622582 -0.18022135411833071 0 0.28538225310214188 -0.1835367118388059 0 0.28757449079101732 -0.18865700437852881 0 0.29185455762084622 -0.18503304553929401 0 0.28538225310214188 -0.1835367118388059 0 0.28130231814089651 -0.1903263510951054 0 0.28026855645525001 -0.18499994729950001 0 0.28538225310214188 -0.1835367118388059 0 0.28538225310214188 -0.1835367118388059 0 0.28269563037065792 -0.1811122432316114 0 0.28543374793853832 -0.17940878854527251 0 0.28026855645525001 -0.18499994729950001 0 0.28538225310214188 -0.1835367118388059 0 0.28269563037065792 -0.1811122432316114 0 0.27943898559178382 -0.1779236087256803 0 0.28269563037065792 -0.1811122432316114 0 0.28543374793853832 -0.17940878854527251 0 0.27943898559178382 -0.1779236087256803 0 0.2899160131318822 -0.1742500248119343 0 0.28543374793853832 -0.17940878854527251 0 0.2899160131318822 -0.1742500248119343 0 0.28973585749622582 -0.18022135411833071 0 0.28543374793853832 -0.17940878854527251 0 0.27943898559178382 -0.1779236087256803 0 0.29346224281645661 -0.15998849805100371 0 0.2738168882507509 -0.1660164280659146 0 0.27741652374228443 -0.17593823857362789 0 0.29346224281645661 -0.15998849805100371 0 0.27741652374228443 -0.17593823857362789 0 0.27943898559178382 -0.1779236087256803 0 0.29346224281645661 -0.15998849805100371 0 0.27943898559178382 -0.1779236087256803 0 0.2899160131318822 -0.1742500248119343 0 0.29346224281645661 -0.15998849805100371 0 0.2899160131318822 -0.1742500248119343 0 0.29346224281645661 -0.15998849805100371 0 0.30064517627642012 -0.17404361023190851 0 0.29346224281645661 -0.15998849805100371 0 0.31129157280251729 -0.1580392790423191 0 0.30471768966948748 -0.16602467081578601 0 0.29346224281645661 -0.15998849805100371 0 0.30471768966948748 -0.16602467081578601 0 0.30064517627642012 -0.17404361023190851 0 0.31129157280251729 -0.1580392790423191 0 0.30471768966948748 -0.16602467081578601 0 0.31347176678255578 -0.1720272959379128 0 0.30471768966948748 -0.16602467081578601 0 0.30064517627642012 -0.17404361023190851 0 0.31347176678255578 -0.1720272959379128 0 0.30666848209011383 -0.179513160442382 0 0.30064517627642012 -0.17404361023190851 0 0.31347176678255578 -0.1720272959379128 0 0.30666848209011383 -0.179513160442382 0 0.31279179353664482 -0.18124842157805821 0 0.31347176678255578 -0.1720272959379128 0 0.30666848209011383 -0.179513160442382 0 0.30064517627642012 -0.17404361023190851 0 0.30095319923296338 -0.18322722099659131 0 0.29524221699381159 -0.18058633499802329 0 0.30064517627642012 -0.17404361023190851 0 0.30095319923296338 -0.18322722099659131 0 0.3024685242039904 -0.18818829445875801 0 0.2971815338879763 -0.18720840881958861 0 0.30095319923296338 -0.18322722099659131 0 0.29524221699381159 -0.18058633499802329 0 0.2971815338879763 -0.18720840881958861 0 0.30095319923296338 -0.18322722099659131 0 0.3024685242039904 -0.18818829445875801 0 0.30095319923296338 -0.18322722099659131 0 0.30760611592130588 -0.18622262171548451 0 0.30666848209011383 -0.179513160442382 0 0.30095319923296338 -0.18322722099659131 0 0.30760611592130588 -0.18622262171548451 0 0.30666848209011383 -0.179513160442382 0 0.30760611592130588 -0.18622262171548451 0 0.31279179353664482 -0.18124842157805821 0 0.30760611592130588 -0.18622262171548451 0 0.31279179353664482 -0.18124842157805821 0 0.31261501619004928 -0.18756057878826141 0 0.31279179353664482 -0.18124842157805821 0 0.31719174425304669 -0.18692947368401791 0 0.31261501619004928 -0.18756057878826141 0 0.31279179353664482 -0.18124842157805821 0 0.31719174425304669 -0.18692947368401791 0 0.31941409382288649 -0.17845932526271849 0 0.31719174425304669 -0.18692947368401791 0 0.32241808692234081 -0.18447660962033791 0 0.31941409382288649 -0.17845932526271849 0 0.32241808692234081 -0.18447660962033791 0 0.32613227912239312 -0.18730420852642549 0 0.32254525195180173 -0.18967856924860171 0 0.31719174425304669 -0.18692947368401791 0 0.32241808692234081 -0.18447660962033791 0 0.32254525195180173 -0.18967856924860171 0 0.32241808692234081 -0.18447660962033791 0 0.32530567498087692 -0.180301971524544 0 0.31941409382288649 -0.17845932526271849 0 0.32241808692234081 -0.18447660962033791 0 0.32530567498087692 -0.180301971524544 0 0.32634867481794699 -0.1835349323959832 0 0.32530567498087692 -0.180301971524544 0 0.32634867481794699 -0.1835349323959832 0 0.3296492823483258 -0.18131952781776789 0 0.32634867481794699 -0.1835349323959832 0 0.32613227912239312 -0.18730420852642549 0 0.32945588394575298 -0.18545441221331971 0 0.32241808692234081 -0.18447660962033791 0 0.32634867481794699 -0.1835349323959832 0 0.32613227912239312 -0.18730420852642549 0 0.31347176678255578 -0.1720272959379128 0 0.31941409382288649 -0.17845932526271849 0 0.32869823699288431 -0.1737194625259125 0 0.32530567498087692 -0.180301971524544 0 0.31941409382288649 -0.17845932526271849 0 0.32869823699288431 -0.1737194625259125 0 0.32530567498087692 -0.180301971524544 0 0.3296492823483258 -0.18131952781776789 0 0.32869823699288431 -0.1737194625259125 0 0.31279179353664482 -0.18124842157805821 0 0.31347176678255578 -0.1720272959379128 0 0.31941409382288649 -0.17845932526271849 0 0.31129157280251729 -0.1580392790423191 0 0.31347176678255578 -0.1720272959379128 0 0.32629583449249261 -0.16357410592890209 0 0.31347176678255578 -0.1720272959379128 0 0.32629583449249261 -0.16357410592890209 0 0.32869823699288431 -0.1737194625259125 0 0.32629583449249261 -0.16357410592890209 0 0.34357835345404403 -0.15742709104098021 0 0.32266575515150181 -0.1477659907270068 0 0.32629583449249261 -0.16357410592890209 0 0.34357835345404403 -0.15742709104098021 0 0.34654044164288639 -0.18287864569879039 0 0.32629583449249261 -0.16357410592890209 0 0.34510616894385882 -0.18509482448147779 0 0.33523771674143771 -0.18283998064034601 0 0.32869823699288431 -0.1737194625259125 0 0.34510616894385882 -0.18509482448147779 0 0.32629583449249261 -0.16357410592890209 0 0.32869823699288431 -0.1737194625259125 0 0.34510616894385882 -0.18509482448147779 0 0.32629583449249261 -0.16357410592890209 0 0.34510616894385882 -0.18509482448147779 0 0.34654044164288639 -0.18287864569879039 0 0.33942657298902901 -0.18590064221959479 0 0.33523771674143771 -0.18283998064034601 0 0.34510616894385882 -0.18509482448147779 0 0.33942657298902901 -0.18590064221959479 0 0.34510616894385882 -0.18509482448147779 0 0.33908283750081131 -0.19070218878694251 0 0.33942657298902901 -0.18590064221959479 0 0.33523771674143771 -0.18283998064034601 0 0.33577298275698181 -0.18645797513340401 0 0.33942657298902901 -0.18590064221959479 0 0.33577298275698181 -0.18645797513340401 0 0.33826200832795222 -0.18816426486852109 0 0.33523771674143771 -0.18283998064034601 0 0.33277305641754651 -0.18454745166391839 0 0.3296492823483258 -0.18131952781776789 0 0.33523771674143771 -0.18283998064034601 0 0.33577298275698181 -0.18645797513340401 0 0.33277305641754651 -0.18454745166391839 0 0.33577298275698181 -0.18645797513340401 0 0.33277305641754651 -0.18454745166391839 0 0.33257960430014322 -0.18773771313527779 0 0.33277305641754651 -0.18454745166391839 0 0.32945588394575298 -0.18545441221331971 0 0.3296492823483258 -0.18131952781776789 0 0.32945588394575298 -0.18545441221331971 0 0.33257960430014322 -0.18773771313527779 0 0.32942892362116688 -0.18861035236632251 0 0.33277305641754651 -0.18454745166391839 0 0.32945588394575298 -0.18545441221331971 0 0.33257960430014322 -0.18773771313527779 0 0.32613227912239312 -0.18730420852642549 0 0.32945588394575298 -0.18545441221331971 0 0.32942892362116688 -0.18861035236632251 0 0.32634867481794699 -0.1835349323959832 0 0.32945588394575298 -0.18545441221331971 0 0.3296492823483258 -0.18131952781776789 0 0.33523771674143771 -0.18283998064034601 0 0.3296492823483258 -0.18131952781776789 0 0.32869823699288431 -0.1737194625259125 0 0.32594740397003619 -0.12103341905376171 0 0.30749390161664181 -0.1219187744144741 0 0.31346039794782582 -0.13441176364300819 0 0.32594740397003619 -0.12103341905376171 0 0.31346039794782582 -0.13441176364300819 0 0.32718266993588557 -0.13480254446470741 0 0.31720489930789442 -0.14055064411907131 0 0.31346039794782582 -0.13441176364300819 0 0.32718266993588557 -0.13480254446470741 0 0.30748550004112729 -0.14205338737632539 0 0.31720489930789442 -0.14055064411907131 0 0.31346039794782582 -0.13441176364300819 0 0.30748550004112729 -0.14205338737632539 0 0.31129157280251729 -0.1580392790423191 0 0.32629583449249261 -0.16357410592890209 0 0.30748550004112729 -0.14205338737632539 0 0.32629583449249261 -0.16357410592890209 0 0.30748550004112729 -0.14205338737632539 0 0.32629583449249261 -0.16357410592890209 0 0.32266575515150181 -0.1477659907270068 0 0.31720489930789442 -0.14055064411907131 0 0.32718266993588557 -0.13480254446470741 0 0.32266575515150181 -0.1477659907270068 0 0.30748550004112729 -0.14205338737632539 0 0.31720489930789442 -0.14055064411907131 0 0.32266575515150181 -0.1477659907270068 0 0.34357835345404403 -0.15742709104098021 0 0.32266575515150181 -0.1477659907270068 0 0.34061626526520161 -0.13197553638317 0 0.34357835345404403 -0.15742709104098021 0 0.34061626526520161 -0.13197553638317 0 0.32718266993588557 -0.13480254446470741 0 0.32266575515150181 -0.1477659907270068 0 0.34061626526520161 -0.13197553638317 0 0.32594740397003619 -0.12103341905376171 0 0.32718266993588557 -0.13480254446470741 0 0.34061626526520161 -0.13197553638317 0 0.35377501148893192 -0.11982233019757731 0 0.34061626526520161 -0.13197553638317 0 0.35567925777413828 -0.1292210968545148 0 0.34061626526520161 -0.13197553638317 0 0.35567925777413828 -0.1292210968545148 0 0.3520596652055028 -0.14160239486461079 0 0.35567925777413828 -0.1292210968545148 0 0.3520596652055028 -0.14160239486461079 0 0.36362278160110229 -0.13859683824414029 0 0.34357835345404403 -0.15742709104098021 0 0.3520596652055028 -0.14160239486461079 0 0.3568016679330282 -0.15079141180024891 0 0.34357835345404403 -0.15742709104098021 0 0.34061626526520161 -0.13197553638317 0 0.3520596652055028 -0.14160239486461079 0 0.3520596652055028 -0.14160239486461079 0 0.3568016679330282 -0.15079141180024891 0 0.36362278160110229 -0.13859683824414029 0 0.3568016679330282 -0.15079141180024891 0 0.37009402596667629 -0.14648462253288819 0 0.35831723380478098 -0.16468163411583911 0 0.37009402596667629 -0.14648462253288819 0 0.35831723380478098 -0.16468163411583911 0 0.3568016679330282 -0.15079141180024891 0 0.37009402596667629 -0.14648462253288819 0 0.36362278160110229 -0.13859683824414029 0 0.38351179844785338 -0.11777169704359319 0 0.36362278160110229 -0.13859683824414029 0 0.38351179844785338 -0.11777169704359319 0 0.36979721931647791 -0.1239124930345446 0 0.36362278160110229 -0.13859683824414029 0 0.37009402596667629 -0.14648462253288819 0 0.37136155890903078 -0.13472669765894429 0 0.38300944660508401 -0.12652824937753429 0 0.38351179844785338 -0.11777169704359319 0 0.36362278160110229 -0.13859683824414029 0 0.37136155890903078 -0.13472669765894429 0 0.37009402596667629 -0.14648462253288819 0 0.36362278160110229 -0.13859683824414029 0 0.37136155890903078 -0.13472669765894429 0 0.37009402596667629 -0.14648462253288819 0 0.37136155890903078 -0.13472669765894429 0 0.36412591368213348 -0.1189485730140513 0 0.35567925777413828 -0.1292210968545148 0 0.36343021034973771 -0.12783340222303699 0 0.36979721931647791 -0.1239124930345446 0 0.36362278160110229 -0.13859683824414029 0 0.36343021034973771 -0.12783340222303699 0 0.35567925777413828 -0.1292210968545148 0 0.36362278160110229 -0.13859683824414029 0 0.36343021034973771 -0.12783340222303699 0 0.34654044164288639 -0.18287864569879039 0 0.35831723380478098 -0.16468163411583911 0 0.35724279803155762 -0.17550356377130191 0 0.34654044164288639 -0.18287864569879039 0 0.35831723380478098 -0.16468163411583911 0 0.35724279803155762 -0.17550356377130191 0 0.35674746765239262 -0.18266401600633439 0 0.34654044164288639 -0.18287864569879039 0 0.35674746765239262 -0.18266401600633439 0 0.34705829028881591 -0.18732822730341819 0 0.34654044164288639 -0.18287864569879039 0 0.34705829028881591 -0.18732822730341819 0 0.34510616894385882 -0.18509482448147779 0 0.34654044164288639 -0.18287864569879039 0 0.34705829028881591 -0.18732822730341819 0 0.34654044164288639 -0.18287864569879039 0 0.34705829028881591 -0.18732822730341819 0 0.34510616894385882 -0.18509482448147779 0 0.34510616894385882 -0.18509482448147779 0 0.34654044164288639 -0.18287864569879039 0 0.34357835345404403 -0.15742709104098021 0 0.34654044164288639 -0.18287864569879039 0 0.35831723380478098 -0.16468163411583911 0 0.34357835345404403 -0.15742709104098021 0 0.34654044164288639 -0.18287864569879039 0 0.34357835345404403 -0.15742709104098021 0 0.3568016679330282 -0.15079141180024891 0 0.35831723380478098 -0.16468163411583911 0 0.37009402596667629 -0.14648462253288819 0 0.35831723380478098 -0.16468163411583911 0 0.36736604902617032 -0.17178995926424381 0 0.37009402596667629 -0.14648462253288819 0 0.36736604902617032 -0.17178995926424381 0 0.37684010389737732 -0.16859387379759899 0 0.37009402596667629 -0.14648462253288819 0 0.36736604902617032 -0.17178995926424381 0 0.35724279803155762 -0.17550356377130191 0 0.35831723380478098 -0.16468163411583911 0 0.36736604902617032 -0.17178995926424381 0 0.36736604902617032 -0.17178995926424381 0 0.36463807208566301 -0.19709529599559919 0 0.35674746765239262 -0.18266401600633439 0 0.36736604902617032 -0.17178995926424381 0 0.36463807208566301 -0.19709529599559919 0 0.36736604902617032 -0.17178995926424381 0 0.37684010389737732 -0.16859387379759899 0 0.37932494907747699 -0.18006984040659099 0 0.36736604902617032 -0.17178995926424381 0 0.36463807208566301 -0.19709529599559919 0 0.37932494907747699 -0.18006984040659099 0 0.35724279803155762 -0.17550356377130191 0 0.35674746765239262 -0.18266401600633439 0 0.36736604902617032 -0.17178995926424381 0 0.36463807208566301 -0.19709529599559919 0 0.36191009514515571 -0.22240063272695459 0 0.36463807208566301 -0.19709529599559919 0 0.36191009514515571 -0.22240063272695459 0 0.37939432004002349 -0.20451699058946179 0 0.36463807208566301 -0.19709529599559919 0 0.36221155589754112 -0.2046649293785979 0 0.36191009514515571 -0.22240063272695459 0 0.36221155589754112 -0.2046649293785979 0 0.35010823274253872 -0.21353466415310349 0 0.36191009514515571 -0.22240063272695459 0 0.34705829028881591 -0.18732822730341819 0 0.36463807208566301 -0.19709529599559919 0 0.36221155589754112 -0.2046649293785979 0 0.34705829028881591 -0.18732822730341819 0 0.36221155589754112 -0.2046649293785979 0 0.34705829028881591 -0.18732822730341819 0 0.35010823274253872 -0.21353466415310349 0 0.33512497771989452 -0.2005173478492436 0 0.34705829028881591 -0.18732822730341819 0 0.36221155589754112 -0.2046649293785979 0 0.35010823274253872 -0.21353466415310349 0 0.34705829028881591 -0.18732822730341819 0 0.35010823274253872 -0.21353466415310349 0 0.35674746765239262 -0.18266401600633439 0 0.34705829028881591 -0.18732822730341819 0 0.36463807208566301 -0.19709529599559919 0 0.34705829028881591 -0.18732822730341819 0 0.34510616894385882 -0.18509482448147779 0 0.33512497771989452 -0.2005173478492436 0 0.34510616894385882 -0.18509482448147779 0 0.33908283750081131 -0.19070218878694251 0 0.33512497771989452 -0.2005173478492436 0 0.33908283750081131 -0.19070218878694251 0 0.33475622594623339 -0.19204245031626571 0 0.33512497771989452 -0.2005173478492436 0 0.34510616894385882 -0.18509482448147779 0 0.33512497771989452 -0.2005173478492436 0 0.33908283750081131 -0.19070218878694251 0 0.33826200832795222 -0.18816426486852109 0 0.33475622594623339 -0.19204245031626571 0 0.33942657298902901 -0.18590064221959479 0 0.33908283750081131 -0.19070218878694251 0 0.33826200832795222 -0.18816426486852109 0 0.33826200832795222 -0.18816426486852109 0 0.33529521512888372 -0.18962316730084319 0 0.33475622594623339 -0.19204245031626571 0 0.33577298275698181 -0.18645797513340401 0 0.33826200832795222 -0.18816426486852109 0 0.33529521512888372 -0.18962316730084319 0 0.33577298275698181 -0.18645797513340401 0 0.33257960430014322 -0.18773771313527779 0 0.33529521512888372 -0.18962316730084319 0 0.33257960430014322 -0.18773771313527779 0 0.33529521512888372 -0.18962316730084319 0 0.33193451428590742 -0.191493606142498 0 0.33529521512888372 -0.18962316730084319 0 0.33475622594623339 -0.19204245031626571 0 0.33193451428590742 -0.191493606142498 0 0.33475622594623339 -0.19204245031626571 0 0.33318204250402311 -0.1952484556222901 0 0.33193451428590742 -0.191493606142498 0 0.33318204250402311 -0.1952484556222901 0 0.32819766119883792 -0.19475187566516849 0 0.33193451428590742 -0.191493606142498 0 0.32819766119883792 -0.19475187566516849 0 0.33193451428590742 -0.191493606142498 0 0.32657094077081011 -0.1910723260489475 0 0.33193451428590742 -0.191493606142498 0 0.32942892362116688 -0.18861035236632251 0 0.32657094077081011 -0.1910723260489475 0 0.33257960430014322 -0.18773771313527779 0 0.33193451428590742 -0.191493606142498 0 0.32942892362116688 -0.18861035236632251 0 0.33475622594623339 -0.19204245031626571 0 0.33318204250402311 -0.1952484556222901 0 0.33512497771989452 -0.2005173478492436 0 0.33187512688263082 -0.20275368201312791 0 0.32977154698172312 -0.1987808801212366 0 0.32762357102976991 -0.2045026771328049 0 0.33187512688263082 -0.20275368201312791 0 0.32977154698172312 -0.1987808801212366 0 0.33248842352206781 -0.19932509140147461 0 0.33318204250402311 -0.1952484556222901 0 0.32977154698172312 -0.1987808801212366 0 0.33248842352206781 -0.19932509140147461 0 0.33318204250402311 -0.1952484556222901 0 0.32819766119883792 -0.19475187566516849 0 0.32977154698172312 -0.1987808801212366 0 0.33318204250402311 -0.1952484556222901 0 0.33512497771989452 -0.2005173478492436 0 0.33248842352206781 -0.19932509140147461 0 0.33187512688263082 -0.20275368201312791 0 0.33512497771989452 -0.2005173478492436 0 0.33248842352206781 -0.19932509140147461 0 0.33187512688263082 -0.20275368201312791 0 0.34251665103944701 -0.22124739150795811 0 0.35010823274253872 -0.21353466415310349 0 0.33187512688263082 -0.20275368201312791 0 0.34251665103944701 -0.22124739150795811 0 0.33187512688263082 -0.20275368201312791 0 0.33244699371596398 -0.21454336721552411 0 0.34251665103944701 -0.22124739150795811 0 0.35010823274253872 -0.21353466415310349 0 0.33187512688263082 -0.20275368201312791 0 0.33512497771989452 -0.2005173478492436 0 0.33244699371596398 -0.21454336721552411 0 0.3261070881010173 -0.21646398205542919 0 0.33326685366964959 -0.2230071495036795 0 0.33244699371596398 -0.21454336721552411 0 0.32813898291487148 -0.2093466307607435 0 0.3261070881010173 -0.21646398205542919 0 0.33187512688263082 -0.20275368201312791 0 0.33244699371596398 -0.21454336721552411 0 0.32813898291487148 -0.2093466307607435 0 0.33187512688263082 -0.20275368201312791 0 0.32813898291487148 -0.2093466307607435 0 0.32762357102976991 -0.2045026771328049 0 0.32762357102976991 -0.2045026771328049 0 0.32250722305311408 -0.2082394657176341 0 0.3246485444914759 -0.20138730433588109 0 0.32813898291487148 -0.2093466307607435 0 0.32762357102976991 -0.2045026771328049 0 0.32250722305311408 -0.2082394657176341 0 0.32250722305311408 -0.2082394657176341 0 0.31895890280308797 -0.20218279390574839 0 0.3246485444914759 -0.20138730433588109 0 0.32250722305311408 -0.2082394657176341 0 0.3261070881010173 -0.21646398205542919 0 0.31621987405555241 -0.21587579390444259 0 0.32813898291487148 -0.2093466307607435 0 0.32250722305311408 -0.2082394657176341 0 0.3261070881010173 -0.21646398205542919 0 0.30954756667419681 -0.2096301180985988 0 0.31621987405555241 -0.21587579390444259 0 0.31565070616244301 -0.20791830884500689 0 0.32250722305311408 -0.2082394657176341 0 0.31621987405555241 -0.21587579390444259 0 0.31565070616244301 -0.20791830884500689 0 0.32250722305311408 -0.2082394657176341 0 0.31565070616244301 -0.20791830884500689 0 0.31895890280308797 -0.20218279390574839 0 0.30954756667419681 -0.2096301180985988 0 0.31565070616244301 -0.20791830884500689 0 0.31273909865769289 -0.2027463082668724 0 0.31565070616244301 -0.20791830884500689 0 0.31273909865769289 -0.2027463082668724 0 0.31895890280308797 -0.20218279390574839 0 0.31273909865769289 -0.2027463082668724 0 0.31895890280308797 -0.20218279390574839 0 0.31334237436966961 -0.19737686197577739 0 0.31895890280308797 -0.20218279390574839 0 0.31839360215580831 -0.1964656913724547 0 0.32184683589073609 -0.19851248194364529 0 0.31895890280308797 -0.20218279390574839 0 0.31839360215580831 -0.1964656913724547 0 0.31334237436966961 -0.19737686197577739 0 0.31196712353831002 -0.19243178167646299 0 0.31839360215580831 -0.1964656913724547 0 0.31334237436966961 -0.19737686197577739 0 0.31196712353831002 -0.19243178167646299 0 0.31839360215580831 -0.1964656913724547 0 0.31760101419533338 -0.19122748584396129 0 0.31196712353831002 -0.19243178167646299 0 0.31261501619004928 -0.18756057878826141 0 0.31760101419533338 -0.19122748584396129 0 0.31719174425304669 -0.18692947368401791 0 0.31261501619004928 -0.18756057878826141 0 0.31760101419533338 -0.19122748584396129 0 0.31719174425304669 -0.18692947368401791 0 0.31760101419533338 -0.19122748584396129 0 0.32254525195180173 -0.18967856924860171 0 0.31839360215580831 -0.1964656913724547 0 0.31760101419533338 -0.19122748584396129 0 0.32318070001755622 -0.1943169009919338 0 0.31760101419533338 -0.19122748584396129 0 0.32318070001755622 -0.1943169009919338 0 0.32254525195180173 -0.18967856924860171 0 0.32318070001755622 -0.1943169009919338 0 0.32254525195180173 -0.18967856924860171 0 0.32657094077081011 -0.1910723260489475 0 0.32613227912239312 -0.18730420852642549 0 0.32254525195180173 -0.18967856924860171 0 0.32657094077081011 -0.1910723260489475 0 0.32613227912239312 -0.18730420852642549 0 0.32942892362116688 -0.18861035236632251 0 0.32657094077081011 -0.1910723260489475 0 0.32819766119883792 -0.19475187566516849 0 0.32318070001755622 -0.1943169009919338 0 0.32657094077081011 -0.1910723260489475 0 0.32819766119883792 -0.19475187566516849 0 0.32977154698172312 -0.1987808801212366 0 0.32552905771606588 -0.1975498886115731 0 0.32819766119883792 -0.19475187566516849 0 0.32318070001755622 -0.1943169009919338 0 0.32552905771606588 -0.1975498886115731 0 0.32977154698172312 -0.1987808801212366 0 0.32762357102976991 -0.2045026771328049 0 0.3246485444914759 -0.20138730433588109 0 0.32977154698172312 -0.1987808801212366 0 0.32552905771606588 -0.1975498886115731 0 0.3246485444914759 -0.20138730433588109 0 0.31895890280308797 -0.20218279390574839 0 0.3246485444914759 -0.20138730433588109 0 0.32184683589073609 -0.19851248194364529 0 0.31839360215580831 -0.1964656913724547 0 0.32318070001755622 -0.1943169009919338 0 0.32184683589073609 -0.19851248194364529 0 0.32318070001755622 -0.1943169009919338 0 0.32552905771606588 -0.1975498886115731 0 0.32184683589073609 -0.19851248194364529 0 0.32552905771606588 -0.1975498886115731 0 0.3246485444914759 -0.20138730433588109 0 0.32184683589073609 -0.19851248194364529 0 0.30054527057508201 -0.2392462996339064 0 0.31659941824500842 -0.2382968576379724 0 0.32282519411091049 -0.25208168099931572 0 0.32650427446612817 -0.2428450432927195 0 0.32308127996223868 -0.22881812435033611 0 0.33297114901272751 -0.2356792493015728 0 0.32650427446612817 -0.2428450432927195 0 0.31659941824500842 -0.2382968576379724 0 0.32308127996223868 -0.22881812435033611 0 0.32650427446612817 -0.2428450432927195 0 0.31659941824500842 -0.2382968576379724 0 0.32282519411091049 -0.25208168099931572 0 0.31011927762462388 -0.2279011094452788 0 0.31659941824500842 -0.2382968576379724 0 0.32308127996223868 -0.22881812435033611 0 0.31011927762462388 -0.2279011094452788 0 0.31621987405555241 -0.21587579390444259 0 0.32308127996223868 -0.22881812435033611 0 0.3261070881010173 -0.21646398205542919 0 0.32308127996223868 -0.22881812435033611 0 0.33326685366964959 -0.2230071495036795 0 0.3261070881010173 -0.21646398205542919 0 0.31621987405555241 -0.21587579390444259 0 0.32308127996223868 -0.22881812435033611 0 0.32308127996223868 -0.22881812435033611 0 0.33326685366964959 -0.2230071495036795 0 0.33297114901272751 -0.2356792493015728 0 0.33244699371596398 -0.21454336721552411 0 0.33326685366964959 -0.2230071495036795 0 0.34251665103944701 -0.22124739150795811 0 0.33326685366964959 -0.2230071495036795 0 0.34251665103944701 -0.22124739150795811 0 0.34180008451129051 -0.23346649264274219 0 0.33326685366964959 -0.2230071495036795 0 0.34180008451129051 -0.23346649264274219 0 0.33297114901272751 -0.2356792493015728 0 0.32650427446612817 -0.2428450432927195 0 0.32282519411091049 -0.25208168099931572 0 0.33849036963403628 -0.25019631002701931 0 0.34180008451129051 -0.23346649264274219 0 0.33297114901272751 -0.2356792493015728 0 0.33849036963403628 -0.25019631002701931 0 0.32650427446612817 -0.2428450432927195 0 0.33297114901272751 -0.2356792493015728 0 0.33849036963403628 -0.25019631002701931 0 0.35415554515716102 -0.24831093905471299 0 0.33849036963403628 -0.25019631002701931 0 0.35315817519626219 -0.23974110100278881 0 0.35783458666365131 -0.24786815065110421 0 0.36191009514515571 -0.22240063272695459 0 0.34180008451129051 -0.23346649264274219 0 0.35315817519626219 -0.23974110100278881 0 0.33849036963403628 -0.25019631002701931 0 0.35315817519626219 -0.23974110100278881 0 0.35415554515716102 -0.24831093905471299 0 0.33849036963403628 -0.25019631002701931 0 0.35315817519626219 -0.23974110100278881 0 0.35783458666365131 -0.24786815065110421 0 0.35315817519626219 -0.23974110100278881 0 0.35415554515716102 -0.24831093905471299 0 0.35315817519626219 -0.23974110100278881 0 0.35783458666365131 -0.24786815065110421 0 0.35415554515716102 -0.24831093905471299 0 0.35783458666365131 -0.24786815065110421 0 0.3589547705978951 -0.24981489774816881 0 0.35415554515716102 -0.24831093905471299 0 0.35783458666365131 -0.24786815065110421 0 0.3589547705978951 -0.24981489774816881 0 0.35783458666365131 -0.24786815065110421 0 0.35415554515716102 -0.24831093905471299 0 0.35010823274253872 -0.21353466415310349 0 0.35315817519626219 -0.23974110100278881 0 0.36191009514515571 -0.22240063272695459 0 0.34251665103944701 -0.22124739150795811 0 0.35315817519626219 -0.23974110100278881 0 0.35010823274253872 -0.21353466415310349 0 0.35315817519626219 -0.23974110100278881 0 0.35010823274253872 -0.21353466415310349 0 0.34251665103944701 -0.22124739150795811 0 0.35315817519626219 -0.23974110100278881 0 0.34251665103944701 -0.22124739150795811 0 0.34180008451129051 -0.23346649264274219 0 0.35315817519626219 -0.23974110100278881 0 0.36191009514515571 -0.22240063272695459 0 0.37641765629879148 -0.2456315986243163 0 0.38330783886485781 -0.23251967314531491 0 0.35783458666365131 -0.24786815065110421 0 0.37641765629879148 -0.2456315986243163 0 0.36854417670357048 -0.25292360155684701 0 0.35783458666365131 -0.24786815065110421 0 0.36191009514515571 -0.22240063272695459 0 0.35783458666365131 -0.24786815065110421 0 0.37641765629879148 -0.2456315986243163 0 0.35783458666365131 -0.24786815065110421 0 0.36191009514515571 -0.22240063272695459 0 0.37641765629879148 -0.2456315986243163 0 0.37641765629879148 -0.2456315986243163 0 0.39365319439293311 -0.2435572277903183 0 0.38035274350617743 -0.2561222821423137 0 0.37641765629879148 -0.2456315986243163 0 0.39365319439293311 -0.2435572277903183 0 0.37641765629879148 -0.2456315986243163 0 0.39365319439293311 -0.2435572277903183 0 0.38330783886485781 -0.23251967314531491 0 0.39365319439293311 -0.2435572277903183 0 0.39687768398386292 -0.23045161197181521 0 0.41440413361372069 -0.24546874755649339 0 0.39365319439293311 -0.2435572277903183 0 0.39687768398386292 -0.23045161197181521 0 0.38330783886485781 -0.23251967314531491 0 0.39687768398386292 -0.23045161197181521 0 0.38696802312366629 -0.21919579932641189 0 0.40064814296106699 -0.21081750419035281 0 0.39687768398386292 -0.23045161197181521 0 0.40064814296106699 -0.21081750419035281 0 0.41028621025593892 -0.22891345648057021 0 0.36191009514515571 -0.22240063272695459 0 0.38696802312366629 -0.21919579932641189 0 0.38330783886485781 -0.23251967314531491 0 0.39687768398386292 -0.23045161197181521 0 0.38696802312366629 -0.21919579932641189 0 0.38330783886485781 -0.23251967314531491 0 0.38696802312366629 -0.21919579932641189 0 0.37939432004002349 -0.20451699058946179 0 0.40064814296106699 -0.21081750419035281 0 0.36191009514515571 -0.22240063272695459 0 0.38696802312366629 -0.21919579932641189 0 0.37939432004002349 -0.20451699058946179 0 0.37939432004002349 -0.20451699058946179 0 0.38857310407839712 -0.19200222071672371 0 0.40064814296106699 -0.21081750419035281 0 0.36463807208566301 -0.19709529599559919 0 0.37939432004002349 -0.20451699058946179 0 0.38857310407839712 -0.19200222071672371 0 0.36463807208566301 -0.19709529599559919 0 0.38857310407839712 -0.19200222071672371 0 0.37932494907747699 -0.18006984040659099 0 0.38857310407839712 -0.19200222071672371 0 0.40064814296106699 -0.21081750419035281 0 0.40905747417659222 -0.18512238453120539 0 0.41593046947905848 -0.201027643600275 0 0.4232051350175331 -0.2184679688445656 0 0.41028621025593892 -0.22891345648057021 0 0.40064814296106699 -0.21081750419035281 0 0.41593046947905848 -0.201027643600275 0 0.41028621025593892 -0.22891345648057021 0 0.41593046947905848 -0.201027643600275 0 0.41028621025593892 -0.22891345648057021 0 0.40064814296106699 -0.21081750419035281 0 0.41593046947905848 -0.201027643600275 0 0.40905747417659222 -0.18512238453120539 0 0.41593046947905848 -0.201027643600275 0 0.43411046422807009 -0.19709623150661801 0 0.42157472870217738 -0.17314183071997971 0 0.41593046947905848 -0.201027643600275 0 0.43411046422807009 -0.19709623150661801 0 0.42731341845956933 -0.2078629958131365 0 0.41593046947905848 -0.201027643600275 0 0.4232051350175331 -0.2184679688445656 0 0.42731341845956933 -0.2078629958131365 0 0.43411046422807009 -0.19709623150661801 0 0.42731341845956933 -0.2078629958131365 0 0.43600760511361553 -0.21486013930108749 0 0.4232051350175331 -0.2184679688445656 0 0.42731341845956933 -0.2078629958131365 0 0.43600760511361553 -0.21486013930108749 0 0.4232051350175331 -0.2184679688445656 0 0.43600760511361553 -0.21486013930108749 0 0.43324988033689982 -0.2278651346812291 0 0.43600760511361553 -0.21486013930108749 0 0.43324988033689982 -0.2278651346812291 0 0.43600760511361553 -0.21486013930108749 0 0.43324988033689982 -0.2278651346812291 0 0.44297116329597919 -0.2187845869918181 0 0.4232051350175331 -0.2184679688445656 0 0.43324988033689982 -0.2278651346812291 0 0.42028633980602309 -0.23017882689071451 0 0.43324988033689982 -0.2278651346812291 0 0.41440413361372069 -0.24546874755649339 0 0.43324988033689982 -0.2278651346812291 0 0.41440413361372069 -0.24546874755649339 0 0.42738697927529867 -0.25551365198940817 0 0.43324988033689982 -0.2278651346812291 0 0.41440413361372069 -0.24546874755649339 0 0.42028633980602309 -0.23017882689071451 0 0.43324988033689982 -0.2278651346812291 0 0.4400288186723188 -0.240254335932369 0 0.42738697927529867 -0.25551365198940817 0 0.43324988033689982 -0.2278651346812291 0 0.42738697927529867 -0.25551365198940817 0 0.41440413361372069 -0.24546874755649339 0 0.41028621025593892 -0.22891345648057021 0 0.42028633980602309 -0.23017882689071451 0 0.39687768398386292 -0.23045161197181521 0 0.41440413361372069 -0.24546874755649339 0 0.41028621025593892 -0.22891345648057021 0 0.4232051350175331 -0.2184679688445656 0 0.41028621025593892 -0.22891345648057021 0 0.42028633980602309 -0.23017882689071451 0 0.39973173221415942 -0.1285909049216542 0 0.4030520280835122 -0.14082858451689051 0 0.40919305284169633 -0.1293941054884252 0 0.39973173221415942 -0.1285909049216542 0 0.39138406616993598 -0.1340549971302038 0 0.4030520280835122 -0.14082858451689051 0 0.39973173221415942 -0.1285909049216542 0 0.39138406616993598 -0.1340549971302038 0 0.39222318798589811 -0.1273142468786132 0 0.39476750695441232 -0.1200828360850604 0 0.39973173221415942 -0.1285909049216542 0 0.39222318798589811 -0.1273142468786132 0 0.38351179844785338 -0.11777169704359319 0 0.37136155890903078 -0.13472669765894429 0 0.38300944660508401 -0.12652824937753429 0 0.37009402596667629 -0.14648462253288819 0 0.38300944660508401 -0.12652824937753429 0 0.39138406616993598 -0.1340549971302038 0 0.39222318798589811 -0.1273142468786132 0 0.38300944660508401 -0.12652824937753429 0 0.37009402596667629 -0.14648462253288819 0 0.38300944660508401 -0.12652824937753429 0 0.3841690544361111 -0.14150382873199391 0 0.39138406616993598 -0.1340549971302038 0 0.38300944660508401 -0.12652824937753429 0 0.3841690544361111 -0.14150382873199391 0 0.39138406616993598 -0.1340549971302038 0 0.3841690544361111 -0.14150382873199391 0 0.39334079159807611 -0.14791974317069301 0 0.3841690544361111 -0.14150382873199391 0 0.38301694184078378 -0.15253153144865081 0 0.39334079159807611 -0.14791974317069301 0 0.37009402596667629 -0.14648462253288819 0 0.38301694184078378 -0.15253153144865081 0 0.37684010389737732 -0.16859387379759899 0 0.37009402596667629 -0.14648462253288819 0 0.3841690544361111 -0.14150382873199391 0 0.38301694184078378 -0.15253153144865081 0 0.38301694184078378 -0.15253153144865081 0 0.39334079159807611 -0.14791974317069301 0 0.39196281629041502 -0.1591835935716864 0 0.39334079159807611 -0.14791974317069301 0 0.39196281629041502 -0.1591835935716864 0 0.40740882781606058 -0.15600496718269971 0 0.39138406616993598 -0.1340549971302038 0 0.39334079159807611 -0.14791974317069301 0 0.4030520280835122 -0.14082858451689051 0 0.39334079159807611 -0.14791974317069301 0 0.4030520280835122 -0.14082858451689051 0 0.40740882781606058 -0.15600496718269971 0 0.39920741629977741 -0.17086785225878931 0 0.39196281629041502 -0.1591835935716864 0 0.40740882781606058 -0.15600496718269971 0 0.39920741629977741 -0.17086785225878931 0 0.39196281629041502 -0.1591835935716864 0 0.37684010389737732 -0.16859387379759899 0 0.39920741629977741 -0.17086785225878931 0 0.37684010389737732 -0.16859387379759899 0 0.38301694184078378 -0.15253153144865081 0 0.39196281629041502 -0.1591835935716864 0 0.37684010389737732 -0.16859387379759899 0 0.38857310407839712 -0.19200222071672371 0 0.39920741629977741 -0.17086785225878931 0 0.37932494907747699 -0.18006984040659099 0 0.39920741629977741 -0.17086785225878931 0 0.37684010389737732 -0.16859387379759899 0 0.37932494907747699 -0.18006984040659099 0 0.38857310407839712 -0.19200222071672371 0 0.39920741629977741 -0.17086785225878931 0 0.40905747417659222 -0.18512238453120539 0 0.39920741629977741 -0.17086785225878931 0 0.40905747417659222 -0.18512238453120539 0 0.42157472870217738 -0.17314183071997971 0 0.39920741629977741 -0.17086785225878931 0 0.42157472870217738 -0.17314183071997971 0 0.41593046947905848 -0.201027643600275 0 0.42157472870217738 -0.17314183071997971 0 0.41593046947905848 -0.201027643600275 0 0.40905747417659222 -0.18512238453120539 0 0.42157472870217738 -0.17314183071997971 0 0.42157472870217738 -0.17314183071997971 0 0.44743840444857658 -0.1757712678430651 0 0.43411046422807009 -0.19709623150661801 0 0.42157472870217738 -0.17314183071997971 0 0.44743840444857658 -0.1757712678430651 0 0.42157472870217738 -0.17314183071997971 0 0.42529692781514972 -0.15475207506482441 0 0.44075497358700239 -0.15985245203467019 0 0.42157472870217738 -0.17314183071997971 0 0.42529692781514972 -0.15475207506482441 0 0.42157472870217738 -0.17314183071997971 0 0.44075497358700239 -0.15985245203467019 0 0.44743840444857658 -0.1757712678430651 0 0.39920741629977741 -0.17086785225878931 0 0.42157472870217738 -0.17314183071997971 0 0.40740882781606058 -0.15600496718269971 0 0.42157472870217738 -0.17314183071997971 0 0.40740882781606058 -0.15600496718269971 0 0.42529692781514972 -0.15475207506482441 0 0.40740882781606058 -0.15600496718269971 0 0.41560987536442268 -0.14363063829725109 0 0.42529692781514972 -0.15475207506482441 0 0.4030520280835122 -0.14082858451689051 0 0.40740882781606058 -0.15600496718269971 0 0.41560987536442268 -0.14363063829725109 0 0.42529692781514972 -0.15475207506482441 0 0.42901912692812127 -0.136362319409669 0 0.41560987536442268 -0.14363063829725109 0 0.42529692781514972 -0.15475207506482441 0 0.42901912692812127 -0.136362319409669 0 0.42529692781514972 -0.15475207506482441 0 0.43706074958256869 -0.14756156882981961 0 0.42901912692812127 -0.136362319409669 0 0.42529692781514972 -0.15475207506482441 0 0.43706074958256869 -0.14756156882981961 0 0.44075497358700239 -0.15985245203467019 0 0.42146129709783398 -0.11840302637901851 0 0.42901912692812127 -0.136362319409669 0 0.44222101677141978 -0.12795478293019949 0 0.43706074958256869 -0.14756156882981961 0 0.42901912692812127 -0.136362319409669 0 0.44222101677141978 -0.12795478293019949 0 0.42146129709783398 -0.11840302637901851 0 0.41560987536442268 -0.14363063829725109 0 0.42901912692812127 -0.136362319409669 0 0.42146129709783398 -0.11840302637901851 0 0.41560987536442268 -0.14363063829725109 0 0.42146129709783398 -0.11840302637901851 0 0.41560987536442268 -0.14363063829725109 0 0.40919305284169633 -0.1293941054884252 0 0.4030520280835122 -0.14082858451689051 0 0.41560987536442268 -0.14363063829725109 0 0.40919305284169633 -0.1293941054884252 0 0.46009609259468748 -0.1229714997271829 0 0.45235136741166199 -0.14549286810860551 0 0.46865818292044381 -0.14696492347711379 0 0.43706074958256869 -0.14756156882981961 0 0.44222101677141978 -0.12795478293019949 0 0.45235136741166199 -0.14549286810860551 0 0.46009609259468748 -0.1229714997271829 0 0.44222101677141978 -0.12795478293019949 0 0.45235136741166199 -0.14549286810860551 0 0.45235136741166199 -0.14549286810860551 0 0.46080766356188058 -0.16239510164172741 0 0.44075497358700239 -0.15985245203467019 0 0.43706074958256869 -0.14756156882981961 0 0.45235136741166199 -0.14549286810860551 0 0.44075497358700239 -0.15985245203467019 0 0.45235136741166199 -0.14549286810860551 0 0.46865818292044381 -0.14696492347711379 0 0.46080766356188058 -0.16239510164172741 0 0.46080766356188058 -0.16239510164172741 0 0.44075497358700239 -0.15985245203467019 0 0.44743840444857658 -0.1757712678430651 0 0.44743840444857658 -0.1757712678430651 0 0.47330208019497583 -0.1784007049661506 0 0.46439375952493711 -0.19158588872248941 0 0.44743840444857658 -0.1757712678430651 0 0.47330208019497583 -0.1784007049661506 0 0.46080766356188058 -0.16239510164172741 0 0.44743840444857658 -0.1757712678430651 0 0.47330208019497583 -0.1784007049661506 0 0.49056559558816359 -0.1746514412567878 0 0.4815089251268535 -0.16232016405518229 0 0.48075345722580087 -0.1877125845989279 0 0.47330208019497583 -0.1784007049661506 0 0.4815089251268535 -0.16232016405518229 0 0.48075345722580087 -0.1877125845989279 0 0.4815089251268535 -0.16232016405518229 0 0.48075345722580087 -0.1877125845989279 0 0.47330208019497583 -0.1784007049661506 0 0.46439375952493711 -0.19158588872248941 0 0.48075345722580087 -0.1877125845989279 0 0.49056559558816359 -0.1746514412567878 0 0.48075345722580087 -0.1877125845989279 0 0.5 -0.1891640421965366 0 0.49056559558816359 -0.1746514412567878 0 0.5 -0.15940897417650421 0 0.5 -0.1891640421965366 0 0.49056559558816359 -0.1746514412567878 0 0.5 -0.15940897417650421 0 0.4815089251268535 -0.16232016405518229 0 0.46080766356188058 -0.16239510164172741 0 0.47330208019497583 -0.1784007049661506 0 0.4815089251268535 -0.16232016405518229 0 0.46865818292044381 -0.14696492347711379 0 0.46080766356188058 -0.16239510164172741 0 0.4815089251268535 -0.16232016405518229 0 0.46865818292044381 -0.14696492347711379 0 0.4815089251268535 -0.16232016405518229 0 0.48226439302790602 -0.13692774351143669 0 0.4815089251268535 -0.16232016405518229 0 0.48226439302790602 -0.13692774351143669 0 0.5 -0.15940897417650421 0 0.5 -0.1296539061564719 0 0.48226439302790602 -0.13692774351143669 0 0.5 -0.15940897417650421 0 0.4815089251268535 -0.16232016405518229 0 0.48226439302790602 -0.13692774351143669 0 0.48301986092895871 -0.1115353229676911 0 0.5 -0.1296539061564719 0 0.48226439302790602 -0.13692774351143669 0 0.46009609259468748 -0.1229714997271829 0 0.46865818292044381 -0.14696492347711379 0 0.48226439302790602 -0.13692774351143669 0 0.45798871238403738 -0.22251112456942221 0 0.46658944248437939 -0.23473678370529871 0 0.450864800185385 -0.2358078852538994 0 0.45798871238403738 -0.22251112456942221 0 0.46658944248437939 -0.23473678370529871 0 0.47043978602270242 -0.21943415244410591 0 0.46658944248437939 -0.23473678370529871 0 0.46142632750171242 -0.24828586013282899 0 0.450864800185385 -0.2358078852538994 0 0.46658944248437939 -0.23473678370529871 0 0.46142632750171242 -0.24828586013282899 0 0.47602865925542581 -0.25123139893216417 0 0.450864800185385 -0.2358078852538994 0 0.4400288186723188 -0.240254335932369 0 0.44584296358024628 -0.25374034044481741 0 0.46142632750171242 -0.24828586013282899 0 0.450864800185385 -0.2358078852538994 0 0.44584296358024628 -0.25374034044481741 0 0.4400288186723188 -0.240254335932369 0 0.44584296358024628 -0.25374034044481741 0 0.42738697927529867 -0.25551365198940817 0 0.450864800185385 -0.2358078852538994 0 0.4400288186723188 -0.240254335932369 0 0.44336806644682392 -0.22927988372866789 0 0.43324988033689982 -0.2278651346812291 0 0.4400288186723188 -0.240254335932369 0 0.44336806644682392 -0.22927988372866789 0 0.45798871238403738 -0.22251112456942221 0 0.450864800185385 -0.2358078852538994 0 0.44920615745045678 -0.22433892601025821 0 0.450864800185385 -0.2358078852538994 0 0.44336806644682392 -0.22927988372866789 0 0.44920615745045678 -0.22433892601025821 0 0.45798871238403738 -0.22251112456942221 0 0.44920615745045678 -0.22433892601025821 0 0.45083804494005891 -0.21531114950748331 0 0.44920615745045678 -0.22433892601025821 0 0.44297116329597919 -0.2187845869918181 0 0.45083804494005891 -0.21531114950748331 0 0.43324988033689982 -0.2278651346812291 0 0.44297116329597919 -0.2187845869918181 0 0.44336806644682392 -0.22927988372866789 0 0.44920615745045678 -0.22433892601025821 0 0.44297116329597919 -0.2187845869918181 0 0.43324988033689982 -0.2278651346812291 0 0.44336806644682392 -0.22927988372866789 0 0.44297116329597919 -0.2187845869918181 0 0.43411046422807009 -0.19709623150661801 0 0.43600760511361553 -0.21486013930108749 0 0.44467063861226352 -0.20762872129737231 0 0.43600760511361553 -0.21486013930108749 0 0.44297116329597919 -0.2187845869918181 0 0.44467063861226352 -0.20762872129737231 0 0.44467063861226352 -0.20762872129737231 0 0.45083804494005891 -0.21531114950748331 0 0.4582993687653325 -0.20883283290148691 0 0.44467063861226352 -0.20762872129737231 0 0.4500389245637747 -0.19732299792408631 0 0.4582993687653325 -0.20883283290148691 0 0.44297116329597919 -0.2187845869918181 0 0.44467063861226352 -0.20762872129737231 0 0.45083804494005891 -0.21531114950748331 0 0.43411046422807009 -0.19709623150661801 0 0.44467063861226352 -0.20762872129737231 0 0.4500389245637747 -0.19732299792408631 0 0.43411046422807009 -0.19709623150661801 0 0.44743840444857658 -0.1757712678430651 0 0.4500389245637747 -0.19732299792408631 0 0.44743840444857658 -0.1757712678430651 0 0.4500389245637747 -0.19732299792408631 0 0.46439375952493711 -0.19158588872248941 0 0.46439375952493711 -0.19158588872248941 0 0.4582993687653325 -0.20883283290148691 0 0.47542108128310712 -0.20260631058943929 0 0.4500389245637747 -0.19732299792408631 0 0.46439375952493711 -0.19158588872248941 0 0.4582993687653325 -0.20883283290148691 0 0.4582993687653325 -0.20883283290148691 0 0.47542108128310712 -0.20260631058943929 0 0.47043978602270242 -0.21943415244410591 0 0.45798871238403738 -0.22251112456942221 0 0.45083804494005891 -0.21531114950748331 0 0.4582993687653325 -0.20883283290148691 0 0.45798871238403738 -0.22251112456942221 0 0.4582993687653325 -0.20883283290148691 0 0.47043978602270242 -0.21943415244410591 0 0.48349584958702252 -0.2146266505882585 0 0.47542108128310712 -0.20260631058943929 0 0.47043978602270242 -0.21943415244410591 0 0.48349584958702252 -0.2146266505882585 0 0.47542108128310712 -0.20260631058943929 0 0.48883001107228891 -0.2010233987918067 0 0.46439375952493711 -0.19158588872248941 0 0.47542108128310712 -0.20260631058943929 0 0.48075345722580087 -0.1877125845989279 0 0.47542108128310712 -0.20260631058943929 0 0.48075345722580087 -0.1877125845989279 0 0.48883001107228891 -0.2010233987918067 0 0.5 -0.1891640421965366 0 0.48883001107228891 -0.2010233987918067 0 0.5 -0.2189191102165689 0 0.48075345722580087 -0.1877125845989279 0 0.5 -0.1891640421965366 0 0.48883001107228891 -0.2010233987918067 0 0.48349584958702252 -0.2146266505882585 0 0.48883001107228891 -0.2010233987918067 0 0.5 -0.2189191102165689 0 0.5 -0.2189191102165689 0 0.48278836955701371 -0.23115028089937181 0 0.5 -0.24867417823660129 0 0.48349584958702252 -0.2146266505882585 0 0.5 -0.2189191102165689 0 0.48278836955701371 -0.23115028089937181 0 0.48349584958702252 -0.2146266505882585 0 0.48278836955701371 -0.23115028089937181 0 0.47043978602270242 -0.21943415244410591 0 0.46658944248437939 -0.23473678370529871 0 0.48278836955701371 -0.23115028089937181 0 0.47043978602270242 -0.21943415244410591 0 0.46658944248437939 -0.23473678370529871 0 0.48278836955701371 -0.23115028089937181 0 0.47602865925542581 -0.25123139893216417 0 0.48278836955701371 -0.23115028089937181 0 0.5 -0.24867417823660129 0 0.47602865925542581 -0.25123139893216417 0 0.5 -0.24867417823660129 0 0.48808784623789808 -0.26350695559771742 0 0.47602865925542581 -0.25123139893216417 0 0.5 -0.24867417823660129 0 0.48808784623789808 -0.26350695559771742 0 0.5 -0.27467059507256808 0 0.5 -0.27467059507256808 0 0.48552726645786759 -0.27486842545263018 0 0.47819214223181111 -0.29297229045510748 0 0.48808784623789808 -0.26350695559771742 0 0.5 -0.27467059507256808 0 0.48552726645786759 -0.27486842545263018 0 0.48552726645786759 -0.27486842545263018 0 0.47595339270544518 -0.26832386068512781 0 0.47819214223181111 -0.29297229045510748 0 0.48808784623789808 -0.26350695559771742 0 0.48552726645786759 -0.27486842545263018 0 0.47595339270544518 -0.26832386068512781 0 0.47595339270544518 -0.26832386068512781 0 0.47602865925542581 -0.25123139893216417 0 0.46128382727624051 -0.26367405488039941 0 0.48808784623789808 -0.26350695559771742 0 0.47595339270544518 -0.26832386068512781 0 0.47602865925542581 -0.25123139893216417 0 0.46142632750171242 -0.24828586013282899 0 0.47602865925542581 -0.25123139893216417 0 0.46128382727624051 -0.26367405488039941 0 0.46142632750171242 -0.24828586013282899 0 0.46128382727624051 -0.26367405488039941 0 0.44584296358024628 -0.25374034044481741 0 0.46128382727624051 -0.26367405488039941 0 0.44882470656998291 -0.2727066157094396 0 0.46214765112546458 -0.2830634441887277 0 0.47595339270544518 -0.26832386068512781 0 0.46128382727624051 -0.26367405488039941 0 0.46214765112546458 -0.2830634441887277 0 0.46128382727624051 -0.26367405488039941 0 0.44882470656998291 -0.2727066157094396 0 0.44584296358024628 -0.25374034044481741 0 0.44882470656998291 -0.2727066157094396 0 0.44584296358024628 -0.25374034044481741 0 0.43650766780147132 -0.2656839438152101 0 0.44716225928616149 -0.29242387631901628 0 0.45650859980730563 -0.31127398583764709 0 0.43610693659427391 -0.30909843346379801 0 0.44882470656998291 -0.2727066157094396 0 0.44716225928616149 -0.29242387631901628 0 0.42152407821370058 -0.28316216929758808 0 0.44882470656998291 -0.2727066157094396 0 0.44716225928616149 -0.29242387631901628 0 0.46214765112546458 -0.2830634441887277 0 0.44716225928616149 -0.29242387631901628 0 0.46214765112546458 -0.2830634441887277 0 0.45650859980730563 -0.31127398583764709 0 0.46214765112546458 -0.2830634441887277 0 0.45650859980730563 -0.31127398583764709 0 0.47819214223181111 -0.29297229045510748 0 0.45650859980730563 -0.31127398583764709 0 0.47819214223181111 -0.29297229045510748 0 0.45650859980730563 -0.31127398583764709 0 0.47819214223181111 -0.29297229045510748 0 0.4782955376227408 -0.32399220069858559 0 0.47595339270544518 -0.26832386068512781 0 0.46214765112546458 -0.2830634441887277 0 0.47819214223181111 -0.29297229045510748 0 0.5 -0.27842924625663362 0 0.5 -0.27467059507256808 0 0.47819214223181111 -0.29297229045510748 0 0.5 -0.27467059507256808 0 0.47819214223181111 -0.29297229045510748 0 0.5 -0.27842924625663362 0 0.47819214223181111 -0.29297229045510748 0 0.5 -0.30818431427666593 0 0.47819214223181111 -0.29297229045510748 0 0.5 -0.30818431427666593 0 0.4782955376227408 -0.32399220069858559 0 0.5 -0.30818431427666593 0 0.5 -0.33793938229669829 0 0.4782955376227408 -0.32399220069858559 0 0.5 -0.33793938229669829 0 0.48322070498087538 -0.3399012598664517 0 0.4782955376227408 -0.32399220069858559 0 0.48322070498087538 -0.3399012598664517 0 0.4782955376227408 -0.32399220069858559 0 0.46781989900519211 -0.34663506196220961 0 0.49999999999999972 -0.36769445031673059 0 0.48118836313093288 -0.37834694623423121 0 0.49999999999999972 -0.36769445031673059 0 0.48129515257825861 -0.35659919876052648 0 0.48118836313093288 -0.37834694623423121 0 0.5 -0.33793938229669829 0 0.48322070498087538 -0.3399012598664517 0 0.48129515257825861 -0.35659919876052648 0 0.5 -0.33793938229669829 0 0.49999999999999972 -0.36769445031673059 0 0.48129515257825861 -0.35659919876052648 0 0.48129515257825861 -0.35659919876052648 0 0.4601100973240756 -0.36151543289279708 0 0.46781989900519211 -0.34663506196220961 0 0.48322070498087538 -0.3399012598664517 0 0.48129515257825861 -0.35659919876052648 0 0.46781989900519211 -0.34663506196220961 0 0.48129515257825861 -0.35659919876052648 0 0.46675934178265371 -0.37480253422137938 0 0.4601100973240756 -0.36151543289279708 0 0.48129515257825861 -0.35659919876052648 0 0.46675934178265371 -0.37480253422137938 0 0.48118836313093288 -0.37834694623423121 0 0.46675934178265371 -0.37480253422137938 0 0.4601100973240756 -0.36151543289279708 0 0.44986454423246941 -0.37810445247437557 0 0.4601100973240756 -0.36151543289279708 0 0.46781989900519211 -0.34663506196220961 0 0.4526148665228612 -0.34904976451631248 0 0.4601100973240756 -0.36151543289279708 0 0.4526148665228612 -0.34904976451631248 0 0.43878561813361422 -0.36374446234945279 0 0.43856472500038463 -0.34528613647487072 0 0.4526148665228612 -0.34904976451631248 0 0.43878561813361422 -0.36374446234945279 0 0.4601100973240756 -0.36151543289279708 0 0.43878561813361422 -0.36374446234945279 0 0.44986454423246941 -0.37810445247437557 0 0.45650859980730563 -0.31127398583764709 0 0.4782955376227408 -0.32399220069858559 0 0.45587939998612148 -0.33487534410124042 0 0.4782955376227408 -0.32399220069858559 0 0.46781989900519211 -0.34663506196220961 0 0.45587939998612148 -0.33487534410124042 0 0.46781989900519211 -0.34663506196220961 0 0.4526148665228612 -0.34904976451631248 0 0.45587939998612148 -0.33487534410124042 0 0.43856472500038463 -0.34528613647487072 0 0.45587939998612148 -0.33487534410124042 0 0.4348250573828002 -0.32957568122018671 0 0.43856472500038463 -0.34528613647487072 0 0.45587939998612148 -0.33487534410124042 0 0.43856472500038463 -0.34528613647487072 0 0.4526148665228612 -0.34904976451631248 0 0.45587939998612148 -0.33487534410124042 0 0.45650859980730563 -0.31127398583764709 0 0.4348250573828002 -0.32957568122018671 0 0.45650859980730563 -0.31127398583764709 0 0.45587939998612148 -0.33487534410124042 0 0.4348250573828002 -0.32957568122018671 0 0.45650859980730563 -0.31127398583764709 0 0.4348250573828002 -0.32957568122018671 0 0.43610693659427391 -0.30909843346379801 0 0.4230179143205704 -0.3254442269156147 0 0.43610693659427391 -0.30909843346379801 0 0.41566117715210249 -0.31081068660576788 0 0.4230179143205704 -0.3254442269156147 0 0.4348250573828002 -0.32957568122018671 0 0.43610693659427391 -0.30909843346379801 0 0.43856472500038463 -0.34528613647487072 0 0.4348250573828002 -0.32957568122018671 0 0.42487365181827152 -0.33892740764732859 0 0.4230179143205704 -0.3254442269156147 0 0.4348250573828002 -0.32957568122018671 0 0.42487365181827152 -0.33892740764732859 0 0.4230179143205704 -0.3254442269156147 0 0.42487365181827152 -0.33892740764732859 0 0.40979827609050451 -0.33845920391394768 0 0.40979827609050451 -0.33845920391394768 0 0.40405461715999358 -0.32819309322937368 0 0.41566117715210249 -0.31081068660576788 0 0.40979827609050451 -0.33845920391394768 0 0.41566117715210249 -0.31081068660576788 0 0.4230179143205704 -0.3254442269156147 0 0.40979827609050451 -0.33845920391394768 0 0.41566117715210249 -0.31081068660576788 0 0.43878561813361422 -0.36374446234945279 0 0.42125005001464783 -0.35569692884850101 0 0.42101581430946172 -0.3699981545061497 0 0.43878561813361422 -0.36374446234945279 0 0.42101581430946172 -0.3699981545061497 0 0.4284403776547977 -0.3839000716239423 0 0.43856472500038463 -0.34528613647487072 0 0.42125005001464783 -0.35569692884850101 0 0.43856472500038463 -0.34528613647487072 0 0.43878561813361422 -0.36374446234945279 0 0.42125005001464783 -0.35569692884850101 0 0.43856472500038463 -0.34528613647487072 0 0.42487365181827152 -0.33892740764732859 0 0.42125005001464783 -0.35569692884850101 0 0.40979827609050451 -0.33845920391394768 0 0.42125005001464783 -0.35569692884850101 0 0.40393537502890892 -0.36610772122212809 0 0.40979827609050451 -0.33845920391394768 0 0.40393537502890892 -0.36610772122212809 0 0.42487365181827152 -0.33892740764732859 0 0.40979827609050451 -0.33845920391394768 0 0.42125005001464783 -0.35569692884850101 0 0.42101581430946172 -0.3699981545061497 0 0.40393537502890892 -0.36610772122212809 0 0.41266765071534001 -0.38054158848672431 0 0.42125005001464783 -0.35569692884850101 0 0.42101581430946172 -0.3699981545061497 0 0.40393537502890892 -0.36610772122212809 0 0.42125005001464783 -0.35569692884850101 0 0.40393537502890892 -0.36610772122212809 0 0.40393537502890892 -0.36610772122212809 0 0.38644455952723178 -0.36218459001234282 0 0.38848518838810681 -0.37539745293143278 0 0.40393537502890892 -0.36610772122212809 0 0.38848518838810681 -0.37539745293143278 0 0.40979827609050451 -0.33845920391394768 0 0.40393537502890892 -0.36610772122212809 0 0.39519732500534671 -0.34980893106148908 0 0.40393537502890892 -0.36610772122212809 0 0.39519732500534671 -0.34980893106148908 0 0.38644455952723178 -0.36218459001234282 0 0.39519732500534671 -0.34980893106148908 0 0.38644455952723178 -0.36218459001234282 0 0.37396184577916541 -0.35407800710865139 0 0.39519732500534671 -0.34980893106148908 0 0.38711237156631889 -0.33317650469599602 0 0.37396184577916541 -0.35407800710865139 0 0.38644455952723178 -0.36218459001234282 0 0.37451150439712788 -0.37164664873798309 0 0.37396184577916541 -0.35407800710865139 0 0.38644455952723178 -0.36218459001234282 0 0.38848518838810681 -0.37539745293143278 0 0.37451150439712788 -0.37164664873798309 0 0.40405461715999358 -0.32819309322937368 0 0.38711237156631889 -0.33317650469599602 0 0.38392967490950741 -0.31825712303906029 0 0.40405461715999358 -0.32819309322937368 0 0.38392967490950741 -0.31825712303906029 0 0.39038362866367682 -0.30443453326819481 0 0.40405461715999358 -0.32819309322937368 0 0.39038362866367682 -0.30443453326819481 0 0.41566117715210249 -0.31081068660576788 0 0.40405461715999358 -0.32819309322937368 0 0.39038362866367682 -0.30443453326819481 0 0.40979827609050451 -0.33845920391394768 0 0.40405461715999358 -0.32819309322937368 0 0.39798508127477789 -0.33832864216676278 0 0.39519732500534671 -0.34980893106148908 0 0.39798508127477789 -0.33832864216676278 0 0.38711237156631889 -0.33317650469599602 0 0.40405461715999358 -0.32819309322937368 0 0.39798508127477789 -0.33832864216676278 0 0.38711237156631889 -0.33317650469599602 0 0.40979827609050451 -0.33845920391394768 0 0.39519732500534671 -0.34980893106148908 0 0.39798508127477789 -0.33832864216676278 0 0.38711237156631889 -0.33317650469599602 0 0.37396184577916541 -0.35407800710865139 0 0.38711237156631889 -0.33317650469599602 0 0.37223893054638268 -0.33893862583127271 0 0.37396184577916541 -0.35407800710865139 0 0.38711237156631889 -0.33317650469599602 0 0.36901326181781341 -0.32145370363596959 0 0.37223893054638268 -0.33893862583127271 0 0.38711237156631889 -0.33317650469599602 0 0.38392967490950741 -0.31825712303906029 0 0.36901326181781341 -0.32145370363596959 0 0.38392967490950741 -0.31825712303906029 0 0.39038362866367682 -0.30443453326819481 0 0.37616232238117681 -0.30069057419004158 0 0.38392967490950741 -0.31825712303906029 0 0.37616232238117681 -0.30069057419004158 0 0.36614022676041302 -0.30720333574315051 0 0.39038362866367682 -0.30443453326819481 0 0.4007899735479083 -0.28410590515557299 0 0.41566117715210249 -0.31081068660576788 0 0.39038362866367682 -0.30443453326819481 0 0.37616232238117681 -0.30069057419004158 0 0.37671264016735773 -0.28067597330701721 0 0.39038362866367682 -0.30443453326819481 0 0.4007899735479083 -0.28410590515557299 0 0.37671264016735773 -0.28067597330701721 0 0.39038362866367682 -0.30443453326819481 0 0.37671264016735773 -0.28067597330701721 0 0.37671264016735773 -0.28067597330701721 0 0.38010934136860391 -0.26630346892305279 0 0.39555838689053902 -0.26307236043175508 0 0.37671264016735773 -0.28067597330701721 0 0.39555838689053902 -0.26307236043175508 0 0.39365319439293311 -0.2435572277903183 0 0.38035274350617743 -0.2561222821423137 0 0.39555838689053902 -0.26307236043175508 0 0.37641765629879148 -0.2456315986243163 0 0.38035274350617743 -0.2561222821423137 0 0.36854417670357048 -0.25292360155684701 0 0.38010934136860391 -0.26630346892305279 0 0.38035274350617743 -0.2561222821423137 0 0.36783370538262689 -0.26524543552759272 0 0.38010934136860391 -0.26630346892305279 0 0.38035274350617743 -0.2561222821423137 0 0.39555838689053902 -0.26307236043175508 0 0.41440413361372069 -0.24546874755649339 0 0.39555838689053902 -0.26307236043175508 0 0.39365319439293311 -0.2435572277903183 0 0.41440413361372069 -0.24546874755649339 0 0.39555838689053902 -0.26307236043175508 0 0.4007899735479083 -0.28410590515557299 0 0.37671264016735773 -0.28067597330701721 0 0.39555838689053902 -0.26307236043175508 0 0.4007899735479083 -0.28410590515557299 0 0.39555838689053902 -0.26307236043175508 0 0.41193271030823347 -0.26626456688616362 0 0.4007899735479083 -0.28410590515557299 0 0.41193271030823347 -0.26626456688616362 0 0.42152407821370058 -0.28316216929758808 0 0.41193271030823347 -0.26626456688616362 0 0.42738697927529867 -0.25551365198940817 0 0.42152407821370058 -0.28316216929758808 0 0.41440413361372069 -0.24546874755649339 0 0.39555838689053902 -0.26307236043175508 0 0.41193271030823347 -0.26626456688616362 0 0.41440413361372069 -0.24546874755649339 0 0.41193271030823347 -0.26626456688616362 0 0.42738697927529867 -0.25551365198940817 0 0.44584296358024628 -0.25374034044481741 0 0.42738697927529867 -0.25551365198940817 0 0.43650766780147132 -0.2656839438152101 0 0.42738697927529867 -0.25551365198940817 0 0.42152407821370058 -0.28316216929758808 0 0.44882470656998291 -0.2727066157094396 0 0.43650766780147132 -0.2656839438152101 0 0.42152407821370058 -0.28316216929758808 0 0.42738697927529867 -0.25551365198940817 0 0.43650766780147132 -0.2656839438152101 0 0.42152407821370058 -0.28316216929758808 0 0.44716225928616149 -0.29242387631901628 0 0.43610693659427391 -0.30909843346379801 0 0.42152407821370058 -0.28316216929758808 0 0.43610693659427391 -0.30909843346379801 0 0.41566117715210249 -0.31081068660576788 0 0.42152407821370058 -0.28316216929758808 0 0.41566117715210249 -0.31081068660576788 0 0.42152407821370058 -0.28316216929758808 0 0.4007899735479083 -0.28410590515557299 0 0.41566117715210249 -0.31081068660576788 0 0.42152407821370058 -0.28316216929758808 0 0.44521538152979218 -0.5 0 0.45343524718364647 -0.47801234328898218 0 0.5 -0.5 0 0.44521538152979218 -0.5 0 0.45343524718364647 -0.47801234328898218 0 0.43036727972832778 -0.47820211889659309 0 0.45343524718364647 -0.47801234328898218 0 0.43258776666213838 -0.46493198276262931 0 0.43036727972832778 -0.47820211889659309 0 0.45343524718364647 -0.47801234328898218 0 0.5 -0.5 0 0.47211684301772189 -0.46603359731644911 0 0.5 -0.5 0 0.49999999999999278 -0.47502733470945402 0 0.47211684301772189 -0.46603359731644911 0 0.49999999999999278 -0.47502733470945402 0 0.47211684301772189 -0.46603359731644911 0 0.49999999999999278 -0.47502733470945402 0 0.47211684301772189 -0.46603359731644911 0 0.5 -0.44819411361127331 0 0.47211684301772189 -0.46603359731644911 0 0.5 -0.44819411361127331 0 0.47890411688769968 -0.43945295121387179 0 0.47211684301772189 -0.46603359731644911 0 0.47890411688769968 -0.43945295121387179 0 0.45422518673896872 -0.44141107892100639 0 0.47211684301772189 -0.46603359731644911 0 0.44423368603545188 -0.4570398599234422 0 0.45343524718364647 -0.47801234328898218 0 0.47211684301772189 -0.46603359731644911 0 0.44423368603545188 -0.4570398599234422 0 0.47211684301772189 -0.46603359731644911 0 0.45422518673896872 -0.44141107892100639 0 0.44423368603545188 -0.4570398599234422 0 0.45343524718364647 -0.47801234328898218 0 0.44423368603545188 -0.4570398599234422 0 0.43258776666213838 -0.46493198276262931 0 0.45422518673896872 -0.44141107892100639 0 0.43562540856833393 -0.43478553026344141 0 0.4356154746812389 -0.44515219195411049 0 0.45422518673896872 -0.44141107892100639 0 0.44423368603545188 -0.4570398599234422 0 0.4356154746812389 -0.44515219195411049 0 0.45422518673896872 -0.44141107892100639 0 0.44646070980592351 -0.42300393280292808 0 0.43562540856833393 -0.43478553026344141 0 0.44646070980592351 -0.42300393280292808 0 0.45507030440723389 -0.40786958954237212 0 0.43407507084353408 -0.41192021563623588 0 0.45507030440723389 -0.40786958954237212 0 0.46552035106169298 -0.42283618105273529 0 0.47927386423257767 -0.40479299400365032 0 0.44646070980592351 -0.42300393280292808 0 0.45507030440723389 -0.40786958954237212 0 0.46552035106169298 -0.42283618105273529 0 0.47890411688769968 -0.43945295121387179 0 0.45422518673896872 -0.44141107892100639 0 0.46552035106169298 -0.42283618105273529 0 0.45422518673896872 -0.44141107892100639 0 0.44646070980592351 -0.42300393280292808 0 0.46552035106169298 -0.42283618105273529 0 0.47890411688769968 -0.43945295121387179 0 0.46552035106169298 -0.42283618105273529 0 0.48092458304549263 -0.42211075469583748 0 0.5 -0.44819411361127331 0 0.47890411688769968 -0.43945295121387179 0 0.5 -0.4213608925130925 0 0.47890411688769968 -0.43945295121387179 0 0.48092458304549263 -0.42211075469583748 0 0.5 -0.4213608925130925 0 0.5 -0.4213608925130925 0 0.47927386423257767 -0.40479299400365032 0 0.5 -0.39452767141491157 0 0.48092458304549263 -0.42211075469583748 0 0.5 -0.4213608925130925 0 0.47927386423257767 -0.40479299400365032 0 0.46552035106169298 -0.42283618105273529 0 0.48092458304549263 -0.42211075469583748 0 0.47927386423257767 -0.40479299400365032 0 0.47927386423257767 -0.40479299400365032 0 0.48118836313093288 -0.37834694623423121 0 0.46237672626186638 -0.38899944215173171 0 0.47927386423257767 -0.40479299400365032 0 0.5 -0.39452767141491157 0 0.48118836313093288 -0.37834694623423121 0 0.49999999999999972 -0.36769445031673059 0 0.5 -0.39452767141491157 0 0.48118836313093288 -0.37834694623423121 0 0.46675934178265371 -0.37480253422137938 0 0.48118836313093288 -0.37834694623423121 0 0.46237672626186638 -0.38899944215173171 0 0.48118836313093288 -0.37834694623423121 0 0.46237672626186638 -0.38899944215173171 0 0.46675934178265371 -0.37480253422137938 0 0.46237672626186638 -0.38899944215173171 0 0.44986454423246941 -0.37810445247437557 0 0.45507030440723389 -0.40786958954237212 0 0.47927386423257767 -0.40479299400365032 0 0.46237672626186638 -0.38899944215173171 0 0.45507030440723389 -0.40786958954237212 0 0.46237672626186638 -0.38899944215173171 0 0.44271510423780941 -0.39566477160695118 0 0.45507030440723389 -0.40786958954237212 0 0.44271510423780941 -0.39566477160695118 0 0.43407507084353408 -0.41192021563623588 0 0.46237672626186638 -0.38899944215173171 0 0.44271510423780941 -0.39566477160695118 0 0.44986454423246941 -0.37810445247437557 0 0.44271510423780941 -0.39566477160695118 0 0.44986454423246941 -0.37810445247437557 0 0.4284403776547977 -0.3839000716239423 0 0.43878561813361422 -0.36374446234945279 0 0.44986454423246941 -0.37810445247437557 0 0.4284403776547977 -0.3839000716239423 0 0.44271510423780941 -0.39566477160695118 0 0.42604237029013542 -0.3996256343762411 0 0.43407507084353408 -0.41192021563623588 0 0.4284403776547977 -0.3839000716239423 0 0.42604237029013542 -0.3996256343762411 0 0.41565452669457958 -0.39253298624070693 0 0.44271510423780941 -0.39566477160695118 0 0.4284403776547977 -0.3839000716239423 0 0.42604237029013542 -0.3996256343762411 0 0.42604237029013542 -0.3996256343762411 0 0.41001363446302769 -0.40457901804131507 0 0.41937809457971148 -0.41437778790494362 0 0.42604237029013542 -0.3996256343762411 0 0.41565452669457958 -0.39253298624070693 0 0.41001363446302769 -0.40457901804131507 0 0.41565452669457958 -0.39253298624070693 0 0.41001363446302769 -0.40457901804131507 0 0.39877937404291008 -0.39042260919389471 0 0.41565452669457958 -0.39253298624070693 0 0.41266765071534001 -0.38054158848672431 0 0.39877937404291008 -0.39042260919389471 0 0.42101581430946172 -0.3699981545061497 0 0.4284403776547977 -0.3839000716239423 0 0.41266765071534001 -0.38054158848672431 0 0.4284403776547977 -0.3839000716239423 0 0.41565452669457958 -0.39253298624070693 0 0.41266765071534001 -0.38054158848672431 0 0.40393537502890892 -0.36610772122212809 0 0.39877937404291008 -0.39042260919389471 0 0.40393537502890892 -0.36610772122212809 0 0.41266765071534001 -0.38054158848672431 0 0.39877937404291008 -0.39042260919389471 0 0.39877937404291008 -0.39042260919389471 0 0.38848518838810681 -0.37539745293143278 0 0.38510465077014611 -0.39115721342144089 0 0.40393537502890892 -0.36610772122212809 0 0.39877937404291008 -0.39042260919389471 0 0.38848518838810681 -0.37539745293143278 0 0.38848518838810681 -0.37539745293143278 0 0.38510465077014611 -0.39115721342144089 0 0.37303500174730247 -0.38468718464073431 0 0.38848518838810681 -0.37539745293143278 0 0.37303500174730247 -0.38468718464073431 0 0.37451150439712788 -0.37164664873798309 0 0.38848518838810681 -0.37539745293143278 0 0.37303500174730247 -0.38468718464073431 0 0.38510465077014611 -0.39115721342144089 0 0.37839306386533778 -0.40309422733518863 0 0.37303500174730247 -0.38468718464073431 0 0.38510465077014611 -0.39115721342144089 0 0.37839306386533778 -0.40309422733518863 0 0.39362337305691381 -0.41473749716566172 0 0.41001363446302769 -0.40457901804131507 0 0.39877937404291008 -0.39042260919389471 0 0.39362337305691381 -0.41473749716566172 0 0.39877937404291008 -0.39042260919389471 0 0.38510465077014611 -0.39115721342144089 0 0.39362337305691381 -0.41473749716566172 0 0.39877937404291008 -0.39042260919389471 0 0.39362337305691381 -0.41473749716566172 0 0.41001363446302769 -0.40457901804131507 0 0.39362337305691381 -0.41473749716566172 0 0.40741795340970821 -0.41744002401069918 0 0.39362337305691381 -0.41473749716566172 0 0.40145326674229581 -0.42607967548021569 0 0.40741795340970821 -0.41744002401069918 0 0.37839306386533778 -0.40309422733518863 0 0.39362337305691381 -0.41473749716566172 0 0.37354476214336729 -0.41238243016856718 0 0.39362337305691381 -0.41473749716566172 0 0.37988697926101772 -0.42723254258536358 0 0.37354476214336729 -0.41238243016856718 0 0.37988697926101772 -0.42723254258536358 0 0.38846737207091148 -0.4390523851374275 0 0.35985175201838288 -0.42982239112153708 0 0.39362337305691381 -0.41473749716566172 0 0.37988697926101772 -0.42723254258536358 0 0.38846737207091148 -0.4390523851374275 0 0.40145326674229581 -0.42607967548021569 0 0.4068256222511657 -0.43523453980844401 0 0.38846737207091148 -0.4390523851374275 0 0.39362337305691381 -0.41473749716566172 0 0.38846737207091148 -0.4390523851374275 0 0.39362337305691381 -0.41473749716566172 0 0.40145326674229581 -0.42607967548021569 0 0.38846737207091148 -0.4390523851374275 0 0.4068256222511657 -0.43523453980844401 0 0.41534549599687309 -0.43677587613789909 0 0.41350416617795382 -0.42652340366164121 0 0.41534549599687309 -0.43677587613789909 0 0.41350416617795382 -0.42652340366164121 0 0.42314643095307891 -0.43325352242210791 0 0.41534549599687309 -0.43677587613789909 0 0.42314643095307891 -0.43325352242210791 0 0.42007139619598838 -0.43985181834563403 0 0.41350416617795382 -0.42652340366164121 0 0.42314643095307891 -0.43325352242210791 0 0.42733401542517752 -0.4240118609842044 0 0.40145326674229581 -0.42607967548021569 0 0.41350416617795382 -0.42652340366164121 0 0.40741795340970821 -0.41744002401069918 0 0.40145326674229581 -0.42607967548021569 0 0.4068256222511657 -0.43523453980844401 0 0.41350416617795382 -0.42652340366164121 0 0.41350416617795382 -0.42652340366164121 0 0.40741795340970821 -0.41744002401069918 0 0.41937809457971148 -0.41437778790494362 0 0.41001363446302769 -0.40457901804131507 0 0.40741795340970821 -0.41744002401069918 0 0.41937809457971148 -0.41437778790494362 0 0.41350416617795382 -0.42652340366164121 0 0.41937809457971148 -0.41437778790494362 0 0.42733401542517752 -0.4240118609842044 0 0.41937809457971148 -0.41437778790494362 0 0.43407507084353408 -0.41192021563623588 0 0.42733401542517752 -0.4240118609842044 0 0.44646070980592351 -0.42300393280292808 0 0.43407507084353408 -0.41192021563623588 0 0.42733401542517752 -0.4240118609842044 0 0.42604237029013542 -0.3996256343762411 0 0.41937809457971148 -0.41437778790494362 0 0.43407507084353408 -0.41192021563623588 0 0.44646070980592351 -0.42300393280292808 0 0.43562540856833393 -0.43478553026344141 0 0.42733401542517752 -0.4240118609842044 0 0.43562540856833393 -0.43478553026344141 0 0.42314643095307891 -0.43325352242210791 0 0.42544312878082019 -0.44133175229209409 0 0.43562540856833393 -0.43478553026344141 0 0.42314643095307891 -0.43325352242210791 0 0.42733401542517752 -0.4240118609842044 0 0.44521538152979218 -0.5 0 0.40946071592856548 -0.48044675306795481 0 0.37419233456604423 -0.50000000000000333 0 0.44423368603545188 -0.4570398599234422 0 0.41635052905318159 -0.44804612253043508 0 0.42034672049370397 -0.45173702562654122 0 0.42544312878082019 -0.44133175229209409 0 0.4356154746812389 -0.44515219195411049 0 0.41635052905318159 -0.44804612253043508 0 0.44423368603545188 -0.4570398599234422 0 0.4356154746812389 -0.44515219195411049 0 0.41635052905318159 -0.44804612253043508 0 0.44423368603545188 -0.4570398599234422 0 0.41635052905318159 -0.44804612253043508 0 0.42314643095307891 -0.43325352242210791 0 0.42544312878082019 -0.44133175229209409 0 0.42007139619598838 -0.43985181834563403 0 0.43562540856833393 -0.43478553026344141 0 0.42544312878082019 -0.44133175229209409 0 0.4356154746812389 -0.44515219195411049 0 0.44423368603545188 -0.4570398599234422 0 0.43258776666213838 -0.46493198276262931 0 0.42034672049370397 -0.45173702562654122 0 0.43258776666213838 -0.46493198276262931 0 0.41882451163273698 -0.46694152168239228 0 0.42034672049370397 -0.45173702562654122 0 0.41635052905318159 -0.44804612253043508 0 0.42034672049370397 -0.45173702562654122 0 0.40315501718118701 -0.4631882285025532 0 0.41635052905318159 -0.44804612253043508 0 0.40039022149320019 -0.45176976611000708 0 0.40315501718118701 -0.4631882285025532 0 0.42034672049370397 -0.45173702562654122 0 0.40315501718118701 -0.4631882285025532 0 0.41882451163273698 -0.46694152168239228 0 0.42034672049370397 -0.45173702562654122 0 0.40315501718118701 -0.4631882285025532 0 0.42544312878082019 -0.44133175229209409 0 0.41635052905318159 -0.44804612253043508 0 0.42007139619598838 -0.43985181834563403 0 0.41534549599687309 -0.43677587613789909 0 0.41635052905318159 -0.44804612253043508 0 0.42007139619598838 -0.43985181834563403 0 0.4068256222511657 -0.43523453980844401 0 0.41534549599687309 -0.43677587613789909 0 0.41635052905318159 -0.44804612253043508 0 0.40039022149320019 -0.45176976611000708 0 0.38846737207091148 -0.4390523851374275 0 0.39358796766752091 -0.45679232826961252 0 0.41635052905318159 -0.44804612253043508 0 0.38846737207091148 -0.4390523851374275 0 0.4068256222511657 -0.43523453980844401 0 0.41635052905318159 -0.44804612253043508 0 0.38846737207091148 -0.4390523851374275 0 0.41635052905318159 -0.44804612253043508 0 0.40039022149320019 -0.45176976611000708 0 0.38846737207091148 -0.4390523851374275 0 0.38846737207091148 -0.4390523851374275 0 0.37729741190030891 -0.45363843978303309 0 0.38352258503559811 -0.46237122140890868 0 0.38846737207091148 -0.4390523851374275 0 0.38352258503559811 -0.46237122140890868 0 0.38846737207091148 -0.4390523851374275 0 0.38352258503559811 -0.46237122140890868 0 0.39358796766752091 -0.45679232826961252 0 0.38846737207091148 -0.4390523851374275 0 0.37666051265768258 -0.44583359975717768 0 0.36750971581362002 -0.44213350118636202 0 0.38846737207091148 -0.4390523851374275 0 0.37666051265768258 -0.44583359975717768 0 0.37729741190030891 -0.45363843978303309 0 0.38352258503559811 -0.46237122140890868 0 0.39358796766752091 -0.45679232826961252 0 0.38596331386866989 -0.47463943137856512 0 0.37689061266261359 -0.46791241852571552 0 0.38352258503559811 -0.46237122140890868 0 0.38596331386866989 -0.47463943137856512 0 0.37689061266261359 -0.46791241852571552 0 0.38352258503559811 -0.46237122140890868 0 0.37499393780208851 -0.46098855123749288 0 0.37729741190030891 -0.45363843978303309 0 0.38352258503559811 -0.46237122140890868 0 0.37499393780208851 -0.46098855123749288 0 0.39358796766752091 -0.45679232826961252 0 0.40315501718118701 -0.4631882285025532 0 0.38596331386866989 -0.47463943137856512 0 0.40039022149320019 -0.45176976611000708 0 0.39358796766752091 -0.45679232826961252 0 0.40315501718118701 -0.4631882285025532 0 0.40315501718118701 -0.4631882285025532 0 0.38596331386866989 -0.47463943137856512 0 0.40946071592856548 -0.48044675306795481 0 0.38596331386866989 -0.47463943137856512 0 0.40946071592856548 -0.48044675306795481 0 0.37419233456604423 -0.50000000000000333 0 0.40315501718118701 -0.4631882285025532 0 0.38596331386866989 -0.47463943137856512 0 0.38596331386866989 -0.47463943137856512 0 0.3687716105561526 -0.48609063425457683 0 0.38596331386866989 -0.47463943137856512 0 0.3687716105561526 -0.48609063425457683 0 0.37418990103849081 -0.47559455677567952 0 0.37689061266261359 -0.46791241852571552 0 0.38596331386866989 -0.47463943137856512 0 0.37418990103849081 -0.47559455677567952 0 0.38596331386866989 -0.47463943137856512 0 0.3687716105561526 -0.48609063425457683 0 0.37419233456604423 -0.50000000000000333 0 0.44521538152979218 -0.5 0 0.40946071592856548 -0.48044675306795481 0 0.43036727972832778 -0.47820211889659309 0 0.41882451163273698 -0.46694152168239228 0 0.40946071592856548 -0.48044675306795481 0 0.43036727972832778 -0.47820211889659309 0 0.41882451163273698 -0.46694152168239228 0 0.40315501718118701 -0.4631882285025532 0 0.40946071592856548 -0.48044675306795481 0 0.43258776666213838 -0.46493198276262931 0 0.41882451163273698 -0.46694152168239228 0 0.43036727972832778 -0.47820211889659309 0 0.32521495915343451 -0.5 0 0.31943693113783689 -0.48884706101217068 0 0.30254045364838328 -0.50000000000000089 0 0.32521495915343451 -0.5 0 0.31943693113783689 -0.48884706101217068 0 0.32966672938533098 -0.48936122302148349 0 0.31943693113783689 -0.48884706101217068 0 0.33764547099931308 -0.4783526690019681 0 0.31718935335724552 -0.46808538694706509 0 0.33764547099931308 -0.4783526690019681 0 0.31718935335724552 -0.46808538694706509 0 0.31943693113783689 -0.48884706101217068 0 0.31718935335724552 -0.46808538694706509 0 0.30287693929843618 -0.48213438827068578 0 0.33764547099931308 -0.4783526690019681 0 0.32610015708504492 -0.46183681461625647 0 0.31718935335724552 -0.46808538694706509 0 0.33764547099931308 -0.4783526690019681 0 0.32610015708504492 -0.46183681461625647 0 0.31943693113783689 -0.48884706101217068 0 0.33764547099931308 -0.4783526690019681 0 0.32521495915343451 -0.5 0 0.33768161862276269 -0.4909037090494231 0 0.34788946465848558 -0.50000000000000211 0 0.31943693113783689 -0.48884706101217068 0 0.33764547099931308 -0.4783526690019681 0 0.32966672938533098 -0.48936122302148349 0 0.33764547099931308 -0.4783526690019681 0 0.33768161862276269 -0.4909037090494231 0 0.35122486597755609 -0.497778326179599 0 0.33764547099931308 -0.4783526690019681 0 0.33768161862276269 -0.4909037090494231 0 0.32966672938533098 -0.48936122302148349 0 0.32521495915343451 -0.5 0 0.33768161862276269 -0.4909037090494231 0 0.32966672938533098 -0.48936122302148349 0 0.33768161862276269 -0.4909037090494231 0 0.35122486597755609 -0.497778326179599 0 0.34788946465848558 -0.50000000000000211 0 0.33764547099931308 -0.4783526690019681 0 0.35122486597755609 -0.497778326179599 0 0.35122486597755609 -0.497778326179599 0 0.35277791440439388 -0.49999999999999928 0 0.3687716105561526 -0.48609063425457683 0 0.33764547099931308 -0.4783526690019681 0 0.35860775130843903 -0.48887400292337307 0 0.35122486597755609 -0.497778326179599 0 0.35122486597755609 -0.497778326179599 0 0.34788946465848558 -0.50000000000000211 0 0.35277791440439388 -0.49999999999999928 0 0.35122486597755609 -0.497778326179599 0 0.34788946465848558 -0.50000000000000211 0 0.35122486597755609 -0.497778326179599 0 0.35277791440439388 -0.49999999999999928 0 0.35122486597755609 -0.497778326179599 0 0.3687716105561526 -0.48609063425457683 0 0.35277791440439388 -0.49999999999999928 0 0.3687716105561526 -0.48609063425457683 0 0.37419233456604423 -0.50000000000000333 0 0.35860775130843903 -0.48887400292337307 0 0.35122486597755609 -0.497778326179599 0 0.3687716105561526 -0.48609063425457683 0 0.3687716105561526 -0.48609063425457683 0 0.37419233456604423 -0.50000000000000333 0 0.3687716105561526 -0.48609063425457683 0 0.37418990103849081 -0.47559455677567952 0 0.36881904502828289 -0.46507412808138898 0 0.3687716105561526 -0.48609063425457683 0 0.3595317400679181 -0.46238148805443152 0 0.36881904502828289 -0.46507412808138898 0 0.35860775130843903 -0.48887400292337307 0 0.3687716105561526 -0.48609063425457683 0 0.3595317400679181 -0.46238148805443152 0 0.3687716105561526 -0.48609063425457683 0 0.3595317400679181 -0.46238148805443152 0 0.37689061266261359 -0.46791241852571552 0 0.37418990103849081 -0.47559455677567952 0 0.36881904502828289 -0.46507412808138898 0 0.33764547099931308 -0.4783526690019681 0 0.35860775130843903 -0.48887400292337307 0 0.33764547099931308 -0.4783526690019681 0 0.3595317400679181 -0.46238148805443152 0 0.33764547099931308 -0.4783526690019681 0 0.35860775130843903 -0.48887400292337307 0 0.3595317400679181 -0.46238148805443152 0 0.3595317400679181 -0.46238148805443152 0 0.34377024397865402 -0.45163522094481129 0 0.34187758738508062 -0.46232444926295008 0 0.3595317400679181 -0.46238148805443152 0 0.35427087544770131 -0.44888231524905498 0 0.34377024397865402 -0.45163522094481129 0 0.33764547099931308 -0.4783526690019681 0 0.3595317400679181 -0.46238148805443152 0 0.34187758738508062 -0.46232444926295008 0 0.3595317400679181 -0.46238148805443152 0 0.36384291059145818 -0.45953579303633008 0 0.35427087544770131 -0.44888231524905498 0 0.36384291059145818 -0.45953579303633008 0 0.35427087544770131 -0.44888231524905498 0 0.3595317400679181 -0.46238148805443152 0 0.35427087544770131 -0.44888231524905498 0 0.3595317400679181 -0.46238148805443152 0 0.36384291059145818 -0.45953579303633008 0 0.36881904502828289 -0.46507412808138898 0 0.36384291059145818 -0.45953579303633008 0 0.36881904502828289 -0.46507412808138898 0 0.3595317400679181 -0.46238148805443152 0 0.36384291059145818 -0.45953579303633008 0 0.36384291059145818 -0.45953579303633008 0 0.36995789411366958 -0.4554994465151474 0 0.36352622135618551 -0.44950419483029402 0 0.36384291059145818 -0.45953579303633008 0 0.36995789411366958 -0.4554994465151474 0 0.36995789411366958 -0.4554994465151474 0 0.37499393780208851 -0.46098855123749288 0 0.36881904502828289 -0.46507412808138898 0 0.36384291059145818 -0.45953579303633008 0 0.36995789411366958 -0.4554994465151474 0 0.36881904502828289 -0.46507412808138898 0 0.37729741190030891 -0.45363843978303309 0 0.36995789411366958 -0.4554994465151474 0 0.37499393780208851 -0.46098855123749288 0 0.37689061266261359 -0.46791241852571552 0 0.37499393780208851 -0.46098855123749288 0 0.36881904502828289 -0.46507412808138898 0 0.37666051265768258 -0.44583359975717768 0 0.36750971581362002 -0.44213350118636202 0 0.37099035116829332 -0.44932183641440288 0 0.37729741190030891 -0.45363843978303309 0 0.36995789411366958 -0.4554994465151474 0 0.37099035116829332 -0.44932183641440288 0 0.37666051265768258 -0.44583359975717768 0 0.37729741190030891 -0.45363843978303309 0 0.37099035116829332 -0.44932183641440288 0 0.36995789411366958 -0.4554994465151474 0 0.37099035116829332 -0.44932183641440288 0 0.36352622135618551 -0.44950419483029402 0 0.36750971581362002 -0.44213350118636202 0 0.37099035116829332 -0.44932183641440288 0 0.36352622135618551 -0.44950419483029402 0 0.36384291059145818 -0.45953579303633008 0 0.36352622135618551 -0.44950419483029402 0 0.35427087544770131 -0.44888231524905498 0 0.36750971581362002 -0.44213350118636202 0 0.36352622135618551 -0.44950419483029402 0 0.35811255686164217 -0.43929464515776268 0 0.35427087544770131 -0.44888231524905498 0 0.34540421967232138 -0.42613082340156577 0 0.35427087544770131 -0.44888231524905498 0 0.34377024397865402 -0.45163522094481129 0 0.34186067956772093 -0.43507002307111248 0 0.35811255686164217 -0.43929464515776268 0 0.35427087544770131 -0.44888231524905498 0 0.34540421967232138 -0.42613082340156577 0 0.36352622135618551 -0.44950419483029402 0 0.35811255686164217 -0.43929464515776268 0 0.35427087544770131 -0.44888231524905498 0 0.35427087544770131 -0.44888231524905498 0 0.34186067956772093 -0.43507002307111248 0 0.34377024397865402 -0.45163522094481129 0 0.33320678193967868 -0.44913421699247358 0 0.34186067956772093 -0.43507002307111248 0 0.33079622109450479 -0.43848076971913041 0 0.33320678193967868 -0.44913421699247358 0 0.34186067956772093 -0.43507002307111248 0 0.33320678193967868 -0.44913421699247358 0 0.34187758738508062 -0.46232444926295008 0 0.32610015708504492 -0.46183681461625647 0 0.33764547099931308 -0.4783526690019681 0 0.34187758738508062 -0.46232444926295008 0 0.32610015708504492 -0.46183681461625647 0 0.34377024397865402 -0.45163522094481129 0 0.33320678193967868 -0.44913421699247358 0 0.34187758738508062 -0.46232444926295008 0 0.33320678193967868 -0.44913421699247358 0 0.32610015708504492 -0.46183681461625647 0 0.31866693918287903 -0.44846110791976518 0 0.32610015708504492 -0.46183681461625647 0 0.31528411074818657 -0.44636419536526389 0 0.32610015708504492 -0.46183681461625647 0 0.31718935335724552 -0.46808538694706509 0 0.31622076217791228 -0.4572261919304183 0 0.32610015708504492 -0.46183681461625647 0 0.31622076217791228 -0.4572261919304183 0 0.31528411074818657 -0.44636419536526389 0 0.32610015708504492 -0.46183681461625647 0 0.31866693918287903 -0.44846110791976518 0 0.31528411074818657 -0.44636419536526389 0 0.31866693918287903 -0.44846110791976518 0 0.31528411074818657 -0.44636419536526389 0 0.31247693377907471 -0.43845264232064579 0 0.33079622109450479 -0.43848076971913041 0 0.33320678193967868 -0.44913421699247358 0 0.31866693918287903 -0.44846110791976518 0 0.33079622109450479 -0.43848076971913041 0 0.31866693918287903 -0.44846110791976518 0 0.32945048368773938 -0.42125773089317109 0 0.31866693918287903 -0.44846110791976518 0 0.32945048368773938 -0.42125773089317109 0 0.31247693377907471 -0.43845264232064579 0 0.31866693918287903 -0.44846110791976518 0 0.32945048368773938 -0.42125773089317109 0 0.3269085694709486 -0.41842863277150161 0 0.32945048368773938 -0.42125773089317109 0 0.31247693377907471 -0.43845264232064579 0 0.3269085694709486 -0.41842863277150161 0 0.31247693377907471 -0.43845264232064579 0 0.3269085694709486 -0.41842863277150161 0 0.30664526662835617 -0.42672837031671002 0 0.31247693377907471 -0.43845264232064579 0 0.3269085694709486 -0.41842863277150161 0 0.33504968166223947 -0.40713277471773468 0 0.31438657082491822 -0.40449190641976229 0 0.3269085694709486 -0.41842863277150161 0 0.31039601729182309 -0.41557524146567432 0 0.30664526662835617 -0.42672837031671002 0 0.3269085694709486 -0.41842863277150161 0 0.31438657082491822 -0.40449190641976229 0 0.31039601729182309 -0.41557524146567432 0 0.3269085694709486 -0.41842863277150161 0 0.31438657082491822 -0.40449190641976229 0 0.32945048368773938 -0.42125773089317109 0 0.33504968166223947 -0.40713277471773468 0 0.34540421967232138 -0.42613082340156577 0 0.33504968166223947 -0.40713277471773468 0 0.34540421967232138 -0.42613082340156577 0 0.33653756389694151 -0.40337933155407668 0 0.34540421967232138 -0.42613082340156577 0 0.33653756389694151 -0.40337933155407668 0 0.3269085694709486 -0.41842863277150161 0 0.32945048368773938 -0.42125773089317109 0 0.33504968166223947 -0.40713277471773468 0 0.32945048368773938 -0.42125773089317109 0 0.33504968166223947 -0.40713277471773468 0 0.3269085694709486 -0.41842863277150161 0 0.32945048368773938 -0.42125773089317109 0 0.3269085694709486 -0.41842863277150161 0 0.33504968166223947 -0.40713277471773468 0 0.33079622109450479 -0.43848076971913041 0 0.32945048368773938 -0.42125773089317109 0 0.34186067956772093 -0.43507002307111248 0 0.32945048368773938 -0.42125773089317109 0 0.34186067956772093 -0.43507002307111248 0 0.34540421967232138 -0.42613082340156577 0 0.32945048368773938 -0.42125773089317109 0 0.34186067956772093 -0.43507002307111248 0 0.35427087544770131 -0.44888231524905498 0 0.34186067956772093 -0.43507002307111248 0 0.34540421967232138 -0.42613082340156577 0 0.34540421967232138 -0.42613082340156577 0 0.35985175201838288 -0.42982239112153708 0 0.3591725927220763 -0.41288335902866169 0 0.35811255686164217 -0.43929464515776268 0 0.34540421967232138 -0.42613082340156577 0 0.35985175201838288 -0.42982239112153708 0 0.38846737207091148 -0.4390523851374275 0 0.36750971581362002 -0.44213350118636202 0 0.35985175201838288 -0.42982239112153708 0 0.37988697926101772 -0.42723254258536358 0 0.35985175201838288 -0.42982239112153708 0 0.3591725927220763 -0.41288335902866169 0 0.38846737207091148 -0.4390523851374275 0 0.35985175201838288 -0.42982239112153708 0 0.36750971581362002 -0.44213350118636202 0 0.35811255686164217 -0.43929464515776268 0 0.35985175201838288 -0.42982239112153708 0 0.37988697926101772 -0.42723254258536358 0 0.37354476214336729 -0.41238243016856718 0 0.3591725927220763 -0.41288335902866169 0 0.37988697926101772 -0.42723254258536358 0 0.3591725927220763 -0.41288335902866169 0 0.37354476214336729 -0.41238243016856718 0 0.3591725927220763 -0.41288335902866169 0 0.36734920974556462 -0.40118652974448687 0 0.34540421967232138 -0.42613082340156577 0 0.3591725927220763 -0.41288335902866169 0 0.33653756389694151 -0.40337933155407668 0 0.3591725927220763 -0.41288335902866169 0 0.34369850404782332 -0.40216421278012981 0 0.3591725927220763 -0.41288335902866169 0 0.34369850404782332 -0.40216421278012981 0 0.33653756389694151 -0.40337933155407668 0 0.34766079420485851 -0.39588101193396241 0 0.35626120091305219 -0.40081271228942272 0 0.34369850404782332 -0.40216421278012981 0 0.34766079420485851 -0.39588101193396241 0 0.34369850404782332 -0.40216421278012981 0 0.34766079420485851 -0.39588101193396241 0 0.36278095248076903 -0.39196813060129199 0 0.34766079420485851 -0.39588101193396241 0 0.35626120091305219 -0.40081271228942272 0 0.36278095248076903 -0.39196813060129199 0 0.3591725927220763 -0.41288335902866169 0 0.35626120091305219 -0.40081271228942272 0 0.34369850404782332 -0.40216421278012981 0 0.3591725927220763 -0.41288335902866169 0 0.35626120091305219 -0.40081271228942272 0 0.36734920974556462 -0.40118652974448687 0 0.36278095248076903 -0.39196813060129199 0 0.36734920974556462 -0.40118652974448687 0 0.37303500174730247 -0.38468718464073431 0 0.37839306386533778 -0.40309422733518863 0 0.36734920974556462 -0.40118652974448687 0 0.37303500174730247 -0.38468718464073431 0 0.35626120091305219 -0.40081271228942272 0 0.36278095248076903 -0.39196813060129199 0 0.36734920974556462 -0.40118652974448687 0 0.37839306386533778 -0.40309422733518863 0 0.37354476214336729 -0.41238243016856718 0 0.36734920974556462 -0.40118652974448687 0 0.37303500174730247 -0.38468718464073431 0 0.36375991456441398 -0.38383249708705569 0 0.37451150439712788 -0.37164664873798309 0 0.36278095248076903 -0.39196813060129199 0 0.37303500174730247 -0.38468718464073431 0 0.36375991456441398 -0.38383249708705569 0 0.36375991456441398 -0.38383249708705569 0 0.36081131999201199 -0.37497950952130688 0 0.37451150439712788 -0.37164664873798309 0 0.34766079420485851 -0.39588101193396241 0 0.36081131999201199 -0.37497950952130688 0 0.34766079420485851 -0.39588101193396241 0 0.33845820618313471 -0.39853417547196002 0 0.34872322422665353 -0.37263887213297769 0 0.34766079420485851 -0.39588101193396241 0 0.36278095248076903 -0.39196813060129199 0 0.36375991456441398 -0.38383249708705569 0 0.34766079420485851 -0.39588101193396241 0 0.36081131999201199 -0.37497950952130688 0 0.34872322422665353 -0.37263887213297769 0 0.34766079420485851 -0.39588101193396241 0 0.36375991456441398 -0.38383249708705569 0 0.36081131999201199 -0.37497950952130688 0 0.3335276772932631 -0.38342873676980471 0 0.33324081666998828 -0.39492000714164571 0 0.3255407396791461 -0.37516191081759498 0 0.34012659714689841 -0.38720223653423491 0 0.33845820618313471 -0.39853417547196002 0 0.34872322422665353 -0.37263887213297769 0 0.33963776365932441 -0.37837766517931642 0 0.34012659714689841 -0.38720223653423491 0 0.34872322422665353 -0.37263887213297769 0 0.33324081666998828 -0.39492000714164571 0 0.3255407396791461 -0.37516191081759498 0 0.33845820618313471 -0.39853417547196002 0 0.34872322422665353 -0.37263887213297769 0 0.33963776365932441 -0.37837766517931642 0 0.3335276772932631 -0.38342873676980471 0 0.3361735559704826 -0.37024081528024833 0 0.3335276772932631 -0.38342873676980471 0 0.3255407396791461 -0.37516191081759498 0 0.3361735559704826 -0.37024081528024833 0 0.3335276772932631 -0.38342873676980471 0 0.33596399694773832 -0.38980215751724329 0 0.33324081666998828 -0.39492000714164571 0 0.3335276772932631 -0.38342873676980471 0 0.33596399694773832 -0.38980215751724329 0 0.34012659714689841 -0.38720223653423491 0 0.33596399694773832 -0.38980215751724329 0 0.34012659714689841 -0.38720223653423491 0 0.33806406418366158 -0.39185132503326447 0 0.33963776365932441 -0.37837766517931642 0 0.3335276772932631 -0.38342873676980471 0 0.34012659714689841 -0.38720223653423491 0 0.34012659714689841 -0.38720223653423491 0 0.33806406418366158 -0.39185132503326447 0 0.33845820618313471 -0.39853417547196002 0 0.34766079420485851 -0.39588101193396241 0 0.33845820618313471 -0.39853417547196002 0 0.33733768649288198 -0.39427380079334751 0 0.33806406418366158 -0.39185132503326447 0 0.33845820618313471 -0.39853417547196002 0 0.33733768649288198 -0.39427380079334751 0 0.33845820618313471 -0.39853417547196002 0 0.33324081666998828 -0.39492000714164571 0 0.33596399694773832 -0.38980215751724329 0 0.33733768649288198 -0.39427380079334751 0 0.33806406418366158 -0.39185132503326447 0 0.34766079420485851 -0.39588101193396241 0 0.34369850404782332 -0.40216421278012981 0 0.33845820618313471 -0.39853417547196002 0 0.34369850404782332 -0.40216421278012981 0 0.33845820618313471 -0.39853417547196002 0 0.34369850404782332 -0.40216421278012981 0 0.33845820618313471 -0.39853417547196002 0 0.33653756389694151 -0.40337933155407668 0 0.33845820618313471 -0.39853417547196002 0 0.33653756389694151 -0.40337933155407668 0 0.33845820618313471 -0.39853417547196002 0 0.33653756389694151 -0.40337933155407668 0 0.33490209464253468 -0.39918278142840541 0 0.33845820618313471 -0.39853417547196002 0 0.33490209464253468 -0.39918278142840541 0 0.33504968166223947 -0.40713277471773468 0 0.33653756389694151 -0.40337933155407668 0 0.33490209464253468 -0.39918278142840541 0 0.33504968166223947 -0.40713277471773468 0 0.33653756389694151 -0.40337933155407668 0 0.33653756389694151 -0.40337933155407668 0 0.33490209464253468 -0.39918278142840541 0 0.33490209464253468 -0.39918278142840541 0 0.33324081666998828 -0.39492000714164571 0 0.32202976484946311 -0.39619206334789991 0 0.33596399694773832 -0.38980215751724329 0 0.33733768649288198 -0.39427380079334751 0 0.33324081666998828 -0.39492000714164571 0 0.33490209464253468 -0.39918278142840541 0 0.33324081666998828 -0.39492000714164571 0 0.33845820618313471 -0.39853417547196002 0 0.33490209464253468 -0.39918278142840541 0 0.33324081666998828 -0.39492000714164571 0 0.33845820618313471 -0.39853417547196002 0 0.33324081666998828 -0.39492000714164571 0 0.33504968166223947 -0.40713277471773468 0 0.33490209464253468 -0.39918278142840541 0 0.31438657082491822 -0.40449190641976229 0 0.33490209464253468 -0.39918278142840541 0 0.32202976484946311 -0.39619206334789991 0 0.31438657082491822 -0.40449190641976229 0 0.33490209464253468 -0.39918278142840541 0 0.31438657082491822 -0.40449190641976229 0 0.32202976484946311 -0.39619206334789991 0 0.31436114419615052 -0.39877813833215842 0 0.31438657082491822 -0.40449190641976229 0 0.31436114419615052 -0.39877813833215842 0 0.31296222298584891 -0.40290663663784132 0 0.31438657082491822 -0.40449190641976229 0 0.31296222298584891 -0.40290663663784132 0 0.31438657082491822 -0.40449190641976229 0 0.32202976484946311 -0.39619206334789991 0 0.31436114419615052 -0.39877813833215842 0 0.31175043851944501 -0.39234954429874852 0 0.33324081666998828 -0.39492000714164571 0 0.3110852699496548 -0.37957250910729518 0 0.33324081666998828 -0.39492000714164571 0 0.32202976484946311 -0.39619206334789991 0 0.3110852699496548 -0.37957250910729518 0 0.33324081666998828 -0.39492000714164571 0 0.3255407396791461 -0.37516191081759498 0 0.3110852699496548 -0.37957250910729518 0 0.32202976484946311 -0.39619206334789991 0 0.3110852699496548 -0.37957250910729518 0 0.31175043851944501 -0.39234954429874852 0 0.30109883395466608 -0.38274755720295311 0 0.3110852699496548 -0.37957250910729518 0 0.30882709279485931 -0.36882749165478201 0 0.30109883395466608 -0.38274755720295311 0 0.3110852699496548 -0.37957250910729518 0 0.31175043851944501 -0.39234954429874852 0 0.30109883395466608 -0.38274755720295311 0 0.31175043851944501 -0.39234954429874852 0 0.30255335025274122 -0.39459265470328148 0 0.31296222298584891 -0.40290663663784132 0 0.31438657082491822 -0.40449190641976229 0 0.29714657144245549 -0.40895337239967711 0 0.31175043851944501 -0.39234954429874852 0 0.30775474547932818 -0.39951606927434141 0 0.30255335025274122 -0.39459265470328148 0 0.31296222298584891 -0.40290663663784132 0 0.30775474547932818 -0.39951606927434141 0 0.29714657144245549 -0.40895337239967711 0 0.31436114419615052 -0.39877813833215842 0 0.31175043851944501 -0.39234954429874852 0 0.30775474547932818 -0.39951606927434141 0 0.31436114419615052 -0.39877813833215842 0 0.31296222298584891 -0.40290663663784132 0 0.30775474547932818 -0.39951606927434141 0 0.30775474547932818 -0.39951606927434141 0 0.30255335025274122 -0.39459265470328148 0 0.29714657144245549 -0.40895337239967711 0 0.30255335025274122 -0.39459265470328148 0 0.28759803121572602 -0.40219536299696301 0 0.30255335025274122 -0.39459265470328148 0 0.28759803121572602 -0.40219536299696301 0 0.28689729851783108 -0.38744478906196422 0 0.30255335025274122 -0.39459265470328148 0 0.28759803121572602 -0.40219536299696301 0 0.29714657144245549 -0.40895337239967711 0 0.28759803121572602 -0.40219536299696301 0 0.28689729851783108 -0.38744478906196422 0 0.27342185864613888 -0.39668035868305068 0 0.28689729851783108 -0.38744478906196422 0 0.27924795193184992 -0.3768585552903434 0 0.29377578123326092 -0.37160679410765263 0 0.30109883395466608 -0.38274755720295311 0 0.28689729851783108 -0.38744478906196422 0 0.29377578123326092 -0.37160679410765263 0 0.30109883395466608 -0.38274755720295311 0 0.30255335025274122 -0.39459265470328148 0 0.28689729851783108 -0.38744478906196422 0 0.28689729851783108 -0.38744478906196422 0 0.27924795193184992 -0.3768585552903434 0 0.26866061728238999 -0.3854653203980245 0 0.28689729851783108 -0.38744478906196422 0 0.26866061728238999 -0.3854653203980245 0 0.27342185864613888 -0.39668035868305068 0 0.27924795193184992 -0.3768585552903434 0 0.26866061728238999 -0.3854653203980245 0 0.26540827376925558 -0.37267879730610909 0 0.26866061728238999 -0.3854653203980245 0 0.25342967067809119 -0.38117269180066449 0 0.26540827376925558 -0.37267879730610909 0 0.26866061728238999 -0.3854653203980245 0 0.25342967067809119 -0.38117269180066449 0 0.2465173062916603 -0.39678990349254017 0 0.27264271217871039 -0.40979807129064372 0 0.2465173062916603 -0.39678990349254017 0 0.27342185864613888 -0.39668035868305068 0 0.27264271217871039 -0.40979807129064372 0 0.2465173062916603 -0.39678990349254017 0 0.26866061728238999 -0.3854653203980245 0 0.27342185864613888 -0.39668035868305068 0 0.2465173062916603 -0.39678990349254017 0 0.28759803121572602 -0.40219536299696301 0 0.27264271217871039 -0.40979807129064372 0 0.28759803121572602 -0.40219536299696301 0 0.27342185864613888 -0.39668035868305068 0 0.27264271217871039 -0.40979807129064372 0 0.27352646881323178 -0.42094713742039569 0 0.27264271217871039 -0.40979807129064372 0 0.26626639404949132 -0.42572612395426718 0 0.28759803121572602 -0.40219536299696301 0 0.27990657205999242 -0.4134148383795897 0 0.27264271217871039 -0.40979807129064372 0 0.27990657205999242 -0.4134148383795897 0 0.27622474892180199 -0.41436764170113921 0 0.27990657205999242 -0.4134148383795897 0 0.27622474892180199 -0.41436764170113921 0 0.27264271217871039 -0.40979807129064372 0 0.27990657205999242 -0.4134148383795897 0 0.27264271217871039 -0.40979807129064372 0 0.27622474892180199 -0.41436764170113921 0 0.27352646881323178 -0.42094713742039569 0 0.27264271217871039 -0.40979807129064372 0 0.27990657205999242 -0.4134148383795897 0 0.28025349963267898 -0.42072024362051558 0 0.27622474892180199 -0.41436764170113921 0 0.28025349963267898 -0.42072024362051558 0 0.27622474892180199 -0.41436764170113921 0 0.27352646881323178 -0.42094713742039569 0 0.27264271217871039 -0.40979807129064372 0 0.25063166162834921 -0.42098764178109621 0 0.2465173062916603 -0.39678990349254017 0 0.27264271217871039 -0.40979807129064372 0 0.25063166162834921 -0.42098764178109621 0 0.27264271217871039 -0.40979807129064372 0 0.25063166162834921 -0.42098764178109621 0 0.26626639404949132 -0.42572612395426718 0 0.25063166162834921 -0.42098764178109621 0 0.25918536974532758 -0.43149909003365872 0 0.26626639404949132 -0.42572612395426718 0 0.25918536974532758 -0.43149909003365872 0 0.26100887060239158 -0.43988742326120511 0 0.24926376447426149 -0.43463356081109539 0 0.25063166162834921 -0.42098764178109621 0 0.25918536974532758 -0.43149909003365872 0 0.24926376447426149 -0.43463356081109539 0 0.25918536974532758 -0.43149909003365872 0 0.26722093990196338 -0.43444843478174749 0 0.26626639404949132 -0.42572612395426718 0 0.25918536974532758 -0.43149909003365872 0 0.26722093990196338 -0.43444843478174749 0 0.26100887060239158 -0.43988742326120511 0 0.26722093990196338 -0.43444843478174749 0 0.26626639404949132 -0.42572612395426718 0 0.28021522687164752 -0.43152388332811398 0 0.26722093990196338 -0.43444843478174749 0 0.28021522687164752 -0.43152388332811398 0 0.26818409343061478 -0.44348879268394731 0 0.27352646881323178 -0.42094713742039569 0 0.26626639404949132 -0.42572612395426718 0 0.28021522687164752 -0.43152388332811398 0 0.28025349963267898 -0.42072024362051558 0 0.27352646881323178 -0.42094713742039569 0 0.28021522687164752 -0.43152388332811398 0 0.28021522687164752 -0.43152388332811398 0 0.29544979096900559 -0.42920176181020392 0 0.29558684600284513 -0.43954131734998492 0 0.28021522687164752 -0.43152388332811398 0 0.29544979096900559 -0.42920176181020392 0 0.29224636031267842 -0.41955897397227898 0 0.28025349963267898 -0.42072024362051558 0 0.28021522687164752 -0.43152388332811398 0 0.29224636031267842 -0.41955897397227898 0 0.28021522687164752 -0.43152388332811398 0 0.29224636031267842 -0.41955897397227898 0 0.27990657205999242 -0.4134148383795897 0 0.29224636031267842 -0.41955897397227898 0 0.28759803121572602 -0.40219536299696301 0 0.27990657205999242 -0.4134148383795897 0 0.29714657144245549 -0.40895337239967711 0 0.27990657205999242 -0.4134148383795897 0 0.29224636031267842 -0.41955897397227898 0 0.29714657144245549 -0.40895337239967711 0 0.27990657205999242 -0.4134148383795897 0 0.29714657144245549 -0.40895337239967711 0 0.27990657205999242 -0.4134148383795897 0 0.28025349963267898 -0.42072024362051558 0 0.29224636031267842 -0.41955897397227898 0 0.29224636031267842 -0.41955897397227898 0 0.302928945586035 -0.41782395660837929 0 0.30242813811128127 -0.40943324067885312 0 0.31438657082491822 -0.40449190641976229 0 0.29714657144245549 -0.40895337239967711 0 0.29224636031267842 -0.41955897397227898 0 0.30242813811128127 -0.40943324067885312 0 0.29224636031267842 -0.41955897397227898 0 0.302928945586035 -0.41782395660837929 0 0.30664526662835617 -0.42672837031671002 0 0.31438657082491822 -0.40449190641976229 0 0.29714657144245549 -0.40895337239967711 0 0.30242813811128127 -0.40943324067885312 0 0.29224636031267842 -0.41955897397227898 0 0.29714657144245549 -0.40895337239967711 0 0.30242813811128127 -0.40943324067885312 0 0.31438657082491822 -0.40449190641976229 0 0.30242813811128127 -0.40943324067885312 0 0.31039601729182309 -0.41557524146567432 0 0.302928945586035 -0.41782395660837929 0 0.31039601729182309 -0.41557524146567432 0 0.30664526662835617 -0.42672837031671002 0 0.302928945586035 -0.41782395660837929 0 0.30242813811128127 -0.40943324067885312 0 0.31039601729182309 -0.41557524146567432 0 0.30664526662835617 -0.42672837031671002 0 0.31247693377907471 -0.43845264232064579 0 0.29558684600284513 -0.43954131734998492 0 0.29544979096900559 -0.42920176181020392 0 0.30664526662835617 -0.42672837031671002 0 0.29558684600284513 -0.43954131734998492 0 0.29544979096900559 -0.42920176181020392 0 0.29224636031267842 -0.41955897397227898 0 0.30664526662835617 -0.42672837031671002 0 0.29224636031267842 -0.41955897397227898 0 0.30664526662835617 -0.42672837031671002 0 0.31247693377907471 -0.43845264232064579 0 0.29804529808720059 -0.45847665186978998 0 0.29558684600284513 -0.43954131734998492 0 0.31528411074818657 -0.44636419536526389 0 0.31247693377907471 -0.43845264232064579 0 0.29804529808720059 -0.45847665186978998 0 0.31247693377907471 -0.43845264232064579 0 0.29804529808720059 -0.45847665186978998 0 0.31718935335724552 -0.46808538694706509 0 0.31622076217791228 -0.4572261919304183 0 0.29804529808720059 -0.45847665186978998 0 0.31622076217791228 -0.4572261919304183 0 0.31528411074818657 -0.44636419536526389 0 0.29804529808720059 -0.45847665186978998 0 0.31718935335724552 -0.46808538694706509 0 0.29804529808720059 -0.45847665186978998 0 0.29804529808720059 -0.45847665186978998 0 0.28311469575890791 -0.45098272227686842 0 0.29804529808720059 -0.45847665186978998 0 0.28311469575890791 -0.45098272227686842 0 0.287283372783109 -0.47340890900663601 0 0.29804529808720059 -0.45847665186978998 0 0.287283372783109 -0.47340890900663601 0 0.28021522687164752 -0.43152388332811398 0 0.28311469575890791 -0.45098272227686842 0 0.29558684600284513 -0.43954131734998492 0 0.29804529808720059 -0.45847665186978998 0 0.28311469575890791 -0.45098272227686842 0 0.29558684600284513 -0.43954131734998492 0 0.28021522687164752 -0.43152388332811398 0 0.26818409343061478 -0.44348879268394731 0 0.28021522687164752 -0.43152388332811398 0 0.28311469575890791 -0.45098272227686842 0 0.26818409343061478 -0.44348879268394731 0 0.28311469575890791 -0.45098272227686842 0 0.26818409343061478 -0.44348879268394731 0 0.26861630828114202 -0.46194460619472988 0 0.28311469575890791 -0.45098272227686842 0 0.26818409343061478 -0.44348879268394731 0 0.26722093990196338 -0.43444843478174749 0 0.26818409343061478 -0.44348879268394731 0 0.26100887060239158 -0.43988742326120511 0 0.26818409343061478 -0.44348879268394731 0 0.25121407728899542 -0.46036539918962038 0 0.26818409343061478 -0.44348879268394731 0 0.26100887060239158 -0.43988742326120511 0 0.25121407728899542 -0.46036539918962038 0 0.26100887060239158 -0.43988742326120511 0 0.25121407728899542 -0.46036539918962038 0 0.24380187317688931 -0.44499190555020518 0 0.26100887060239158 -0.43988742326120511 0 0.24380187317688931 -0.44499190555020518 0 0.24926376447426149 -0.43463356081109539 0 0.26818409343061478 -0.44348879268394731 0 0.26100887060239158 -0.43988742326120511 0 0.26818409343061478 -0.44348879268394731 0 0.25121407728899542 -0.46036539918962038 0 0.26861630828114202 -0.46194460619472988 0 0.25121407728899542 -0.46036539918962038 0 0.26861630828114202 -0.46194460619472988 0 0.25343276995694342 -0.47861405652005812 0 0.28311469575890791 -0.45098272227686842 0 0.26861630828114202 -0.46194460619472988 0 0.287283372783109 -0.47340890900663601 0 0.26861630828114202 -0.46194460619472988 0 0.26980901938455432 -0.48267770432143858 0 0.287283372783109 -0.47340890900663601 0 0.26861630828114202 -0.46194460619472988 0 0.26980901938455432 -0.48267770432143858 0 0.25343276995694342 -0.47861405652005812 0 0.26980901938455432 -0.48267770432143858 0 0.25343276995694342 -0.47861405652005812 0 0.25313288455412453 -0.5 0 0.26980901938455432 -0.48267770432143858 0 0.25313288455412453 -0.5 0 0.27783666910125387 -0.5 0 0.26980901938455432 -0.48267770432143858 0 0.27783666910125387 -0.5 0 0.28806929084314731 -0.48764420031975209 0 0.27783666910125387 -0.5 0 0.28806929084314731 -0.48764420031975209 0 0.30254045364838328 -0.50000000000000089 0 0.26980901938455432 -0.48267770432143858 0 0.28806929084314731 -0.48764420031975209 0 0.287283372783109 -0.47340890900663601 0 0.29804529808720059 -0.45847665186978998 0 0.287283372783109 -0.47340890900663601 0 0.30287693929843618 -0.48213438827068578 0 0.28806929084314731 -0.48764420031975209 0 0.287283372783109 -0.47340890900663601 0 0.30287693929843618 -0.48213438827068578 0 0.31718935335724552 -0.46808538694706509 0 0.29804529808720059 -0.45847665186978998 0 0.30287693929843618 -0.48213438827068578 0 0.31943693113783689 -0.48884706101217068 0 0.30287693929843618 -0.48213438827068578 0 0.30254045364838328 -0.50000000000000089 0 0.28806929084314731 -0.48764420031975209 0 0.30287693929843618 -0.48213438827068578 0 0.30254045364838328 -0.50000000000000089 0 0.31943693113783689 -0.48884706101217068 0 0.30254045364838328 -0.50000000000000089 0 0.33831965634088867 -0.28513471903745891 0 0.34301329912250039 -0.29405184519522037 0 0.32546916380182528 -0.29541709402509592 0 0.33831965634088867 -0.28513471903745891 0 0.32546916380182528 -0.29541709402509592 0 0.32684678612697532 -0.28174319796862302 0 0.33869073070511752 -0.3028914447881495 0 0.3519402539889529 -0.31031590523017127 0 0.33628755180547559 -0.31720080624862718 0 0.34301329912250039 -0.29405184519522037 0 0.33869073070511752 -0.3028914447881495 0 0.32546916380182528 -0.29541709402509592 0 0.33869073070511752 -0.3028914447881495 0 0.32507005087688201 -0.3084622574087641 0 0.33628755180547559 -0.31720080624862718 0 0.33869073070511752 -0.3028914447881495 0 0.32507005087688201 -0.3084622574087641 0 0.32546916380182528 -0.29541709402509592 0 0.33869073070511752 -0.3028914447881495 0 0.32546916380182528 -0.29541709402509592 0 0.31370213667148478 -0.30773639664550401 0 0.32546916380182528 -0.29541709402509592 0 0.30106669249438339 -0.30003766329790832 0 0.32507005087688201 -0.3084622574087641 0 0.31370213667148478 -0.30773639664550401 0 0.32546916380182528 -0.29541709402509592 0 0.32546916380182528 -0.29541709402509592 0 0.30106669249438339 -0.30003766329790832 0 0.32507005087688201 -0.3084622574087641 0 0.31370213667148478 -0.30773639664550401 0 0.31762612064872248 -0.31734014645243469 0 0.32546916380182528 -0.29541709402509592 0 0.31559942615922082 -0.27980432315946002 0 0.30347029083162957 -0.28315543187738001 0 0.32546916380182528 -0.29541709402509592 0 0.30347029083162957 -0.28315543187738001 0 0.32546916380182528 -0.29541709402509592 0 0.32684678612697532 -0.28174319796862302 0 0.31559942615922082 -0.27980432315946002 0 0.31559942615922082 -0.27980432315946002 0 0.31866946870625718 -0.27105787335995812 0 0.30354142132941669 -0.26764801856624271 0 0.31866946870625718 -0.27105787335995812 0 0.3174403735311353 -0.26084556398648112 0 0.30354142132941669 -0.26764801856624271 0 0.31866946870625718 -0.27105787335995812 0 0.32636302483885499 -0.26382848000722747 0 0.33302874546746131 -0.27326689978385171 0 0.32684678612697532 -0.28174319796862302 0 0.31559942615922082 -0.27980432315946002 0 0.31866946870625718 -0.27105787335995812 0 0.32684678612697532 -0.28174319796862302 0 0.31866946870625718 -0.27105787335995812 0 0.33302874546746131 -0.27326689978385171 0 0.32282519411091049 -0.25208168099931572 0 0.31012990445961619 -0.25360961348613381 0 0.3174403735311353 -0.26084556398648112 0 0.32282519411091049 -0.25208168099931572 0 0.31012990445961619 -0.25360961348613381 0 0.31866946870625718 -0.27105787335995812 0 0.3174403735311353 -0.26084556398648112 0 0.32636302483885499 -0.26382848000722747 0 0.3174403735311353 -0.26084556398648112 0 0.32636302483885499 -0.26382848000722747 0 0.32282519411091049 -0.25208168099931572 0 0.32282519411091049 -0.25208168099931572 0 0.33849036963403628 -0.25019631002701931 0 0.32282519411091049 -0.25208168099931572 0 0.33985134237851011 -0.26189038190653191 0 0.33849036963403628 -0.25019631002701931 0 0.32636302483885499 -0.26382848000722747 0 0.32282519411091049 -0.25208168099931572 0 0.33985134237851011 -0.26189038190653191 0 0.32282519411091049 -0.25208168099931572 0 0.33985134237851011 -0.26189038190653191 0 0.33985134237851011 -0.26189038190653191 0 0.33849036963403628 -0.25019631002701931 0 0.34725407518351792 -0.25719689382678662 0 0.33831965634088867 -0.28513471903745891 0 0.32684678612697532 -0.28174319796862302 0 0.33302874546746131 -0.27326689978385171 0 0.32636302483885499 -0.26382848000722747 0 0.33985134237851011 -0.26189038190653191 0 0.33302874546746131 -0.27326689978385171 0 0.33985134237851011 -0.26189038190653191 0 0.33302874546746131 -0.27326689978385171 0 0.34667829151054019 -0.27665942024412638 0 0.33831965634088867 -0.28513471903745891 0 0.33302874546746131 -0.27326689978385171 0 0.34667829151054019 -0.27665942024412638 0 0.33985134237851011 -0.26189038190653191 0 0.35687749064610952 -0.27169908281374849 0 0.33985134237851011 -0.26189038190653191 0 0.34667829151054019 -0.27665942024412638 0 0.35687749064610952 -0.27169908281374849 0 0.34667829151054019 -0.27665942024412638 0 0.35687749064610952 -0.27169908281374849 0 0.3576791137235818 -0.27858697820054679 0 0.35687749064610952 -0.27169908281374849 0 0.3576791137235818 -0.27858697820054679 0 0.35415554515716102 -0.24831093905471299 0 0.35687749064610952 -0.27169908281374849 0 0.35731995320931059 -0.26497983697406863 0 0.33985134237851011 -0.26189038190653191 0 0.35687749064610952 -0.27169908281374849 0 0.34725407518351792 -0.25719689382678662 0 0.35415554515716102 -0.24831093905471299 0 0.33849036963403628 -0.25019631002701931 0 0.34725407518351792 -0.25719689382678662 0 0.35415554515716102 -0.24831093905471299 0 0.35687749064610952 -0.27169908281374849 0 0.34725407518351792 -0.25719689382678662 0 0.35415554515716102 -0.24831093905471299 0 0.35687749064610952 -0.27169908281374849 0 0.3589547705978951 -0.24981489774816881 0 0.35415554515716102 -0.24831093905471299 0 0.35731995320931059 -0.26497983697406863 0 0.3589547705978951 -0.24981489774816881 0 0.35731995320931059 -0.26497983697406863 0 0.35783458666365131 -0.24786815065110421 0 0.3589547705978951 -0.24981489774816881 0 0.36854417670357048 -0.25292360155684701 0 0.3589547705978951 -0.24981489774816881 0 0.36783370538262689 -0.26524543552759272 0 0.3589547705978951 -0.24981489774816881 0 0.36783370538262689 -0.26524543552759272 0 0.36854417670357048 -0.25292360155684701 0 0.3589547705978951 -0.24981489774816881 0 0.35731995320931059 -0.26497983697406863 0 0.36783370538262689 -0.26524543552759272 0 0.38035274350617743 -0.2561222821423137 0 0.36783370538262689 -0.26524543552759272 0 0.36854417670357048 -0.25292360155684701 0 0.35687749064610952 -0.27169908281374849 0 0.37406912045152002 -0.28160311702151991 0 0.37671264016735773 -0.28067597330701721 0 0.36783370538262689 -0.26524543552759272 0 0.37406912045152002 -0.28160311702151991 0 0.35687749064610952 -0.27169908281374849 0 0.36783370538262689 -0.26524543552759272 0 0.37406912045152002 -0.28160311702151991 0 0.35687749064610952 -0.27169908281374849 0 0.37406912045152002 -0.28160311702151991 0 0.36360133158142821 -0.28297451254781508 0 0.35687749064610952 -0.27169908281374849 0 0.3576791137235818 -0.27858697820054679 0 0.36360133158142821 -0.28297451254781508 0 0.35687749064610952 -0.27169908281374849 0 0.35731995320931059 -0.26497983697406863 0 0.36783370538262689 -0.26524543552759272 0 0.37671264016735773 -0.28067597330701721 0 0.38010934136860391 -0.26630346892305279 0 0.36783370538262689 -0.26524543552759272 0 0.37671264016735773 -0.28067597330701721 0 0.36783370538262689 -0.26524543552759272 0 0.37671264016735773 -0.28067597330701721 0 0.37406912045152002 -0.28160311702151991 0 0.3636454414049286 -0.29288190559278499 0 0.37671264016735773 -0.28067597330701721 0 0.3636454414049286 -0.29288190559278499 0 0.37616232238117681 -0.30069057419004158 0 0.37671264016735773 -0.28067597330701721 0 0.3636454414049286 -0.29288190559278499 0 0.37406912045152002 -0.28160311702151991 0 0.3636454414049286 -0.29288190559278499 0 0.36360133158142821 -0.28297451254781508 0 0.3636454414049286 -0.29288190559278499 0 0.36360133158142821 -0.28297451254781508 0 0.35851642808999729 -0.28588995173519649 0 0.3576791137235818 -0.27858697820054679 0 0.36360133158142821 -0.28297451254781508 0 0.35851642808999729 -0.28588995173519649 0 0.34667829151054019 -0.27665942024412638 0 0.3576791137235818 -0.27858697820054679 0 0.35176176340255177 -0.28896385882245929 0 0.3576791137235818 -0.27858697820054679 0 0.35176176340255177 -0.28896385882245929 0 0.35851642808999729 -0.28588995173519649 0 0.3636454414049286 -0.29288190559278499 0 0.35176176340255177 -0.28896385882245929 0 0.35851642808999729 -0.28588995173519649 0 0.3636454414049286 -0.29288190559278499 0 0.35176176340255177 -0.28896385882245929 0 0.35253195256407732 -0.29938471589532262 0 0.34301329912250039 -0.29405184519522037 0 0.35176176340255177 -0.28896385882245929 0 0.35253195256407732 -0.29938471589532262 0 0.33831965634088867 -0.28513471903745891 0 0.34301329912250039 -0.29405184519522037 0 0.35176176340255177 -0.28896385882245929 0 0.33831965634088867 -0.28513471903745891 0 0.34667829151054019 -0.27665942024412638 0 0.35176176340255177 -0.28896385882245929 0 0.33869073070511752 -0.3028914447881495 0 0.3519402539889529 -0.31031590523017127 0 0.33869073070511752 -0.3028914447881495 0 0.35253195256407732 -0.29938471589532262 0 0.3519402539889529 -0.31031590523017127 0 0.34301329912250039 -0.29405184519522037 0 0.33869073070511752 -0.3028914447881495 0 0.35253195256407732 -0.29938471589532262 0 0.35253195256407732 -0.29938471589532262 0 0.3519402539889529 -0.31031590523017127 0 0.36614022676041302 -0.30720333574315051 0 0.3636454414049286 -0.29288190559278499 0 0.35253195256407732 -0.29938471589532262 0 0.36614022676041302 -0.30720333574315051 0 0.37616232238117681 -0.30069057419004158 0 0.3636454414049286 -0.29288190559278499 0 0.36614022676041302 -0.30720333574315051 0 0.38392967490950741 -0.31825712303906029 0 0.36614022676041302 -0.30720333574315051 0 0.36901326181781341 -0.32145370363596959 0 0.3519402539889529 -0.31031590523017127 0 0.36614022676041302 -0.30720333574315051 0 0.36901326181781341 -0.32145370363596959 0 0.36901326181781341 -0.32145370363596959 0 0.35886824302223341 -0.34704628788447373 0 0.36901326181781341 -0.32145370363596959 0 0.37223893054638268 -0.33893862583127271 0 0.35886824302223341 -0.34704628788447373 0 0.36901326181781341 -0.32145370363596959 0 0.34856141279818792 -0.32885465902537869 0 0.35886824302223341 -0.34704628788447373 0 0.34856141279818792 -0.32885465902537869 0 0.35886824302223341 -0.34704628788447373 0 0.34264496471042488 -0.34399561174040649 0 0.3519402539889529 -0.31031590523017127 0 0.34856141279818792 -0.32885465902537869 0 0.33628755180547559 -0.31720080624862718 0 0.3519402539889529 -0.31031590523017127 0 0.36901326181781341 -0.32145370363596959 0 0.34856141279818792 -0.32885465902537869 0 0.36081131999201199 -0.37497950952130688 0 0.37451150439712788 -0.37164664873798309 0 0.37396184577916541 -0.35407800710865139 0 0.36081131999201199 -0.37497950952130688 0 0.36088038880759638 -0.36181553917547582 0 0.37396184577916541 -0.35407800710865139 0 0.36081131999201199 -0.37497950952130688 0 0.37396184577916541 -0.35407800710865139 0 0.36088038880759638 -0.36181553917547582 0 0.37396184577916541 -0.35407800710865139 0 0.35886824302223341 -0.34704628788447373 0 0.37223893054638268 -0.33893862583127271 0 0.37396184577916541 -0.35407800710865139 0 0.35886824302223341 -0.34704628788447373 0 0.35886824302223341 -0.34704628788447373 0 0.34684787589137672 -0.3556367075449085 0 0.34872322422665353 -0.37263887213297769 0 0.35886824302223341 -0.34704628788447373 0 0.34684787589137672 -0.3556367075449085 0 0.34264496471042488 -0.34399561174040649 0 0.35886824302223341 -0.34704628788447373 0 0.34872322422665353 -0.37263887213297769 0 0.34684787589137672 -0.3556367075449085 0 0.34872322422665353 -0.37263887213297769 0 0.34258453080200418 -0.36302998159055089 0 0.36088038880759638 -0.36181553917547582 0 0.35886824302223341 -0.34704628788447373 0 0.34872322422665353 -0.37263887213297769 0 0.36081131999201199 -0.37497950952130688 0 0.36088038880759638 -0.36181553917547582 0 0.34872322422665353 -0.37263887213297769 0 0.3255407396791461 -0.37516191081759498 0 0.3361735559704826 -0.37024081528024833 0 0.32313864197006298 -0.36225332216850747 0 0.33963776365932441 -0.37837766517931642 0 0.34872322422665353 -0.37263887213297769 0 0.3361735559704826 -0.37024081528024833 0 0.34872322422665353 -0.37263887213297769 0 0.3361735559704826 -0.37024081528024833 0 0.34258453080200418 -0.36302998159055089 0 0.3361735559704826 -0.37024081528024833 0 0.34258453080200418 -0.36302998159055089 0 0.33576851754344023 -0.35573427843200423 0 0.3361735559704826 -0.37024081528024833 0 0.33576851754344023 -0.35573427843200423 0 0.32313864197006298 -0.36225332216850747 0 0.33576851754344023 -0.35573427843200423 0 0.34264496471042488 -0.34399561174040649 0 0.32617649288877287 -0.34821108507393511 0 0.33576851754344023 -0.35573427843200423 0 0.32617649288877287 -0.34821108507393511 0 0.32313864197006298 -0.36225332216850747 0 0.34684787589137672 -0.3556367075449085 0 0.34258453080200418 -0.36302998159055089 0 0.33576851754344023 -0.35573427843200423 0 0.34684787589137672 -0.3556367075449085 0 0.33576851754344023 -0.35573427843200423 0 0.34264496471042488 -0.34399561174040649 0 0.32617649288877287 -0.34821108507393511 0 0.31542857440926408 -0.34003829446382178 0 0.31159456247753858 -0.35513816766909218 0 0.32617649288877287 -0.34821108507393511 0 0.32313864197006298 -0.36225332216850747 0 0.31159456247753858 -0.35513816766909218 0 0.3255407396791461 -0.37516191081759498 0 0.32313864197006298 -0.36225332216850747 0 0.30882709279485931 -0.36882749165478201 0 0.3255407396791461 -0.37516191081759498 0 0.3110852699496548 -0.37957250910729518 0 0.30882709279485931 -0.36882749165478201 0 0.32313864197006298 -0.36225332216850747 0 0.30882709279485931 -0.36882749165478201 0 0.31159456247753858 -0.35513816766909218 0 0.34856141279818792 -0.32885465902537869 0 0.33628755180547559 -0.31720080624862718 0 0.32848369622190671 -0.33210683596977869 0 0.34264496471042488 -0.34399561174040649 0 0.32617649288877287 -0.34821108507393511 0 0.32848369622190671 -0.33210683596977869 0 0.34856141279818792 -0.32885465902537869 0 0.34264496471042488 -0.34399561174040649 0 0.32848369622190671 -0.33210683596977869 0 0.32617649288877287 -0.34821108507393511 0 0.32848369622190671 -0.33210683596977869 0 0.31542857440926408 -0.34003829446382178 0 0.32848369622190671 -0.33210683596977869 0 0.31542857440926408 -0.34003829446382178 0 0.31206598456144041 -0.32836244128156489 0 0.32848369622190671 -0.33210683596977869 0 0.31762612064872248 -0.31734014645243469 0 0.31206598456144041 -0.32836244128156489 0 0.32507005087688201 -0.3084622574087641 0 0.33628755180547559 -0.31720080624862718 0 0.31762612064872248 -0.31734014645243469 0 0.33628755180547559 -0.31720080624862718 0 0.32848369622190671 -0.33210683596977869 0 0.31762612064872248 -0.31734014645243469 0 0.31370213667148478 -0.30773639664550401 0 0.31762612064872248 -0.31734014645243469 0 0.29927865553561039 -0.31742482204331679 0 0.31762612064872248 -0.31734014645243469 0 0.29927865553561039 -0.31742482204331679 0 0.31206598456144041 -0.32836244128156489 0 0.29927865553561039 -0.31742482204331679 0 0.31206598456144041 -0.32836244128156489 0 0.29951287599169862 -0.33490210747847232 0 0.31542857440926408 -0.34003829446382178 0 0.29951287599169862 -0.33490210747847232 0 0.31159456247753858 -0.35513816766909218 0 0.31542857440926408 -0.34003829446382178 0 0.31206598456144041 -0.32836244128156489 0 0.29951287599169862 -0.33490210747847232 0 0.29951287599169862 -0.33490210747847232 0 0.28205588744256682 -0.34601514957487173 0 0.29951287599169862 -0.33490210747847232 0 0.28462195448147931 -0.33077834289880481 0 0.28205588744256682 -0.34601514957487173 0 0.29927865553561039 -0.31742482204331679 0 0.29951287599169862 -0.33490210747847232 0 0.28462195448147931 -0.33077834289880481 0 0.29927865553561039 -0.31742482204331679 0 0.28462195448147931 -0.33077834289880481 0 0.28187006820496691 -0.31557399813642928 0 0.30882709279485931 -0.36882749165478201 0 0.31159456247753858 -0.35513816766909218 0 0.29555582029968502 -0.35531218051037861 0 0.30882709279485931 -0.36882749165478201 0 0.29555582029968502 -0.35531218051037861 0 0.29377578123326092 -0.37160679410765263 0 0.30109883395466608 -0.38274755720295311 0 0.30882709279485931 -0.36882749165478201 0 0.29377578123326092 -0.37160679410765263 0 0.29951287599169862 -0.33490210747847232 0 0.31159456247753858 -0.35513816766909218 0 0.29555582029968502 -0.35531218051037861 0 0.29555582029968502 -0.35531218051037861 0 0.28205588744256682 -0.34601514957487173 0 0.279187340063348 -0.36436749288946102 0 0.29951287599169862 -0.33490210747847232 0 0.29555582029968502 -0.35531218051037861 0 0.28205588744256682 -0.34601514957487173 0 0.29555582029968502 -0.35531218051037861 0 0.29377578123326092 -0.37160679410765263 0 0.279187340063348 -0.36436749288946102 0 0.27924795193184992 -0.3768585552903434 0 0.29377578123326092 -0.37160679410765263 0 0.279187340063348 -0.36436749288946102 0 0.29377578123326092 -0.37160679410765263 0 0.279187340063348 -0.36436749288946102 0 0.27924795193184992 -0.3768585552903434 0 0.279187340063348 -0.36436749288946102 0 0.26540827376925558 -0.37267879730610909 0 0.279187340063348 -0.36436749288946102 0 0.26459889889343452 -0.35712819167127052 0 0.26540827376925558 -0.37267879730610909 0 0.279187340063348 -0.36436749288946102 0 0.26459889889343452 -0.35712819167127052 0 0.28205588744256682 -0.34601514957487173 0 0.26459889889343452 -0.35712819167127052 0 0.28205588744256682 -0.34601514957487173 0 0.26459889889343452 -0.35712819167127052 0 0.26267344391554992 -0.33111033297495002 0 0.28205588744256682 -0.34601514957487173 0 0.279187340063348 -0.36436749288946102 0 0.26459889889343452 -0.35712819167127052 0 0.26459889889343452 -0.35712819167127052 0 0.26267344391554992 -0.33111033297495002 0 0.24347681962613299 -0.34664666781347092 0 0.26459889889343452 -0.35712819167127052 0 0.2458175116625721 -0.36908434014086122 0 0.24347681962613299 -0.34664666781347092 0 0.26459889889343452 -0.35712819167127052 0 0.24347681962613299 -0.34664666781347092 0 0.26459889889343452 -0.35712819167127052 0 0.26540827376925558 -0.37267879730610909 0 0.2458175116625721 -0.36908434014086122 0 0.25342967067809119 -0.38117269180066449 0 0.26540827376925558 -0.37267879730610909 0 0.2458175116625721 -0.36908434014086122 0 0.26459889889343452 -0.35712819167127052 0 0.2458175116625721 -0.36908434014086122 0 0.28187006820496691 -0.31557399813642928 0 0.26267344391554992 -0.33111033297495002 0 0.27364949877028538 -0.30522906548304829 0 0.28462195448147931 -0.33077834289880481 0 0.28187006820496691 -0.31557399813642928 0 0.26267344391554992 -0.33111033297495002 0 0.28187006820496691 -0.31557399813642928 0 0.26267344391554992 -0.33111033297495002 0 0.28462195448147931 -0.33077834289880481 0 0.28205588744256682 -0.34601514957487173 0 0.26267344391554992 -0.33111033297495002 0 0.26267344391554992 -0.33111033297495002 0 0.24347681962613299 -0.34664666781347092 0 0.26267344391554992 -0.33111033297495002 0 0.27364949877028538 -0.30522906548304829 0 0.24623230504618751 -0.31042046766818909 0 0.26652324504125441 -0.28635384682161108 0 0.27364949877028538 -0.30522906548304829 0 0.24623230504618751 -0.31042046766818909 0 0.27364949877028538 -0.30522906548304829 0 0.24623230504618751 -0.31042046766818909 0 0.26652324504125441 -0.28635384682161108 0 0.24675695282988749 -0.28093558115746919 0 0.24623230504618751 -0.31042046766818909 0 0.26652324504125441 -0.28635384682161108 0 0.27364949877028538 -0.30522906548304829 0 0.2856325856156261 -0.28922801968881201 0 0.26652324504125441 -0.28635384682161108 0 0.2856325856156261 -0.28922801968881201 0 0.28149937424197707 -0.27084387940863208 0 0.27364949877028538 -0.30522906548304829 0 0.2856325856156261 -0.28922801968881201 0 0.30106669249438339 -0.30003766329790832 0 0.29927865553561039 -0.31742482204331679 0 0.28187006820496691 -0.31557399813642928 0 0.30106669249438339 -0.30003766329790832 0 0.28187006820496691 -0.31557399813642928 0 0.27364949877028538 -0.30522906548304829 0 0.30106669249438339 -0.30003766329790832 0 0.27364949877028538 -0.30522906548304829 0 0.30106669249438339 -0.30003766329790832 0 0.28187006820496691 -0.31557399813642928 0 0.30106669249438339 -0.30003766329790832 0 0.2856325856156261 -0.28922801968881201 0 0.2977134493078829 -0.29214754484760458 0 0.30347029083162957 -0.28315543187738001 0 0.2856325856156261 -0.28922801968881201 0 0.2977134493078829 -0.29214754484760458 0 0.30106669249438339 -0.30003766329790832 0 0.2977134493078829 -0.29214754484760458 0 0.30347029083162957 -0.28315543187738001 0 0.30361800277528112 -0.29797282053162971 0 0.2977134493078829 -0.29214754484760458 0 0.30106669249438339 -0.30003766329790832 0 0.30361800277528112 -0.29797282053162971 0 0.32546916380182528 -0.29541709402509592 0 0.30347029083162957 -0.28315543187738001 0 0.30361800277528112 -0.29797282053162971 0 0.31370213667148478 -0.30773639664550401 0 0.29927865553561039 -0.31742482204331679 0 0.30106669249438339 -0.30003766329790832 0 0.32546916380182528 -0.29541709402509592 0 0.30106669249438339 -0.30003766329790832 0 0.30361800277528112 -0.29797282053162971 0 0.30106669249438339 -0.30003766329790832 0 0.30361800277528112 -0.29797282053162971 0 0.31012990445961619 -0.25360961348613381 0 0.30354142132941669 -0.26764801856624271 0 0.29397042506590088 -0.25463924831475693 0 0.3174403735311353 -0.26084556398648112 0 0.31012990445961619 -0.25360961348613381 0 0.30354142132941669 -0.26764801856624271 0 0.31559942615922082 -0.27980432315946002 0 0.30347029083162957 -0.28315543187738001 0 0.30354142132941669 -0.26764801856624271 0 0.30347029083162957 -0.28315543187738001 0 0.28149937424197707 -0.27084387940863208 0 0.30347029083162957 -0.28315543187738001 0 0.30354142132941669 -0.26764801856624271 0 0.28149937424197707 -0.27084387940863208 0 0.2856325856156261 -0.28922801968881201 0 0.30347029083162957 -0.28315543187738001 0 0.28149937424197707 -0.27084387940863208 0 0.30354142132941669 -0.26764801856624271 0 0.28149937424197707 -0.27084387940863208 0 0.29397042506590088 -0.25463924831475693 0 0.2797126088167971 -0.24519596555511219 0 0.28149937424197707 -0.27084387940863208 0 0.29397042506590088 -0.25463924831475693 0 0.2797126088167971 -0.24519596555511219 0 0.28149937424197707 -0.27084387940863208 0 0.26339886892923842 -0.25212127595917111 0 0.28149937424197707 -0.27084387940863208 0 0.26107530726561712 -0.27041472178373932 0 0.26339886892923842 -0.25212127595917111 0 0.26652324504125441 -0.28635384682161108 0 0.28149937424197707 -0.27084387940863208 0 0.26107530726561712 -0.27041472178373932 0 0.26107530726561712 -0.27041472178373932 0 0.2471980952857282 -0.26181902557181319 0 0.24675695282988749 -0.28093558115746919 0 0.26652324504125441 -0.28635384682161108 0 0.26107530726561712 -0.27041472178373932 0 0.24675695282988749 -0.28093558115746919 0 0.25185667136151929 -0.24251713028608249 0 0.26339886892923842 -0.25212127595917111 0 0.2471980952857282 -0.26181902557181319 0 0.26107530726561712 -0.27041472178373932 0 0.26339886892923842 -0.25212127595917111 0 0.2471980952857282 -0.26181902557181319 0 0.25185667136151929 -0.24251713028608249 0 0.2471980952857282 -0.26181902557181319 0 0.23189612628148359 -0.25216275566727953 0 0.2471980952857282 -0.26181902557181319 0 0.24675695282988749 -0.28093558115746919 0 0.21935683319661081 -0.2731599703975171 0 0.21935683319661081 -0.2731599703975171 0 0.23189612628148359 -0.25216275566727953 0 0.21559093293083001 -0.249209929994017 0 0.2471980952857282 -0.26181902557181319 0 0.21935683319661081 -0.2731599703975171 0 0.23189612628148359 -0.25216275566727953 0 0.21935683319661081 -0.2731599703975171 0 0.23189612628148359 -0.25216275566727953 0 0.21935683319661081 -0.2731599703975171 0 0.2027345437256638 -0.26387943896798521 0 0.21559093293083001 -0.249209929994017 0 0.2027345437256638 -0.26387943896798521 0 0.21559093293083001 -0.249209929994017 0 0.19850411860872419 -0.24812436988014369 0 0.21935683319661081 -0.2731599703975171 0 0.2027345437256638 -0.26387943896798521 0 0.19322529029693691 -0.28278240698612278 0 0.2027345437256638 -0.26387943896798521 0 0.19322529029693691 -0.28278240698612278 0 0.18699554359521711 -0.26612051758212529 0 0.2027345437256638 -0.26387943896798521 0 0.18699554359521711 -0.26612051758212529 0 0.19850411860872419 -0.24812436988014369 0 0.18699554359521711 -0.26612051758212529 0 0.19850411860872419 -0.24812436988014369 0 0.18933981929927479 -0.29897169618120978 0 0.1913979175979916 -0.32080327203846992 0 0.18187576577862899 -0.30714523127816679 0 0.18933981929927479 -0.29897169618120978 0 0.21003295723528009 -0.29606928588164921 0 0.1913979175979916 -0.32080327203846992 0 0.18933981929927479 -0.29897169618120978 0 0.19322529029693691 -0.28278240698612278 0 0.21003295723528009 -0.29606928588164921 0 0.18933981929927479 -0.29897169618120978 0 0.19322529029693691 -0.28278240698612278 0 0.18443046111875441 -0.29022801857636649 0 0.21935683319661081 -0.2731599703975171 0 0.19322529029693691 -0.28278240698612278 0 0.21003295723528009 -0.29606928588164921 0 0.21003295723528009 -0.29606928588164921 0 0.21881511132208961 -0.3156118698533299 0 0.1913979175979916 -0.32080327203846992 0 0.22906964260013929 -0.29411683798611032 0 0.24623230504618751 -0.31042046766818909 0 0.21881511132208961 -0.3156118698533299 0 0.21003295723528009 -0.29606928588164921 0 0.22906964260013929 -0.29411683798611032 0 0.21881511132208961 -0.3156118698533299 0 0.24675695282988749 -0.28093558115746919 0 0.21935683319661081 -0.2731599703975171 0 0.22906964260013929 -0.29411683798611032 0 0.21935683319661081 -0.2731599703975171 0 0.21003295723528009 -0.29606928588164921 0 0.22906964260013929 -0.29411683798611032 0 0.24675695282988749 -0.28093558115746919 0 0.22906964260013929 -0.29411683798611032 0 0.24623230504618751 -0.31042046766818909 0 0.26267344391554992 -0.33111033297495002 0 0.24623230504618751 -0.31042046766818909 0 0.23772700970440441 -0.32750286164718201 0 0.26267344391554992 -0.33111033297495002 0 0.23772700970440441 -0.32750286164718201 0 0.24347681962613299 -0.34664666781347092 0 0.24347681962613299 -0.34664666781347092 0 0.21743736861206239 -0.33372496992597028 0 0.23772700970440441 -0.32750286164718201 0 0.24347681962613299 -0.34664666781347092 0 0.21743736861206239 -0.33372496992597028 0 0.24623230504618751 -0.31042046766818909 0 0.21881511132208961 -0.3156118698533299 0 0.24623230504618751 -0.31042046766818909 0 0.23772700970440441 -0.32750286164718201 0 0.21881511132208961 -0.3156118698533299 0 0.23772700970440441 -0.32750286164718201 0 0.21881511132208961 -0.3156118698533299 0 0.21743736861206239 -0.33372496992597028 0 0.2458175116625721 -0.36908434014086122 0 0.23113123051178519 -0.37033360834347367 0 0.22703612443170931 -0.38104048861045131 0 0.2458175116625721 -0.36908434014086122 0 0.22773895192968929 -0.35938373962828352 0 0.23113123051178519 -0.37033360834347367 0 0.2458175116625721 -0.36908434014086122 0 0.24347681962613299 -0.34664666781347092 0 0.22773895192968929 -0.35938373962828352 0 0.24347681962613299 -0.34664666781347092 0 0.22773895192968929 -0.35938373962828352 0 0.24347681962613299 -0.34664666781347092 0 0.22773895192968929 -0.35938373962828352 0 0.21743736861206239 -0.33372496992597028 0 0.22773895192968929 -0.35938373962828352 0 0.21200108423324571 -0.37212081144309628 0 0.22773895192968929 -0.35938373962828352 0 0.2220437725860446 -0.37436975951670021 0 0.21200108423324571 -0.37212081144309628 0 0.22773895192968929 -0.35938373962828352 0 0.2220437725860446 -0.37436975951670021 0 0.23113123051178519 -0.37033360834347367 0 0.21200108423324571 -0.37212081144309628 0 0.20979915178817901 -0.35330875919090288 0 0.20131351684592269 -0.36475834105520238 0 0.22773895192968929 -0.35938373962828352 0 0.21200108423324571 -0.37212081144309628 0 0.20979915178817901 -0.35330875919090288 0 0.21200108423324571 -0.37212081144309628 0 0.20131351684592269 -0.36475834105520238 0 0.2044397925318884 -0.37809609077449269 0 0.22773895192968929 -0.35938373962828352 0 0.20979915178817901 -0.35330875919090288 0 0.21743736861206239 -0.33372496992597028 0 0.20979915178817901 -0.35330875919090288 0 0.19086127543892251 -0.3529946639630151 0 0.20131351684592269 -0.36475834105520238 0 0.19086127543892251 -0.3529946639630151 0 0.1971832681356675 -0.34010315062865187 0 0.17642062724118199 -0.33968408802490058 0 0.20979915178817901 -0.35330875919090288 0 0.19086127543892251 -0.3529946639630151 0 0.1971832681356675 -0.34010315062865187 0 0.20131351684592269 -0.36475834105520238 0 0.19414342483430011 -0.37347331336868828 0 0.1854494730080429 -0.36517339476675731 0 0.19086127543892251 -0.3529946639630151 0 0.20131351684592269 -0.36475834105520238 0 0.1854494730080429 -0.36517339476675731 0 0.20131351684592269 -0.36475834105520238 0 0.19414342483430011 -0.37347331336868828 0 0.2044397925318884 -0.37809609077449269 0 0.21743736861206239 -0.33372496992597028 0 0.1913979175979916 -0.32080327203846992 0 0.21881511132208961 -0.3156118698533299 0 0.21743736861206239 -0.33372496992597028 0 0.1913979175979916 -0.32080327203846992 0 0.21881511132208961 -0.3156118698533299 0 0.1913979175979916 -0.32080327203846992 0 0.20979915178817901 -0.35330875919090288 0 0.21743736861206239 -0.33372496992597028 0 0.1971832681356675 -0.34010315062865187 0 0.1971832681356675 -0.34010315062865187 0 0.1913979175979916 -0.32080327203846992 0 0.17642062724118199 -0.33968408802490058 0 0.21743736861206239 -0.33372496992597028 0 0.1971832681356675 -0.34010315062865187 0 0.1913979175979916 -0.32080327203846992 0 0.1913979175979916 -0.32080327203846992 0 0.18187576577862899 -0.30714523127816679 0 0.170999827768921 -0.31068101738298709 0 0.1913979175979916 -0.32080327203846992 0 0.161979979043441 -0.3263735120867865 0 0.1913979175979916 -0.32080327203846992 0 0.161979979043441 -0.3263735120867865 0 0.1672973989197144 -0.31899140300710238 0 0.1913979175979916 -0.32080327203846992 0 0.170999827768921 -0.31068101738298709 0 0.1913979175979916 -0.32080327203846992 0 0.1672973989197144 -0.31899140300710238 0 0.170999827768921 -0.31068101738298709 0 0.1913979175979916 -0.32080327203846992 0 0.17642062724118199 -0.33968408802490058 0 0.161979979043441 -0.3263735120867865 0 0.17642062724118199 -0.33968408802490058 0 0.161979979043441 -0.3263735120867865 0 0.15730912909049141 -0.34423804375836192 0 0.17642062724118199 -0.33968408802490058 0 0.161979979043441 -0.3263735120867865 0 0.1600804989571368 -0.32673317563112958 0 0.161979979043441 -0.3263735120867865 0 0.15730912909049141 -0.34423804375836192 0 0.1600804989571368 -0.32673317563112958 0 0.15730912909049141 -0.34423804375836192 0 0.16037208195542921 -0.32489144313824381 0 0.1565100872394625 -0.31379112621061211 0 0.16397839356820321 -0.30211281298608889 0 0.16037208195542921 -0.32489144313824381 0 0.1672973989197144 -0.31899140300710238 0 0.16397839356820321 -0.30211281298608889 0 0.16037208195542921 -0.32489144313824381 0 0.16397839356820321 -0.30211281298608889 0 0.1600804989571368 -0.32673317563112958 0 0.161979979043441 -0.3263735120867865 0 0.1600804989571368 -0.32673317563112958 0 0.161979979043441 -0.3263735120867865 0 0.16037208195542921 -0.32489144313824381 0 0.1600804989571368 -0.32673317563112958 0 0.16037208195542921 -0.32489144313824381 0 0.161979979043441 -0.3263735120867865 0 0.16037208195542921 -0.32489144313824381 0 0.161979979043441 -0.3263735120867865 0 0.16037208195542921 -0.32489144313824381 0 0.1672973989197144 -0.31899140300710238 0 0.1854494730080429 -0.36517339476675731 0 0.170770318083768 -0.36418904540782648 0 0.1816176235205659 -0.37747207831012852 0 0.170770318083768 -0.36418904540782648 0 0.16728881332853329 -0.3731902502836274 0 0.1816176235205659 -0.37747207831012852 0 0.19414342483430011 -0.37347331336868828 0 0.1854494730080429 -0.36517339476675731 0 0.1816176235205659 -0.37747207831012852 0 0.1854494730080429 -0.36517339476675731 0 0.16991789505267749 -0.35186249049311807 0 0.170770318083768 -0.36418904540782648 0 0.19086127543892251 -0.3529946639630151 0 0.17642062724118199 -0.33968408802490058 0 0.16991789505267749 -0.35186249049311807 0 0.19086127543892251 -0.3529946639630151 0 0.1854494730080429 -0.36517339476675731 0 0.16991789505267749 -0.35186249049311807 0 0.19086127543892251 -0.3529946639630151 0 0.17642062724118199 -0.33968408802490058 0 0.17642062724118199 -0.33968408802490058 0 0.15730912909049141 -0.34423804375836192 0 0.16991789505267749 -0.35186249049311807 0 0.15730912909049141 -0.34423804375836192 0 0.16991789505267749 -0.35186249049311807 0 0.15453775922384169 -0.36174291188559338 0 0.16991789505267749 -0.35186249049311807 0 0.170770318083768 -0.36418904540782648 0 0.15453775922384169 -0.36174291188559338 0 0.170770318083768 -0.36418904540782648 0 0.16728881332853329 -0.3731902502836274 0 0.15453775922384169 -0.36174291188559338 0 0.15768028884456081 -0.37409513802127797 0 0.16728881332853329 -0.3731902502836274 0 0.15453775922384169 -0.36174291188559338 0 0.15453775922384169 -0.36174291188559338 0 0.15123921126710471 -0.3825776072789579 0 0.15768028884456081 -0.37409513802127797 0 0.15453775922384169 -0.36174291188559338 0 0.15123921126710471 -0.3825776072789579 0 0.144375128547297 -0.37094685467430238 0 0.15453775922384169 -0.36174291188559338 0 0.15123921126710471 -0.3825776072789579 0 0.15768028884456081 -0.37409513802127797 0 0.15453775922384169 -0.36174291188559338 0 0.144375128547297 -0.37094685467430238 0 0.15453775922384169 -0.36174291188559338 0 0.14144858569626281 -0.35950854215303008 0 0.15453775922384169 -0.36174291188559338 0 0.14723831770520129 -0.3330512643326039 0 0.15453775922384169 -0.36174291188559338 0 0.14144858569626281 -0.35950854215303008 0 0.14723831770520129 -0.3330512643326039 0 0.15730912909049141 -0.34423804375836192 0 0.15453775922384169 -0.36174291188559338 0 0.14723831770520129 -0.3330512643326039 0 0.15730912909049141 -0.34423804375836192 0 0.15453775922384169 -0.36174291188559338 0 0.14144858569626281 -0.35950854215303008 0 0.1322362839482141 -0.34994546899427309 0 0.13430499023928841 -0.36860714256714672 0 0.14144858569626281 -0.35950854215303008 0 0.1322362839482141 -0.34994546899427309 0 0.14723831770520129 -0.3330512643326039 0 0.13430499023928841 -0.36860714256714672 0 0.12599062728280991 -0.38057110935496141 0 0.11723425019122601 -0.36683967365594161 0 0.1322362839482141 -0.34994546899427309 0 0.13430499023928841 -0.36860714256714672 0 0.11723425019122601 -0.36683967365594161 0 0.144375128547297 -0.37094685467430238 0 0.14144858569626281 -0.35950854215303008 0 0.13430499023928841 -0.36860714256714672 0 0.144375128547297 -0.37094685467430238 0 0.13430499023928841 -0.36860714256714672 0 0.14034509630998829 -0.38229806948678419 0 0.1462950092356457 -0.32934343626478568 0 0.14050308148879351 -0.30657731790618431 0 0.16037208195542921 -0.32489144313824381 0 0.1565100872394625 -0.31379112621061211 0 0.14050308148879351 -0.30657731790618431 0 0.16037208195542921 -0.32489144313824381 0 0.14050308148879351 -0.30657731790618431 0 0.16037208195542921 -0.32489144313824381 0 0.1462950092356457 -0.32934343626478568 0 0.14050308148879351 -0.30657731790618431 0 0.1600804989571368 -0.32673317563112958 0 0.1462950092356457 -0.32934343626478568 0 0.1600804989571368 -0.32673317563112958 0 0.16037208195542921 -0.32489144313824381 0 0.1462950092356457 -0.32934343626478568 0 0.1600804989571368 -0.32673317563112958 0 0.15730912909049141 -0.34423804375836192 0 0.14723831770520129 -0.3330512643326039 0 0.1462950092356457 -0.32934343626478568 0 0.14723831770520129 -0.3330512643326039 0 0.1286883276397652 -0.3326772335246268 0 0.1600804989571368 -0.32673317563112958 0 0.1462950092356457 -0.32934343626478568 0 0.14723831770520129 -0.3330512643326039 0 0.1462950092356457 -0.32934343626478568 0 0.14723831770520129 -0.3330512643326039 0 0.1322362839482141 -0.34994546899427309 0 0.1286883276397652 -0.3326772335246268 0 0.1191047906302566 -0.34688682220090328 0 0.1462950092356457 -0.32934343626478568 0 0.1286883276397652 -0.3326772335246268 0 0.1322362839482141 -0.34994546899427309 0 0.14723831770520129 -0.3330512643326039 0 0.1322362839482141 -0.34994546899427309 0 0.14723831770520129 -0.3330512643326039 0 0.1286883276397652 -0.3326772335246268 0 0.1286883276397652 -0.3326772335246268 0 0.13356718910658269 -0.32083115106104337 0 0.1196631584862892 -0.32523303504599399 0 0.1462950092356457 -0.32934343626478568 0 0.1286883276397652 -0.3326772335246268 0 0.13356718910658269 -0.32083115106104337 0 0.1462950092356457 -0.32934343626478568 0 0.13356718910658269 -0.32083115106104337 0 0.14050308148879351 -0.30657731790618431 0 0.13356718910658269 -0.32083115106104337 0 0.14050308148879351 -0.30657731790618431 0 0.12386135129487701 -0.3143432727957402 0 0.13356718910658269 -0.32083115106104337 0 0.12386135129487701 -0.3143432727957402 0 0.1196631584862892 -0.32523303504599399 0 0.14050308148879351 -0.30657731790618431 0 0.1148577082674538 -0.30239269194700807 0 0.12386135129487701 -0.3143432727957402 0 0.1565100872394625 -0.31379112621061211 0 0.14050308148879351 -0.30657731790618431 0 0.15113512926261721 -0.29659122917823522 0 0.14050308148879351 -0.30657731790618431 0 0.15113512926261721 -0.29659122917823522 0 0.1339883042226577 -0.28096992140485089 0 0.15091997147586539 -0.28373941795151619 0 0.15113512926261721 -0.29659122917823522 0 0.1339883042226577 -0.28096992140485089 0 0.15091997147586539 -0.28373941795151619 0 0.15113512926261721 -0.29659122917823522 0 0.15928259160831329 -0.28918797441361949 0 0.14050308148879351 -0.30657731790618431 0 0.1339883042226577 -0.28096992140485089 0 0.1184946949964554 -0.28629122716633132 0 0.14050308148879351 -0.30657731790618431 0 0.1184946949964554 -0.28629122716633132 0 0.14050308148879351 -0.30657731790618431 0 0.1339883042226577 -0.28096992140485089 0 0.1339883042226577 -0.28096992140485089 0 0.127473526956523 -0.25536252490351707 0 0.1339883042226577 -0.28096992140485089 0 0.1399527727991482 -0.26473304616420901 0 0.1455186828143771 -0.27250956705977331 0 0.1339883042226577 -0.28096992140485089 0 0.127473526956523 -0.25536252490351707 0 0.11861801279902939 -0.2710219053847534 0 0.1339883042226577 -0.28096992140485089 0 0.127473526956523 -0.25536252490351707 0 0.1399527727991482 -0.26473304616420901 0 0.127473526956523 -0.25536252490351707 0 0.1399527727991482 -0.26473304616420901 0 0.14252071954862611 -0.25372535972677868 0 0.127473526956523 -0.25536252490351707 0 0.14252071954862611 -0.25372535972677868 0 0.13774941539295449 -0.24277821171802949 0 0.1399527727991482 -0.26473304616420901 0 0.14252071954862611 -0.25372535972677868 0 0.14954251549568021 -0.26193449132982177 0 0.14954251549568021 -0.26193449132982177 0 0.15598486249525911 -0.27324929699174538 0 0.16020059439254439 -0.26133852038242272 0 0.14252071954862611 -0.25372535972677868 0 0.14954251549568021 -0.26193449132982177 0 0.15442881530101629 -0.2478343658160625 0 0.14954251549568021 -0.26193449132982177 0 0.16020059439254439 -0.26133852038242272 0 0.15442881530101629 -0.2478343658160625 0 0.15091997147586539 -0.28373941795151619 0 0.1339883042226577 -0.28096992140485089 0 0.1455186828143771 -0.27250956705977331 0 0.1399527727991482 -0.26473304616420901 0 0.14954251549568021 -0.26193449132982177 0 0.1455186828143771 -0.27250956705977331 0 0.14954251549568021 -0.26193449132982177 0 0.1455186828143771 -0.27250956705977331 0 0.15598486249525911 -0.27324929699174538 0 0.15091997147586539 -0.28373941795151619 0 0.1455186828143771 -0.27250956705977331 0 0.15598486249525911 -0.27324929699174538 0 0.15091997147586539 -0.28373941795151619 0 0.15598486249525911 -0.27324929699174538 0 0.15898770866838241 -0.28130085942251981 0 0.15598486249525911 -0.27324929699174538 0 0.16813506312168519 -0.27585794413665821 0 0.15898770866838241 -0.28130085942251981 0 0.15598486249525911 -0.27324929699174538 0 0.16813506312168519 -0.27585794413665821 0 0.16020059439254439 -0.26133852038242272 0 0.16020059439254439 -0.26133852038242272 0 0.17229173267516701 -0.24960307528722739 0 0.15442881530101629 -0.2478343658160625 0 0.16813506312168519 -0.27585794413665821 0 0.16020059439254439 -0.26133852038242272 0 0.17229173267516701 -0.24960307528722739 0 0.16813506312168519 -0.27585794413665821 0 0.17229173267516701 -0.24960307528722739 0 0.18699554359521711 -0.26612051758212529 0 0.19850411860872419 -0.24812436988014369 0 0.17229173267516701 -0.24960307528722739 0 0.16813506312168519 -0.27585794413665821 0 0.18699554359521711 -0.26612051758212529 0 0.17229173267516701 -0.24960307528722739 0 0.19322529029693691 -0.28278240698612278 0 0.18699554359521711 -0.26612051758212529 0 0.17548696858171001 -0.28411666528410712 0 0.16813506312168519 -0.27585794413665821 0 0.18699554359521711 -0.26612051758212529 0 0.17548696858171001 -0.28411666528410712 0 0.18699554359521711 -0.26612051758212529 0 0.17548696858171001 -0.28411666528410712 0 0.17548696858171001 -0.28411666528410712 0 0.1775041015314261 -0.2988050609634228 0 0.16397839356820321 -0.30211281298608889 0 0.19322529029693691 -0.28278240698612278 0 0.17548696858171001 -0.28411666528410712 0 0.18443046111875441 -0.29022801857636649 0 0.17548696858171001 -0.28411666528410712 0 0.18443046111875441 -0.29022801857636649 0 0.1775041015314261 -0.2988050609634228 0 0.18933981929927479 -0.29897169618120978 0 0.18443046111875441 -0.29022801857636649 0 0.1775041015314261 -0.2988050609634228 0 0.18933981929927479 -0.29897169618120978 0 0.18187576577862899 -0.30714523127816679 0 0.1775041015314261 -0.2988050609634228 0 0.18187576577862899 -0.30714523127816679 0 0.1775041015314261 -0.2988050609634228 0 0.170999827768921 -0.31068101738298709 0 0.1775041015314261 -0.2988050609634228 0 0.170999827768921 -0.31068101738298709 0 0.16397839356820321 -0.30211281298608889 0 0.1672973989197144 -0.31899140300710238 0 0.170999827768921 -0.31068101738298709 0 0.16397839356820321 -0.30211281298608889 0 0.1565100872394625 -0.31379112621061211 0 0.15113512926261721 -0.29659122917823522 0 0.16397839356820321 -0.30211281298608889 0 0.1565100872394625 -0.31379112621061211 0 0.16397839356820321 -0.30211281298608889 0 0.16813506312168519 -0.27585794413665821 0 0.16397839356820321 -0.30211281298608889 0 0.16813506312168519 -0.27585794413665821 0 0.17548696858171001 -0.28411666528410712 0 0.16397839356820321 -0.30211281298608889 0 0.16813506312168519 -0.27585794413665821 0 0.16397839356820321 -0.30211281298608889 0 0.15928259160831329 -0.28918797441361949 0 0.17548696858171001 -0.28411666528410712 0 0.16397839356820321 -0.30211281298608889 0 0.15113512926261721 -0.29659122917823522 0 0.16397839356820321 -0.30211281298608889 0 0.15928259160831329 -0.28918797441361949 0 0.16813506312168519 -0.27585794413665821 0 0.15928259160831329 -0.28918797441361949 0 0.15898770866838241 -0.28130085942251981 0 0.15091997147586539 -0.28373941795151619 0 0.15928259160831329 -0.28918797441361949 0 0.15898770866838241 -0.28130085942251981 0 0.20232723100842581 -0.49707047313368991 0 0.2037253154598658 -0.5 0 0.1790215309127364 -0.5 0 0.20232723100842581 -0.49707047313368991 0 0.19310917997641011 -0.48884588790412747 0 0.1767137729677199 -0.49518986413685179 0 0.20232723100842581 -0.49707047313368991 0 0.1767137729677199 -0.49518986413685179 0 0.20066714971506919 -0.49040520957739919 0 0.19310917997641011 -0.48884588790412747 0 0.20340453926474741 -0.48455175161460928 0 0.20066714971506919 -0.49040520957739919 0 0.20232723100842581 -0.49707047313368991 0 0.19310917997641011 -0.48884588790412747 0 0.20066714971506919 -0.49040520957739919 0 0.20432880426839931 -0.49133770925643222 0 0.20340453926474741 -0.48455175161460928 0 0.20066714971506919 -0.49040520957739919 0 0.20232723100842581 -0.49707047313368991 0 0.20432880426839931 -0.49133770925643222 0 0.19310917997641011 -0.48884588790412747 0 0.19191368166470221 -0.47865381130841012 0 0.18220645825195819 -0.4824247196333657 0 0.19191368166470221 -0.47865381130841012 0 0.2002851630722034 -0.47430774505932688 0 0.19242627085437941 -0.46850982950069442 0 0.19191368166470221 -0.47865381130841012 0 0.19242627085437941 -0.46850982950069442 0 0.18046424802181221 -0.47149587531530363 0 0.19310917997641011 -0.48884588790412747 0 0.19191368166470221 -0.47865381130841012 0 0.20340453926474741 -0.48455175161460928 0 0.19191368166470221 -0.47865381130841012 0 0.2002851630722034 -0.47430774505932688 0 0.20340453926474741 -0.48455175161460928 0 0.20958154047568661 -0.47595876160233819 0 0.21706585236010509 -0.48500551319310647 0 0.20340453926474741 -0.48455175161460928 0 0.2002851630722034 -0.47430774505932688 0 0.20958154047568661 -0.47595876160233819 0 0.20340453926474741 -0.48455175161460928 0 0.2002851630722034 -0.47430774505932688 0 0.20958154047568661 -0.47595876160233819 0 0.20563971997032679 -0.46320615386537828 0 0.20958154047568661 -0.47595876160233819 0 0.22105301678140479 -0.47367448864178008 0 0.20563971997032679 -0.46320615386537828 0 0.20958154047568661 -0.47595876160233819 0 0.21706585236010509 -0.48500551319310647 0 0.22105301678140479 -0.47367448864178008 0 0.20232723100842581 -0.49707047313368991 0 0.22794068904913159 -0.49895108213052952 0 0.20232723100842581 -0.49707047313368991 0 0.2173565100436877 -0.49528038101771688 0 0.22794068904913159 -0.49895108213052952 0 0.21706585236010509 -0.48500551319310647 0 0.2156028483739178 -0.49263010252739048 0 0.22355527174327561 -0.49246986627925798 0 0.20232723100842581 -0.49707047313368991 0 0.2037253154598658 -0.5 0 0.22794068904913159 -0.49895108213052952 0 0.21706585236010509 -0.48500551319310647 0 0.20972411281994949 -0.49090852997349232 0 0.2156028483739178 -0.49263010252739048 0 0.21706585236010509 -0.48500551319310647 0 0.20972411281994949 -0.49090852997349232 0 0.20340453926474741 -0.48455175161460928 0 0.20972411281994949 -0.49090852997349232 0 0.20432880426839931 -0.49133770925643222 0 0.20340453926474741 -0.48455175161460928 0 0.20232723100842581 -0.49707047313368991 0 0.20972411281994949 -0.49090852997349232 0 0.2156028483739178 -0.49263010252739048 0 0.20232723100842581 -0.49707047313368991 0 0.20972411281994949 -0.49090852997349232 0 0.20432880426839931 -0.49133770925643222 0 0.20232723100842581 -0.49707047313368991 0 0.2173565100436877 -0.49528038101771688 0 0.2156028483739178 -0.49263010252739048 0 0.2173565100436877 -0.49528038101771688 0 0.2156028483739178 -0.49263010252739048 0 0.22355527174327561 -0.49246986627925798 0 0.2173565100436877 -0.49528038101771688 0 0.22355527174327561 -0.49246986627925798 0 0.22794068904913159 -0.49895108213052952 0 0.21706585236010509 -0.48500551319310647 0 0.22355527174327561 -0.49246986627925798 0 0.2294695918905674 -0.48762535821215858 0 0.2294695918905674 -0.48762535821215858 0 0.2377748494341895 -0.49040541709300639 0 0.23424406114737489 -0.47724200569529279 0 0.22355527174327561 -0.49246986627925798 0 0.2294695918905674 -0.48762535821215858 0 0.22794068904913159 -0.49895108213052952 0 0.2294695918905674 -0.48762535821215858 0 0.22794068904913159 -0.49895108213052952 0 0.2377748494341895 -0.49040541709300639 0 0.25313288455412453 -0.5 0 0.22794068904913159 -0.49895108213052952 0 0.2377748494341895 -0.49040541709300639 0 0.25343276995694342 -0.47861405652005812 0 0.25313288455412453 -0.5 0 0.2377748494341895 -0.49040541709300639 0 0.25121407728899542 -0.46036539918962038 0 0.25343276995694342 -0.47861405652005812 0 0.23424406114737489 -0.47724200569529279 0 0.25343276995694342 -0.47861405652005812 0 0.2377748494341895 -0.49040541709300639 0 0.23424406114737489 -0.47724200569529279 0 0.25121407728899542 -0.46036539918962038 0 0.23424406114737489 -0.47724200569529279 0 0.23424406114737489 -0.47724200569529279 0 0.22105301678140479 -0.47367448864178008 0 0.2273668243706293 -0.45608366663867522 0 0.2294695918905674 -0.48762535821215858 0 0.23424406114737489 -0.47724200569529279 0 0.22105301678140479 -0.47367448864178008 0 0.21706585236010509 -0.48500551319310647 0 0.2294695918905674 -0.48762535821215858 0 0.22105301678140479 -0.47367448864178008 0 0.25121407728899542 -0.46036539918962038 0 0.23424406114737489 -0.47724200569529279 0 0.2273668243706293 -0.45608366663867522 0 0.25121407728899542 -0.46036539918962038 0 0.2273668243706293 -0.45608366663867522 0 0.24380187317688931 -0.44499190555020518 0 0.2273668243706293 -0.45608366663867522 0 0.24380187317688931 -0.44499190555020518 0 0.2286206110779877 -0.43217721227154787 0 0.2273668243706293 -0.45608366663867522 0 0.2066095605276263 -0.44336678276199959 0 0.2286206110779877 -0.43217721227154787 0 0.2066095605276263 -0.44336678276199959 0 0.2286206110779877 -0.43217721227154787 0 0.2273668243706293 -0.45608366663867522 0 0.2066095605276263 -0.44336678276199959 0 0.20563971997032679 -0.46320615386537828 0 0.22105301678140479 -0.47367448864178008 0 0.2273668243706293 -0.45608366663867522 0 0.20563971997032679 -0.46320615386537828 0 0.2066095605276263 -0.44336678276199959 0 0.20563971997032679 -0.46320615386537828 0 0.18459850997726479 -0.45455635325245131 0 0.20563971997032679 -0.46320615386537828 0 0.19242627085437941 -0.46850982950069442 0 0.18459850997726479 -0.45455635325245131 0 0.2002851630722034 -0.47430774505932688 0 0.20563971997032679 -0.46320615386537828 0 0.19242627085437941 -0.46850982950069442 0 0.2066095605276263 -0.44336678276199959 0 0.18459850997726479 -0.45455635325245131 0 0.2066095605276263 -0.44336678276199959 0 0.19167818428046421 -0.43346618535507592 0 0.18459850997726479 -0.45455635325245131 0 0.19167818428046421 -0.43346618535507592 0 0.19256204595616469 -0.42033705913795338 0 0.20837122091432461 -0.42378353082382658 0 0.2066095605276263 -0.44336678276199959 0 0.19167818428046421 -0.43346618535507592 0 0.20837122091432461 -0.42378353082382658 0 0.19167818428046421 -0.43346618535507592 0 0.19256204595616469 -0.42033705913795338 0 0.18183388457675581 -0.42194089541399121 0 0.19256204595616469 -0.42033705913795338 0 0.2010099100838765 -0.41296219473526458 0 0.20837122091432461 -0.42378353082382658 0 0.19256204595616469 -0.42033705913795338 0 0.1925430950891005 -0.40780732390851743 0 0.1849411547035627 -0.41169438822896792 0 0.1925430950891005 -0.40780732390851743 0 0.2010099100838765 -0.41296219473526458 0 0.20033524325075261 -0.40402717002632638 0 0.19256204595616469 -0.42033705913795338 0 0.1925430950891005 -0.40780732390851743 0 0.2010099100838765 -0.41296219473526458 0 0.2010099100838765 -0.41296219473526458 0 0.21123794520903999 -0.408855889779699 0 0.20837122091432461 -0.42378353082382658 0 0.21123794520903999 -0.408855889779699 0 0.20837122091432461 -0.42378353082382658 0 0.22759669356381751 -0.41252341840224871 0 0.2010099100838765 -0.41296219473526458 0 0.21123794520903999 -0.408855889779699 0 0.20033524325075261 -0.40402717002632638 0 0.2066095605276263 -0.44336678276199959 0 0.20837122091432461 -0.42378353082382658 0 0.2286206110779877 -0.43217721227154787 0 0.20837122091432461 -0.42378353082382658 0 0.2286206110779877 -0.43217721227154787 0 0.22759669356381751 -0.41252341840224871 0 0.24380187317688931 -0.44499190555020518 0 0.2286206110779877 -0.43217721227154787 0 0.24926376447426149 -0.43463356081109539 0 0.25063166162834921 -0.42098764178109621 0 0.2286206110779877 -0.43217721227154787 0 0.25063166162834921 -0.42098764178109621 0 0.2286206110779877 -0.43217721227154787 0 0.24926376447426149 -0.43463356081109539 0 0.25063166162834921 -0.42098764178109621 0 0.2286206110779877 -0.43217721227154787 0 0.22759669356381751 -0.41252341840224871 0 0.25063166162834921 -0.42098764178109621 0 0.22759669356381751 -0.41252341840224871 0 0.2465173062916603 -0.39678990349254017 0 0.21123794520903999 -0.408855889779699 0 0.22759669356381751 -0.41252341840224871 0 0.21946737743340419 -0.40213559231942819 0 0.22759669356381751 -0.41252341840224871 0 0.22679493257128849 -0.3979439927716778 0 0.2465173062916603 -0.39678990349254017 0 0.22679493257128849 -0.3979439927716778 0 0.2465173062916603 -0.39678990349254017 0 0.2203919004046099 -0.38378173569443708 0 0.22759669356381751 -0.41252341840224871 0 0.21946737743340419 -0.40213559231942819 0 0.22679493257128849 -0.3979439927716778 0 0.21946737743340419 -0.40213559231942819 0 0.22679493257128849 -0.3979439927716778 0 0.2185060122615459 -0.39413558041800628 0 0.22679493257128849 -0.3979439927716778 0 0.2203919004046099 -0.38378173569443708 0 0.2185060122615459 -0.39413558041800628 0 0.2458175116625721 -0.36908434014086122 0 0.2424985792998853 -0.38197135362674611 0 0.22703612443170931 -0.38104048861045131 0 0.2458175116625721 -0.36908434014086122 0 0.22703612443170931 -0.38104048861045131 0 0.2465173062916603 -0.39678990349254017 0 0.2424985792998853 -0.38197135362674611 0 0.22703612443170931 -0.38104048861045131 0 0.25342967067809119 -0.38117269180066449 0 0.2458175116625721 -0.36908434014086122 0 0.2424985792998853 -0.38197135362674611 0 0.25342967067809119 -0.38117269180066449 0 0.2465173062916603 -0.39678990349254017 0 0.2424985792998853 -0.38197135362674611 0 0.2465173062916603 -0.39678990349254017 0 0.22703612443170931 -0.38104048861045131 0 0.2203919004046099 -0.38378173569443708 0 0.2465173062916603 -0.39678990349254017 0 0.2203919004046099 -0.38378173569443708 0 0.2220437725860446 -0.37436975951670021 0 0.23113123051178519 -0.37033360834347367 0 0.22703612443170931 -0.38104048861045131 0 0.2220437725860446 -0.37436975951670021 0 0.2203919004046099 -0.38378173569443708 0 0.21396334400522829 -0.37955817338045922 0 0.2220437725860446 -0.37436975951670021 0 0.22703612443170931 -0.38104048861045131 0 0.2203919004046099 -0.38378173569443708 0 0.2220437725860446 -0.37436975951670021 0 0.21200108423324571 -0.37212081144309628 0 0.21396334400522829 -0.37955817338045922 0 0.21396334400522829 -0.37955817338045922 0 0.2044397925318884 -0.37809609077449269 0 0.21092809700045409 -0.3874453473344589 0 0.21200108423324571 -0.37212081144309628 0 0.21396334400522829 -0.37955817338045922 0 0.2044397925318884 -0.37809609077449269 0 0.2044397925318884 -0.37809609077449269 0 0.21092809700045409 -0.3874453473344589 0 0.20116955022710081 -0.38836480702791032 0 0.2203919004046099 -0.38378173569443708 0 0.21396334400522829 -0.37955817338045922 0 0.21092809700045409 -0.3874453473344589 0 0.2203919004046099 -0.38378173569443708 0 0.21092809700045409 -0.3874453473344589 0 0.2185060122615459 -0.39413558041800628 0 0.21092809700045409 -0.3874453473344589 0 0.2132013035613293 -0.39721908022550889 0 0.2185060122615459 -0.39413558041800628 0 0.21946737743340419 -0.40213559231942819 0 0.2132013035613293 -0.39721908022550889 0 0.2185060122615459 -0.39413558041800628 0 0.21123794520903999 -0.408855889779699 0 0.21946737743340419 -0.40213559231942819 0 0.2132013035613293 -0.39721908022550889 0 0.21123794520903999 -0.408855889779699 0 0.20510769334991699 -0.39700350364959369 0 0.20033524325075261 -0.40402717002632638 0 0.21123794520903999 -0.408855889779699 0 0.2132013035613293 -0.39721908022550889 0 0.20510769334991699 -0.39700350364959369 0 0.21092809700045409 -0.3874453473344589 0 0.2132013035613293 -0.39721908022550889 0 0.20510769334991699 -0.39700350364959369 0 0.21092809700045409 -0.3874453473344589 0 0.20510769334991699 -0.39700350364959369 0 0.20116955022710081 -0.38836480702791032 0 0.20510769334991699 -0.39700350364959369 0 0.19377402085082521 -0.39610872750365872 0 0.20116955022710081 -0.38836480702791032 0 0.20510769334991699 -0.39700350364959369 0 0.20033524325075261 -0.40402717002632638 0 0.19377402085082521 -0.39610872750365872 0 0.1925430950891005 -0.40780732390851743 0 0.20033524325075261 -0.40402717002632638 0 0.19377402085082521 -0.39610872750365872 0 0.1925430950891005 -0.40780732390851743 0 0.19377402085082521 -0.39610872750365872 0 0.18388392596231631 -0.40180350724286951 0 0.19377402085082521 -0.39610872750365872 0 0.18960625683781401 -0.38842321867646362 0 0.18422218840216839 -0.39364222019282907 0 0.19377402085082521 -0.39610872750365872 0 0.18960625683781401 -0.38842321867646362 0 0.20116955022710081 -0.38836480702791032 0 0.18960625683781401 -0.38842321867646362 0 0.1956173605698564 -0.38210062430742209 0 0.1816176235205659 -0.37747207831012852 0 0.19414342483430011 -0.37347331336868828 0 0.1956173605698564 -0.38210062430742209 0 0.1816176235205659 -0.37747207831012852 0 0.19414342483430011 -0.37347331336868828 0 0.2044397925318884 -0.37809609077449269 0 0.1956173605698564 -0.38210062430742209 0 0.2044397925318884 -0.37809609077449269 0 0.1956173605698564 -0.38210062430742209 0 0.20116955022710081 -0.38836480702791032 0 0.18960625683781401 -0.38842321867646362 0 0.1956173605698564 -0.38210062430742209 0 0.20116955022710081 -0.38836480702791032 0 0.17912326571433479 -0.38822300071804738 0 0.17411359300057841 -0.38302004632273912 0 0.17055595545532379 -0.38940396098086788 0 0.17912326571433479 -0.38822300071804738 0 0.17411359300057841 -0.38302004632273912 0 0.1816176235205659 -0.37747207831012852 0 0.16728881332853329 -0.3731902502836274 0 0.17411359300057841 -0.38302004632273912 0 0.1816176235205659 -0.37747207831012852 0 0.18960625683781401 -0.38842321867646362 0 0.17912326571433479 -0.38822300071804738 0 0.18422218840216839 -0.39364222019282907 0 0.18960625683781401 -0.38842321867646362 0 0.17912326571433479 -0.38822300071804738 0 0.1816176235205659 -0.37747207831012852 0 0.19377402085082521 -0.39610872750365872 0 0.18422218840216839 -0.39364222019282907 0 0.18388392596231631 -0.40180350724286951 0 0.18422218840216839 -0.39364222019282907 0 0.18388392596231631 -0.40180350724286951 0 0.1750555243658716 -0.39709405442129803 0 0.1750555243658716 -0.39709405442129803 0 0.16624096640684549 -0.40243020808164531 0 0.1746267145004741 -0.40816146328969888 0 0.18388392596231631 -0.40180350724286951 0 0.1750555243658716 -0.39709405442129803 0 0.1746267145004741 -0.40816146328969888 0 0.17912326571433479 -0.38822300071804738 0 0.1750555243658716 -0.39709405442129803 0 0.17055595545532379 -0.38940396098086788 0 0.17912326571433479 -0.38822300071804738 0 0.18422218840216839 -0.39364222019282907 0 0.1750555243658716 -0.39709405442129803 0 0.1750555243658716 -0.39709405442129803 0 0.1666159405213144 -0.39539257263609051 0 0.16624096640684549 -0.40243020808164531 0 0.1750555243658716 -0.39709405442129803 0 0.1666159405213144 -0.39539257263609051 0 0.17055595545532379 -0.38940396098086788 0 0.1666159405213144 -0.39539257263609051 0 0.16143021354597581 -0.38917038963066802 0 0.17055595545532379 -0.38940396098086788 0 0.1666159405213144 -0.39539257263609051 0 0.16624096640684549 -0.40243020808164531 0 0.16101550387837449 -0.39696142446930588 0 0.16624096640684549 -0.40243020808164531 0 0.1570223304963424 -0.4026884327269164 0 0.16101550387837449 -0.39696142446930588 0 0.16624096640684549 -0.40243020808164531 0 0.1570223304963424 -0.4026884327269164 0 0.16305369139574921 -0.41112133178106802 0 0.1666159405213144 -0.39539257263609051 0 0.16101550387837449 -0.39696142446930588 0 0.16143021354597581 -0.38917038963066802 0 0.1570223304963424 -0.4026884327269164 0 0.16101550387837449 -0.39696142446930588 0 0.1555066446458053 -0.39489074954218989 0 0.16101550387837449 -0.39696142446930588 0 0.16143021354597581 -0.38917038963066802 0 0.1555066446458053 -0.39489074954218989 0 0.16143021354597581 -0.38917038963066802 0 0.15952444733188001 -0.38152437698735181 0 0.15123921126710471 -0.3825776072789579 0 0.16143021354597581 -0.38917038963066802 0 0.16661976437548909 -0.38327481972415228 0 0.15952444733188001 -0.38152437698735181 0 0.16143021354597581 -0.38917038963066802 0 0.16661976437548909 -0.38327481972415228 0 0.17055595545532379 -0.38940396098086788 0 0.17411359300057841 -0.38302004632273912 0 0.16661976437548909 -0.38327481972415228 0 0.17055595545532379 -0.38940396098086788 0 0.16728881332853329 -0.3731902502836274 0 0.16661976437548909 -0.38327481972415228 0 0.15952444733188001 -0.38152437698735181 0 0.16728881332853329 -0.3731902502836274 0 0.17411359300057841 -0.38302004632273912 0 0.16661976437548909 -0.38327481972415228 0 0.15768028884456081 -0.37409513802127797 0 0.16728881332853329 -0.3731902502836274 0 0.15952444733188001 -0.38152437698735181 0 0.15768028884456081 -0.37409513802127797 0 0.15952444733188001 -0.38152437698735181 0 0.15123921126710471 -0.3825776072789579 0 0.16143021354597581 -0.38917038963066802 0 0.15123921126710471 -0.3825776072789579 0 0.1555066446458053 -0.39489074954218989 0 0.15123921126710471 -0.3825776072789579 0 0.14034509630998829 -0.38229806948678419 0 0.1430647210195963 -0.39209468808631592 0 0.144375128547297 -0.37094685467430238 0 0.15123921126710471 -0.3825776072789579 0 0.14034509630998829 -0.38229806948678419 0 0.13430499023928841 -0.36860714256714672 0 0.14034509630998829 -0.38229806948678419 0 0.12599062728280991 -0.38057110935496141 0 0.14034509630998829 -0.38229806948678419 0 0.12599062728280991 -0.38057110935496141 0 0.13392602615877561 -0.39189853635679528 0 0.14034509630998829 -0.38229806948678419 0 0.13392602615877561 -0.39189853635679528 0 0.1430647210195963 -0.39209468808631592 0 0.12599062728280991 -0.38057110935496141 0 0.13392602615877561 -0.39189853635679528 0 0.120122305916046 -0.39343520813558941 0 0.12933263374811721 -0.40061839502967528 0 0.13392602615877561 -0.39189853635679528 0 0.120122305916046 -0.39343520813558941 0 0.13392602615877561 -0.39189853635679528 0 0.13941907635261641 -0.39904108331312438 0 0.1430647210195963 -0.39209468808631592 0 0.12933263374811721 -0.40061839502967528 0 0.13392602615877561 -0.39189853635679528 0 0.13941907635261641 -0.39904108331312438 0 0.12933263374811721 -0.40061839502967528 0 0.13941907635261641 -0.39904108331312438 0 0.14283133752622409 -0.40718149442051282 0 0.15123921126710471 -0.3825776072789579 0 0.14794066331036859 -0.40341230267232259 0 0.1555066446458053 -0.39489074954218989 0 0.15123921126710471 -0.3825776072789579 0 0.14794066331036859 -0.40341230267232259 0 0.13941907635261641 -0.39904108331312438 0 0.14794066331036859 -0.40341230267232259 0 0.14283133752622409 -0.40718149442051282 0 0.15123921126710471 -0.3825776072789579 0 0.14794066331036859 -0.40341230267232259 0 0.1430647210195963 -0.39209468808631592 0 0.13941907635261641 -0.39904108331312438 0 0.14794066331036859 -0.40341230267232259 0 0.1430647210195963 -0.39209468808631592 0 0.1570223304963424 -0.4026884327269164 0 0.14794066331036859 -0.40341230267232259 0 0.1555066446458053 -0.39489074954218989 0 0.14794066331036859 -0.40341230267232259 0 0.14064345804633679 -0.41604246520093502 0 0.1446421153536325 -0.42424699806568728 0 0.14794066331036859 -0.40341230267232259 0 0.1446421153536325 -0.42424699806568728 0 0.1570223304963424 -0.4026884327269164 0 0.14794066331036859 -0.40341230267232259 0 0.15402046011730031 -0.41274216969338678 0 0.14794066331036859 -0.40341230267232259 0 0.15402046011730031 -0.41274216969338678 0 0.1446421153536325 -0.42424699806568728 0 0.15402046011730031 -0.41274216969338678 0 0.1446421153536325 -0.42424699806568728 0 0.15728075140419179 -0.42289031042886438 0 0.14794066331036859 -0.40341230267232259 0 0.14064345804633679 -0.41604246520093502 0 0.14283133752622409 -0.40718149442051282 0 0.14283133752622409 -0.40718149442051282 0 0.1181328258232151 -0.41120945423900979 0 0.12933263374811721 -0.40061839502967528 0 0.14283133752622409 -0.40718149442051282 0 0.1181328258232151 -0.41120945423900979 0 0.14064345804633679 -0.41604246520093502 0 0.14283133752622409 -0.40718149442051282 0 0.1318712486619554 -0.41573993249752988 0 0.14283133752622409 -0.40718149442051282 0 0.1318712486619554 -0.41573993249752988 0 0.1181328258232151 -0.41120945423900979 0 0.14064345804633679 -0.41604246520093502 0 0.1318712486619554 -0.41573993249752988 0 0.13494126025734871 -0.42469370977362098 0 0.14064345804633679 -0.41604246520093502 0 0.13494126025734871 -0.42469370977362098 0 0.1446421153536325 -0.42424699806568728 0 0.1318712486619554 -0.41573993249752988 0 0.13494126025734871 -0.42469370977362098 0 0.12321136919599281 -0.42001608402221963 0 0.12570813374346559 -0.42973461951938158 0 0.13867376060661829 -0.43551618238879469 0 0.12961974084746411 -0.44057309606575418 0 0.12570813374346559 -0.42973461951938158 0 0.13494126025734871 -0.42469370977362098 0 0.12321136919599281 -0.42001608402221963 0 0.13494126025734871 -0.42469370977362098 0 0.13867376060661829 -0.43551618238879469 0 0.1446421153536325 -0.42424699806568728 0 0.12570813374346559 -0.42973461951938158 0 0.13494126025734871 -0.42469370977362098 0 0.13867376060661829 -0.43551618238879469 0 0.13867376060661829 -0.43551618238879469 0 0.1446421153536325 -0.42424699806568728 0 0.14984748459220601 -0.43563047667863319 0 0.1446421153536325 -0.42424699806568728 0 0.14984748459220601 -0.43563047667863319 0 0.15728075140419179 -0.42289031042886438 0 0.14984748459220601 -0.43563047667863319 0 0.16150740280896 -0.43603406069180961 0 0.15728075140419179 -0.42289031042886438 0 0.16150740280896 -0.43603406069180961 0 0.1700799090063565 -0.42205819698911951 0 0.17609388373064891 -0.43681249074023321 0 0.16150740280896 -0.43603406069180961 0 0.1700799090063565 -0.42205819698911951 0 0.15728075140419179 -0.42289031042886438 0 0.1700799090063565 -0.42205819698911951 0 0.15728075140419179 -0.42289031042886438 0 0.16305369139574921 -0.41112133178106802 0 0.15402046011730031 -0.41274216969338678 0 0.15728075140419179 -0.42289031042886438 0 0.16305369139574921 -0.41112133178106802 0 0.1570223304963424 -0.4026884327269164 0 0.15402046011730031 -0.41274216969338678 0 0.16305369139574921 -0.41112133178106802 0 0.16624096640684549 -0.40243020808164531 0 0.16305369139574921 -0.41112133178106802 0 0.1746267145004741 -0.40816146328969888 0 0.1700799090063565 -0.42205819698911951 0 0.16305369139574921 -0.41112133178106802 0 0.1746267145004741 -0.40816146328969888 0 0.1700799090063565 -0.42205819698911951 0 0.1746267145004741 -0.40816146328969888 0 0.18183388457675581 -0.42194089541399121 0 0.1925430950891005 -0.40780732390851743 0 0.18388392596231631 -0.40180350724286951 0 0.1849411547035627 -0.41169438822896792 0 0.1746267145004741 -0.40816146328969888 0 0.1849411547035627 -0.41169438822896792 0 0.18183388457675581 -0.42194089541399121 0 0.18388392596231631 -0.40180350724286951 0 0.1746267145004741 -0.40816146328969888 0 0.1849411547035627 -0.41169438822896792 0 0.19256204595616469 -0.42033705913795338 0 0.1849411547035627 -0.41169438822896792 0 0.18183388457675581 -0.42194089541399121 0 0.19167818428046421 -0.43346618535507592 0 0.18183388457675581 -0.42194089541399121 0 0.17609388373064891 -0.43681249074023321 0 0.1700799090063565 -0.42205819698911951 0 0.18183388457675581 -0.42194089541399121 0 0.17609388373064891 -0.43681249074023321 0 0.19167818428046421 -0.43346618535507592 0 0.17609388373064891 -0.43681249074023321 0 0.18459850997726479 -0.45455635325245131 0 0.17609388373064891 -0.43681249074023321 0 0.18459850997726479 -0.45455635325245131 0 0.16633408575990119 -0.44993417599201818 0 0.18459850997726479 -0.45455635325245131 0 0.1625874594269032 -0.46574592374290269 0 0.18046424802181221 -0.47149587531530363 0 0.18459850997726479 -0.45455635325245131 0 0.1625874594269032 -0.46574592374290269 0 0.19242627085437941 -0.46850982950069442 0 0.18459850997726479 -0.45455635325245131 0 0.18046424802181221 -0.47149587531530363 0 0.1625874594269032 -0.46574592374290269 0 0.15902984729788541 -0.45833067565507479 0 0.16633408575990119 -0.44993417599201818 0 0.18459850997726479 -0.45455635325245131 0 0.1625874594269032 -0.46574592374290269 0 0.16633408575990119 -0.44993417599201818 0 0.1625874594269032 -0.46574592374290269 0 0.15902984729788541 -0.45833067565507479 0 0.15902984729788541 -0.45833067565507479 0 0.16633408575990119 -0.44993417599201818 0 0.15405240757270169 -0.44749194098019263 0 0.16150740280896 -0.43603406069180961 0 0.17609388373064891 -0.43681249074023321 0 0.16633408575990119 -0.44993417599201818 0 0.16150740280896 -0.43603406069180961 0 0.16633408575990119 -0.44993417599201818 0 0.15405240757270169 -0.44749194098019263 0 0.14984748459220601 -0.43563047667863319 0 0.15405240757270169 -0.44749194098019263 0 0.14265710111018809 -0.44694199111372251 0 0.14984748459220601 -0.43563047667863319 0 0.16150740280896 -0.43603406069180961 0 0.15405240757270169 -0.44749194098019263 0 0.1501287461805238 -0.45310693408031649 0 0.15405240757270169 -0.44749194098019263 0 0.14265710111018809 -0.44694199111372251 0 0.15902984729788541 -0.45833067565507479 0 0.1501287461805238 -0.45310693408031649 0 0.15405240757270169 -0.44749194098019263 0 0.13867376060661829 -0.43551618238879469 0 0.14984748459220601 -0.43563047667863319 0 0.14265710111018809 -0.44694199111372251 0 0.13867376060661829 -0.43551618238879469 0 0.14265710111018809 -0.44694199111372251 0 0.12961974084746411 -0.44057309606575418 0 0.14265710111018809 -0.44694199111372251 0 0.13180318348961451 -0.45056690158855572 0 0.12961974084746411 -0.44057309606575418 0 0.14265710111018809 -0.44694199111372251 0 0.13180318348961451 -0.45056690158855572 0 0.14477562874132011 -0.45966312857227631 0 0.13180318348961451 -0.45056690158855572 0 0.12961974084746411 -0.44057309606575418 0 0.120131373729577 -0.44628036919872649 0 0.13051139745928181 -0.4608837363583459 0 0.14477562874132011 -0.45966312857227631 0 0.13817398331986011 -0.47815679487291513 0 0.13051139745928181 -0.4608837363583459 0 0.1270565339381361 -0.47194660042502329 0 0.12198371544622889 -0.46311746673122328 0 0.13180318348961451 -0.45056690158855572 0 0.13051139745928181 -0.4608837363583459 0 0.12211506253505131 -0.45581790851004161 0 0.13180318348961451 -0.45056690158855572 0 0.13051139745928181 -0.4608837363583459 0 0.14477562874132011 -0.45966312857227631 0 0.1625874594269032 -0.46574592374290269 0 0.14477562874132011 -0.45966312857227631 0 0.13817398331986011 -0.47815679487291513 0 0.1625874594269032 -0.46574592374290269 0 0.15902984729788541 -0.45833067565507479 0 0.14477562874132011 -0.45966312857227631 0 0.1501287461805238 -0.45310693408031649 0 0.14265710111018809 -0.44694199111372251 0 0.14477562874132011 -0.45966312857227631 0 0.15902984729788541 -0.45833067565507479 0 0.1501287461805238 -0.45310693408031649 0 0.14477562874132011 -0.45966312857227631 0 0.1625874594269032 -0.46574592374290269 0 0.13817398331986011 -0.47815679487291513 0 0.15653535249837339 -0.4795049359953093 0 0.13817398331986011 -0.47815679487291513 0 0.1557293510494189 -0.49364913142554212 0 0.15653535249837339 -0.4795049359953093 0 0.1625874594269032 -0.46574592374290269 0 0.13817398331986011 -0.47815679487291513 0 0.13817398331986011 -0.47815679487291513 0 0.1270565339381361 -0.47194660042502329 0 0.11281598457137119 -0.49104782494182031 0 0.13051139745928181 -0.4608837363583459 0 0.13817398331986011 -0.47815679487291513 0 0.1270565339381361 -0.47194660042502329 0 0.13817398331986011 -0.47815679487291513 0 0.1347449291311178 -0.49210839871423401 0 0.11281598457137119 -0.49104782494182031 0 0.1364103072242551 -0.5 0 0.1347449291311178 -0.49210839871423401 0 0.1151046953800143 -0.4999999999999975 0 0.13817398331986011 -0.47815679487291513 0 0.11281598457137119 -0.49104782494182031 0 0.1364103072242551 -0.5 0 0.1347449291311178 -0.49210839871423401 0 0.1557293510494189 -0.49364913142554212 0 0.1364103072242551 -0.5 0 0.1557293510494189 -0.49364913142554212 0 0.15771591906849569 -0.5 0 0.1347449291311178 -0.49210839871423401 0 0.1557293510494189 -0.49364913142554212 0 0.13817398331986011 -0.47815679487291513 0 0.1347449291311178 -0.49210839871423401 0 0.1557293510494189 -0.49364913142554212 0 0.1557293510494189 -0.49364913142554212 0 0.15771591906849569 -0.5 0 0.1767137729677199 -0.49518986413685179 0 0.1557293510494189 -0.49364913142554212 0 0.1767137729677199 -0.49518986413685179 0 0.15771591906849569 -0.5 0 0.1767137729677199 -0.49518986413685179 0 0.1790215309127364 -0.5 0 0.1557293510494189 -0.49364913142554212 0 0.1696506161973112 -0.48046789393987738 0 0.1767137729677199 -0.49518986413685179 0 0.1557293510494189 -0.49364913142554212 0 0.15653535249837339 -0.4795049359953093 0 0.1696506161973112 -0.48046789393987738 0 0.1625874594269032 -0.46574592374290269 0 0.1696506161973112 -0.48046789393987738 0 0.18046424802181221 -0.47149587531530363 0 0.1625874594269032 -0.46574592374290269 0 0.15653535249837339 -0.4795049359953093 0 0.1696506161973112 -0.48046789393987738 0 0.1625874594269032 -0.46574592374290269 0 0.1696506161973112 -0.48046789393987738 0 0.1696506161973112 -0.48046789393987738 0 0.18046424802181221 -0.47149587531530363 0 0.18220645825195819 -0.4824247196333657 0 0.19191368166470221 -0.47865381130841012 0 0.18046424802181221 -0.47149587531530363 0 0.18220645825195819 -0.4824247196333657 0 0.19310917997641011 -0.48884588790412747 0 0.18220645825195819 -0.4824247196333657 0 0.1767137729677199 -0.49518986413685179 0 0.20232723100842581 -0.49707047313368991 0 0.1767137729677199 -0.49518986413685179 0 0.1790215309127364 -0.5 0 0.1767137729677199 -0.49518986413685179 0 0.1790215309127364 -0.5 0 0.1696506161973112 -0.48046789393987738 0 0.1767137729677199 -0.49518986413685179 0 0.1696506161973112 -0.48046789393987738 0 0.18220645825195819 -0.4824247196333657 0 0.1767137729677199 -0.49518986413685179 0 0.07322412626721761 -0.48759137585950008 0 0.074930234953771491 -0.5 0 0.054654346046148702 -0.50000000000000178 0 0.07322412626721761 -0.48759137585950008 0 0.054654346046148702 -0.50000000000000178 0 0.07322412626721761 -0.48759137585950008 0 0.063646675438631034 -0.47448029456242752 0 0.078491805090833963 -0.46997931948817939 0 0.063646675438631034 -0.47448029456242752 0 0.078491805090833963 -0.46997931948817939 0 0.068163064386583011 -0.46207623335530251 0 0.089754274667340775 -0.47654566632271511 0 0.078491805090833963 -0.46997931948817939 0 0.094644050642035266 -0.46457929243064638 0 0.07322412626721761 -0.48759137585950008 0 0.089754274667340775 -0.47654566632271511 0 0.078491805090833963 -0.46997931948817939 0 0.07322412626721761 -0.48759137585950008 0 0.089754274667340775 -0.47654566632271511 0 0.07322412626721761 -0.48759137585950008 0 0.092948468056147676 -0.48903959009773529 0 0.07322412626721761 -0.48759137585950008 0 0.089754274667340775 -0.47654566632271511 0 0.092948468056147676 -0.48903959009773529 0 0.074930234953771491 -0.5 0 0.092948468056147676 -0.48903959009773529 0 0.095206123861394404 -0.50000000000000333 0 0.07322412626721761 -0.48759137585950008 0 0.074930234953771491 -0.5 0 0.092948468056147676 -0.48903959009773529 0 0.095206123861394404 -0.50000000000000333 0 0.11281598457137119 -0.49104782494182031 0 0.092948468056147676 -0.48903959009773529 0 0.11281598457137119 -0.49104782494182031 0 0.095206123861394404 -0.50000000000000333 0 0.1151046953800143 -0.4999999999999975 0 0.11281598457137119 -0.49104782494182031 0 0.092948468056147676 -0.48903959009773529 0 0.095206123861394404 -0.50000000000000333 0 0.11281598457137119 -0.49104782494182031 0 0.089754274667340775 -0.47654566632271511 0 0.092948468056147676 -0.48903959009773529 0 0.11281598457137119 -0.49104782494182031 0 0.1347449291311178 -0.49210839871423401 0 0.11281598457137119 -0.49104782494182031 0 0.1151046953800143 -0.4999999999999975 0 0.11281598457137119 -0.49104782494182031 0 0.1347449291311178 -0.49210839871423401 0 0.1151046953800143 -0.4999999999999975 0 0.11281598457137119 -0.49104782494182031 0 0.11281598457137119 -0.49104782494182031 0 0.1151704000615062 -0.47734705945400679 0 0.1062844230674639 -0.46549995678592998 0 0.11281598457137119 -0.49104782494182031 0 0.1062844230674639 -0.46549995678592998 0 0.1270565339381361 -0.47194660042502329 0 0.11281598457137119 -0.49104782494182031 0 0.1151704000615062 -0.47734705945400679 0 0.1270565339381361 -0.47194660042502329 0 0.1151704000615062 -0.47734705945400679 0 0.1160204806856414 -0.46755661203294041 0 0.1151704000615062 -0.47734705945400679 0 0.1062844230674639 -0.46549995678592998 0 0.1160204806856414 -0.46755661203294041 0 0.089754274667340775 -0.47654566632271511 0 0.11281598457137119 -0.49104782494182031 0 0.1062844230674639 -0.46549995678592998 0 0.089754274667340775 -0.47654566632271511 0 0.094644050642035266 -0.46457929243064638 0 0.1062844230674639 -0.46549995678592998 0 0.089754274667340775 -0.47654566632271511 0 0.1062844230674639 -0.46549995678592998 0 0.094644050642035266 -0.46457929243064638 0 0.10432157647542779 -0.45782238291426242 0 0.08581435332074204 -0.45845173334386408 0 0.10432157647542779 -0.45782238291426242 0 0.1097265904052666 -0.45886052713648062 0 0.11318582327053819 -0.45339594279947892 0 0.10432157647542779 -0.45782238291426242 0 0.1058274750962114 -0.45955326944572539 0 0.10432157647542779 -0.45782238291426242 0 0.1058274750962114 -0.45955326944572539 0 0.1097265904052666 -0.45886052713648062 0 0.1058274750962114 -0.45955326944572539 0 0.1102231953690886 -0.46286800613901607 0 0.1097265904052666 -0.45886052713648062 0 0.094644050642035266 -0.46457929243064638 0 0.10432157647542779 -0.45782238291426242 0 0.1062844230674639 -0.46549995678592998 0 0.10432157647542779 -0.45782238291426242 0 0.1062844230674639 -0.46549995678592998 0 0.1058274750962114 -0.45955326944572539 0 0.1062844230674639 -0.46549995678592998 0 0.1102231953690886 -0.46286800613901607 0 0.1062844230674639 -0.46549995678592998 0 0.1102231953690886 -0.46286800613901607 0 0.10432157647542779 -0.45782238291426242 0 0.1058274750962114 -0.45955326944572539 0 0.1062844230674639 -0.46549995678592998 0 0.1062844230674639 -0.46549995678592998 0 0.1160204806856414 -0.46755661203294041 0 0.1102231953690886 -0.46286800613901607 0 0.1160204806856414 -0.46755661203294041 0 0.1102231953690886 -0.46286800613901607 0 0.1150748818150676 -0.46066303438391981 0 0.1097265904052666 -0.45886052713648062 0 0.11318582327053819 -0.45339594279947892 0 0.1150748818150676 -0.46066303438391981 0 0.1102231953690886 -0.46286800613901607 0 0.1097265904052666 -0.45886052713648062 0 0.1150748818150676 -0.46066303438391981 0 0.11318582327053819 -0.45339594279947892 0 0.1150748818150676 -0.46066303438391981 0 0.12211506253505131 -0.45581790851004161 0 0.1150748818150676 -0.46066303438391981 0 0.12211506253505131 -0.45581790851004161 0 0.12198371544622889 -0.46311746673122328 0 0.13051139745928181 -0.4608837363583459 0 0.12211506253505131 -0.45581790851004161 0 0.12198371544622889 -0.46311746673122328 0 0.1270565339381361 -0.47194660042502329 0 0.1160204806856414 -0.46755661203294041 0 0.12198371544622889 -0.46311746673122328 0 0.1160204806856414 -0.46755661203294041 0 0.1150748818150676 -0.46066303438391981 0 0.12198371544622889 -0.46311746673122328 0 0.12961974084746411 -0.44057309606575418 0 0.120131373729577 -0.44628036919872649 0 0.11624100461808171 -0.43589235776528318 0 0.13180318348961451 -0.45056690158855572 0 0.12211506253505131 -0.45581790851004161 0 0.120131373729577 -0.44628036919872649 0 0.11318582327053819 -0.45339594279947892 0 0.12211506253505131 -0.45581790851004161 0 0.120131373729577 -0.44628036919872649 0 0.11318582327053819 -0.45339594279947892 0 0.120131373729577 -0.44628036919872649 0 0.1098195278817139 -0.44525714992232007 0 0.120131373729577 -0.44628036919872649 0 0.1098195278817139 -0.44525714992232007 0 0.11624100461808171 -0.43589235776528318 0 0.10432157647542779 -0.45782238291426242 0 0.087525198947879981 -0.43851655233673448 0 0.1098195278817139 -0.44525714992232007 0 0.09887794529781721 -0.43652989848588403 0 0.11624100461808171 -0.43589235776528318 0 0.10432157647542779 -0.45782238291426242 0 0.1098195278817139 -0.44525714992232007 0 0.09887794529781721 -0.43652989848588403 0 0.10432157647542779 -0.45782238291426242 0 0.087525198947879981 -0.43851655233673448 0 0.09887794529781721 -0.43652989848588403 0 0.10432157647542779 -0.45782238291426242 0 0.09887794529781721 -0.43652989848588403 0 0.10432157647542779 -0.45782238291426242 0 0.11318582327053819 -0.45339594279947892 0 0.1098195278817139 -0.44525714992232007 0 0.10432157647542779 -0.45782238291426242 0 0.087525198947879981 -0.43851655233673448 0 0.08581435332074204 -0.45845173334386408 0 0.087525198947879981 -0.43851655233673448 0 0.08581435332074204 -0.45845173334386408 0 0.07085046614274193 -0.44770930362294631 0 0.078491805090833963 -0.46997931948817939 0 0.094644050642035266 -0.46457929243064638 0 0.08581435332074204 -0.45845173334386408 0 0.078491805090833963 -0.46997931948817939 0 0.08581435332074204 -0.45845173334386408 0 0.068163064386583011 -0.46207623335530251 0 0.08581435332074204 -0.45845173334386408 0 0.068163064386583011 -0.46207623335530251 0 0.07085046614274193 -0.44770930362294631 0 0.068163064386583011 -0.46207623335530251 0 0.07085046614274193 -0.44770930362294631 0 0.057646134350172032 -0.45424665235146849 0 0.07085046614274193 -0.44770930362294631 0 0.071215740743283074 -0.43574656641568588 0 0.054738305107791499 -0.43721808393462291 0 0.087525198947879981 -0.43851655233673448 0 0.07085046614274193 -0.44770930362294631 0 0.071215740743283074 -0.43574656641568588 0 0.087525198947879981 -0.43851655233673448 0 0.071215740743283074 -0.43574656641568588 0 0.070728821420333071 -0.41921072175920582 0 0.071215740743283074 -0.43574656641568588 0 0.070728821420333071 -0.41921072175920582 0 0.054738305107791499 -0.43721808393462291 0 0.070728821420333071 -0.41921072175920582 0 0.054738305107791499 -0.43721808393462291 0 0.069450325871987573 -0.4108656334803118 0 0.070728821420333071 -0.41921072175920582 0 0.052234008351061567 -0.39795270186218951 0 0.070728821420333071 -0.41921072175920582 0 0.086620896756693766 -0.40131421668662021 0 0.075277760725011911 -0.40529565006860307 0 0.070728821420333071 -0.41921072175920582 0 0.057669359148548302 -0.42107014613741778 0 0.069450325871987573 -0.4108656334803118 0 0.070728821420333071 -0.41921072175920582 0 0.075277760725011911 -0.40529565006860307 0 0.070728821420333071 -0.41921072175920582 0 0.086620896756693766 -0.40131421668662021 0 0.070728821420333071 -0.41921072175920582 0 0.083666709441198667 -0.41137373001474209 0 0.086620896756693766 -0.40131421668662021 0 0.070728821420333071 -0.41921072175920582 0 0.093434314120205808 -0.41523741405750569 0 0.08353445832726554 -0.42511400698564161 0 0.070728821420333071 -0.41921072175920582 0 0.083666709441198667 -0.41137373001474209 0 0.093434314120205808 -0.41523741405750569 0 0.070728821420333071 -0.41921072175920582 0 0.093434314120205808 -0.41523741405750569 0 0.093434314120205808 -0.41523741405750569 0 0.090032948821177211 -0.40193314797080598 0 0.087597262047598309 -0.40799938922151507 0 0.093434314120205808 -0.41523741405750569 0 0.090032948821177211 -0.40193314797080598 0 0.083666709441198667 -0.41137373001474209 0 0.087597262047598309 -0.40799938922151507 0 0.093434314120205808 -0.41523741405750569 0 0.083666709441198667 -0.41137373001474209 0 0.087597262047598309 -0.40799938922151507 0 0.086620896756693766 -0.40131421668662021 0 0.087525198947879981 -0.43851655233673448 0 0.070728821420333071 -0.41921072175920582 0 0.093434314120205808 -0.41523741405750569 0 0.08353445832726554 -0.42511400698564161 0 0.09887794529781721 -0.43652989848588403 0 0.087525198947879981 -0.43851655233673448 0 0.070728821420333071 -0.41921072175920582 0 0.08353445832726554 -0.42511400698564161 0 0.087525198947879981 -0.43851655233673448 0 0.08353445832726554 -0.42511400698564161 0 0.09887794529781721 -0.43652989848588403 0 0.09887794529781721 -0.43652989848588403 0 0.11624100461808171 -0.43589235776528318 0 0.1111435166129305 -0.4250045938377161 0 0.093434314120205808 -0.41523741405750569 0 0.09887794529781721 -0.43652989848588403 0 0.093434314120205808 -0.41523741405750569 0 0.09887794529781721 -0.43652989848588403 0 0.1111435166129305 -0.4250045938377161 0 0.12570813374346559 -0.42973461951938158 0 0.1111435166129305 -0.4250045938377161 0 0.12321136919599281 -0.42001608402221963 0 0.12570813374346559 -0.42973461951938158 0 0.11624100461808171 -0.43589235776528318 0 0.1111435166129305 -0.4250045938377161 0 0.12570813374346559 -0.42973461951938158 0 0.12961974084746411 -0.44057309606575418 0 0.11624100461808171 -0.43589235776528318 0 0.1318712486619554 -0.41573993249752988 0 0.1181328258232151 -0.41120945423900979 0 0.12321136919599281 -0.42001608402221963 0 0.1111435166129305 -0.4250045938377161 0 0.1181328258232151 -0.41120945423900979 0 0.12321136919599281 -0.42001608402221963 0 0.093434314120205808 -0.41523741405750569 0 0.1181328258232151 -0.41120945423900979 0 0.093434314120205808 -0.41523741405750569 0 0.1181328258232151 -0.41120945423900979 0 0.10131032249495001 -0.40548475720792998 0 0.093434314120205808 -0.41523741405750569 0 0.1111435166129305 -0.4250045938377161 0 0.1181328258232151 -0.41120945423900979 0 0.093434314120205808 -0.41523741405750569 0 0.10131032249495001 -0.40548475720792998 0 0.090032948821177211 -0.40193314797080598 0 0.098943123931416244 -0.39598750207082611 0 0.1022322164342373 -0.38373387831760952 0 0.086620896756693766 -0.40131421668662021 0 0.10131032249495001 -0.40548475720792998 0 0.098943123931416244 -0.39598750207082611 0 0.090032948821177211 -0.40193314797080598 0 0.10909398746473981 -0.40187956658798502 0 0.1022322164342373 -0.38373387831760952 0 0.098943123931416244 -0.39598750207082611 0 0.10909398746473981 -0.40187956658798502 0 0.1022322164342373 -0.38373387831760952 0 0.1022322164342373 -0.38373387831760952 0 0.086620896756693766 -0.40131421668662021 0 0.10131032249495001 -0.40548475720792998 0 0.098943123931416244 -0.39598750207082611 0 0.10909398746473981 -0.40187956658798502 0 0.10909398746473981 -0.40187956658798502 0 0.120122305916046 -0.39343520813558941 0 0.1022322164342373 -0.38373387831760952 0 0.1181328258232151 -0.41120945423900979 0 0.10131032249495001 -0.40548475720792998 0 0.10909398746473981 -0.40187956658798502 0 0.1181328258232151 -0.41120945423900979 0 0.10909398746473981 -0.40187956658798502 0 0.1191704382380295 -0.40178565599806482 0 0.10909398746473981 -0.40187956658798502 0 0.120122305916046 -0.39343520813558941 0 0.1191704382380295 -0.40178565599806482 0 0.12933263374811721 -0.40061839502967528 0 0.1181328258232151 -0.41120945423900979 0 0.1191704382380295 -0.40178565599806482 0 0.12933263374811721 -0.40061839502967528 0 0.120122305916046 -0.39343520813558941 0 0.1191704382380295 -0.40178565599806482 0 0.12599062728280991 -0.38057110935496141 0 0.120122305916046 -0.39343520813558941 0 0.1022322164342373 -0.38373387831760952 0 0.1022322164342373 -0.38373387831760952 0 0.11723425019122601 -0.36683967365594161 0 0.12599062728280991 -0.38057110935496141 0 0.1022322164342373 -0.38373387831760952 0 0.11723425019122601 -0.36683967365594161 0 0.1022322164342373 -0.38373387831760952 0 0.085240370224008655 -0.38785291623133339 0 0.085405054053840745 -0.37362112812438991 0 0.085240370224008655 -0.38785291623133339 0 0.074105611659338544 -0.38701695558500909 0 0.085405054053840745 -0.37362112812438991 0 0.085240370224008655 -0.38785291623133339 0 0.078775491834421382 -0.39607359653981228 0 0.074105611659338544 -0.38701695558500909 0 0.1022322164342373 -0.38373387831760952 0 0.085240370224008655 -0.38785291623133339 0 0.086620896756693766 -0.40131421668662021 0 0.098943123931416244 -0.39598750207082611 0 0.090032948821177211 -0.40193314797080598 0 0.086620896756693766 -0.40131421668662021 0 0.087597262047598309 -0.40799938922151507 0 0.090032948821177211 -0.40193314797080598 0 0.086620896756693766 -0.40131421668662021 0 0.086620896756693766 -0.40131421668662021 0 0.078775491834421382 -0.39607359653981228 0 0.075277760725011911 -0.40529565006860307 0 0.085240370224008655 -0.38785291623133339 0 0.086620896756693766 -0.40131421668662021 0 0.078775491834421382 -0.39607359653981228 0 0.069450325871987573 -0.4108656334803118 0 0.070532512082806392 -0.39933024858063942 0 0.052234008351061567 -0.39795270186218951 0 0.070532512082806392 -0.39933024858063942 0 0.074105611659338544 -0.38701695558500909 0 0.052234008351061567 -0.39795270186218951 0 0.078775491834421382 -0.39607359653981228 0 0.070532512082806392 -0.39933024858063942 0 0.074105611659338544 -0.38701695558500909 0 0.069450325871987573 -0.4108656334803118 0 0.075277760725011911 -0.40529565006860307 0 0.070532512082806392 -0.39933024858063942 0 0.078775491834421382 -0.39607359653981228 0 0.075277760725011911 -0.40529565006860307 0 0.070532512082806392 -0.39933024858063942 0 0.074105611659338544 -0.38701695558500909 0 0.052234008351061567 -0.39795270186218951 0 0.063437686561578346 -0.37288323242433341 0 0.052234008351061567 -0.39795270186218951 0 0.020757568517849909 -0.39283471496839201 0 0.029897682088978118 -0.41096667129403253 0 0.052234008351061567 -0.39795270186218951 0 0.033945200452482893 -0.37693146521900001 0 0.020757568517849909 -0.39283471496839201 0 0.048793750419293853 -0.37565268273446778 0 0.052234008351061567 -0.39795270186218951 0 0.063437686561578346 -0.37288323242433341 0 0.048793750419293853 -0.37565268273446778 0 0.052234008351061567 -0.39795270186218951 0 0.033945200452482893 -0.37693146521900001 0 0.052234008351061567 -0.39795270186218951 0 0.033945200452482893 -0.37693146521900001 0 0.033945200452482893 -0.37693146521900001 0 0.020757568517849909 -0.39283471496839201 0 0.013658307244791791 -0.37275130771612131 0 0.0031839916891533652 -0.3828139800537087 0 0.020757568517849909 -0.39283471496839201 0 0.013658307244791791 -0.37275130771612131 0 -0.0050094893333455454 -0.37543182389169721 0 0.0031839916891533652 -0.3828139800537087 0 0.003597586426798294 -0.37204525863827242 0 0.0031839916891533652 -0.3828139800537087 0 0.003597586426798294 -0.37204525863827242 0 0.013658307244791791 -0.37275130771612131 0 0.010116968095337501 -0.39825566022042758 0 0.020757568517849909 -0.39283471496839201 0 0.01292384377616391 -0.41192766207270581 0 0.0031839916891533652 -0.3828139800537087 0 0.010116968095337501 -0.39825566022042758 0 0.020757568517849909 -0.39283471496839201 0 0.001202580214239484 -0.39360862266658431 0 0.010116968095337501 -0.39825566022042758 0 0.0031083600501382591 -0.40643032647008359 0 0.0031839916891533652 -0.3828139800537087 0 0.001202580214239484 -0.39360862266658431 0 0.010116968095337501 -0.39825566022042758 0 0.010116968095337501 -0.39825566022042758 0 0.01292384377616391 -0.41192766207270581 0 0.0031083600501382591 -0.40643032647008359 0 0.020757568517849909 -0.39283471496839201 0 0.01292384377616391 -0.41192766207270581 0 0.020757568517849909 -0.39283471496839201 0 0.029897682088978118 -0.41096667129403253 0 0.01292384377616391 -0.41192766207270581 0 0.029897682088978118 -0.41096667129403253 0 0.020404250330041909 -0.41699563921922173 0 0.01292384377616391 -0.41192766207270581 0 0.029897682088978118 -0.41096667129403253 0 0.020404250330041909 -0.41699563921922173 0 0.024106114826985221 -0.42251621891012942 0 0.029897682088978118 -0.41096667129403253 0 0.024106114826985221 -0.42251621891012942 0 0.033092205995731282 -0.42630174931788578 0 0.020404250330041909 -0.41699563921922173 0 0.01292384377616391 -0.41192766207270581 0 0.014689360628040399 -0.4225720046000192 0 0.020404250330041909 -0.41699563921922173 0 0.014689360628040399 -0.4225720046000192 0 0.024106114826985221 -0.42251621891012942 0 0.01292384377616391 -0.41192766207270581 0 0.0050901190344784866 -0.43102060917701968 0 0.014689360628040399 -0.4225720046000192 0 0.01292384377616391 -0.41192766207270581 0 0.0041951508471665044 -0.41719608301909761 0 0.0050901190344784866 -0.43102060917701968 0 0.01292384377616391 -0.41192766207270581 0 0.0050901190344784866 -0.43102060917701968 0 -0.0043417194721140882 -0.41940573435658168 0 0.0041951508471665044 -0.41719608301909761 0 0.0031083600501382591 -0.40643032647008359 0 0.01292384377616391 -0.41192766207270581 0 0.0041951508471665044 -0.41719608301909761 0 0.0031083600501382591 -0.40643032647008359 0 0.0050901190344784866 -0.43102060917701968 0 0.0084118101604928469 -0.43134762068781762 0 -0.0043417194721140882 -0.41940573435658168 0 0.0041951508471665044 -0.41719608301909761 0 0.0050901190344784866 -0.43102060917701968 0 0.0050901190344784866 -0.43102060917701968 0 0.014689360628040399 -0.4225720046000192 0 0.0084118101604928469 -0.43134762068781762 0 0.014689360628040399 -0.4225720046000192 0 0.01456365484641209 -0.42938106488566558 0 0.0084118101604928469 -0.43134762068781762 0 0.013926842234830501 -0.43300387031209181 0 0.0084118101604928469 -0.43134762068781762 0 0.01166861330515487 -0.43961630934359303 0 0.01456365484641209 -0.42938106488566558 0 0.013926842234830501 -0.43300387031209181 0 0.0084118101604928469 -0.43134762068781762 0 0.0050901190344784866 -0.43102060917701968 0 0.0084118101604928469 -0.43134762068781762 0 0.01166861330515487 -0.43961630934359303 0 0.013926842234830501 -0.43300387031209181 0 0.021063290627262209 -0.43167048633129101 0 0.01166861330515487 -0.43961630934359303 0 0.01456365484641209 -0.42938106488566558 0 0.013926842234830501 -0.43300387031209181 0 0.021063290627262209 -0.43167048633129101 0 0.014689360628040399 -0.4225720046000192 0 0.021063290627262209 -0.43167048633129101 0 0.024106114826985221 -0.42251621891012942 0 0.014689360628040399 -0.4225720046000192 0 0.01456365484641209 -0.42938106488566558 0 0.021063290627262209 -0.43167048633129101 0 0.021063290627262209 -0.43167048633129101 0 0.024106114826985221 -0.42251621891012942 0 0.033092205995731282 -0.42630174931788578 0 0.021063290627262209 -0.43167048633129101 0 0.029215141957677781 -0.43529904359437799 0 0.033092205995731282 -0.42630174931788578 0 0.021063290627262209 -0.43167048633129101 0 0.029215141957677781 -0.43529904359437799 0 0.025032164546118951 -0.44401567061370267 0 0.045068159509479747 -0.42889563871652581 0 0.054738305107791499 -0.43721808393462291 0 0.037672906661598692 -0.43920826811463248 0 0.045068159509479747 -0.42889563871652581 0 0.033092205995731282 -0.42630174931788578 0 0.037672906661598692 -0.43920826811463248 0 0.029215141957677781 -0.43529904359437799 0 0.033092205995731282 -0.42630174931788578 0 0.037672906661598692 -0.43920826811463248 0 0.045068159509479747 -0.42889563871652581 0 0.033092205995731282 -0.42630174931788578 0 0.043572512580322402 -0.41708794455018078 0 0.052234008351061567 -0.39795270186218951 0 0.029897682088978118 -0.41096667129403253 0 0.043572512580322402 -0.41708794455018078 0 0.029897682088978118 -0.41096667129403253 0 0.033092205995731282 -0.42630174931788578 0 0.043572512580322402 -0.41708794455018078 0 0.052234008351061567 -0.39795270186218951 0 0.043572512580322402 -0.41708794455018078 0 0.057669359148548302 -0.42107014613741778 0 0.070728821420333071 -0.41921072175920582 0 0.052234008351061567 -0.39795270186218951 0 0.057669359148548302 -0.42107014613741778 0 0.070728821420333071 -0.41921072175920582 0 0.052234008351061567 -0.39795270186218951 0 0.045068159509479747 -0.42889563871652581 0 0.057669359148548302 -0.42107014613741778 0 0.054738305107791499 -0.43721808393462291 0 0.070728821420333071 -0.41921072175920582 0 0.057669359148548302 -0.42107014613741778 0 0.054738305107791499 -0.43721808393462291 0 0.045068159509479747 -0.42889563871652581 0 0.043572512580322402 -0.41708794455018078 0 0.057669359148548302 -0.42107014613741778 0 0.07085046614274193 -0.44770930362294631 0 0.054738305107791499 -0.43721808393462291 0 0.057646134350172032 -0.45424665235146849 0 0.054738305107791499 -0.43721808393462291 0 0.057646134350172032 -0.45424665235146849 0 0.038747788795246867 -0.45522544611003729 0 0.063646675438631034 -0.47448029456242752 0 0.068163064386583011 -0.46207623335530251 0 0.051457764192532042 -0.46743386496308559 0 0.051457764192532042 -0.46743386496308559 0 0.057646134350172032 -0.45424665235146849 0 0.038747788795246867 -0.45522544611003729 0 0.068163064386583011 -0.46207623335530251 0 0.051457764192532042 -0.46743386496308559 0 0.057646134350172032 -0.45424665235146849 0 0.051457764192532042 -0.46743386496308559 0 0.038747788795246867 -0.45522544611003729 0 0.0334352927869591 -0.46930462340826962 0 0.038747788795246867 -0.45522544611003729 0 0.025433775216982191 -0.45694256434680208 0 0.0334352927869591 -0.46930462340826962 0 0.038747788795246867 -0.45522544611003729 0 0.037672906661598692 -0.43920826811463248 0 0.025032164546118951 -0.44401567061370267 0 0.054738305107791499 -0.43721808393462291 0 0.038747788795246867 -0.45522544611003729 0 0.054738305107791499 -0.43721808393462291 0 0.038747788795246867 -0.45522544611003729 0 0.037672906661598692 -0.43920826811463248 0 0.029215141957677781 -0.43529904359437799 0 0.037672906661598692 -0.43920826811463248 0 0.025032164546118951 -0.44401567061370267 0 0.038747788795246867 -0.45522544611003729 0 0.025032164546118951 -0.44401567061370267 0 0.025433775216982191 -0.45694256434680208 0 0.025032164546118951 -0.44401567061370267 0 0.014673885087863721 -0.45193566913043609 0 0.025433775216982191 -0.45694256434680208 0 0.025032164546118951 -0.44401567061370267 0 0.01166861330515487 -0.43961630934359303 0 0.014673885087863721 -0.45193566913043609 0 0.021063290627262209 -0.43167048633129101 0 0.025032164546118951 -0.44401567061370267 0 0.01166861330515487 -0.43961630934359303 0 -0.004343828094517492 -0.45401373945134632 0 0.0050901190344784866 -0.43102060917701968 0 0.01166861330515487 -0.43961630934359303 0 -0.004343828094517492 -0.45401373945134632 0 0.0050901190344784866 -0.43102060917701968 0 -0.004343828094517492 -0.45401373945134632 0 0.01166861330515487 -0.43961630934359303 0 0.014673885087863721 -0.45193566913043609 0 -0.004343828094517492 -0.45401373945134632 0 0.014673885087863721 -0.45193566913043609 0 0.01587765606243783 -0.46594871132190768 0 -0.004343828094517492 -0.45401373945134632 0 0.01587765606243783 -0.46594871132190768 0 0.0042708629438973321 -0.477985506460534 0 0.01587765606243783 -0.46594871132190768 0 0.025433775216982191 -0.45694256434680208 0 0.0334352927869591 -0.46930462340826962 0 0.014673885087863721 -0.45193566913043609 0 0.01587765606243783 -0.46594871132190768 0 0.025433775216982191 -0.45694256434680208 0 0.01587765606243783 -0.46594871132190768 0 0.021390154532516348 -0.48378558620660361 0 0.0334352927869591 -0.46930462340826962 0 0.01587765606243783 -0.46594871132190768 0 0.021390154532516348 -0.48378558620660361 0 0.0042708629438973321 -0.477985506460534 0 0.021390154532516348 -0.48378558620660361 0 0.0042708629438973321 -0.477985506460534 0 0.002743633780377341 -0.5 0 0.021390154532516348 -0.48378558620660361 0 0.002743633780377341 -0.5 0 0.028698989913262921 -0.5 0 0.021390154532516348 -0.48378558620660361 0 0.028698989913262921 -0.5 0 0.047307140399866998 -0.48568848103305162 0 0.028698989913262921 -0.5 0 0.054654346046148702 -0.50000000000000178 0 0.047307140399866998 -0.48568848103305162 0 0.021390154532516348 -0.48378558620660361 0 0.047307140399866998 -0.48568848103305162 0 0.021390154532516348 -0.48378558620660361 0 0.0334352927869591 -0.46930462340826962 0 0.047307140399866998 -0.48568848103305162 0 0.051457764192532042 -0.46743386496308559 0 0.0334352927869591 -0.46930462340826962 0 0.047307140399866998 -0.48568848103305162 0 0.063646675438631034 -0.47448029456242752 0 0.051457764192532042 -0.46743386496308559 0 0.047307140399866998 -0.48568848103305162 0 0.07322412626721761 -0.48759137585950008 0 0.063646675438631034 -0.47448029456242752 0 0.047307140399866998 -0.48568848103305162 0 0.07322412626721761 -0.48759137585950008 0 0.054654346046148702 -0.50000000000000178 0 0.047307140399866998 -0.48568848103305162 0 0.07322412626721761 -0.48759137585950008 0 0.047307140399866998 -0.48568848103305162 0 0.082167724982066315 -0.29101115547544781 0 0.083101473193182063 -0.27624005106402771 0 0.097316593954173719 -0.28837266541599038 0 0.082167724982066315 -0.29101115547544781 0 0.090864993589652235 -0.29985229679016501 0 0.097316593954173719 -0.28837266541599038 0 0.090864993589652235 -0.29985229679016501 0 0.088639563547441694 -0.31175950522103829 0 0.074301677724487869 -0.30236331844772862 0 0.082167724982066315 -0.29101115547544781 0 0.090864993589652235 -0.29985229679016501 0 0.074301677724487869 -0.30236331844772862 0 0.088639563547441694 -0.31175950522103829 0 0.074301677724487869 -0.30236331844772862 0 0.081490125786857978 -0.31908720403813562 0 0.090864993589652235 -0.29985229679016501 0 0.088639563547441694 -0.31175950522103829 0 0.1002817545530065 -0.3082172840848435 0 0.074301677724487869 -0.30236331844772862 0 0.065500396858221621 -0.30739424628788459 0 0.069256196191781541 -0.31646064782885358 0 0.065500396858221621 -0.30739424628788459 0 0.069256196191781541 -0.31646064782885358 0 0.058080372133334439 -0.31243914555326752 0 0.074301677724487869 -0.30236331844772862 0 0.065500396858221621 -0.30739424628788459 0 0.060129318356000522 -0.29987766841755431 0 0.074301677724487869 -0.30236331844772862 0 0.065253886448835716 -0.28822744565932717 0 0.060129318356000522 -0.29987766841755431 0 0.082167724982066315 -0.29101115547544781 0 0.074301677724487869 -0.30236331844772862 0 0.065253886448835716 -0.28822744565932717 0 0.082167724982066315 -0.29101115547544781 0 0.065253886448835716 -0.28822744565932717 0 0.083101473193182063 -0.27624005106402771 0 0.065253886448835716 -0.28822744565932717 0 0.083101473193182063 -0.27624005106402771 0 0.06564010599939589 -0.2667847321432103 0 0.083828624658512554 -0.25882774161549937 0 0.083101473193182063 -0.27624005106402771 0 0.065253886448835716 -0.28822744565932717 0 0.06564010599939589 -0.2667847321432103 0 0.083101473193182063 -0.27624005106402771 0 0.06564010599939589 -0.2667847321432103 0 0.083828624658512554 -0.25882774161549937 0 0.067957362126402951 -0.24804264243868079 0 0.083828624658512554 -0.25882774161549937 0 0.09746678585382465 -0.25363331107315801 0 0.087783699246396174 -0.24189017989588529 0 0.083828624658512554 -0.25882774161549937 0 0.083101473193182063 -0.27624005106402771 0 0.1010223215318736 -0.26637553307803458 0 0.083101473193182063 -0.27624005106402771 0 0.1010223215318736 -0.26637553307803458 0 0.10641139022678429 -0.27855978456287689 0 0.083101473193182063 -0.27624005106402771 0 0.10641139022678429 -0.27855978456287689 0 0.097316593954173719 -0.28837266541599038 0 0.1010223215318736 -0.26637553307803458 0 0.10641139022678429 -0.27855978456287689 0 0.11861801279902939 -0.2710219053847534 0 0.083828624658512554 -0.25882774161549937 0 0.1010223215318736 -0.26637553307803458 0 0.09746678585382465 -0.25363331107315801 0 0.1010223215318736 -0.26637553307803458 0 0.09746678585382465 -0.25363331107315801 0 0.1140821911866636 -0.25921302570794508 0 0.09746678585382465 -0.25363331107315801 0 0.1140821911866636 -0.25921302570794508 0 0.109735383904699 -0.24624287511435189 0 0.127473526956523 -0.25536252490351707 0 0.1140821911866636 -0.25921302570794508 0 0.109735383904699 -0.24624287511435189 0 0.1010223215318736 -0.26637553307803458 0 0.1140821911866636 -0.25921302570794508 0 0.11861801279902939 -0.2710219053847534 0 0.127473526956523 -0.25536252490351707 0 0.1140821911866636 -0.25921302570794508 0 0.11861801279902939 -0.2710219053847534 0 0.10641139022678429 -0.27855978456287689 0 0.11861801279902939 -0.2710219053847534 0 0.1184946949964554 -0.28629122716633132 0 0.1339883042226577 -0.28096992140485089 0 0.11861801279902939 -0.2710219053847534 0 0.1184946949964554 -0.28629122716633132 0 0.1184946949964554 -0.28629122716633132 0 0.1037275957800813 -0.29835109672331273 0 0.1148577082674538 -0.30239269194700807 0 0.1184946949964554 -0.28629122716633132 0 0.097316593954173719 -0.28837266541599038 0 0.1037275957800813 -0.29835109672331273 0 0.10641139022678429 -0.27855978456287689 0 0.1184946949964554 -0.28629122716633132 0 0.097316593954173719 -0.28837266541599038 0 0.090864993589652235 -0.29985229679016501 0 0.097316593954173719 -0.28837266541599038 0 0.1037275957800813 -0.29835109672331273 0 0.1002817545530065 -0.3082172840848435 0 0.1148577082674538 -0.30239269194700807 0 0.1091369594407926 -0.31861861617178361 0 0.088639563547441694 -0.31175950522103829 0 0.1002817545530065 -0.3082172840848435 0 0.096825633320896748 -0.31738333928343071 0 0.090864993589652235 -0.29985229679016501 0 0.1002817545530065 -0.3082172840848435 0 0.1037275957800813 -0.29835109672331273 0 0.1002817545530065 -0.3082172840848435 0 0.1037275957800813 -0.29835109672331273 0 0.1148577082674538 -0.30239269194700807 0 0.1148577082674538 -0.30239269194700807 0 0.12386135129487701 -0.3143432727957402 0 0.1091369594407926 -0.31861861617178361 0 0.14050308148879351 -0.30657731790618431 0 0.1184946949964554 -0.28629122716633132 0 0.1148577082674538 -0.30239269194700807 0 0.12386135129487701 -0.3143432727957402 0 0.1196631584862892 -0.32523303504599399 0 0.1091369594407926 -0.31861861617178361 0 0.1196631584862892 -0.32523303504599399 0 0.11108164604388469 -0.33601103078446798 0 0.1091369594407926 -0.31861861617178361 0 0.1286883276397652 -0.3326772335246268 0 0.11108164604388469 -0.33601103078446798 0 0.1191047906302566 -0.34688682220090328 0 0.1286883276397652 -0.3326772335246268 0 0.11108164604388469 -0.33601103078446798 0 0.1286883276397652 -0.3326772335246268 0 0.1196631584862892 -0.32523303504599399 0 0.11108164604388469 -0.33601103078446798 0 0.11108164604388469 -0.33601103078446798 0 0.097784649545634053 -0.32781233992561282 0 0.091739176474441866 -0.34000782801919488 0 0.11108164604388469 -0.33601103078446798 0 0.10628344532819289 -0.34896070404520668 0 0.091739176474441866 -0.34000782801919488 0 0.11108164604388469 -0.33601103078446798 0 0.097784649545634053 -0.32781233992561282 0 0.1091369594407926 -0.31861861617178361 0 0.097784649545634053 -0.32781233992561282 0 0.096825633320896748 -0.31738333928343071 0 0.1091369594407926 -0.31861861617178361 0 0.097784649545634053 -0.32781233992561282 0 0.096825633320896748 -0.31738333928343071 0 0.089079610370597112 -0.32263431234309897 0 0.1002817545530065 -0.3082172840848435 0 0.096825633320896748 -0.31738333928343071 0 0.1091369594407926 -0.31861861617178361 0 0.1322362839482141 -0.34994546899427309 0 0.11723425019122601 -0.36683967365594161 0 0.1322362839482141 -0.34994546899427309 0 0.11723425019122601 -0.36683967365594161 0 0.1191047906302566 -0.34688682220090328 0 0.11723425019122601 -0.36683967365594161 0 0.1191047906302566 -0.34688682220090328 0 0.10628344532819289 -0.34896070404520668 0 0.11108164604388469 -0.33601103078446798 0 0.1191047906302566 -0.34688682220090328 0 0.10628344532819289 -0.34896070404520668 0 0.10628344532819289 -0.34896070404520668 0 0.091712835678281063 -0.35591578250146672 0 0.091739176474441866 -0.34000782801919488 0 0.11723425019122601 -0.36683967365594161 0 0.10628344532819289 -0.34896070404520668 0 0.091712835678281063 -0.35591578250146672 0 0.1022322164342373 -0.38373387831760952 0 0.091712835678281063 -0.35591578250146672 0 0.1022322164342373 -0.38373387831760952 0 0.11723425019122601 -0.36683967365594161 0 0.091712835678281063 -0.35591578250146672 0 0.085405054053840745 -0.37362112812438991 0 0.091712835678281063 -0.35591578250146672 0 0.074170967014388314 -0.35879907653924897 0 0.1022322164342373 -0.38373387831760952 0 0.085405054053840745 -0.37362112812438991 0 0.091712835678281063 -0.35591578250146672 0 0.08066776558068231 -0.34421098073280521 0 0.091712835678281063 -0.35591578250146672 0 0.074170967014388314 -0.35879907653924897 0 0.074170967014388314 -0.35879907653924897 0 0.063487899297908268 -0.35237355294397998 0 0.067244727978403196 -0.34224985707389 0 0.074170967014388314 -0.35879907653924897 0 0.074236322369438099 -0.3305811974934888 0 0.067244727978403196 -0.34224985707389 0 0.074170967014388314 -0.35879907653924897 0 0.074236322369438099 -0.3305811974934888 0 0.08066776558068231 -0.34421098073280521 0 0.074170967014388314 -0.35879907653924897 0 0.074236322369438099 -0.3305811974934888 0 0.063487899297908268 -0.35237355294397998 0 0.067244727978403196 -0.34224985707389 0 0.06016661969910482 -0.33927320109795978 0 0.074105611659338544 -0.38701695558500909 0 0.085405054053840745 -0.37362112812438991 0 0.074170967014388314 -0.35879907653924897 0 0.074105611659338544 -0.38701695558500909 0 0.074170967014388314 -0.35879907653924897 0 0.074105611659338544 -0.38701695558500909 0 0.074170967014388314 -0.35879907653924897 0 0.063437686561578346 -0.37288323242433341 0 0.074170967014388314 -0.35879907653924897 0 0.063487899297908268 -0.35237355294397998 0 0.063437686561578346 -0.37288323242433341 0 0.081193454922325103 -0.32809768668532352 0 0.081490125786857978 -0.31908720403813562 0 0.074236322369438099 -0.3305811974934888 0 0.081193454922325103 -0.32809768668532352 0 0.081490125786857978 -0.31908720403813562 0 0.089079610370597112 -0.32263431234309897 0 0.088639563547441694 -0.31175950522103829 0 0.096825633320896748 -0.31738333928343071 0 0.089079610370597112 -0.32263431234309897 0 0.088639563547441694 -0.31175950522103829 0 0.081490125786857978 -0.31908720403813562 0 0.089079610370597112 -0.32263431234309897 0 0.081193454922325103 -0.32809768668532352 0 0.089079610370597112 -0.32263431234309897 0 0.08994922282824952 -0.32963804174330752 0 0.097784649545634053 -0.32781233992561282 0 0.089079610370597112 -0.32263431234309897 0 0.08994922282824952 -0.32963804174330752 0 0.08066776558068231 -0.34421098073280521 0 0.081193454922325103 -0.32809768668532352 0 0.074236322369438099 -0.3305811974934888 0 0.097784649545634053 -0.32781233992561282 0 0.08994922282824952 -0.32963804174330752 0 0.091739176474441866 -0.34000782801919488 0 0.081193454922325103 -0.32809768668532352 0 0.08994922282824952 -0.32963804174330752 0 0.091739176474441866 -0.34000782801919488 0 0.08066776558068231 -0.34421098073280521 0 0.091712835678281063 -0.35591578250146672 0 0.081193454922325103 -0.32809768668532352 0 0.091712835678281063 -0.35591578250146672 0 0.081193454922325103 -0.32809768668532352 0 0.091739176474441866 -0.34000782801919488 0 0.091712835678281063 -0.35591578250146672 0 0.081193454922325103 -0.32809768668532352 0 0.067244727978403196 -0.34224985707389 0 0.064161831511176479 -0.33022225729477228 0 0.06016661969910482 -0.33927320109795978 0 0.074236322369438099 -0.3305811974934888 0 0.064161831511176479 -0.33022225729477228 0 0.067422519493378158 -0.32406272531624442 0 0.074236322369438099 -0.3305811974934888 0 0.067244727978403196 -0.34224985707389 0 0.064161831511176479 -0.33022225729477228 0 0.074301677724487869 -0.30236331844772862 0 0.074236322369438099 -0.3305811974934888 0 0.064161831511176479 -0.33022225729477228 0 0.067422519493378158 -0.32406272531624442 0 0.062305531085846258 -0.31963514699151518 0 0.074301677724487869 -0.30236331844772862 0 0.074236322369438099 -0.3305811974934888 0 0.069256196191781541 -0.31646064782885358 0 0.074236322369438099 -0.3305811974934888 0 0.067422519493378158 -0.32406272531624442 0 0.069256196191781541 -0.31646064782885358 0 0.074301677724487869 -0.30236331844772862 0 0.081490125786857978 -0.31908720403813562 0 0.074236322369438099 -0.3305811974934888 0 0.069256196191781541 -0.31646064782885358 0 0.062305531085846258 -0.31963514699151518 0 0.058080372133334439 -0.31243914555326752 0 0.067422519493378158 -0.32406272531624442 0 0.069256196191781541 -0.31646064782885358 0 0.062305531085846258 -0.31963514699151518 0 0.062305531085846258 -0.31963514699151518 0 0.056440099748201217 -0.32420269223105502 0 0.058080372133334439 -0.31243914555326752 0 0.049839889670750717 -0.31652660783833042 0 0.056440099748201217 -0.32420269223105502 0 0.058080372133334439 -0.31243914555326752 0 0.048994723993661352 -0.32491107625304178 0 0.056440099748201217 -0.32420269223105502 0 0.051972281353275772 -0.33349910069517752 0 0.049839889670750717 -0.31652660783833042 0 0.048994723993661352 -0.32491107625304178 0 0.042043131515857209 -0.32261432773946641 0 0.049839889670750717 -0.31652660783833042 0 0.048994723993661352 -0.32491107625304178 0 0.056440099748201217 -0.32420269223105502 0 0.064161831511176479 -0.33022225729477228 0 0.062305531085846258 -0.31963514699151518 0 0.056440099748201217 -0.32420269223105502 0 0.056440099748201217 -0.32420269223105502 0 0.058185208077939581 -0.33179931282974112 0 0.051972281353275772 -0.33349910069517752 0 0.064161831511176479 -0.33022225729477228 0 0.056440099748201217 -0.32420269223105502 0 0.058185208077939581 -0.33179931282974112 0 0.064161831511176479 -0.33022225729477228 0 0.058185208077939581 -0.33179931282974112 0 0.06016661969910482 -0.33927320109795978 0 0.058185208077939581 -0.33179931282974112 0 0.06016661969910482 -0.33927320109795978 0 0.051972281353275772 -0.33349910069517752 0 0.06016661969910482 -0.33927320109795978 0 0.051972281353275772 -0.33349910069517752 0 0.051588823621612663 -0.3473207097298196 0 0.051972281353275772 -0.33349910069517752 0 0.043318552633971857 -0.33875827635216138 0 0.051588823621612663 -0.3473207097298196 0 0.048994723993661352 -0.32491107625304178 0 0.051972281353275772 -0.33349910069517752 0 0.044336091507509973 -0.32997113394716748 0 0.044336091507509973 -0.32997113394716748 0 0.043318552633971857 -0.33875827635216138 0 0.035180704954427718 -0.3312021292889844 0 0.051972281353275772 -0.33349910069517752 0 0.044336091507509973 -0.32997113394716748 0 0.043318552633971857 -0.33875827635216138 0 0.043318552633971857 -0.33875827635216138 0 0.033865116610911211 -0.34274660822663838 0 0.042260740599639163 -0.34827733525668991 0 0.043318552633971857 -0.33875827635216138 0 0.033865116610911211 -0.34274660822663838 0 0.035180704954427718 -0.3312021292889844 0 0.033865116610911211 -0.34274660822663838 0 0.035180704954427718 -0.3312021292889844 0 0.025457772995489691 -0.33669021930000709 0 0.035180704954427718 -0.3312021292889844 0 0.032067905319242293 -0.32063391831071603 0 0.042043131515857209 -0.32261432773946641 0 0.032067905319242293 -0.32063391831071603 0 0.041466845054747098 -0.31495234202666961 0 0.03368970444649555 -0.30942763984579141 0 0.032067905319242293 -0.32063391831071603 0 0.041466845054747098 -0.31495234202666961 0 0.042043131515857209 -0.32261432773946641 0 0.049839889670750717 -0.31652660783833042 0 0.041466845054747098 -0.31495234202666961 0 0.047180371200464657 -0.30772093576550341 0 0.049839889670750717 -0.31652660783833042 0 0.041466845054747098 -0.31495234202666961 0 0.042043131515857209 -0.32261432773946641 0 0.044336091507509973 -0.32997113394716748 0 0.035180704954427718 -0.3312021292889844 0 0.042043131515857209 -0.32261432773946641 0 0.048994723993661352 -0.32491107625304178 0 0.044336091507509973 -0.32997113394716748 0 0.042043131515857209 -0.32261432773946641 0 0.063487899297908268 -0.35237355294397998 0 0.063437686561578346 -0.37288323242433341 0 0.048751721726647768 -0.35942434170608689 0 0.048793750419293853 -0.37565268273446778 0 0.063437686561578346 -0.37288323242433341 0 0.048751721726647768 -0.35942434170608689 0 0.063487899297908268 -0.35237355294397998 0 0.048751721726647768 -0.35942434170608689 0 0.051588823621612663 -0.3473207097298196 0 0.048751721726647768 -0.35942434170608689 0 0.051588823621612663 -0.3473207097298196 0 0.042260740599639163 -0.34827733525668991 0 0.063487899297908268 -0.35237355294397998 0 0.06016661969910482 -0.33927320109795978 0 0.051588823621612663 -0.3473207097298196 0 0.043318552633971857 -0.33875827635216138 0 0.051588823621612663 -0.3473207097298196 0 0.042260740599639163 -0.34827733525668991 0 0.033865116610911211 -0.34274660822663838 0 0.042260740599639163 -0.34827733525668991 0 0.033779488405052308 -0.35313674026874309 0 0.048751721726647768 -0.35942434170608689 0 0.042260740599639163 -0.34827733525668991 0 0.033779488405052308 -0.35313674026874309 0 0.048751721726647768 -0.35942434170608689 0 0.033779488405052308 -0.35313674026874309 0 0.036185310711476203 -0.36421109170082172 0 0.048793750419293853 -0.37565268273446778 0 0.048751721726647768 -0.35942434170608689 0 0.036185310711476203 -0.36421109170082172 0 0.048793750419293853 -0.37565268273446778 0 0.033945200452482893 -0.37693146521900001 0 0.036185310711476203 -0.36421109170082172 0 0.033945200452482893 -0.37693146521900001 0 0.015656392553904209 -0.35591022857581051 0 0.013658307244791791 -0.37275130771612131 0 0.033945200452482893 -0.37693146521900001 0 0.036185310711476203 -0.36421109170082172 0 0.015656392553904209 -0.35591022857581051 0 0.033945200452482893 -0.37693146521900001 0 0.015656392553904209 -0.35591022857581051 0 0.033779488405052308 -0.35313674026874309 0 0.015656392553904209 -0.35591022857581051 0 0.02402178288657645 -0.34632512504150592 0 0.015656392553904209 -0.35591022857581051 0 0.02402178288657645 -0.34632512504150592 0 0.01643582860441423 -0.33363717362736772 0 0.033779488405052308 -0.35313674026874309 0 0.036185310711476203 -0.36421109170082172 0 0.015656392553904209 -0.35591022857581051 0 0.033865116610911211 -0.34274660822663838 0 0.033779488405052308 -0.35313674026874309 0 0.02402178288657645 -0.34632512504150592 0 -0.0033282650061358548 -0.34830785935861719 0 0.015656392553904209 -0.35591022857581051 0 0.0053989168704140986 -0.35852483083951292 0 -0.0026324153446744621 -0.33488899193262089 0 -0.0033282650061358548 -0.34830785935861719 0 0.015656392553904209 -0.35591022857581051 0 -0.0026324153446744621 -0.33488899193262089 0 0.015656392553904209 -0.35591022857581051 0 -0.0050094893333455454 -0.37543182389169721 0 0.0053989168704140986 -0.35852483083951292 0 0.003597586426798294 -0.37204525863827242 0 0.015656392553904209 -0.35591022857581051 0 0.0053989168704140986 -0.35852483083951292 0 0.013658307244791791 -0.37275130771612131 0 0.0053989168704140986 -0.35852483083951292 0 0.003597586426798294 -0.37204525863827242 0 0.013658307244791791 -0.37275130771612131 0 0.019973109188501599 -0.31864043943695602 0 0.02582306421241511 -0.32816077599280619 0 0.01643582860441423 -0.33363717362736772 0 0.019973109188501599 -0.31864043943695602 0 0.0073378752671417373 -0.31461425796533637 0 0.020529224160928759 -0.30433328982967017 0 0.032067905319242293 -0.32063391831071603 0 0.019973109188501599 -0.31864043943695602 0 0.03368970444649555 -0.30942763984579141 0 0.019973109188501599 -0.31864043943695602 0 0.03368970444649555 -0.30942763984579141 0 0.035180704954427718 -0.3312021292889844 0 0.032067905319242293 -0.32063391831071603 0 0.02582306421241511 -0.32816077599280619 0 0.032067905319242293 -0.32063391831071603 0 0.019973109188501599 -0.31864043943695602 0 0.02582306421241511 -0.32816077599280619 0 0.035180704954427718 -0.3312021292889844 0 0.02582306421241511 -0.32816077599280619 0 0.025457772995489691 -0.33669021930000709 0 0.033865116610911211 -0.34274660822663838 0 0.02402178288657645 -0.34632512504150592 0 0.025457772995489691 -0.33669021930000709 0 0.02402178288657645 -0.34632512504150592 0 0.025457772995489691 -0.33669021930000709 0 0.01643582860441423 -0.33363717362736772 0 0.02582306421241511 -0.32816077599280619 0 0.025457772995489691 -0.33669021930000709 0 0.01643582860441423 -0.33363717362736772 0 -0.0026324153446744621 -0.33488899193262089 0 0.015656392553904209 -0.35591022857581051 0 0.01643582860441423 -0.33363717362736772 0 -0.0026324153446744621 -0.33488899193262089 0 0.01643582860441423 -0.33363717362736772 0 0.0073378752671417373 -0.31461425796533637 0 0.019973109188501599 -0.31864043943695602 0 0.01643582860441423 -0.33363717362736772 0 0.0073378752671417373 -0.31461425796533637 0 -0.001844919636969205 -0.30056216117952528 0 0.0073378752671417373 -0.31461425796533637 0 0.010391002930072399 -0.29938130918615669 0 -0.001844919636969205 -0.30056216117952528 0 0.010391002930072399 -0.29938130918615669 0 0.0072800652247619066 -0.29097928356301223 0 0.0073378752671417373 -0.31461425796533637 0 0.010391002930072399 -0.29938130918615669 0 0.020529224160928759 -0.30433328982967017 0 -0.00099987093679730155 -0.2886206222808092 0 0.0065431382335853321 -0.28300197442120489 0 0.0072800652247619066 -0.29097928356301223 0 -0.00099987093679730155 -0.2886206222808092 0 0.0065431382335853321 -0.28300197442120489 0 0.0030807261057536478 -0.2751904604808319 0 -0.001844919636969205 -0.30056216117952528 0 -0.00099987093679730155 -0.2886206222808092 0 0.0072800652247619066 -0.29097928356301223 0 0.010391002930072399 -0.29938130918615669 0 0.0072800652247619066 -0.29097928356301223 0 0.017954615778697908 -0.29236092301187139 0 0.0072800652247619066 -0.29097928356301223 0 0.01394276507515666 -0.28289556241673058 0 0.017954615778697908 -0.29236092301187139 0 0.0065431382335853321 -0.28300197442120489 0 0.0072800652247619066 -0.29097928356301223 0 0.01394276507515666 -0.28289556241673058 0 0.0065431382335853321 -0.28300197442120489 0 0.01394276507515666 -0.28289556241673058 0 0.01003482763268071 -0.27845172111130467 0 0.01394276507515666 -0.28289556241673058 0 0.017954615778697908 -0.29236092301187139 0 0.025439921250886139 -0.28223412027129502 0 0.017954615778697908 -0.29236092301187139 0 0.031105691070037599 -0.29473649410362418 0 0.025439921250886139 -0.28223412027129502 0 0.031105691070037599 -0.29473649410362418 0 0.025439921250886139 -0.28223412027129502 0 0.036827502706085959 -0.28451931608226683 0 0.017954615778697908 -0.29236092301187139 0 0.031105691070037599 -0.29473649410362418 0 0.020529224160928759 -0.30433328982967017 0 0.010391002930072399 -0.29938130918615669 0 0.017954615778697908 -0.29236092301187139 0 0.020529224160928759 -0.30433328982967017 0 0.031105691070037599 -0.29473649410362418 0 0.020529224160928759 -0.30433328982967017 0 0.03368970444649555 -0.30942763984579141 0 0.019973109188501599 -0.31864043943695602 0 0.020529224160928759 -0.30433328982967017 0 0.03368970444649555 -0.30942763984579141 0 0.031105691070037599 -0.29473649410362418 0 0.03368970444649555 -0.30942763984579141 0 0.047406299704489528 -0.30021484025462702 0 0.03368970444649555 -0.30942763984579141 0 0.047180371200464657 -0.30772093576550341 0 0.047406299704489528 -0.30021484025462702 0 0.041466845054747098 -0.31495234202666961 0 0.03368970444649555 -0.30942763984579141 0 0.047180371200464657 -0.30772093576550341 0 0.03368970444649555 -0.30942763984579141 0 0.047406299704489528 -0.30021484025462702 0 0.036827502706085959 -0.28451931608226683 0 0.047406299704489528 -0.30021484025462702 0 0.04812536704970162 -0.2763250340736752 0 0.031105691070037599 -0.29473649410362418 0 0.036827502706085959 -0.28451931608226683 0 0.047406299704489528 -0.30021484025462702 0 0.047406299704489528 -0.30021484025462702 0 0.04812536704970162 -0.2763250340736752 0 0.065253886448835716 -0.28822744565932717 0 0.060129318356000522 -0.29987766841755431 0 0.047406299704489528 -0.30021484025462702 0 0.065253886448835716 -0.28822744565932717 0 0.047406299704489528 -0.30021484025462702 0 0.04812536704970162 -0.2763250340736752 0 0.065253886448835716 -0.28822744565932717 0 0.047406299704489528 -0.30021484025462702 0 0.065500396858221621 -0.30739424628788459 0 0.060129318356000522 -0.29987766841755431 0 0.055799205457206777 -0.30553354665521559 0 0.065500396858221621 -0.30739424628788459 0 0.058080372133334439 -0.31243914555326752 0 0.055799205457206777 -0.30553354665521559 0 0.049839889670750717 -0.31652660783833042 0 0.058080372133334439 -0.31243914555326752 0 0.047180371200464657 -0.30772093576550341 0 0.058080372133334439 -0.31243914555326752 0 0.055799205457206777 -0.30553354665521559 0 0.047180371200464657 -0.30772093576550341 0 0.047180371200464657 -0.30772093576550341 0 0.047406299704489528 -0.30021484025462702 0 0.055799205457206777 -0.30553354665521559 0 0.047180371200464657 -0.30772093576550341 0 0.047406299704489528 -0.30021484025462702 0 0.060129318356000522 -0.29987766841755431 0 0.055799205457206777 -0.30553354665521559 0 0.047406299704489528 -0.30021484025462702 0 0.06564010599939589 -0.2667847321432103 0 0.048844434394913469 -0.25243522789272338 0 0.04812536704970162 -0.2763250340736752 0 0.048844434394913469 -0.25243522789272338 0 0.04812536704970162 -0.2763250340736752 0 0.06564010599939589 -0.2667847321432103 0 0.048844434394913469 -0.25243522789272338 0 0.067957362126402951 -0.24804264243868079 0 0.065253886448835716 -0.28822744565932717 0 0.06564010599939589 -0.2667847321432103 0 0.04812536704970162 -0.2763250340736752 0 0.036827502706085959 -0.28451931608226683 0 0.04812536704970162 -0.2763250340736752 0 0.032060234455314911 -0.26908609170811287 0 0.04812536704970162 -0.2763250340736752 0 0.032060234455314911 -0.26908609170811287 0 0.041223528450761687 -0.26303171876518749 0 0.025439921250886139 -0.28223412027129502 0 0.036827502706085959 -0.28451931608226683 0 0.032060234455314911 -0.26908609170811287 0 0.032060234455314911 -0.26908609170811287 0 0.041223528450761687 -0.26303171876518749 0 0.035864077903116728 -0.25428052138623869 0 0.048844434394913469 -0.25243522789272338 0 0.04812536704970162 -0.2763250340736752 0 0.041223528450761687 -0.26303171876518749 0 0.048844434394913469 -0.25243522789272338 0 0.041223528450761687 -0.26303171876518749 0 0.035864077903116728 -0.25428052138623869 0 0.032060234455314911 -0.26908609170811287 0 0.035864077903116728 -0.25428052138623869 0 0.02108294135426848 -0.25645710567717278 0 0.032060234455314911 -0.26908609170811287 0 0.02108294135426848 -0.25645710567717278 0 0.01657268111622719 -0.27271888712645109 0 0.025439921250886139 -0.28223412027129502 0 0.032060234455314911 -0.26908609170811287 0 0.01657268111622719 -0.27271888712645109 0 0.01394276507515666 -0.28289556241673058 0 0.025439921250886139 -0.28223412027129502 0 0.01657268111622719 -0.27271888712645109 0 -0.003490582175888074 -0.27322543761972468 0 0.0030807261057536478 -0.2751904604808319 0 0.0079403247909845855 -0.25252705995495828 0 0.02108294135426848 -0.25645710567717278 0 0.0030807261057536478 -0.2751904604808319 0 0.02108294135426848 -0.25645710567717278 0 0.01657268111622719 -0.27271888712645109 0 0.0030807261057536478 -0.2751904604808319 0 0.01394276507515666 -0.28289556241673058 0 0.01657268111622719 -0.27271888712645109 0 0.01003482763268071 -0.27845172111130467 0 0.01657268111622719 -0.27271888712645109 0 0.01003482763268071 -0.27845172111130467 0 0.0030807261057536478 -0.2751904604808319 0 0.0065431382335853321 -0.28300197442120489 0 0.01003482763268071 -0.27845172111130467 0 0.0030807261057536478 -0.2751904604808319 0 0.02108294135426848 -0.25645710567717278 0 0.0030807261057536478 -0.2751904604808319 0 0.0079403247909845855 -0.25252705995495828 0 -0.003490582175888074 -0.27322543761972468 0 0.0079403247909845855 -0.25252705995495828 0 -0.003490582175888074 -0.27322543761972468 0 -0.0039288027152376082 -0.26392206421746622 0 0.0079403247909845855 -0.25252705995495828 0 0.02108294135426848 -0.25645710567717278 0 0.0079403247909845855 -0.25252705995495828 0 0.017274420370164328 -0.24525293989917671 0 -0.00065951357560741657 -0.25674103864514758 0 0.0079403247909845855 -0.25252705995495828 0 0.001002636242770817 -0.2476214239520933 0 -0.0039288027152376082 -0.26392206421746622 0 -0.00065951357560741657 -0.25674103864514758 0 0.0079403247909845855 -0.25252705995495828 0 0.001002636242770817 -0.2476214239520933 0 0.0065536726114704532 -0.23621192714947781 0 0.016851431907141709 -0.2325437946934773 0 0.0079403247909845855 -0.25252705995495828 0 0.016851431907141709 -0.2325437946934773 0 0.01937123175785424 -0.23182868229018999 0 0.001002636242770817 -0.2476214239520933 0 0.016851431907141709 -0.2325437946934773 0 0.0079403247909845855 -0.25252705995495828 0 0.001002636242770817 -0.2476214239520933 0 0.016851431907141709 -0.2325437946934773 0 0.0079403247909845855 -0.25252705995495828 0 0.01937123175785424 -0.23182868229018999 0 0.017274420370164328 -0.24525293989917671 0 0.0079403247909845855 -0.25252705995495828 0 0.01937123175785424 -0.23182868229018999 0 0.001002636242770817 -0.2476214239520933 0 0.0065536726114704532 -0.23621192714947781 0 6.6675371447742771e-05 -0.2376071143510857 0 0.0065536726114704532 -0.23621192714947781 0 6.6675371447742771e-05 -0.2376071143510857 0 0.0034097270499151649 -0.23211242673024021 0 0.01126349432962903 -0.23048536526745719 0 0.01937123175785424 -0.23182868229018999 0 0.0035438792396675911 -0.215861152866546 0 0.01531941124210218 -0.22001696457433359 0 0.01937123175785424 -0.23182868229018999 0 0.0035438792396675911 -0.215861152866546 0 0.01937123175785424 -0.23182868229018999 0 0.0035438792396675911 -0.215861152866546 0 0.0065536726114704532 -0.23621192714947781 0 0.0034097270499151649 -0.23211242673024021 0 0.01126349432962903 -0.23048536526745719 0 0.0034097270499151649 -0.23211242673024021 0 0.0037958381253691388 -0.226356213423825 0 0.01126349432962903 -0.23048536526745719 0 -0.0049798415012361477 -0.2285224919532845 0 0.0034097270499151649 -0.23211242673024021 0 0.0037958381253691388 -0.226356213423825 0 0.0037958381253691388 -0.226356213423825 0 0.01126349432962903 -0.23048536526745719 0 0.0035438792396675911 -0.215861152866546 0 -0.001800744778070993 -0.2222387047670854 0 0.0037958381253691388 -0.226356213423825 0 0.0035438792396675911 -0.215861152866546 0 0.0065536726114704532 -0.23621192714947781 0 0.01126349432962903 -0.23048536526745719 0 0.016851431907141709 -0.2325437946934773 0 0.01126349432962903 -0.23048536526745719 0 0.016851431907141709 -0.2325437946934773 0 0.01937123175785424 -0.23182868229018999 0 0.01937123175785424 -0.23182868229018999 0 0.021867223458092468 -0.23434678004968301 0 0.027191305381494949 -0.22657334882946201 0 0.01937123175785424 -0.23182868229018999 0 0.021867223458092468 -0.23434678004968301 0 0.01937123175785424 -0.23182868229018999 0 0.027474540446553401 -0.21715571328966049 0 0.01531941124210218 -0.22001696457433359 0 0.01937123175785424 -0.23182868229018999 0 0.027474540446553401 -0.21715571328966049 0 0.01937123175785424 -0.23182868229018999 0 0.027191305381494949 -0.22657334882946201 0 0.027474540446553401 -0.21715571328966049 0 0.021867223458092468 -0.23434678004968301 0 0.027191305381494949 -0.22657334882946201 0 0.028529499978006939 -0.2352850947824533 0 0.02108294135426848 -0.25645710567717278 0 0.025074797672510991 -0.2418128173539344 0 0.039085156602783208 -0.23772375087351391 0 0.028529499978006939 -0.2352850947824533 0 0.025074797672510991 -0.2418128173539344 0 0.039085156602783208 -0.23772375087351391 0 0.02108294135426848 -0.25645710567717278 0 0.039085156602783208 -0.23772375087351391 0 0.021867223458092468 -0.23434678004968301 0 0.028529499978006939 -0.2352850947824533 0 0.025074797672510991 -0.2418128173539344 0 0.02108294135426848 -0.25645710567717278 0 0.025074797672510991 -0.2418128173539344 0 0.017274420370164328 -0.24525293989917671 0 0.01937123175785424 -0.23182868229018999 0 0.017274420370164328 -0.24525293989917671 0 0.020769428498639601 -0.23884175949471259 0 0.01937123175785424 -0.23182868229018999 0 0.021867223458092468 -0.23434678004968301 0 0.020769428498639601 -0.23884175949471259 0 0.025074797672510991 -0.2418128173539344 0 0.017274420370164328 -0.24525293989917671 0 0.020769428498639601 -0.23884175949471259 0 0.021867223458092468 -0.23434678004968301 0 0.025074797672510991 -0.2418128173539344 0 0.020769428498639601 -0.23884175949471259 0 0.01027935623694101 -0.19838490123315669 0 0.0051413943394210959 -0.20564009610296011 0 0.022021906669232681 -0.20031641087494129 0 0.0095402670004717735 -0.19016370470472219 0 0.0053200948053638286 -0.19720987933881801 0 0.01027935623694101 -0.19838490123315669 0 -0.0026331348495214381 -0.17964338822667961 0 -0.00223065776861801 -0.1943155930565372 0 0.0095402670004717735 -0.19016370470472219 0 -0.00223065776861801 -0.1943155930565372 0 0.0095402670004717735 -0.19016370470472219 0 0.0053200948053638286 -0.19720987933881801 0 -0.00223065776861801 -0.1943155930565372 0 0.0053200948053638286 -0.19720987933881801 0 0.0051413943394210959 -0.20564009610296011 0 0.0053200948053638286 -0.19720987933881801 0 0.01027935623694101 -0.19838490123315669 0 0.0051413943394210959 -0.20564009610296011 0 0.0095402670004717735 -0.19016370470472219 0 0.01027935623694101 -0.19838490123315669 0 0.022021906669232681 -0.20031641087494129 0 0.01531941124210218 -0.22001696457433359 0 0.0051413943394210959 -0.20564009610296011 0 0.0035438792396675911 -0.215861152866546 0 0.0051413943394210959 -0.20564009610296011 0 0.027474540446553401 -0.21715571328966049 0 0.0051413943394210959 -0.20564009610296011 0 0.027474540446553401 -0.21715571328966049 0 0.022021906669232681 -0.20031641087494129 0 0.01531941124210218 -0.22001696457433359 0 0.0051413943394210959 -0.20564009610296011 0 0.027474540446553401 -0.21715571328966049 0 0.027474540446553401 -0.21715571328966049 0 0.022021906669232681 -0.20031641087494129 0 0.03917833320244464 -0.19596321095598021 0 0.0095402670004717735 -0.19016370470472219 0 0.028033159347308542 -0.18802314465371939 0 0.022021906669232681 -0.20031641087494129 0 0.028033159347308542 -0.18802314465371939 0 0.022021906669232681 -0.20031641087494129 0 0.03917833320244464 -0.19596321095598021 0 0.03917833320244464 -0.19596321095598021 0 0.050099823666839398 -0.21072702547237701 0 0.050636145593553492 -0.19290862923298241 0 0.027474540446553401 -0.21715571328966049 0 0.03917833320244464 -0.19596321095598021 0 0.027474540446553401 -0.21715571328966049 0 0.03917833320244464 -0.19596321095598021 0 0.050099823666839398 -0.21072702547237701 0 0.050099823666839398 -0.21072702547237701 0 0.057676607221870818 -0.20258184534578191 0 0.057809621607642199 -0.21958443181483389 0 0.057676607221870818 -0.20258184534578191 0 0.057809621607642199 -0.21958443181483389 0 0.06900143089836358 -0.21672681688647269 0 0.03917833320244464 -0.19596321095598021 0 0.050636145593553492 -0.19290862923298241 0 0.050882125958333593 -0.17477070862229849 0 0.050099823666839398 -0.21072702547237701 0 0.050636145593553492 -0.19290862923298241 0 0.050099823666839398 -0.21072702547237701 0 0.050636145593553492 -0.19290862923298241 0 0.057676607221870818 -0.20258184534578191 0 0.050636145593553492 -0.19290862923298241 0 0.057676607221870818 -0.20258184534578191 0 0.062551381044271825 -0.18691251050533289 0 0.035864077903116728 -0.25428052138623869 0 0.02108294135426848 -0.25645710567717278 0 0.039085156602783208 -0.23772375087351391 0 0.048844434394913469 -0.25243522789272338 0 0.035864077903116728 -0.25428052138623869 0 0.039085156602783208 -0.23772375087351391 0 0.048844434394913469 -0.25243522789272338 0 0.039085156602783208 -0.23772375087351391 0 0.04956350174012665 -0.2285454217117717 0 0.027474540446553401 -0.21715571328966049 0 0.050099823666839398 -0.21072702547237701 0 0.04956350174012665 -0.2285454217117717 0 0.027191305381494949 -0.22657334882946201 0 0.039085156602783208 -0.23772375087351391 0 0.04956350174012665 -0.2285454217117717 0 0.027474540446553401 -0.21715571328966049 0 0.04956350174012665 -0.2285454217117717 0 0.027191305381494949 -0.22657334882946201 0 0.027474540446553401 -0.21715571328966049 0 0.04956350174012665 -0.2285454217117717 0 0.027191305381494949 -0.22657334882946201 0 0.028529499978006939 -0.2352850947824533 0 0.039085156602783208 -0.23772375087351391 0 0.04956350174012665 -0.2285454217117717 0 0.056503473409723941 -0.23212387217505381 0 0.057470629493748447 -0.23977290028136761 0 0.050099823666839398 -0.21072702547237701 0 0.04956350174012665 -0.2285454217117717 0 0.057809621607642199 -0.21958443181483389 0 0.04956350174012665 -0.2285454217117717 0 0.057809621607642199 -0.21958443181483389 0 0.056503473409723941 -0.23212387217505381 0 0.050099823666839398 -0.21072702547237701 0 0.04956350174012665 -0.2285454217117717 0 0.04956350174012665 -0.2285454217117717 0 0.056503473409723941 -0.23212387217505381 0 0.057809621607642199 -0.21958443181483389 0 0.056503473409723941 -0.23212387217505381 0 0.064216433848061735 -0.22780851379513309 0 0.056503473409723941 -0.23212387217505381 0 0.064484375797575197 -0.23771733718860791 0 0.064216433848061735 -0.22780851379513309 0 0.048844434394913469 -0.25243522789272338 0 0.057470629493748447 -0.23977290028136761 0 0.067957362126402951 -0.24804264243868079 0 0.056503473409723941 -0.23212387217505381 0 0.057470629493748447 -0.23977290028136761 0 0.064484375797575197 -0.23771733718860791 0 0.048844434394913469 -0.25243522789272338 0 0.04956350174012665 -0.2285454217117717 0 0.057470629493748447 -0.23977290028136761 0 0.048844434394913469 -0.25243522789272338 0 0.04956350174012665 -0.2285454217117717 0 0.067957362126402951 -0.24804264243868079 0 0.087783699246396174 -0.24189017989588529 0 0.07328326752700369 -0.23289011091069731 0 0.067957362126402951 -0.24804264243868079 0 0.064484375797575197 -0.23771733718860791 0 0.07328326752700369 -0.23289011091069731 0 0.057470629493748447 -0.23977290028136761 0 0.067957362126402951 -0.24804264243868079 0 0.064484375797575197 -0.23771733718860791 0 0.083828624658512554 -0.25882774161549937 0 0.067957362126402951 -0.24804264243868079 0 0.087783699246396174 -0.24189017989588529 0 0.087783699246396174 -0.24189017989588529 0 0.084585132020976367 -0.2259050266048799 0 0.1009176146999102 -0.22698319494701999 0 0.087783699246396174 -0.24189017989588529 0 0.084585132020976367 -0.2259050266048799 0 0.07328326752700369 -0.23289011091069731 0 0.084585132020976367 -0.2259050266048799 0 0.089646766211663273 -0.21165263165233569 0 0.1009176146999102 -0.22698319494701999 0 0.084585132020976367 -0.2259050266048799 0 0.07328326752700369 -0.23289011091069731 0 0.06900143089836358 -0.21672681688647269 0 0.07328326752700369 -0.23289011091069731 0 0.064216433848061735 -0.22780851379513309 0 0.06900143089836358 -0.21672681688647269 0 0.064484375797575197 -0.23771733718860791 0 0.07328326752700369 -0.23289011091069731 0 0.064216433848061735 -0.22780851379513309 0 0.057809621607642199 -0.21958443181483389 0 0.064216433848061735 -0.22780851379513309 0 0.06900143089836358 -0.21672681688647269 0 0.057676607221870818 -0.20258184534578191 0 0.06900143089836358 -0.21672681688647269 0 0.068377980036355812 -0.19828094383446401 0 0.06900143089836358 -0.21672681688647269 0 0.068377980036355812 -0.19828094383446401 0 0.08156118575268613 -0.1986122842886982 0 0.068377980036355812 -0.19828094383446401 0 0.078422347190701819 -0.18449456791172419 0 0.062551381044271825 -0.18691251050533289 0 0.057676607221870818 -0.20258184534578191 0 0.068377980036355812 -0.19828094383446401 0 0.062551381044271825 -0.18691251050533289 0 0.068377980036355812 -0.19828094383446401 0 0.08156118575268613 -0.1986122842886982 0 0.078422347190701819 -0.18449456791172419 0 0.08156118575268613 -0.1986122842886982 0 0.094830174963023331 -0.1925845500252184 0 0.078422347190701819 -0.18449456791172419 0 0.08156118575268613 -0.1986122842886982 0 0.089646766211663273 -0.21165263165233569 0 0.094830174963023331 -0.1925845500252184 0 0.06900143089836358 -0.21672681688647269 0 0.08156118575268613 -0.1986122842886982 0 0.089646766211663273 -0.21165263165233569 0 0.084585132020976367 -0.2259050266048799 0 0.06900143089836358 -0.21672681688647269 0 0.089646766211663273 -0.21165263165233569 0 0.089646766211663273 -0.21165263165233569 0 0.1116495163645654 -0.2067622286464898 0 0.1009176146999102 -0.22698319494701999 0 0.089646766211663273 -0.21165263165233569 0 0.094830174963023331 -0.1925845500252184 0 0.1116495163645654 -0.2067622286464898 0 0.094830174963023331 -0.1925845500252184 0 0.1116495163645654 -0.2067622286464898 0 0.11220757557585991 -0.18666309338535619 0 0.1116495163645654 -0.2067622286464898 0 0.11220757557585991 -0.18666309338535619 0 0.12897484595150169 -0.18859277311066189 0 0.1116495163645654 -0.2067622286464898 0 0.13409172507483441 -0.20902108578633311 0 0.12897484595150169 -0.18859277311066189 0 0.1116495163645654 -0.2067622286464898 0 0.12095874969038831 -0.22975512840218351 0 0.13409172507483441 -0.20902108578633311 0 0.12095874969038831 -0.22975512840218351 0 0.109735383904699 -0.24624287511435189 0 0.1009176146999102 -0.22698319494701999 0 0.1116495163645654 -0.2067622286464898 0 0.12095874969038831 -0.22975512840218351 0 0.1009176146999102 -0.22698319494701999 0 0.127473526956523 -0.25536252490351707 0 0.12095874969038831 -0.22975512840218351 0 0.109735383904699 -0.24624287511435189 0 0.127473526956523 -0.25536252490351707 0 0.12095874969038831 -0.22975512840218351 0 0.087783699246396174 -0.24189017989588529 0 0.109735383904699 -0.24624287511435189 0 0.1009176146999102 -0.22698319494701999 0 0.09746678585382465 -0.25363331107315801 0 0.087783699246396174 -0.24189017989588529 0 0.109735383904699 -0.24624287511435189 0 0.1129717155978906 -0.1423196020060043 0 0.096260766853318774 -0.16561043101788669 0 0.084638345505144874 -0.14275714066573639 0 0.1129717155978906 -0.1423196020060043 0 0.084638345505144874 -0.14275714066573639 0 0.1006933775434341 -0.1191553603925163 0 0.1129717155978906 -0.1423196020060043 0 0.1196821441677593 -0.11386581421321761 0 0.1129717155978906 -0.1423196020060043 0 0.1196821441677593 -0.11386581421321761 0 0.1313535122320228 -0.128284521826111 0 0.1129717155978906 -0.1423196020060043 0 0.1006933775434341 -0.1191553603925163 0 0.1196821441677593 -0.11386581421321761 0 0.1129717155978906 -0.1423196020060043 0 0.1151534931031888 -0.16878666903563039 0 0.1359549192469828 -0.16511635488435919 0 0.1151534931031888 -0.16878666903563039 0 0.11220757557585991 -0.18666309338535619 0 0.12897484595150169 -0.18859277311066189 0 0.1151534931031888 -0.16878666903563039 0 0.11220757557585991 -0.18666309338535619 0 0.096260766853318774 -0.16561043101788669 0 0.094830174963023331 -0.1925845500252184 0 0.11220757557585991 -0.18666309338535619 0 0.096260766853318774 -0.16561043101788669 0 0.1129717155978906 -0.1423196020060043 0 0.1151534931031888 -0.16878666903563039 0 0.096260766853318774 -0.16561043101788669 0 0.096260766853318774 -0.16561043101788669 0 0.072556814210998882 -0.1680205941685993 0 0.084638345505144874 -0.14275714066573639 0 0.096260766853318774 -0.16561043101788669 0 0.078422347190701819 -0.18449456791172419 0 0.072556814210998882 -0.1680205941685993 0 0.094830174963023331 -0.1925845500252184 0 0.096260766853318774 -0.16561043101788669 0 0.078422347190701819 -0.18449456791172419 0 0.078422347190701819 -0.18449456791172419 0 0.062551381044271825 -0.18691251050533289 0 0.072556814210998882 -0.1680205941685993 0 0.072556814210998882 -0.1680205941685993 0 0.062585918714222505 -0.1535782062886169 0 0.084638345505144874 -0.14275714066573639 0 0.062585918714222505 -0.1535782062886169 0 0.084638345505144874 -0.14275714066573639 0 0.064160303370245711 -0.13150710523555331 0 0.084638345505144874 -0.14275714066573639 0 0.064160303370245711 -0.13150710523555331 0 0.078267406439151366 -0.11247499179500969 0 0.064160303370245711 -0.13150710523555331 0 0.049202231741524487 -0.141531812901108 0 0.050860896171637159 -0.1138227065489916 0 0.062585918714222505 -0.1535782062886169 0 0.064160303370245711 -0.13150710523555331 0 0.049202231741524487 -0.141531812901108 0 0.062585918714222505 -0.1535782062886169 0 0.049202231741524487 -0.141531812901108 0 0.039388385046400992 -0.15443329670341641 0 0.049202231741524487 -0.141531812901108 0 0.039388385046400992 -0.15443329670341641 0 0.031136096489252332 -0.1343939620691616 0 0.049202231741524487 -0.141531812901108 0 0.031136096489252332 -0.1343939620691616 0 0.050860896171637159 -0.1138227065489916 0 0.062551381044271825 -0.18691251050533289 0 0.072556814210998882 -0.1680205941685993 0 0.050882125958333593 -0.17477070862229849 0 0.050636145593553492 -0.19290862923298241 0 0.062551381044271825 -0.18691251050533289 0 0.050882125958333593 -0.17477070862229849 0 0.062585918714222505 -0.1535782062886169 0 0.039388385046400992 -0.15443329670341641 0 0.050882125958333593 -0.17477070862229849 0 0.072556814210998882 -0.1680205941685993 0 0.062585918714222505 -0.1535782062886169 0 0.050882125958333593 -0.17477070862229849 0 0.062585918714222505 -0.1535782062886169 0 0.050882125958333593 -0.17477070862229849 0 0.039388385046400992 -0.15443329670341641 0 0.050882125958333593 -0.17477070862229849 0 0.022844556097661669 -0.175360682434101 0 0.028033159347308542 -0.18802314465371939 0 0.050882125958333593 -0.17477070862229849 0 0.022844556097661669 -0.175360682434101 0 0.028033159347308542 -0.18802314465371939 0 0.03917833320244464 -0.19596321095598021 0 0.050882125958333593 -0.17477070862229849 0 0.03917833320244464 -0.19596321095598021 0 0.050882125958333593 -0.17477070862229849 0 0.0095402670004717735 -0.19016370470472219 0 0.028033159347308542 -0.18802314465371939 0 0.022844556097661669 -0.175360682434101 0 0.022844556097661669 -0.175360682434101 0 0.0079046543420133591 -0.16440801616877129 0 0.01888739033233983 -0.15000370884643979 0 0.039388385046400992 -0.15443329670341641 0 0.022844556097661669 -0.175360682434101 0 0.01888739033233983 -0.15000370884643979 0 -0.0026331348495214381 -0.17964338822667961 0 0.022844556097661669 -0.175360682434101 0 0.0079046543420133591 -0.16440801616877129 0 -0.0026331348495214381 -0.17964338822667961 0 0.022844556097661669 -0.175360682434101 0 -0.0026331348495214381 -0.17964338822667961 0 0.0095402670004717735 -0.19016370470472219 0 0.022844556097661669 -0.175360682434101 0 0.031136096489252332 -0.1343939620691616 0 0.01888739033233983 -0.15000370884643979 0 0.01021660786188318 -0.13215754224063789 0 0.031136096489252332 -0.1343939620691616 0 0.01021660786188318 -0.13215754224063789 0 0.020884102297752768 -0.1163927859187712 0 0.039388385046400992 -0.15443329670341641 0 0.031136096489252332 -0.1343939620691616 0 0.01888739033233983 -0.15000370884643979 0 0.0079046543420133591 -0.16440801616877129 0 0.01888739033233983 -0.15000370884643979 0 0.000430259749712468 -0.14745823775527289 0 0.01888739033233983 -0.15000370884643979 0 0.000430259749712468 -0.14745823775527289 0 0.01021660786188318 -0.13215754224063789 0 -0.0011764143374023801 -0.11412863934658821 0 -0.0088617873603559459 -0.13056791950759369 0 0.01021660786188318 -0.13215754224063789 0 -0.0088617873603559459 -0.13056791950759369 0 0.000430259749712468 -0.14745823775527289 0 0.01021660786188318 -0.13215754224063789 0 -0.0011764143374023801 -0.11412863934658821 0 0.01021660786188318 -0.13215754224063789 0 0.020884102297752768 -0.1163927859187712 0 0.020884102297752768 -0.1163927859187712 0 0.030155988065605679 -0.097672625088569567 0 0.0031724344944426231 -0.090933699647850266 0 -0.0011764143374023801 -0.11412863934658821 0 0.020884102297752768 -0.1163927859187712 0 0.0031724344944426231 -0.090933699647850266 0 0.030155988065605679 -0.097672625088569567 0 0.0031724344944426231 -0.090933699647850266 0 0.013100394177594579 -0.068504286831183855 0 -0.012525151283420429 -0.061144111193753362 0 0.013100394177594579 -0.068504286831183855 0 -0.0036820921910391412 -0.074779930311672529 0 0.0031724344944426231 -0.090933699647850266 0 0.013100394177594579 -0.068504286831183855 0 0.013100394177594579 -0.068504286831183855 0 0.042134780877029557 -0.076623827794744956 0 0.028046071804580502 -0.049708906962831922 0 0.030155988065605679 -0.097672625088569567 0 0.013100394177594579 -0.068504286831183855 0 0.042134780877029557 -0.076623827794744956 0 0.030155988065605679 -0.097672625088569567 0 0.042134780877029557 -0.076623827794744956 0 0.030155988065605679 -0.097672625088569567 0 0.042134780877029557 -0.076623827794744956 0 0.047547969173039627 -0.094049250660829475 0 0.042134780877029557 -0.076623827794744956 0 0.06704021157788613 -0.088077843211011753 0 0.067014190281348085 -0.069266270250487566 0 0.042134780877029557 -0.076623827794744956 0 0.054113573688453452 -0.055575030500920358 0 0.067014190281348085 -0.069266270250487566 0 0.042134780877029557 -0.076623827794744956 0 0.054113573688453452 -0.055575030500920358 0 0.042134780877029557 -0.076623827794744956 0 0.047547969173039627 -0.094049250660829475 0 0.06704021157788613 -0.088077843211011753 0 0.047547969173039627 -0.094049250660829475 0 0.050860896171637159 -0.1138227065489916 0 0.06704021157788613 -0.088077843211011753 0 0.031136096489252332 -0.1343939620691616 0 0.020884102297752768 -0.1163927859187712 0 0.050860896171637159 -0.1138227065489916 0 0.020884102297752768 -0.1163927859187712 0 0.030155988065605679 -0.097672625088569567 0 0.050860896171637159 -0.1138227065489916 0 0.030155988065605679 -0.097672625088569567 0 0.047547969173039627 -0.094049250660829475 0 0.050860896171637159 -0.1138227065489916 0 0.015406173142220409 0.0064609396898271127 0 0.01225169051082995 -0.014050232456615731 0 0.031763877584191129 -0.0062805157547672387 0 0.01225169051082995 -0.014050232456615731 0 0.027686034503715699 -0.02442531326061299 0 0.031763877584191129 -0.0062805157547672387 0 -0.001002805299617866 -0.025814161131358621 0 -0.01107981885403149 0.0016360662863579461 0 0.01225169051082995 -0.014050232456615731 0 -0.01107981885403149 0.0016360662863579461 0 0.015406173142220409 0.0064609396898271127 0 0.01225169051082995 -0.014050232456615731 0 -0.001002805299617866 -0.025814161131358621 0 0.01225169051082995 -0.014050232456615731 0 0.010841108080387921 -0.03507857945440717 0 0.01225169051082995 -0.014050232456615731 0 0.027686034503715699 -0.02442531326061299 0 0.010841108080387921 -0.03507857945440717 0 0.027686034503715699 -0.02442531326061299 0 0.010841108080387921 -0.03507857945440717 0 0.028046071804580502 -0.049708906962831922 0 -0.0074553692504295398 -0.03968401933578676 0 0.010841108080387921 -0.03507857945440717 0 0.002943294537338474 -0.053853420149441403 0 0.010841108080387921 -0.03507857945440717 0 0.002943294537338474 -0.053853420149441403 0 0.028046071804580502 -0.049708906962831922 0 -0.001002805299617866 -0.025814161131358621 0 -0.0074553692504295398 -0.03968401933578676 0 0.010841108080387921 -0.03507857945440717 0 0.013100394177594579 -0.068504286831183855 0 0.002943294537338474 -0.053853420149441403 0 0.028046071804580502 -0.049708906962831922 0 -0.012525151283420429 -0.061144111193753362 0 0.013100394177594579 -0.068504286831183855 0 0.002943294537338474 -0.053853420149441403 0 0.042134780877029557 -0.076623827794744956 0 0.028046071804580502 -0.049708906962831922 0 0.054113573688453452 -0.055575030500920358 0 0.054113573688453452 -0.055575030500920358 0 0.047617736880370951 -0.033127859168209838 0 0.066092366499877306 -0.034526233207095781 0 0.054113573688453452 -0.055575030500920358 0 0.066092366499877306 -0.034526233207095781 0 0.028046071804580502 -0.049708906962831922 0 0.054113573688453452 -0.055575030500920358 0 0.047617736880370951 -0.033127859168209838 0 0.027686034503715699 -0.02442531326061299 0 0.028046071804580502 -0.049708906962831922 0 0.047617736880370951 -0.033127859168209838 0 0.027686034503715699 -0.02442531326061299 0 0.047617736880370951 -0.033127859168209838 0 0.047610485796271002 -0.0143534172142088 0 0.047617736880370951 -0.033127859168209838 0 0.047610485796271002 -0.0143534172142088 0 0.063233544220471422 -0.018966345980970831 0 0.047617736880370951 -0.033127859168209838 0 0.063233544220471422 -0.018966345980970831 0 0.066092366499877306 -0.034526233207095781 0 0.053944165240844943 0.0024058838617552502 0 0.070763749078664451 0.00153649197816739 0 0.062610883133334433 -0.0076012471794317414 0 0.053944165240844943 0.0024058838617552502 0 0.047610485796271002 -0.0143534172142088 0 0.062610883133334433 -0.0076012471794317414 0 0.047610485796271002 -0.0143534172142088 0 0.062610883133334433 -0.0076012471794317414 0 0.063233544220471422 -0.018966345980970831 0 0.027686034503715699 -0.02442531326061299 0 0.047610485796271002 -0.0143534172142088 0 0.031763877584191129 -0.0062805157547672387 0 0.053944165240844943 0.0024058838617552502 0 0.047610485796271002 -0.0143534172142088 0 0.031763877584191129 -0.0062805157547672387 0 0.091196029608631157 0.0095852164545678527 0 0.075497164155096025 -0.0089720185191537044 0 0.078071159311302887 -0.013477435913272129 0 0.091196029608631157 0.0095852164545678527 0 0.078071159311302887 -0.013477435913272129 0 0.091196029608631157 0.0095852164545678527 0 0.091012663953385031 -0.0083648757104847933 0 0.078071159311302887 -0.013477435913272129 0 0.091012663953385031 -0.0083648757104847933 0 0.078071159311302887 -0.013477435913272129 0 0.090700449119389362 -0.018959546043663681 0 0.091012663953385031 -0.0083648757104847933 0 0.090700449119389362 -0.018959546043663681 0 0.098555795319010167 -0.01472959400100823 0 0.070763749078664451 0.00153649197816739 0 0.062610883133334433 -0.0076012471794317414 0 0.075497164155096025 -0.0089720185191537044 0 0.062610883133334433 -0.0076012471794317414 0 0.075497164155096025 -0.0089720185191537044 0 0.063233544220471422 -0.018966345980970831 0 0.075497164155096025 -0.0089720185191537044 0 0.078071159311302887 -0.013477435913272129 0 0.063233544220471422 -0.018966345980970831 0 0.075497164155096025 -0.0089720185191537044 0 0.078071159311302887 -0.013477435913272129 0 0.078071159311302887 -0.013477435913272129 0 0.089235179426694303 -0.033018486833611471 0 0.066092366499877306 -0.034526233207095781 0 0.078071159311302887 -0.013477435913272129 0 0.066092366499877306 -0.034526233207095781 0 0.078071159311302887 -0.013477435913272129 0 0.063233544220471422 -0.018966345980970831 0 0.066092366499877306 -0.034526233207095781 0 0.078071159311302887 -0.013477435913272129 0 0.089235179426694303 -0.033018486833611471 0 0.078071159311302887 -0.013477435913272129 0 0.090700449119389362 -0.018959546043663681 0 0.089235179426694303 -0.033018486833611471 0 0.090700449119389362 -0.018959546043663681 0 0.089235179426694303 -0.033018486833611471 0 0.098338471886810996 -0.024579268011257319 0 0.089235179426694303 -0.033018486833611471 0 0.077795543940996192 -0.052987028145079933 0 0.1003991995420845 -0.052559537753951453 0 0.089235179426694303 -0.033018486833611471 0 0.066092366499877306 -0.034526233207095781 0 0.077795543940996192 -0.052987028145079933 0 0.054113573688453452 -0.055575030500920358 0 0.077795543940996192 -0.052987028145079933 0 0.067014190281348085 -0.069266270250487566 0 0.054113573688453452 -0.055575030500920358 0 0.066092366499877306 -0.034526233207095781 0 0.077795543940996192 -0.052987028145079933 0 0.077795543940996192 -0.052987028145079933 0 0.1003991995420845 -0.052559537753951453 0 0.089918754207519519 -0.072976610324412966 0 0.1003991995420845 -0.052559537753951453 0 0.11813333829344939 -0.059771444279471127 0 0.1117989057073769 -0.072513124038320942 0 0.1003991995420845 -0.052559537753951453 0 0.11813333829344939 -0.059771444279471127 0 0.1204730606486351 -0.044422160425628299 0 0.11813333829344939 -0.059771444279471127 0 0.1223569545114878 -0.068663708341466831 0 0.1331030013074968 -0.05695823862764432 0 0.11813333829344939 -0.059771444279471127 0 0.1204730606486351 -0.044422160425628299 0 0.1331030013074968 -0.05695823862764432 0 0.1003991995420845 -0.052559537753951453 0 0.1204730606486351 -0.044422160425628299 0 0.10986423576559751 -0.034120595009772908 0 0.1204730606486351 -0.044422160425628299 0 0.10986423576559751 -0.034120595009772908 0 0.12343842524433429 -0.02929213569333269 0 0.1003991995420845 -0.052559537753951453 0 0.10986423576559751 -0.034120595009772908 0 0.089235179426694303 -0.033018486833611471 0 0.1003991995420845 -0.052559537753951453 0 0.089235179426694303 -0.033018486833611471 0 0.1003991995420845 -0.052559537753951453 0 0.10986423576559751 -0.034120595009772908 0 0.089235179426694303 -0.033018486833611471 0 0.10986423576559751 -0.034120595009772908 0 0.098338471886810996 -0.024579268011257319 0 0.090700449119389362 -0.018959546043663681 0 0.098338471886810996 -0.024579268011257319 0 0.098555795319010167 -0.01472959400100823 0 0.098338471886810996 -0.024579268011257319 0 0.1067587484038767 -0.020811978670861389 0 0.098555795319010167 -0.01472959400100823 0 0.10986423576559751 -0.034120595009772908 0 0.098338471886810996 -0.024579268011257319 0 0.1067587484038767 -0.020811978670861389 0 0.10986423576559751 -0.034120595009772908 0 0.1193292719891109 -0.015681652265594689 0 0.10986423576559751 -0.034120595009772908 0 0.12343842524433429 -0.02929213569333269 0 0.1193292719891109 -0.015681652265594689 0 0.10986423576559751 -0.034120595009772908 0 0.1067587484038767 -0.020811978670861389 0 0.1193292719891109 -0.015681652265594689 0 0.1067587484038767 -0.020811978670861389 0 0.1193292719891109 -0.015681652265594689 0 0.1072532855503662 -0.011255480972118729 0 0.109810942898761 0.00085303163549272656 0 0.1193292719891109 -0.015681652265594689 0 0.1072532855503662 -0.011255480972118729 0 0.12879430821262439 0.0027572904785835642 0 0.1193292719891109 -0.015681652265594689 0 0.109810942898761 0.00085303163549272656 0 0.12879430821262439 0.0027572904785835642 0 0.1193292719891109 -0.015681652265594689 0 0.109810942898761 0.00085303163549272656 0 0.1072532855503662 -0.011255480972118729 0 0.099116565494595854 -0.0045790823182699008 0 0.091196029608631157 0.0095852164545678527 0 0.091012663953385031 -0.0083648757104847933 0 0.099116565494595854 -0.0045790823182699008 0 0.1067587484038767 -0.020811978670861389 0 0.1072532855503662 -0.011255480972118729 0 0.098555795319010167 -0.01472959400100823 0 0.1072532855503662 -0.011255480972118729 0 0.098555795319010167 -0.01472959400100823 0 0.099116565494595854 -0.0045790823182699008 0 0.091012663953385031 -0.0083648757104847933 0 0.098555795319010167 -0.01472959400100823 0 0.099116565494595854 -0.0045790823182699008 0 0.078267406439151366 -0.11247499179500969 0 0.084332304000698063 -0.089394318496475556 0 0.09634301830844072 -0.10256239991684089 0 0.084638345505144874 -0.14275714066573639 0 0.078267406439151366 -0.11247499179500969 0 0.1006933775434341 -0.1191553603925163 0 0.078267406439151366 -0.11247499179500969 0 0.09634301830844072 -0.10256239991684089 0 0.1006933775434341 -0.1191553603925163 0 0.064160303370245711 -0.13150710523555331 0 0.050860896171637159 -0.1138227065489916 0 0.078267406439151366 -0.11247499179500969 0 0.050860896171637159 -0.1138227065489916 0 0.078267406439151366 -0.11247499179500969 0 0.06704021157788613 -0.088077843211011753 0 0.078267406439151366 -0.11247499179500969 0 0.06704021157788613 -0.088077843211011753 0 0.084332304000698063 -0.089394318496475556 0 0.06704021157788613 -0.088077843211011753 0 0.067014190281348085 -0.069266270250487566 0 0.084332304000698063 -0.089394318496475556 0 0.067014190281348085 -0.069266270250487566 0 0.089918754207519519 -0.072976610324412966 0 0.084332304000698063 -0.089394318496475556 0 0.077795543940996192 -0.052987028145079933 0 0.067014190281348085 -0.069266270250487566 0 0.089918754207519519 -0.072976610324412966 0 0.089918754207519519 -0.072976610324412966 0 0.084332304000698063 -0.089394318496475556 0 0.10455844811416851 -0.088232851584134186 0 0.084332304000698063 -0.089394318496475556 0 0.10455844811416851 -0.088232851584134186 0 0.09634301830844072 -0.10256239991684089 0 0.089918754207519519 -0.072976610324412966 0 0.10455844811416851 -0.088232851584134186 0 0.1117989057073769 -0.072513124038320942 0 0.1003991995420845 -0.052559537753951453 0 0.1117989057073769 -0.072513124038320942 0 0.1003991995420845 -0.052559537753951453 0 0.089918754207519519 -0.072976610324412966 0 0.1117989057073769 -0.072513124038320942 0 0.1003991995420845 -0.052559537753951453 0 0.089918754207519519 -0.072976610324412966 0 0.1117989057073769 -0.072513124038320942 0 0.1223569545114878 -0.068663708341466831 0 0.12639257273762811 -0.085412026420430984 0 0.11813333829344939 -0.059771444279471127 0 0.1117989057073769 -0.072513124038320942 0 0.1223569545114878 -0.068663708341466831 0 0.1117989057073769 -0.072513124038320942 0 0.12319861187266901 -0.092466710322690646 0 0.12639257273762811 -0.085412026420430984 0 0.10455844811416851 -0.088232851584134186 0 0.1117989057073769 -0.072513124038320942 0 0.12319861187266901 -0.092466710322690646 0 0.1117989057073769 -0.072513124038320942 0 0.12319861187266901 -0.092466710322690646 0 0.12319861187266901 -0.092466710322690646 0 0.1196821441677593 -0.11386581421321761 0 0.12639257273762811 -0.085412026420430984 0 0.10455844811416851 -0.088232851584134186 0 0.12319861187266901 -0.092466710322690646 0 0.1098558386415583 -0.10259822342085401 0 0.1196821441677593 -0.11386581421321761 0 0.12639257273762811 -0.085412026420430984 0 0.12319861187266901 -0.092466710322690646 0 0.1098558386415583 -0.10259822342085401 0 0.1196821441677593 -0.11386581421321761 0 0.1098558386415583 -0.10259822342085401 0 0.09634301830844072 -0.10256239991684089 0 0.1006933775434341 -0.1191553603925163 0 0.10455844811416851 -0.088232851584134186 0 0.1098558386415583 -0.10259822342085401 0 0.09634301830844072 -0.10256239991684089 0 0.1098558386415583 -0.10259822342085401 0 0.1006933775434341 -0.1191553603925163 0 0.1196821441677593 -0.11386581421321761 0 0.1196821441677593 -0.11386581421321761 0 0.13615948883974721 -0.1136044421935474 0 0.1313535122320228 -0.128284521826111 0 0.1196821441677593 -0.11386581421321761 0 0.13615948883974721 -0.1136044421935474 0 0.13727479338494419 -0.10487508138129339 0 0.13615948883974721 -0.1136044421935474 0 0.14027787881670811 -0.1230403186481014 0 0.1313535122320228 -0.128284521826111 0 0.14027787881670811 -0.1230403186481014 0 0.14879229423263299 -0.1197550289057458 0 0.14480621996242921 -0.1305172816670013 0 0.13615948883974721 -0.1136044421935474 0 0.14027787881670811 -0.1230403186481014 0 0.14879229423263299 -0.1197550289057458 0 0.13615948883974721 -0.1136044421935474 0 0.14644994460179661 -0.1093926606465002 0 0.14879229423263299 -0.1197550289057458 0 0.156098827099767 -0.112015987347672 0 0.14879229423263299 -0.1197550289057458 0 0.15667045128998111 -0.1195730561907411 0 0.14644994460179661 -0.1093926606465002 0 0.156098827099767 -0.112015987347672 0 0.14879229423263299 -0.1197550289057458 0 0.14879229423263299 -0.1197550289057458 0 0.15667045128998111 -0.1195730561907411 0 0.15662356040999309 -0.12814013835356411 0 0.15324101678789179 -0.10467561173324789 0 0.1433323635284546 -0.098514856424764458 0 0.1653027400692208 -0.10484956080329071 0 0.1433323635284546 -0.098514856424764458 0 0.1653027400692208 -0.10484956080329071 0 0.1539960435825472 -0.098294266973914537 0 0.1433323635284546 -0.098514856424764458 0 0.1653027400692208 -0.10484956080329071 0 0.14949813696907649 -0.095168205844284037 0 0.1539960435825472 -0.098294266973914537 0 0.1433323635284546 -0.098514856424764458 0 0.1539960435825472 -0.098294266973914537 0 0.1538756170118189 -0.091987015561311253 0 0.1594901737720775 -0.094562432777546432 0 0.14949813696907649 -0.095168205844284037 0 0.1539960435825472 -0.098294266973914537 0 0.1538756170118189 -0.091987015561311253 0 0.14644994460179661 -0.1093926606465002 0 0.156098827099767 -0.112015987347672 0 0.15324101678789179 -0.10467561173324789 0 0.14644994460179661 -0.1093926606465002 0 0.15324101678789179 -0.10467561173324789 0 0.1450745295757718 -0.10436455254645149 0 0.15324101678789179 -0.10467561173324789 0 0.1450745295757718 -0.10436455254645149 0 0.1433323635284546 -0.098514856424764458 0 0.14644994460179661 -0.1093926606465002 0 0.1450745295757718 -0.10436455254645149 0 0.13727479338494419 -0.10487508138129339 0 0.1450745295757718 -0.10436455254645149 0 0.1433323635284546 -0.098514856424764458 0 0.13727479338494419 -0.10487508138129339 0 0.1433323635284546 -0.098514856424764458 0 0.1387834704247817 -0.091024497849055558 0 0.1467885237534855 -0.091876684417145887 0 0.14949813696907649 -0.095168205844284037 0 0.1433323635284546 -0.098514856424764458 0 0.1467885237534855 -0.091876684417145887 0 0.1196821441677593 -0.11386581421321761 0 0.13727479338494419 -0.10487508138129339 0 0.13229424386969291 -0.097012843408088537 0 0.1433323635284546 -0.098514856424764458 0 0.13727479338494419 -0.10487508138129339 0 0.13229424386969291 -0.097012843408088537 0 0.1433323635284546 -0.098514856424764458 0 0.13229424386969291 -0.097012843408088537 0 0.1387834704247817 -0.091024497849055558 0 0.1196821441677593 -0.11386581421321761 0 0.13229424386969291 -0.097012843408088537 0 0.12639257273762811 -0.085412026420430984 0 0.13615948883974721 -0.1136044421935474 0 0.14644994460179661 -0.1093926606465002 0 0.13727479338494419 -0.10487508138129339 0 0.13229424386969291 -0.097012843408088537 0 0.13270909115061011 -0.076985757866917096 0 0.13229424386969291 -0.097012843408088537 0 0.1387834704247817 -0.091024497849055558 0 0.13270909115061011 -0.076985757866917096 0 0.13229424386969291 -0.097012843408088537 0 0.12639257273762811 -0.085412026420430984 0 0.13270909115061011 -0.076985757866917096 0 0.14022637623060161 -0.083602921174081982 0 0.1387834704247817 -0.091024497849055558 0 0.13270909115061011 -0.076985757866917096 0 0.14022637623060161 -0.083602921174081982 0 0.13270909115061011 -0.076985757866917096 0 0.13952253300939951 -0.077096241126451706 0 0.13270909115061011 -0.076985757866917096 0 0.13790873078475069 -0.069498554252934025 0 0.1331030013074968 -0.05695823862764432 0 0.12639257273762811 -0.085412026420430984 0 0.1331030013074968 -0.05695823862764432 0 0.1223569545114878 -0.068663708341466831 0 0.12639257273762811 -0.085412026420430984 0 0.1331030013074968 -0.05695823862764432 0 0.12639257273762811 -0.085412026420430984 0 0.13270909115061011 -0.076985757866917096 0 0.1331030013074968 -0.05695823862764432 0 0.13270909115061011 -0.076985757866917096 0 0.1331030013074968 -0.05695823862764432 0 0.13270909115061011 -0.076985757866917096 0 0.13952253300939951 -0.077096241126451706 0 0.13790873078475069 -0.069498554252934025 0 0.13952253300939951 -0.077096241126451706 0 0.13790873078475069 -0.069498554252934025 0 0.14417963171963111 -0.07417229915706719 0 0.13790873078475069 -0.069498554252934025 0 0.14109634230130461 -0.064650887826335324 0 0.13885279006583581 -0.059688627454993343 0 0.1479173143139749 -0.062968791684782921 0 0.1467885237534855 -0.091876684417145887 0 0.1479173143139749 -0.062968791684782921 0 0.14417963171963111 -0.07417229915706719 0 0.1440595017909376 -0.07964647724817002 0 0.1479173143139749 -0.062968791684782921 0 0.15375777065975771 -0.082461275169485482 0 0.16056552343519651 -0.077558596974904859 0 0.1479173143139749 -0.062968791684782921 0 0.14299833150093669 -0.067046190474679898 0 0.14417963171963111 -0.07417229915706719 0 0.1479173143139749 -0.062968791684782921 0 0.14299833150093669 -0.067046190474679898 0 0.1446255168536954 -0.062370179122734029 0 0.1479173143139749 -0.062968791684782921 0 0.1446255168536954 -0.062370179122734029 0 0.14109634230130461 -0.064650887826335324 0 0.14299833150093669 -0.067046190474679898 0 0.1446255168536954 -0.062370179122734029 0 0.13790873078475069 -0.069498554252934025 0 0.14299833150093669 -0.067046190474679898 0 0.14417963171963111 -0.07417229915706719 0 0.13790873078475069 -0.069498554252934025 0 0.14109634230130461 -0.064650887826335324 0 0.14299833150093669 -0.067046190474679898 0 0.13952253300939951 -0.077096241126451706 0 0.14417963171963111 -0.07417229915706719 0 0.1440595017909376 -0.07964647724817002 0 0.1479173143139749 -0.062968791684782921 0 0.1467885237534855 -0.091876684417145887 0 0.15375777065975771 -0.082461275169485482 0 0.1479173143139749 -0.062968791684782921 0 0.1467885237534855 -0.091876684417145887 0 0.1440595017909376 -0.07964647724817002 0 0.14022637623060161 -0.083602921174081982 0 0.1387834704247817 -0.091024497849055558 0 0.1467885237534855 -0.091876684417145887 0 0.14022637623060161 -0.083602921174081982 0 0.1467885237534855 -0.091876684417145887 0 0.1440595017909376 -0.07964647724817002 0 0.14022637623060161 -0.083602921174081982 0 0.13952253300939951 -0.077096241126451706 0 0.1440595017909376 -0.07964647724817002 0 0.15375777065975771 -0.082461275169485482 0 0.1538756170118189 -0.091987015561311253 0 0.16058485092996991 -0.087669875667203537 0 0.1467885237534855 -0.091876684417145887 0 0.15375777065975771 -0.082461275169485482 0 0.1538756170118189 -0.091987015561311253 0 0.14949813696907649 -0.095168205844284037 0 0.1467885237534855 -0.091876684417145887 0 0.1538756170118189 -0.091987015561311253 0 0.1538756170118189 -0.091987015561311253 0 0.16058485092996991 -0.087669875667203537 0 0.1594901737720775 -0.094562432777546432 0 0.16058485092996991 -0.087669875667203537 0 0.1594901737720775 -0.094562432777546432 0 0.1666263207515275 -0.093798420564244367 0 0.15375777065975771 -0.082461275169485482 0 0.16058485092996991 -0.087669875667203537 0 0.16056552343519651 -0.077558596974904859 0 0.16058485092996991 -0.087669875667203537 0 0.16056552343519651 -0.077558596974904859 0 0.1723859723099696 -0.085283702299829303 0 0.16058485092996991 -0.087669875667203537 0 0.1723859723099696 -0.085283702299829303 0 0.1666263207515275 -0.093798420564244367 0 0.1723859723099696 -0.085283702299829303 0 0.17436228447179539 -0.098120177271555531 0 0.1666263207515275 -0.093798420564244367 0 0.1479173143139749 -0.062968791684782921 0 0.17271982607950789 -0.067479122375648487 0 0.1479173143139749 -0.062968791684782921 0 0.16056552343519651 -0.077558596974904859 0 0.17271982607950789 -0.067479122375648487 0 0.16056552343519651 -0.077558596974904859 0 0.17271982607950789 -0.067479122375648487 0 0.1723859723099696 -0.085283702299829303 0 0.17271982607950789 -0.067479122375648487 0 0.19752233784504081 -0.071989453066514109 0 0.17271982607950789 -0.067479122375648487 0 0.1860776241787028 -0.080697809242525592 0 0.19752233784504081 -0.071989453066514109 0 0.17271982607950789 -0.067479122375648487 0 0.1723859723099696 -0.085283702299829303 0 0.1860776241787028 -0.080697809242525592 0 0.1723859723099696 -0.085283702299829303 0 0.18598819426480689 -0.093595509731465215 0 0.17436228447179539 -0.098120177271555531 0 0.1723859723099696 -0.085283702299829303 0 0.1860776241787028 -0.080697809242525592 0 0.18598819426480689 -0.093595509731465215 0 0.1653027400692208 -0.10484956080329071 0 0.19200799711795569 -0.1125494701991253 0 0.17436228447179539 -0.098120177271555531 0 0.1653027400692208 -0.10484956080329071 0 0.19200799711795569 -0.1125494701991253 0 0.18598819426480689 -0.093595509731465215 0 0.17436228447179539 -0.098120177271555531 0 0.19200799711795569 -0.1125494701991253 0 0.1653027400692208 -0.10484956080329071 0 0.19200799711795569 -0.1125494701991253 0 0.17816512380327951 -0.13089032995216299 0 0.16415733588645659 -0.1162837450339682 0 0.1653027400692208 -0.10484956080329071 0 0.17816512380327951 -0.13089032995216299 0 0.1653027400692208 -0.10484956080329071 0 0.17816512380327951 -0.13089032995216299 0 0.16415733588645659 -0.1162837450339682 0 0.16518416572978589 -0.1265037941779372 0 0.17816512380327951 -0.13089032995216299 0 0.16415733588645659 -0.1162837450339682 0 0.16183880861949429 -0.1218913522757023 0 0.16518416572978589 -0.1265037941779372 0 0.16183880861949429 -0.1218913522757023 0 0.15667045128998111 -0.1195730561907411 0 0.15662356040999309 -0.12814013835356411 0 0.16415733588645659 -0.1162837450339682 0 0.16183880861949429 -0.1218913522757023 0 0.15667045128998111 -0.1195730561907411 0 0.156098827099767 -0.112015987347672 0 0.16415733588645659 -0.1162837450339682 0 0.15667045128998111 -0.1195730561907411 0 0.16415733588645659 -0.1162837450339682 0 0.16002153397139429 -0.108985903974736 0 0.1653027400692208 -0.10484956080329071 0 0.156098827099767 -0.112015987347672 0 0.16415733588645659 -0.1162837450339682 0 0.16002153397139429 -0.108985903974736 0 0.15324101678789179 -0.10467561173324789 0 0.16002153397139429 -0.108985903974736 0 0.1653027400692208 -0.10484956080329071 0 0.156098827099767 -0.112015987347672 0 0.15324101678789179 -0.10467561173324789 0 0.16002153397139429 -0.108985903974736 0 0.1539960435825472 -0.098294266973914537 0 0.1594901737720775 -0.094562432777546432 0 0.1633110127301817 -0.1008171735789795 0 0.1539960435825472 -0.098294266973914537 0 0.1633110127301817 -0.1008171735789795 0 0.1653027400692208 -0.10484956080329071 0 0.1594901737720775 -0.094562432777546432 0 0.1633110127301817 -0.1008171735789795 0 0.1666263207515275 -0.093798420564244367 0 0.1633110127301817 -0.1008171735789795 0 0.1674005895056814 -0.099396333054517533 0 0.1666263207515275 -0.093798420564244367 0 0.17436228447179539 -0.098120177271555531 0 0.1674005895056814 -0.099396333054517533 0 0.1653027400692208 -0.10484956080329071 0 0.17436228447179539 -0.098120177271555531 0 0.1674005895056814 -0.099396333054517533 0 0.1666263207515275 -0.093798420564244367 0 0.1633110127301817 -0.1008171735789795 0 0.1674005895056814 -0.099396333054517533 0 0.1653027400692208 -0.10484956080329071 0 0.1633110127301817 -0.1008171735789795 0 0.1653027400692208 -0.10484956080329071 0 0.1503945054321543 0.00047112146520590192 0 0.14956877505942881 -0.020675516251457068 0 0.16247786613315851 -0.01485640745221347 0 0.1503945054321543 0.00047112146520590192 0 0.14956877505942881 -0.020675516251457068 0 0.1503945054321543 0.00047112146520590192 0 0.1437689360485537 -0.0074824166427583929 0 0.14956877505942881 -0.020675516251457068 0 0.1437689360485537 -0.0074824166427583929 0 0.1339757257350431 -0.015837956401863178 0 0.14956877505942881 -0.020675516251457068 0 0.14727149059413749 0.0010579537616636049 0 0.1503945054321543 0.00047112146520590192 0 0.1437689360485537 -0.0074824166427583929 0 0.14727149059413749 0.0010579537616636049 0 0.1437689360485537 -0.0074824166427583929 0 0.13807058767544719 -0.002590351377979395 0 0.12879430821262439 0.0027572904785835642 0 0.1193292719891109 -0.015681652265594689 0 0.1339757257350431 -0.015837956401863178 0 0.12879430821262439 0.0027572904785835642 0 0.13807058767544719 -0.002590351377979395 0 0.1339757257350431 -0.015837956401863178 0 0.1437689360485537 -0.0074824166427583929 0 0.13807058767544719 -0.002590351377979395 0 0.1339757257350431 -0.015837956401863178 0 0.1339757257350431 -0.015837956401863178 0 0.13354983208328519 -0.036398314363804411 0 0.12343842524433429 -0.02929213569333269 0 0.1339757257350431 -0.015837956401863178 0 0.13354983208328519 -0.036398314363804411 0 0.1339757257350431 -0.015837956401863178 0 0.14956877505942881 -0.020675516251457068 0 0.13354983208328519 -0.036398314363804411 0 0.12343842524433429 -0.02929213569333269 0 0.1193292719891109 -0.015681652265594689 0 0.1339757257350431 -0.015837956401863178 0 0.14956877505942881 -0.020675516251457068 0 0.14874304468670169 -0.04182215396811996 0 0.16063596261474281 -0.03088981886548715 0 0.14956877505942881 -0.020675516251457068 0 0.14874304468670169 -0.04182215396811996 0 0.14956877505942881 -0.020675516251457068 0 0.14874304468670169 -0.04182215396811996 0 0.13354983208328519 -0.036398314363804411 0 0.14874304468670169 -0.04182215396811996 0 0.13354983208328519 -0.036398314363804411 0 0.14218305175941401 -0.05206304986447137 0 0.13354983208328519 -0.036398314363804411 0 0.1331030013074968 -0.05695823862764432 0 0.1204730606486351 -0.044422160425628299 0 0.13354983208328519 -0.036398314363804411 0 0.1331030013074968 -0.05695823862764432 0 0.1204730606486351 -0.044422160425628299 0 0.12343842524433429 -0.02929213569333269 0 0.13354983208328519 -0.036398314363804411 0 0.13354983208328519 -0.036398314363804411 0 0.1331030013074968 -0.05695823862764432 0 0.14218305175941401 -0.05206304986447137 0 0.13790873078475069 -0.069498554252934025 0 0.1331030013074968 -0.05695823862764432 0 0.13885279006583581 -0.059688627454993343 0 0.1331030013074968 -0.05695823862764432 0 0.13885279006583581 -0.059688627454993343 0 0.14218305175941401 -0.05206304986447137 0 0.1479173143139749 -0.062968791684782921 0 0.14874304468670169 -0.04182215396811996 0 0.13885279006583581 -0.059688627454993343 0 0.1446255168536954 -0.062370179122734029 0 0.14218305175941401 -0.05206304986447137 0 0.1479173143139749 -0.062968791684782921 0 0.14874304468670169 -0.04182215396811996 0 0.14218305175941401 -0.05206304986447137 0 0.1479173143139749 -0.062968791684782921 0 0.1446255168536954 -0.062370179122734029 0 0.14218305175941401 -0.05206304986447137 0 0.1479173143139749 -0.062968791684782921 0 0.14874304468670169 -0.04182215396811996 0 0.16671524154628789 -0.046599649712727717 0 0.14109634230130461 -0.064650887826335324 0 0.13885279006583581 -0.059688627454993343 0 0.1446255168536954 -0.062370179122734029 0 0.1479173143139749 -0.062968791684782921 0 0.17271982607950789 -0.067479122375648487 0 0.16671524154628789 -0.046599649712727717 0 0.17271982607950789 -0.067479122375648487 0 0.18863156274770301 -0.047880563404649537 0 0.19752233784504081 -0.071989453066514109 0 0.17271982607950789 -0.067479122375648487 0 0.16671524154628789 -0.046599649712727717 0 0.18863156274770301 -0.047880563404649537 0 0.16671524154628789 -0.046599649712727717 0 0.17899214341346389 -0.026749919035614751 0 0.18863156274770301 -0.047880563404649537 0 0.14874304468670169 -0.04182215396811996 0 0.16671524154628789 -0.046599649712727717 0 0.16063596261474281 -0.03088981886548715 0 0.16671524154628789 -0.046599649712727717 0 0.16063596261474281 -0.03088981886548715 0 0.17899214341346389 -0.026749919035614751 0 0.14956877505942881 -0.020675516251457068 0 0.16063596261474281 -0.03088981886548715 0 0.16247786613315851 -0.01485640745221347 0 0.16063596261474281 -0.03088981886548715 0 0.17899214341346389 -0.026749919035614751 0 0.16247786613315851 -0.01485640745221347 0 0.17899214341346389 -0.026749919035614751 0 0.1756498173601061 -0.0042744956596407558 0 0.16247786613315851 -0.01485640745221347 0 0.17899214341346389 -0.026749919035614751 0 0.1756498173601061 -0.0042744956596407558 0 0.20090512928805779 -0.0090201127844871404 0 0.1816648446934781 0.01096575827495024 0 0.1756498173601061 -0.0042744956596407558 0 0.20090512928805779 -0.0090201127844871404 0 0.1503945054321543 0.00047112146520590192 0 0.1756498173601061 -0.0042744956596407558 0 0.16247786613315851 -0.01485640745221347 0 0.1503945054321543 0.00047112146520590192 0 0.1756498173601061 -0.0042744956596407558 0 0.22489898562157759 0.013333890121236831 0 0.20090512928805779 -0.0090201127844871404 0 0.22616044121600959 -0.01376572990933354 0 0.20090512928805779 -0.0090201127844871404 0 0.22616044121600959 -0.01376572990933354 0 0.1756498173601061 -0.0042744956596407558 0 0.20090512928805779 -0.0090201127844871404 0 0.17899214341346389 -0.026749919035614751 0 0.20090512928805779 -0.0090201127844871404 0 0.20200121921331329 -0.02840067049513469 0 0.20090512928805779 -0.0090201127844871404 0 0.20200121921331329 -0.02840067049513469 0 0.22616044121600959 -0.01376572990933354 0 0.20200121921331329 -0.02840067049513469 0 0.21531681940133229 -0.044587027341588453 0 0.22616044121600959 -0.01376572990933354 0 0.20200121921331329 -0.02840067049513469 0 0.21531681940133229 -0.044587027341588453 0 0.18863156274770301 -0.047880563404649537 0 0.17899214341346389 -0.026749919035614751 0 0.20200121921331329 -0.02840067049513469 0 0.18863156274770301 -0.047880563404649537 0 0.21531681940133229 -0.044587027341588453 0 0.18863156274770301 -0.047880563404649537 0 0.19752233784504081 -0.071989453066514109 0 0.21531681940133229 -0.044587027341588453 0 0.23975376712630381 -0.057066258051083833 0 0.2223248496105738 -0.07649978375737973 0 0.26132800399236278 -0.045056464510215673 0 0.23975376712630381 -0.057066258051083833 0 0.2380567425234171 -0.036497849958806748 0 0.21531681940133229 -0.044587027341588453 0 0.2380567425234171 -0.036497849958806748 0 0.22616044121600959 -0.01376572990933354 0 0.21531681940133229 -0.044587027341588453 0 0.23975376712630381 -0.057066258051083833 0 0.2380567425234171 -0.036497849958806748 0 0.25561305250790239 -0.022646727376996412 0 0.2380567425234171 -0.036497849958806748 0 0.22616044121600959 -0.01376572990933354 0 0.25086621734364162 0.0024580881529454729 0 0.25561305250790239 -0.022646727376996412 0 0.22616044121600959 -0.01376572990933354 0 0.2187132541666906 -0.1202493795949604 0 0.19200799711795569 -0.1125494701991253 0 0.20485482461056531 -0.09348188994908771 0 0.2187132541666906 -0.1202493795949604 0 0.20485482461056531 -0.09348188994908771 0 0.23170307405995419 -0.09974831845645063 0 0.2187132541666906 -0.1202493795949604 0 0.19200799711795569 -0.1125494701991253 0 0.2187132541666906 -0.1202493795949604 0 0.19200799711795569 -0.1125494701991253 0 0.20218712585764179 -0.13537363103836941 0 0.18598819426480689 -0.093595509731465215 0 0.19200799711795569 -0.1125494701991253 0 0.20485482461056531 -0.09348188994908771 0 0.1860776241787028 -0.080697809242525592 0 0.19752233784504081 -0.071989453066514109 0 0.20485482461056531 -0.09348188994908771 0 0.1860776241787028 -0.080697809242525592 0 0.18598819426480689 -0.093595509731465215 0 0.20485482461056531 -0.09348188994908771 0 0.21531681940133229 -0.044587027341588453 0 0.19752233784504081 -0.071989453066514109 0 0.2223248496105738 -0.07649978375737973 0 0.19752233784504081 -0.071989453066514109 0 0.2223248496105738 -0.07649978375737973 0 0.19752233784504081 -0.071989453066514109 0 0.20485482461056531 -0.09348188994908771 0 0.2223248496105738 -0.07649978375737973 0 0.20485482461056531 -0.09348188994908771 0 0.2223248496105738 -0.07649978375737973 0 0.23170307405995419 -0.09974831845645063 0 0.2223248496105738 -0.07649978375737973 0 0.24712736137610669 -0.081010114448245338 0 0.23170307405995419 -0.09974831845645063 0 0.23975376712630381 -0.057066258051083833 0 0.2223248496105738 -0.07649978375737973 0 0.24712736137610669 -0.081010114448245338 0 0.25385718178354683 -0.098270239605644127 0 0.24712736137610669 -0.081010114448245338 0 0.23170307405995419 -0.09974831845645063 0 0.2223248496105738 -0.07649978375737973 0 0.24712736137610669 -0.081010114448245338 0 0.25034047180974922 -0.1152942611355 0 0.2187132541666906 -0.1202493795949604 0 0.23170307405995419 -0.09974831845645063 0 0.25385718178354683 -0.098270239605644127 0 0.25034047180974922 -0.1152942611355 0 0.23170307405995419 -0.09974831845645063 0 0.25034047180974922 -0.1152942611355 0 0.2187132541666906 -0.1202493795949604 0 0.23905699070429959 -0.1358943316959024 0 0.25034047180974922 -0.1152942611355 0 0.25754178294737229 -0.13071600479872139 0 0.23905699070429959 -0.1358943316959024 0 0.25677414547938748 -0.14665413897169841 0 0.23905699070429959 -0.1358943316959024 0 0.2444436461762462 -0.1548086980679525 0 0.23905699070429959 -0.1358943316959024 0 0.2444436461762462 -0.1548086980679525 0 0.2296872795790138 -0.15445195283362601 0 0.23905699070429959 -0.1358943316959024 0 0.2296872795790138 -0.15445195283362601 0 0.22003853811424259 -0.13952537342824931 0 0.2296872795790138 -0.15445195283362601 0 0.21054804026356741 -0.1516575719783885 0 0.2175304188186947 -0.1623325971646104 0 0.2296872795790138 -0.15445195283362601 0 0.22003853811424259 -0.13952537342824931 0 0.21054804026356741 -0.1516575719783885 0 0.2187132541666906 -0.1202493795949604 0 0.23905699070429959 -0.1358943316959024 0 0.22003853811424259 -0.13952537342824931 0 0.2187132541666906 -0.1202493795949604 0 0.22003853811424259 -0.13952537342824931 0 0.20218712585764179 -0.13537363103836941 0 0.22003853811424259 -0.13952537342824931 0 0.21054804026356741 -0.1516575719783885 0 0.20218712585764179 -0.13537363103836941 0 0.21054804026356741 -0.1516575719783885 0 0.20218712585764179 -0.13537363103836941 0 0.19102750753733719 -0.15693109910103581 0 0.20218712585764179 -0.13537363103836941 0 0.19102750753733719 -0.15693109910103581 0 0.17816512380327951 -0.13089032995216299 0 0.19200799711795569 -0.1125494701991253 0 0.20218712585764179 -0.13537363103836941 0 0.17816512380327951 -0.13089032995216299 0 0.20140157507369411 -0.1779341031658031 0 0.19107770863046991 -0.18788130374570641 0 0.1837678494475736 -0.17354455973522551 0 0.20140157507369411 -0.1779341031658031 0 0.2027066552549863 -0.1893474832146323 0 0.19107770863046991 -0.18788130374570641 0 0.20140157507369411 -0.1779341031658031 0 0.19102750753733719 -0.15693109910103581 0 0.20884302665824631 -0.17180587748616741 0 0.20140157507369411 -0.1779341031658031 0 0.19102750753733719 -0.15693109910103581 0 0.1837678494475736 -0.17354455973522551 0 0.21054804026356741 -0.1516575719783885 0 0.19102750753733719 -0.15693109910103581 0 0.20698724831946139 -0.16068178643255049 0 0.19102750753733719 -0.15693109910103581 0 0.20884302665824631 -0.17180587748616741 0 0.20698724831946139 -0.16068178643255049 0 0.20140157507369411 -0.1779341031658031 0 0.19102750753733719 -0.15693109910103581 0 0.19102750753733719 -0.15693109910103581 0 0.20884302665824631 -0.17180587748616741 0 0.21054804026356741 -0.1516575719783885 0 0.20698724831946139 -0.16068178643255049 0 0.2175304188186947 -0.1623325971646104 0 0.20884302665824631 -0.17180587748616741 0 0.20698724831946139 -0.16068178643255049 0 0.2175304188186947 -0.1623325971646104 0 0.20884302665824631 -0.17180587748616741 0 0.2175304188186947 -0.1623325971646104 0 0.22260267881067819 -0.17044816048281861 0 0.20884302665824631 -0.17180587748616741 0 0.22665854577915559 -0.18668065587129851 0 0.20884302665824631 -0.17180587748616741 0 0.21320624866248669 -0.18468625840823369 0 0.22665854577915559 -0.18668065587129851 0 0.20140157507369411 -0.1779341031658031 0 0.20884302665824631 -0.17180587748616741 0 0.20653937641235329 -0.1809434305687091 0 0.20884302665824631 -0.17180587748616741 0 0.20653937641235329 -0.1809434305687091 0 0.21320624866248669 -0.18468625840823369 0 0.20653937641235329 -0.1809434305687091 0 0.21320624866248669 -0.18468625840823369 0 0.2027066552549863 -0.1893474832146323 0 0.20140157507369411 -0.1779341031658031 0 0.20653937641235329 -0.1809434305687091 0 0.2027066552549863 -0.1893474832146323 0 0.20884302665824631 -0.17180587748616741 0 0.22497744514600521 -0.17715023891075141 0 0.22665854577915559 -0.18668065587129851 0 0.20884302665824631 -0.17180587748616741 0 0.22497744514600521 -0.17715023891075141 0 0.22260267881067819 -0.17044816048281861 0 0.22497744514600521 -0.17715023891075141 0 0.23244747155841761 -0.1739865030190208 0 0.22260267881067819 -0.17044816048281861 0 0.22497744514600521 -0.17715023891075141 0 0.23244747155841761 -0.1739865030190208 0 0.23380656075062531 -0.1821705884877412 0 0.23380656075062531 -0.1821705884877412 0 0.22665854577915559 -0.18668065587129851 0 0.23082034178519301 -0.19015547986344619 0 0.22497744514600521 -0.17715023891075141 0 0.23380656075062531 -0.1821705884877412 0 0.22665854577915559 -0.18668065587129851 0 0.23380656075062531 -0.1821705884877412 0 0.22665854577915559 -0.18668065587129851 0 0.2296872795790138 -0.15445195283362601 0 0.2175304188186947 -0.1623325971646104 0 0.22764452403413091 -0.16457574418434409 0 0.2175304188186947 -0.1623325971646104 0 0.22260267881067819 -0.17044816048281861 0 0.22764452403413091 -0.16457574418434409 0 0.23244747155841761 -0.1739865030190208 0 0.22764452403413091 -0.16457574418434409 0 0.23818021548090651 -0.16682939412116859 0 0.23244747155841761 -0.1739865030190208 0 0.22260267881067819 -0.17044816048281861 0 0.22764452403413091 -0.16457574418434409 0 0.2296872795790138 -0.15445195283362601 0 0.22764452403413091 -0.16457574418434409 0 0.23818021548090651 -0.16682939412116859 0 0.2568410011366673 -0.16782553471673339 0 0.23818021548090651 -0.16682939412116859 0 0.24458333138207591 -0.1793105664267399 0 0.2568410011366673 -0.16782553471673339 0 0.2444436461762462 -0.1548086980679525 0 0.23818021548090651 -0.16682939412116859 0 0.2444436461762462 -0.1548086980679525 0 0.2296872795790138 -0.15445195283362601 0 0.23818021548090651 -0.16682939412116859 0 0.23380656075062531 -0.1821705884877412 0 0.24458333138207591 -0.1793105664267399 0 0.24034131690518659 -0.18925383220674469 0 0.23380656075062531 -0.1821705884877412 0 0.24034131690518659 -0.18925383220674469 0 0.23082034178519301 -0.19015547986344619 0 0.23244747155841761 -0.1739865030190208 0 0.23380656075062531 -0.1821705884877412 0 0.24458333138207591 -0.1793105664267399 0 0.23244747155841761 -0.1739865030190208 0 0.23818021548090651 -0.16682939412116859 0 0.24458333138207591 -0.1793105664267399 0 0.24458333138207591 -0.1793105664267399 0 0.2483962521489555 -0.1935428095221525 0 0.24034131690518659 -0.18925383220674469 0 0.25690785679394712 -0.18899693046176849 0 0.24458333138207591 -0.1793105664267399 0 0.2483962521489555 -0.1935428095221525 0 0.2569747124512281 -0.21016832620680351 0 0.2483962521489555 -0.1935428095221525 0 0.2431740432123399 -0.19998439230870599 0 0.2483962521489555 -0.1935428095221525 0 0.24034131690518659 -0.18925383220674469 0 0.2431740432123399 -0.19998439230870599 0 0.24034131690518659 -0.18925383220674469 0 0.23539684827424601 -0.19536164596024791 0 0.2431740432123399 -0.19998439230870599 0 0.24034131690518659 -0.18925383220674469 0 0.23539684827424601 -0.19536164596024791 0 0.23082034178519301 -0.19015547986344619 0 0.23444940291833899 -0.20250213478789231 0 0.2431740432123399 -0.19998439230870599 0 0.239191165426027 -0.20555151614544639 0 0.23444940291833899 -0.20250213478789231 0 0.23539684827424601 -0.19536164596024791 0 0.2431740432123399 -0.19998439230870599 0 0.2569747124512281 -0.21016832620680351 0 0.2431740432123399 -0.19998439230870599 0 0.24342862626240189 -0.20932676298128849 0 0.2569747124512281 -0.21016832620680351 0 0.24342862626240189 -0.20932676298128849 0 0.24237410995183159 -0.21818838657027259 0 0.24342862626240189 -0.20932676298128849 0 0.24237410995183159 -0.21818838657027259 0 0.23441395291482089 -0.2117265455558765 0 0.24237410995183159 -0.21818838657027259 0 0.23441395291482089 -0.2117265455558765 0 0.2322108395480838 -0.22485824711670521 0 0.23444940291833899 -0.20250213478789231 0 0.23441395291482089 -0.2117265455558765 0 0.239191165426027 -0.20555151614544639 0 0.2431740432123399 -0.19998439230870599 0 0.24342862626240189 -0.20932676298128849 0 0.239191165426027 -0.20555151614544639 0 0.24342862626240189 -0.20932676298128849 0 0.23441395291482089 -0.2117265455558765 0 0.239191165426027 -0.20555151614544639 0 0.23444940291833899 -0.20250213478789231 0 0.23441395291482089 -0.2117265455558765 0 0.22645932189815471 -0.20677225135471861 0 0.23441395291482089 -0.2117265455558765 0 0.2202152602113891 -0.2151654164812713 0 0.22645932189815471 -0.20677225135471861 0 0.23441395291482089 -0.2117265455558765 0 0.2202152602113891 -0.2151654164812713 0 0.2322108395480838 -0.22485824711670521 0 0.2202152602113891 -0.2151654164812713 0 0.22645932189815471 -0.20677225135471861 0 0.2193285268743263 -0.1996895211809035 0 0.22645932189815471 -0.20677225135471861 0 0.2193285268743263 -0.1996895211809035 0 0.22725623716998211 -0.19687144154059391 0 0.22665854577915559 -0.18668065587129851 0 0.2193285268743263 -0.1996895211809035 0 0.22725623716998211 -0.19687144154059391 0 0.23539684827424601 -0.19536164596024791 0 0.23082034178519301 -0.19015547986344619 0 0.22725623716998211 -0.19687144154059391 0 0.22665854577915559 -0.18668065587129851 0 0.23082034178519301 -0.19015547986344619 0 0.22725623716998211 -0.19687144154059391 0 0.22665854577915559 -0.18668065587129851 0 0.23082034178519301 -0.19015547986344619 0 0.23444940291833899 -0.20250213478789231 0 0.23539684827424601 -0.19536164596024791 0 0.22725623716998211 -0.19687144154059391 0 0.23444940291833899 -0.20250213478789231 0 0.22645932189815471 -0.20677225135471861 0 0.22725623716998211 -0.19687144154059391 0 0.23189612628148359 -0.25216275566727953 0 0.24443541936635649 -0.23116554093704181 0 0.25185667136151929 -0.24251713028608249 0 0.23189612628148359 -0.25216275566727953 0 0.24443541936635649 -0.23116554093704181 0 0.23189612628148359 -0.25216275566727953 0 0.24443541936635649 -0.23116554093704181 0 0.22855849860610911 -0.2376982740697873 0 0.2569747124512281 -0.21016832620680351 0 0.24237410995183159 -0.21818838657027259 0 0.24443541936635649 -0.23116554093704181 0 0.24443541936635649 -0.23116554093704181 0 0.2322108395480838 -0.22485824711670521 0 0.22855849860610911 -0.2376982740697873 0 0.24237410995183159 -0.21818838657027259 0 0.24443541936635649 -0.23116554093704181 0 0.2322108395480838 -0.22485824711670521 0 0.2202152602113891 -0.2151654164812713 0 0.2322108395480838 -0.22485824711670521 0 0.21865917490379161 -0.2310948966338931 0 0.2322108395480838 -0.22485824711670521 0 0.22855849860610911 -0.2376982740697873 0 0.21865917490379161 -0.2310948966338931 0 0.22855849860610911 -0.2376982740697873 0 0.21559093293083001 -0.249209929994017 0 0.21865917490379161 -0.2310948966338931 0 0.23189612628148359 -0.25216275566727953 0 0.22855849860610911 -0.2376982740697873 0 0.21559093293083001 -0.249209929994017 0 0.21559093293083001 -0.249209929994017 0 0.2066704286358495 -0.23686283872877761 0 0.21865917490379161 -0.2310948966338931 0 0.21559093293083001 -0.249209929994017 0 0.2066704286358495 -0.23686283872877761 0 0.19850411860872419 -0.24812436988014369 0 0.2202152602113891 -0.2151654164812713 0 0.21865917490379161 -0.2310948966338931 0 0.20755316836812379 -0.22570279101135271 0 0.2066704286358495 -0.23686283872877761 0 0.20755316836812379 -0.22570279101135271 0 0.195470315111055 -0.23005794565971699 0 0.2066704286358495 -0.23686283872877761 0 0.21865917490379161 -0.2310948966338931 0 0.20755316836812379 -0.22570279101135271 0 0.20755316836812379 -0.22570279101135271 0 0.195470315111055 -0.23005794565971699 0 0.19796344635017221 -0.215270727320722 0 0.1875821811199978 -0.223677360428709 0 0.195470315111055 -0.23005794565971699 0 0.19796344635017221 -0.215270727320722 0 0.1875821811199978 -0.223677360428709 0 0.195470315111055 -0.23005794565971699 0 0.18582476132405801 -0.23498048893064491 0 0.2066704286358495 -0.23686283872877761 0 0.195470315111055 -0.23005794565971699 0 0.19850411860872419 -0.24812436988014369 0 0.195470315111055 -0.23005794565971699 0 0.19850411860872419 -0.24812436988014369 0 0.18582476132405801 -0.23498048893064491 0 0.21320624866248669 -0.18468625840823369 0 0.22665854577915559 -0.18668065587129851 0 0.20443126318260549 -0.20070504483298149 0 0.22665854577915559 -0.18668065587129851 0 0.2193285268743263 -0.1996895211809035 0 0.20443126318260549 -0.20070504483298149 0 0.21320624866248669 -0.18468625840823369 0 0.20443126318260549 -0.20070504483298149 0 0.2027066552549863 -0.1893474832146323 0 0.22665854577915559 -0.18668065587129851 0 0.20443126318260549 -0.20070504483298149 0 0.2202152602113891 -0.2151654164812713 0 0.20443126318260549 -0.20070504483298149 0 0.19796344635017221 -0.215270727320722 0 0.2202152602113891 -0.2151654164812713 0 0.2193285268743263 -0.1996895211809035 0 0.20443126318260549 -0.20070504483298149 0 0.2202152602113891 -0.2151654164812713 0 0.20755316836812379 -0.22570279101135271 0 0.19796344635017221 -0.215270727320722 0 0.20443126318260549 -0.20070504483298149 0 0.19796344635017221 -0.215270727320722 0 0.18220398058605511 -0.21472943379466411 0 0.1875821811199978 -0.223677360428709 0 0.19796344635017221 -0.215270727320722 0 0.18220398058605511 -0.21472943379466411 0 0.20443126318260549 -0.20070504483298149 0 0.18303122218397011 -0.19914909199563249 0 0.18220398058605511 -0.21472943379466411 0 0.20443126318260549 -0.20070504483298149 0 0.18220398058605511 -0.21472943379466411 0 0.20443126318260549 -0.20070504483298149 0 0.19107770863046991 -0.18788130374570641 0 0.18303122218397011 -0.19914909199563249 0 0.20443126318260549 -0.20070504483298149 0 0.2027066552549863 -0.1893474832146323 0 0.19107770863046991 -0.18788130374570641 0 0.19107770863046991 -0.18788130374570641 0 0.18303122218397011 -0.19914909199563249 0 0.1758426090089982 -0.18669335881702279 0 0.18303122218397011 -0.19914909199563249 0 0.17131565987642519 -0.1972112472705525 0 0.1758426090089982 -0.18669335881702279 0 0.18303122218397011 -0.19914909199563249 0 0.17285979515080749 -0.2067535551776496 0 0.17131565987642519 -0.1972112472705525 0 0.18220398058605511 -0.21472943379466411 0 0.17285979515080749 -0.2067535551776496 0 0.1657576965081155 -0.21400238808708599 0 0.18303122218397011 -0.19914909199563249 0 0.18220398058605511 -0.21472943379466411 0 0.17285979515080749 -0.2067535551776496 0 0.17285979515080749 -0.2067535551776496 0 0.1657576965081155 -0.21400238808708599 0 0.16169810757135361 -0.20494852042601649 0 0.1657576965081155 -0.21400238808708599 0 0.16169810757135361 -0.20494852042601649 0 0.15204990124285669 -0.21482660828075339 0 0.16169810757135361 -0.20494852042601649 0 0.16055948421488939 -0.18813407974069399 0 0.1471744078336141 -0.19840891372270611 0 0.16169810757135361 -0.20494852042601649 0 0.16055948421488939 -0.18813407974069399 0 0.17131565987642519 -0.1972112472705525 0 0.16055948421488939 -0.18813407974069399 0 0.17131565987642519 -0.1972112472705525 0 0.1758426090089982 -0.18669335881702279 0 0.17285979515080749 -0.2067535551776496 0 0.16169810757135361 -0.20494852042601649 0 0.17131565987642519 -0.1972112472705525 0 0.17229173267516701 -0.24960307528722739 0 0.18582476132405801 -0.23498048893064491 0 0.17644840222864869 -0.22334820643779671 0 0.17229173267516701 -0.24960307528722739 0 0.17644840222864869 -0.22334820643779671 0 0.19850411860872419 -0.24812436988014369 0 0.17229173267516701 -0.24960307528722739 0 0.18582476132405801 -0.23498048893064491 0 0.18220398058605511 -0.21472943379466411 0 0.17644840222864869 -0.22334820643779671 0 0.15997669798950481 -0.22875382275634679 0 0.1875821811199978 -0.223677360428709 0 0.18582476132405801 -0.23498048893064491 0 0.17644840222864869 -0.22334820643779671 0 0.1875821811199978 -0.223677360428709 0 0.18220398058605511 -0.21472943379466411 0 0.17644840222864869 -0.22334820643779671 0 0.17229173267516701 -0.24960307528722739 0 0.17644840222864869 -0.22334820643779671 0 0.15997669798950481 -0.22875382275634679 0 0.18220398058605511 -0.21472943379466411 0 0.1657576965081155 -0.21400238808708599 0 0.15997669798950481 -0.22875382275634679 0 0.18220398058605511 -0.21472943379466411 0 0.15997669798950481 -0.22875382275634679 0 0.1657576965081155 -0.21400238808708599 0 0.15997669798950481 -0.22875382275634679 0 0.15204990124285669 -0.21482660828075339 0 0.17229173267516701 -0.24960307528722739 0 0.15997669798950481 -0.22875382275634679 0 0.15442881530101629 -0.2478343658160625 0 0.15997669798950481 -0.22875382275634679 0 0.15442881530101629 -0.2478343658160625 0 0.13774941539295449 -0.24277821171802949 0 0.15997669798950481 -0.22875382275634679 0 0.13774941539295449 -0.24277821171802949 0 0.14252071954862611 -0.25372535972677868 0 0.15442881530101629 -0.2478343658160625 0 0.13774941539295449 -0.24277821171802949 0 0.15997669798950481 -0.22875382275634679 0 0.1412683996558092 -0.22506053779445659 0 0.13774941539295449 -0.24277821171802949 0 0.15997669798950481 -0.22875382275634679 0 0.1412683996558092 -0.22506053779445659 0 0.15204990124285669 -0.21482660828075339 0 0.12095874969038831 -0.22975512840218351 0 0.1412683996558092 -0.22506053779445659 0 0.13774941539295449 -0.24277821171802949 0 0.12095874969038831 -0.22975512840218351 0 0.1412683996558092 -0.22506053779445659 0 0.13409172507483441 -0.20902108578633311 0 0.127473526956523 -0.25536252490351707 0 0.12095874969038831 -0.22975512840218351 0 0.13774941539295449 -0.24277821171802949 0 0.16055948421488939 -0.18813407974069399 0 0.1471744078336141 -0.19840891372270611 0 0.14459778333931281 -0.18279876509397491 0 0.1471744078336141 -0.19840891372270611 0 0.15204990124285669 -0.21482660828075339 0 0.13409172507483441 -0.20902108578633311 0 0.16169810757135361 -0.20494852042601649 0 0.1471744078336141 -0.19840891372270611 0 0.15204990124285669 -0.21482660828075339 0 0.1412683996558092 -0.22506053779445659 0 0.15204990124285669 -0.21482660828075339 0 0.13409172507483441 -0.20902108578633311 0 0.1471744078336141 -0.19840891372270611 0 0.13409172507483441 -0.20902108578633311 0 0.12897484595150169 -0.18859277311066189 0 0.1471744078336141 -0.19840891372270611 0 0.12897484595150169 -0.18859277311066189 0 0.14459778333931281 -0.18279876509397491 0 0.12897484595150169 -0.18859277311066189 0 0.14459778333931281 -0.18279876509397491 0 0.1359549192469828 -0.16511635488435919 0 0.1151534931031888 -0.16878666903563039 0 0.12897484595150169 -0.18859277311066189 0 0.1359549192469828 -0.16511635488435919 0 0.16055948421488939 -0.18813407974069399 0 0.15416841254242039 -0.17245883673390799 0 0.14459778333931281 -0.18279876509397491 0 0.15416841254242039 -0.17245883673390799 0 0.14459778333931281 -0.18279876509397491 0 0.1359549192469828 -0.16511635488435919 0 0.15416841254242039 -0.17245883673390799 0 0.1359549192469828 -0.16511635488435919 0 0.15655521579068771 -0.15693582591037361 0 0.1129717155978906 -0.1423196020060043 0 0.1359549192469828 -0.16511635488435919 0 0.1387820160062482 -0.1439171181043338 0 0.1387820160062482 -0.1439171181043338 0 0.1313535122320228 -0.128284521826111 0 0.14480621996242921 -0.1305172816670013 0 0.1129717155978906 -0.1423196020060043 0 0.1387820160062482 -0.1439171181043338 0 0.1313535122320228 -0.128284521826111 0 0.14027787881670811 -0.1230403186481014 0 0.1313535122320228 -0.128284521826111 0 0.14480621996242921 -0.1305172816670013 0 0.1387820160062482 -0.1439171181043338 0 0.14480621996242921 -0.1305172816670013 0 0.15482805341574651 -0.14043490399202871 0 0.14480621996242921 -0.1305172816670013 0 0.15482805341574651 -0.14043490399202871 0 0.15662356040999309 -0.12814013835356411 0 0.14879229423263299 -0.1197550289057458 0 0.14480621996242921 -0.1305172816670013 0 0.15662356040999309 -0.12814013835356411 0 0.1387820160062482 -0.1439171181043338 0 0.15482805341574651 -0.14043490399202871 0 0.15655521579068771 -0.15693582591037361 0 0.1359549192469828 -0.16511635488435919 0 0.1387820160062482 -0.1439171181043338 0 0.15655521579068771 -0.15693582591037361 0 0.1658405788046747 -0.14790536564014051 0 0.17369505863144799 -0.15928608952988149 0 0.15655521579068771 -0.15693582591037361 0 0.15482805341574651 -0.14043490399202871 0 0.1658405788046747 -0.14790536564014051 0 0.15655521579068771 -0.15693582591037361 0 0.15482805341574651 -0.14043490399202871 0 0.1658405788046747 -0.14790536564014051 0 0.16513599992970601 -0.1353134052742884 0 0.16513599992970601 -0.1353134052742884 0 0.1780817537335212 -0.14612225218766259 0 0.1658405788046747 -0.14790536564014051 0 0.16513599992970601 -0.1353134052742884 0 0.1780817537335212 -0.14612225218766259 0 0.15662356040999309 -0.12814013835356411 0 0.16513599992970601 -0.1353134052742884 0 0.16518416572978589 -0.1265037941779372 0 0.16183880861949429 -0.1218913522757023 0 0.15662356040999309 -0.12814013835356411 0 0.16518416572978589 -0.1265037941779372 0 0.15482805341574651 -0.14043490399202871 0 0.15662356040999309 -0.12814013835356411 0 0.16513599992970601 -0.1353134052742884 0 0.16513599992970601 -0.1353134052742884 0 0.16518416572978589 -0.1265037941779372 0 0.17816512380327951 -0.13089032995216299 0 0.16513599992970601 -0.1353134052742884 0 0.17816512380327951 -0.13089032995216299 0 0.1780817537335212 -0.14612225218766259 0 0.19102750753733719 -0.15693109910103581 0 0.17816512380327951 -0.13089032995216299 0 0.1780817537335212 -0.14612225218766259 0 0.19102750753733719 -0.15693109910103581 0 0.17816512380327951 -0.13089032995216299 0 0.19102750753733719 -0.15693109910103581 0 0.1780817537335212 -0.14612225218766259 0 0.17369505863144799 -0.15928608952988149 0 0.1658405788046747 -0.14790536564014051 0 0.1780817537335212 -0.14612225218766259 0 0.17369505863144799 -0.15928608952988149 0 0.19102750753733719 -0.15693109910103581 0 0.1780817537335212 -0.14612225218766259 0 0.19102750753733719 -0.15693109910103581 0 0.17369505863144799 -0.15928608952988149 0 0.1837678494475736 -0.17354455973522551 0 0.17369505863144799 -0.15928608952988149 0 0.1837678494475736 -0.17354455973522551 0 0.16785231662418951 -0.1734126343231274 0 0.1837678494475736 -0.17354455973522551 0 0.1758426090089982 -0.18669335881702279 0 0.16785231662418951 -0.1734126343231274 0 0.19107770863046991 -0.18788130374570641 0 0.1837678494475736 -0.17354455973522551 0 0.1758426090089982 -0.18669335881702279 0 0.16055948421488939 -0.18813407974069399 0 0.15416841254242039 -0.17245883673390799 0 0.16785231662418951 -0.1734126343231274 0 0.16055948421488939 -0.18813407974069399 0 0.1758426090089982 -0.18669335881702279 0 0.16785231662418951 -0.1734126343231274 0 0.15416841254242039 -0.17245883673390799 0 0.16785231662418951 -0.1734126343231274 0 0.15655521579068771 -0.15693582591037361 0 0.17369505863144799 -0.15928608952988149 0 0.16785231662418951 -0.1734126343231274 0 0.15655521579068771 -0.15693582591037361 0 
</DataArray>
</Points>
<Cells>
<DataArray type="UInt32" Name="connectivity" format="ascii">
0 1 2 3 4 5 6 7 8 9 10 11 12 13 14 15 16 17 18 19 20 21 22 23 24 25 26 27 28 29 30 31 32 33 34 35 36 37 38 39 40 41 42 43 44 45 46 47 48 49 50 51 52 53 54 55 56 57 58 59 60 61 62 63 64 65 66 67 68 69 70 71 72 73 74 75 76 77 78 79 80 81 82 83 84 85 86 87 88 89 90 91 92 93 94 95 96 97 98 99 100 101 102 103 104 105 106 107 108 109 110 111 112 113 114 115 116 117 118 119 120 121 122 123 124 125 126 127 128 129 130 131 132 133 134 135 136 137 138 139 140 141 142 143 144 145 146 147 148 149 150 151 152 153 154 155 156 157 158 159 160 161 162 163 164 165 166 167 168 169 170 171 172 173 174 175 176 177 178 179 180 181 182 183 184 185 186 187 188 189 190 191 192 193 194 195 196 197 198 199 200 201 202 203 204 205 206 207 208 209 210 211 212 213 214 215 216 217 218 219 220 221 222 223 224 225 226 227 228 229 230 231 232 233 234 235 236 237 238 239 240 241 242 243 244 245 246 247 248 249 250 251 252 253 254 255 256 257 258 259 260 261 262 263 264 265 266 267 268 269 270 271 272 273 274 275 276 277 278 279 280 281 282 283 284 285 286 287 288 289 290 291 292 293 294 295 296 297 298 299 300 301 302 303 304 305 306 307 308 309 310 311 312 313 314 315 316 317 318 319 320 321 322 323 324 325 326 327 328 329 330 331 332 333 334 335 336 337 338 339 340 341 342 343 344 345 346 347 348 349 350 351 352 353 354 355 356 357 358 359 360 361 362 363 364 365 366 367 368 369 370 371 372 373 374 375 376 377 378 379 380 381 382 383 384 385 386 387 388 389 390 391 392 393 394 395 396 397 398 399 400 401 402 403 404 405 406 407 408 409 410 411 412 413 414 415 416 417 418 419 420 421 422 423 424 425 426 427 428 429 430 431 432 433 434 435 436 437 438 439 440 441 442 443 444 445 446 447 448 449 450 451 452 453 454 455 456 457 458 459 460 461 462 463 464 465 466 467 468 469 470 471 472 473 474 475 476 477 478 479 480 481 482 483 484 485 486 487 488 489 490 491 492 493 494 495 496 497 498 499 500 501 502 503 504 505 506 507 508 509 510 511 512 513 514 515 516 517 518 519 520 521 522 523 524 525 526 527 528 529 530 531 532 533 534 535 536 537 538 539 540 541 542 543 544 545 546 547 548 549 550 551 552 553 554 555 556 557 558 559 560 561 562 563 564 565 566 567 568 569 570 571 572 573 574 575 576 577 578 579 580 581 582 583 584 585 586 587 588 589 590 591 592 593 594 595 596 597 598 599 600 601 602 603 604 605 606 607 608 609 610 611 612 613 614 615 616 617 618 619 620 621 622 623 624 625 626 627 628 629 630 631 632 633 634 635 636 637 638 639 640 641 642 643 644 645 646 647 648 649 650 651 652 653 654 655 656 657 658 659 660 661 662 663 664 665 666 667 668 669 670 671 672 673 674 675 676 677 678 679 680 681 682 683 684 685 686 687 688 689 690 691 692 693 694 695 696 697 698 699 700 701 702 703 704 705 706 707 708 709 710 711 712 713 714 715 716 717 718 719 720 721 722 723 724 725 726 727 728 729 730 731 732 733 734 735 736 737 738 739 740 741 742 743 744 745 746 747 748 749 750 751 752 753 754 755 756 757 758 759 760 761 762 763 764 765 766 767 768 769 770 771 772 773 774 775 776 777 778 779 780 781 782 783 784 785 786 787 788 789 790 791 792 793 794 795 796 797 798 799 800 801 802 803 804 805 806 807 808 809 810 811 812 813 814 815 816 817 818 819 820 821 822 823 824 825 826 827 828 829 830 831 832 833 834 835 836 837 838 839 840 841 842 843 844 845 846 847 848 849 850 851 852 853 854 855 856 857 858 859 860 861 862 863 864 865 866 867 868 869 870 871 872 873 874 875 876 877 878 879 880 881 882 883 884 885 886 887 888 889 890 891 892 893 894 895 896 897 898 899 900 901 902 903 904 905 906 907 908 909 910 911 912 913 914 915 916 917 918 919 920 921 922 923 924 925 926 927 928 929 930 931 932 933 934 935 936 937 938 939 940 941 942 943 944 945 946 947 948 949 950 951 952 953 954 955 956 957 958 959 960 961 962 963 964 965 966 967 968 969 970 971 972 973 974 975 976 977 978 979 980 981 982 983 984 985 986 987 988 989 990 991 992 993 994 995 996 997 998 999 1000 1001 1002 1003 1004 1005 1006 1007 1008 1009 1010 1011 1012 1013 1014 1015 1016 1017 1018 1019 1020 1021 1022 1023 1024 1025 1026 1027 1028 1029 1030 1031 1032 1033 1034 1035 1036 1037 1038 1039 1040 1041 1042 1043 1044 1045 1046 1047 1048 1049 1050 1051 1052 1053 1054 1055 1056 1057 1058 1059 1060 1061 1062 1063 1064 1065 1066 1067 1068 1069 1070 1071 1072 1073 1074 1075 1076 1077 1078 1079 1080 1081 1082 1083 1084 1085 1086 1087 1088 1089 1090 1091 1092 1093 1094 1095 1096 1097 1098 1099 1100 1101 1102 1103 1104 1105 1106 1107 1108 1109 1110 1111 1112 1113 1114 1115 1116 1117 1118 1119 1120 1121 1122 1123 1124 1125 1126 1127 1128 1129 1130 1131 1132 1133 1134 1135 1136 1137 1138 1139 1140 1141 1142 1143 1144 1145 1146 1147 1148 1149 1150 1151 1152 1153 1154 1155 1156 1157 1158 1159 1160 1161 1162 1163 1164 1165 1166 1167 1168 1169 1170 1171 1172 1173 1174 1175 1176 1177 1178 1179 1180 1181 1182 1183 1184 1185 1186 1187 1188 1189 1190 1191 1192 1193 1194 1195 1196 1197 1198 1199 1200 1201 1202 1203 1204 1205 1206 1207 1208 1209 1210 1211 1212 1213 1214 1215 1216 1217 1218 1219 1220 1221 1222 1223 1224 1225 1226 1227 1228 1229 1230 1231 1232 1233 1234 1235 1236 1237 1238 1239 1240 1241 1242 1243 1244 1245 1246 1247 1248 1249 1250 1251 1252 1253 1254 1255 1256 1257 1258 1259 1260 1261 1262 1263 1264 1265 1266 1267 1268 1269 1270 1271 1272 1273 1274 1275 1276 1277 1278 1279 1280 1281 1282 1283 1284 1285 1286 1287 1288 1289 1290 1291 1292 1293 1294 1295 1296 1297 1298 1299 1300 1301 1302 1303 1304 1305 1306 1307 1308 1309 1310 1311 1312 1313 1314 1315 1316 1317 1318 1319 1320 1321 1322 1323 1324 1325 1326 1327 1328 1329 1330 1331 1332 1333 1334 1335 1336 1337 1338 1339 1340 1341 1342 1343 1344 1345 1346 1347 1348 1349 1350 1351 1352 1353 1354 1355 1356 1357 1358 1359 1360 1361 1362 1363 1364 1365 1366 1367 1368 1369 1370 1371 1372 1373 1374 1375 1376 1377 1378 1379 1380 1381 1382 1383 1384 1385 1386 1387 1388 1389 1390 1391 1392 1393 1394 1395 1396 1397 1398 1399 1400 1401 1402 1403 1404 1405 1406 1407 1408 1409 1410 1411 1412 1413 1414 1415 1416 1417 1418 1419 1420 1421 1422 1423 1424 1425 1426 1427 1428 1429 1430 1431 1432 1433 1434 1435 1436 1437 1438 1439 1440 1441 1442 1443 1444 1445 1446 1447 1448 1449 1450 1451 1452 1453 1454 1455 1456 1457 1458 1459 1460 1461 1462 1463 1464 1465 1466 1467 1468 1469 1470 1471 1472 1473 1474 1475 1476 1477 1478 1479 1480 1481 1482 1483 1484 1485 1486 1487 1488 1489 1490 1491 1492 1493 1494 1495 1496 1497 1498 1499 1500 1501 1502 1503 1504 1505 1506 1507 1508 1509 1510 1511 1512 1513 1514 1515 1516 1517 1518 1519 1520 1521 1522 1523 1524 1525 1526 1527 1528 1529 1530 1531 1532 1533 1534 1535 1536 1537 1538 1539 1540 1541 1542 1543 1544 1545 1546 1547 1548 1549 1550 1551 1552 1553 1554 1555 1556 1557 1558 1559 1560 1561 1562 1563 1564 1565 1566 1567 1568 1569 1570 1571 1572 1573 1574 1575 1576 1577 1578 1579 1580 1581 1582 1583 1584 1585 1586 1587 1588 1589 1590 1591 1592 1593 1594 1595 1596 1597 1598 1599 1600 1601 1602 1603 1604 1605 1606 1607 1608 1609 1610 1611 1612 1613 1614 1615 1616 1617 1618 1619 1620 1621 1622 1623 1624 1625 1626 1627 1628 1629 1630 1631 1632 1633 1634 1635 1636 1637 1638 1639 1640 1641 1642 1643 1644 1645 1646 1647 1648 1649 1650 1651 1652 1653 1654 1655 1656 1657 1658 1659 1660 1661 1662 1663 1664 1665 1666 1667 1668 1669 1670 1671 1672 1673 1674 1675 1676 1677 1678 1679 1680 1681 1682 1683 1684 1685 1686 1687 1688 1689 1690 1691 1692 1693 1694 1695 1696 1697 1698 1699 1700 1701 1702 1703 1704 1705 1706 1707 1708 1709 1710 1711 1712 1713 1714 1715 1716 1717 1718 1719 1720 1721 1722 1723 1724 1725 1726 1727 1728 1729 1730 1731 1732 1733 1734 1735 1736 1737 1738 1739 1740 1741 1742 1743 1744 1745 1746 1747 1748 1749 1750 1751 1752 1753 1754 1755 1756 1757 1758 1759 1760 1761 1762 1763 1764 1765 1766 1767 1768 1769 1770 1771 1772 1773 1774 1775 1776 1777 1778 1779 1780 1781 1782 1783 1784 1785 1786 1787 1788 1789 1790 1791 1792 1793 1794 1795 1796 1797 1798 1799 1800 1801 1802 1803 1804 1805 1806 1807 1808 1809 1810 1811 1812 1813 1814 1815 1816 1817 1818 1819 1820 1821 1822 1823 1824 1825 1826 1827 1828 1829 1830 1831 1832 1833 1834 1835 1836 1837 1838 1839 1840 1841 1842 1843 1844 1845 1846 1847 1848 1849 1850 1851 1852 1853 1854 1855 1856 1857 1858 1859 1860 1861 1862 1863 1864 1865 1866 1867 1868 1869 1870 1871 1872 1873 1874 1875 1876 1877 1878 1879 1880 1881 1882 1883 1884 1885 1886 1887 1888 1889 1890 1891 1892 1893 1894 1895 1896 1897 1898 1899 1900 1901 1902 1903 1904 1905 1906 1907 1908 1909 1910 1911 1912 1913 1914 1915 1916 1917 1918 1919 1920 1921 1922 1923 1924 1925 1926 1927 1928 1929 1930 1931 1932 1933 1934 1935 1936 1937 1938 1939 1940 1941 1942 1943 1944 1945 1946 1947 1948 1949 1950 1951 1952 1953 1954 1955 1956 1957 1958 1959 1960 1961 1962 1963 1964 1965 1966 1967 1968 1969 1970 1971 1972 1973 1974 1975 1976 1977 1978 1979 1980 1981 1982 1983 1984 1985 1986 1987 1988 1989 1990 1991 1992 1993 1994 1995 1996 1997 1998 1999 2000 2001 2002 2003 2004 2005 2006 2007 2008 2009 2010 2011 2012 2013 2014 2015 2016 2017 2018 2019 2020 2021 2022 2023 2024 2025 2026 2027 2028 2029 2030 2031 2032 2033 2034 2035 2036 2037 2038 2039 2040 2041 2042 2043 2044 2045 2046 2047 2048 2049 2050 2051 2052 2053 2054 2055 2056 2057 2058 2059 2060 2061 2062 2063 2064 2065 2066 2067 2068 2069 2070 2071 2072 2073 2074 2075 2076 2077 2078 2079 2080 2081 2082 2083 2084 2085 2086 2087 2088 2089 2090 2091 2092 2093 2094 2095 2096 2097 2098 2099 2100 2101 2102 2103 2104 2105 2106 2107 2108 2109 2110 2111 2112 2113 2114 2115 2116 2117 2118 2119 2120 2121 2122 2123 2124 2125 2126 2127 2128 2129 2130 2131 2132 2133 2134 2135 2136 2137 2138 2139 2140 2141 2142 2143 2144 2145 2146 2147 2148 2149 2150 2151 2152 2153 2154 2155 2156 2157 2158 2159 2160 2161 2162 2163 2164 2165 2166 2167 2168 2169 2170 2171 2172 2173 2174 2175 2176 2177 2178 2179 2180 2181 2182 2183 2184 2185 2186 2187 2188 2189 2190 2191 2192 2193 2194 2195 2196 2197 2198 2199 2200 2201 2202 2203 2204 2205 2206 2207 2208 2209 2210 2211 2212 2213 2214 2215 2216 2217 2218 2219 2220 2221 2222 2223 2224 2225 2226 2227 2228 2229 2230 2231 2232 2233 2234 2235 2236 2237 2238 2239 2240 2241 2242 2243 2244 2245 2246 2247 2248 2249 2250 2251 2252 2253 2254 2255 2256 2257 2258 2259 2260 2261 2262 2263 2264 2265 2266 2267 2268 2269 2270 2271 2272 2273 2274 2275 2276 2277 2278 2279 2280 2281 2282 2283 2284 2285 2286 2287 2288 2289 2290 2291 2292 2293 2294 2295 2296 2297 2298 2299 2300 2301 2302 2303 2304 2305 2306 2307 2308 2309 2310 2311 2312 2313 2314 2315 2316 2317 2318 2319 2320 2321 2322 2323 2324 2325 2326 2327 2328 2329 2330 2331 2332 2333 2334 2335 2336 2337 2338 2339 2340 2341 2342 2343 2344 2345 2346 2347 2348 2349 2350 2351 2352 2353 2354 2355 2356 2357 2358 2359 2360 2361 2362 2363 2364 2365 2366 2367 2368 2369 2370 2371 2372 2373 2374 2375 2376 2377 2378 2379 2380 2381 2382 2383 2384 2385 2386 2387 2388 2389 2390 2391 2392 2393 2394 2395 2396 2397 2398 2399 2400 2401 2402 2403 2404 2405 2406 2407 2408 2409 2410 2411 2412 2413 2414 2415 2416 2417 2418 2419 2420 2421 2422 2423 2424 2425 2426 2427 2428 2429 2430 2431 2432 2433 2434 2435 2436 2437 2438 2439 2440 2441 2442 2443 2444 2445 2446 2447 2448 2449 2450 2451 2452 2453 2454 2455 2456 2457 2458 2459 2460 2461 2462 2463 2464 2465 2466 2467 2468 2469 2470 2471 2472 2473 2474 2475 2476 2477 2478 2479 2480 2481 2482 2483 2484 2485 2486 2487 2488 2489 2490 2491 2492 2493 2494 2495 2496 2497 2498 2499 2500 2501 2502 2503 2504 2505 2506 2507 2508 2509 2510 2511 2512 2513 2514 2515 2516 2517 2518 2519 2520 2521 2522 2523 2524 2525 2526 2527 2528 2529 2530 2531 2532 2533 2534 2535 2536 2537 2538 2539 2540 2541 2542 2543 2544 2545 2546 2547 2548 2549 2550 2551 2552 2553 2554 2555 2556 2557 2558 2559 2560 2561 2562 2563 2564 2565 2566 2567 2568 2569 2570 2571 2572 2573 2574 2575 2576 2577 2578 2579 2580 2581 2582 2583 2584 2585 2586 2587 2588 2589 2590 2591 2592 2593 2594 2595 2596 2597 2598 2599 2600 2601 2602 2603 2604 2605 2606 2607 2608 2609 2610 2611 2612 2613 2614 2615 2616 2617 2618 2619 2620 2621 2622 2623 2624 2625 2626 2627 2628 2629 2630 2631 2632 2633 2634 2635 2636 2637 2638 2639 2640 2641 2642 2643 2644 2645 2646 2647 2648 2649 2650 2651 2652 2653 2654 2655 2656 2657 2658 2659 2660 2661 2662 2663 2664 2665 2666 2667 2668 2669 2670 2671 2672 2673 2674 2675 2676 2677 2678 2679 2680 2681 2682 2683 2684 2685 2686 2687 2688 2689 2690 2691 2692 2693 2694 2695 2696 2697 2698 2699 2700 2701 2702 2703 2704 2705 2706 2707 2708 2709 2710 2711 2712 2713 2714 2715 2716 2717 2718 2719 2720 2721 2722 2723 2724 2725 2726 2727 2728 2729 2730 2731 2732 2733 2734 2735 2736 2737 2738 2739 2740 2741 2742 2743 2744 2745 2746 2747 2748 2749 2750 2751 2752 2753 2754 2755 2756 2757 2758 2759 2760 2761 2762 2763 2764 2765 2766 2767 2768 2769 2770 2771 2772 2773 2774 2775 2776 2777 2778 2779 2780 2781 2782 2783 2784 2785 2786 2787 2788 2789 2790 2791 2792 2793 2794 2795 2796 2797 2798 2799 2800 2801 2802 2803 2804 2805 2806 2807 2808 2809 2810 2811 2812 2813 2814 2815 2816 2817 2818 2819 2820 2821 2822 2823 2824 2825 2826 2827 2828 2829 2830 2831 2832 2833 2834 2835 2836 2837 2838 2839 2840 2841 2842 2843 2844 2845 2846 2847 2848 2849 2850 2851 2852 2853 2854 2855 2856 2857 2858 2859 2860 2861 2862 2863 2864 2865 2866 2867 2868 2869 2870 2871 2872 2873 2874 2875 2876 2877 2878 2879 2880 2881 2882 2883 2884 2885 2886 2887 2888 2889 2890 2891 2892 2893 2894 2895 2896 2897 2898 2899 2900 2901 2902 2903 2904 2905 2906 2907 2908 2909 2910 2911 2912 2913 2914 2915 2916 2917 2918 2919 2920 2921 2922 2923 2924 2925 2926 2927 2928 2929 2930 2931 2932 2933 2934 2935 2936 2937 2938 2939 2940 2941 2942 2943 2944 2945 2946 2947 2948 2949 2950 2951 2952 2953 2954 2955 2956 2957 2958 2959 2960 2961 2962 2963 2964 2965 2966 2967 2968 2969 2970 2971 2972 2973 2974 2975 2976 2977 2978 2979 2980 2981 2982 2983 2984 2985 2986 2987 2988 2989 2990 2991 2992 2993 2994 2995 2996 2997 2998 2999 3000 3001 3002 3003 3004 3005 3006 3007 3008 3009 3010 3011 3012 3013 3014 3015 3016 3017 3018 3019 3020 3021 3022 3023 3024 3025 3026 3027 3028 3029 3030 3031 3032 3033 3034 3035 3036 3037 3038 3039 3040 3041 3042 3043 3044 3045 3046 3047 3048 3049 3050 3051 3052 3053 3054 3055 3056 3057 3058 3059 3060 3061 3062 3063 3064 3065 3066 3067 3068 3069 3070 3071 3072 3073 3074 3075 3076 3077 3078 3079 3080 3081 3082 3083 3084 3085 3086 3087 3088 3089 3090 3091 3092 3093 3094 3095 3096 3097 3098 3099 3100 3101 3102 3103 3104 3105 3106 3107 3108 3109 3110 3111 3112 3113 3114 3115 3116 3117 3118 3119 3120 3121 3122 3123 3124 3125 3126 3127 3128 3129 3130 3131 3132 3133 3134 3135 3136 3137 3138 3139 3140 3141 3142 3143 3144 3145 3146 3147 3148 3149 3150 3151 3152 3153 3154 3155 3156 3157 3158 3159 3160 3161 3162 3163 3164 3165 3166 3167 3168 3169 3170 3171 3172 3173 3174 3175 3176 3177 3178 3179 3180 3181 3182 3183 3184 3185 3186 3187 3188 3189 3190 3191 3192 3193 3194 3195 3196 3197 3198 3199 3200 3201 3202 3203 3204 3205 3206 3207 3208 3209 3210 3211 3212 3213 3214 3215 3216 3217 3218 3219 3220 3221 3222 3223 3224 3225 3226 3227 3228 3229 3230 3231 3232 3233 3234 3235 3236 3237 3238 3239 3240 3241 3242 3243 3244 3245 3246 3247 3248 3249 3250 3251 3252 3253 3254 3255 3256 3257 3258 3259 3260 3261 3262 3263 3264 3265 3266 3267 3268 3269 3270 3271 3272 3273 3274 3275 3276 3277 3278 3279 3280 3281 3282 3283 3284 3285 3286 3287 3288 3289 3290 3291 3292 3293 3294 3295 3296 3297 3298 3299 3300 3301 3302 3303 3304 3305 3306 3307 3308 3309 3310 3311 3312 3313 3314 3315 3316 3317 3318 3319 3320 3321 3322 3323 3324 3325 3326 3327 3328 3329 3330 3331 3332 3333 3334 3335 3336 3337 3338 3339 3340 3341 3342 3343 3344 3345 3346 3347 3348 3349 3350 3351 3352 3353 3354 3355 3356 3357 3358 3359 3360 3361 3362 3363 3364 3365 3366 3367 3368 3369 3370 3371 3372 3373 3374 3375 3376 3377 3378 3379 3380 3381 3382 3383 3384 3385 3386 3387 3388 3389 3390 3391 3392 3393 3394 3395 3396 3397 3398 3399 3400 3401 3402 3403 3404 3405 3406 3407 3408 3409 3410 3411 3412 3413 3414 3415 3416 3417 3418 3419 3420 3421 3422 3423 3424 3425 3426 3427 3428 3429 3430 3431 3432 3433 3434 3435 3436 3437 3438 3439 3440 3441 3442 3443 3444 3445 3446 3447 3448 3449 3450 3451 3452 3453 3454 3455 3456 3457 3458 3459 3460 3461 3462 3463 3464 3465 3466 3467 3468 3469 3470 3471 3472 3473 3474 3475 3476 3477 3478 3479 3480 3481 3482 3483 3484 3485 3486 3487 3488 3489 3490 3491 3492 3493 3494 3495 3496 3497 3498 3499 3500 3501 3502 3503 3504 3505 3506 3507 3508 3509 3510 3511 3512 3513 3514 3515 3516 3517 3518 3519 3520 3521 3522 3523 3524 3525 3526 3527 3528 3529 3530 3531 3532 3533 3534 3535 3536 3537 3538 3539 3540 3541 3542 3543 3544 3545 3546 3547 3548 3549 3550 3551 3552 3553 3554 3555 3556 3557 3558 3559 3560 3561 3562 3563 3564 3565 3566 3567 3568 3569 3570 3571 3572 3573 3574 3575 3576 3577 3578 3579 3580 3581 3582 3583 3584 3585 3586 3587 3588 3589 3590 3591 3592 3593 3594 3595 3596 3597 3598 3599 3600 3601 3602 3603 3604 3605 3606 3607 3608 3609 3610 3611 3612 3613 3614 3615 3616 3617 3618 3619 3620 3621 3622 3623 3624 3625 3626 3627 3628 3629 3630 3631 3632 3633 3634 3635 3636 3637 3638 3639 3640 3641 3642 3643 3644 3645 3646 3647 3648 3649 3650 3651 3652 3653 3654 3655 3656 3657 3658 3659 3660 3661 3662 3663 3664 3665 3666 3667 3668 3669 3670 3671 3672 3673 3674 3675 3676 3677 3678 3679 3680 3681 3682 3683 3684 3685 3686 3687 3688 3689 3690 3691 3692 3693 3694 3695 3696 3697 3698 3699 3700 3701 3702 3703 3704 3705 3706 3707 3708 3709 3710 3711 3712 3713 3714 3715 3716 3717 3718 3719 3720 3721 3722 3723 3724 3725 3726 3727 3728 3729 3730 3731 3732 3733 3734 3735 3736 3737 3738 3739 3740 3741 3742 3743 3744 3745 3746 3747 3748 3749 3750 3751 3752 3753 3754 3755 3756 3757 3758 3759 3760 3761 3762 3763 3764 3765 3766 3767 3768 3769 3770 3771 3772 3773 3774 3775 3776 3777 3778 3779 3780 3781 3782 3783 3784 3785 3786 3787 3788 3789 3790 3791 3792 3793 3794 3795 3796 3797 3798 3799 3800 3801 3802 3803 3804 3805 3806 3807 3808 3809 3810 3811 3812 3813 3814 3815 3816 3817 3818 3819 3820 3821 3822 3823 3824 3825 3826 3827 3828 3829 3830 3831 3832 3833 3834 3835 3836 3837 3838 3839 3840 3841 3842 3843 3844 3845 3846 3847 3848 3849 3850 3851 3852 3853 3854 3855 3856 3857 3858 3859 3860 3861 3862 3863 3864 3865 3866 3867 3868 3869 3870 3871 3872 3873 3874 3875 3876 3877 3878 3879 3880 3881 3882 3883 3884 3885 3886 3887 3888 3889 3890 3891 3892 3893 3894 3895 3896 3897 3898 3899 3900 3901 3902 3903 3904 3905 3906 3907 3908 3909 3910 3911 3912 3913 3914 3915 3916 3917 3918 3919 3920 3921 3922 3923 3924 3925 3926 3927 3928 3929 3930 3931 3932 3933 3934 3935 3936 3937 3938 3939 3940 3941 3942 3943 3944 3945 3946 3947 3948 3949 3950 3951 3952 3953 3954 3955 3956 3957 3958 3959 3960 3961 3962 3963 3964 3965 3966 3967 3968 3969 3970 3971 3972 3973 3974 3975 3976 3977 3978 3979 3980 3981 3982 3983 3984 3985 3986 3987 3988 3989 3990 3991 3992 3993 3994 3995 3996 3997 3998 3999 4000 4001 4002 4003 4004 4005 4006 4007 4008 4009 4010 4011 4012 4013 4014 4015 4016 4017 4018 4019 4020 4021 4022 4023 4024 4025 4026 4027 4028 4029 4030 4031 4032 4033 4034 4035 4036 4037 4038 4039 4040 4041 4042 4043 4044 4045 4046 4047 4048 4049 4050 4051 4052 4053 4054 4055 4056 4057 4058 4059 4060 4061 4062 4063 4064 4065 4066 4067 4068 4069 4070 4071 4072 4073 4074 4075 4076 4077 4078 4079 4080 4081 4082 4083 4084 4085 4086 4087 4088 4089 4090 4091 4092 4093 4094 4095 4096 4097 4098 4099 4100 4101 4102 4103 4104 4105 4106 4107 4108 4109 4110 4111 4112 4113 4114 4115 4116 4117 4118 4119 4120 4121 4122 4123 4124 4125 4126 4127 4128 4129 4130 4131 4132 4133 4134 4135 4136 4137 4138 4139 4140 4141 4142 4143 4144 4145 4146 4147 4148 4149 4150 4151 4152 4153 4154 4155 4156 4157 4158 4159 4160 4161 4162 4163 4164 4165 4166 4167 4168 4169 4170 4171 4172 4173 4174 4175 4176 4177 4178 4179 4180 4181 4182 4183 4184 4185 4186 4187 4188 4189 4190 4191 4192 4193 4194 4195 4196 4197 4198 4199 4200 4201 4202 4203 4204 4205 4206 4207 4208 4209 4210 4211 4212 4213 4214 4215 4216 4217 4218 4219 4220 4221 4222 4223 4224 4225 4226 4227 4228 4229 4230 4231 4232 4233 4234 4235 4236 4237 4238 4239 4240 4241 4242 4243 4244 4245 4246 4247 4248 4249 4250 4251 4252 4253 4254 4255 4256 4257 4258 4259 4260 4261 4262 4263 4264 4265 4266 4267 4268 4269 4270 4271 4272 4273 4274 4275 4276 4277 4278 4279 4280 4281 4282 4283 4284 4285 4286 4287 4288 4289 4290 4291 4292 4293 4294 4295 4296 4297 4298 4299 4300 4301 4302 4303 4304 4305 4306 4307 4308 4309 4310 4311 4312 4313 4314 4315 4316 4317 4318 4319 4320 4321 4322 4323 4324 4325 4326 4327 4328 4329 4330 4331 4332 4333 4334 4335 4336 4337 4338 4339 4340 4341 4342 4343 4344 4345 4346 4347 4348 4349 4350 4351 4352 4353 4354 4355 4356 4357 4358 4359 4360 4361 4362 4363 4364 4365 4366 4367 4368 4369 4370 4371 4372 4373 4374 4375 4376 4377 4378 4379 4380 4381 4382 4383 4384 4385 4386 4387 4388 4389 4390 4391 4392 4393 4394 4395 4396 4397 4398 4399 4400 4401 4402 4403 4404 4405 4406 4407 4408 4409 4410 4411 4412 4413 4414 4415 4416 4417 4418 4419 4420 4421 4422 4423 4424 4425 4426 4427 4428 4429 4430 4431 4432 4433 4434 4435 4436 4437 4438 4439 4440 4441 4442 4443 4444 4445 4446 4447 4448 4449 4450 4451 4452 4453 4454 4455 4456 4457 4458 4459 4460 4461 4462 4463 4464 4465 4466 4467 4468 4469 4470 4471 4472 4473 4474 4475 4476 4477 4478 4479 4480 4481 4482 4483 4484 4485 4486 4487 4488 4489 4490 4491 4492 4493 4494 4495 4496 4497 4498 4499 4500 4501 4502 4503 4504 4505 4506 4507 4508 4509 4510 4511 4512 4513 4514 4515 4516 4517 4518 4519 4520 4521 4522 4523 4524 4525 4526 4527 4528 4529 4530 4531 4532 4533 4534 4535 4536 4537 4538 4539 4540 4541 4542 4543 4544 4545 4546 4547 4548 4549 4550 4551 4552 4553 4554 4555 4556 4557 4558 4559 4560 4561 4562 4563 4564 4565 4566 4567 4568 4569 4570 4571 4572 4573 4574 4575 4576 4577 4578 4579 4580 4581 4582 4583 4584 4585 4586 4587 4588 4589 4590 4591 4592 4593 4594 4595 4596 4597 4598 4599 4600 4601 4602 4603 4604 4605 4606 4607 4608 4609 4610 4611 4612 4613 4614 4615 4616 4617 4618 4619 4620 4621 4622 4623 4624 4625 4626 4627 4628 4629 4630 4631 4632 4633 4634 4635 4636 4637 4638 4639 4640 4641 4642 4643 4644 4645 4646 4647 4648 4649 4650 4651 4652 4653 4654 4655 4656 4657 4658 4659 4660 4661 4662 4663 4664 4665 4666 4667 4668 4669 4670 4671 4672 4673 4674 4675 4676 4677 4678 4679 4680 4681 4682 4683 4684 4685 4686 4687 4688 4689 4690 4691 4692 4693 4694 4695 4696 4697 4698 4699 4700 4701 4702 4703 4704 4705 4706 4707 4708 4709 4710 4711 4712 4713 4714 4715 4716 4717 4718 4719 4720 4721 4722 4723 4724 4725 4726 4727 4728 4729 4730 4731 4732 4733 4734 4735 4736 4737 4738 4739 4740 4741 4742 4743 4744 4745 4746 4747 4748 4749 4750 4751 4752 4753 4754 4755 4756 4757 4758 4759 4760 4761 4762 4763 4764 4765 4766 4767 4768 4769 4770 4771 4772 4773 4774 4775 4776 4777 4778 4779 4780 4781 4782 4783 4784 4785 4786 4787 4788 4789 4790 4791 4792 4793 4794 4795 4796 4797 4798 4799 4800 4801 4802 4803 4804 4805 4806 4807 4808 4809 4810 4811 4812 4813 4814 4815 4816 4817 4818 4819 4820 4821 4822 4823 4824 4825 4826 4827 4828 4829 4830 4831 4832 4833 4834 4835 4836 4837 4838 4839 4840 4841 4842 4843 4844 4845 4846 4847 4848 4849 4850 4851 4852 4853 4854 4855 4856 4857 4858 4859 4860 4861 4862 4863 4864 4865 4866 4867 4868 4869 4870 4871 4872 4873 4874 4875 4876 4877 4878 4879 4880 4881 4882 4883 4884 4885 4886 4887 4888 4889 4890 4891 4892 4893 4894 4895 4896 4897 4898 4899 4900 4901 4902 4903 4904 4905 4906 4907 4908 4909 4910 4911 4912 4913 4914 4915 4916 4917 4918 4919 4920 4921 4922 4923 4924 4925 4926 4927 4928 4929 4930 4931 4932 4933 4934 4935 4936 4937 4938 4939 4940 4941 4942 4943 4944 4945 4946 4947 4948 4949 4950 4951 4952 4953 4954 4955 4956 4957 4958 4959 4960 4961 4962 4963 4964 4965 4966 4967 4968 4969 4970 4971 4972 4973 4974 4975 4976 4977 4978 4979 4980 4981 4982 4983 4984 4985 4986 4987 4988 4989 4990 4991 4992 4993 4994 4995 4996 4997 4998 4999 5000 5001 5002 5003 5004 5005 5006 5007 5008 5009 5010 5011 5012 5013 5014 5015 5016 5017 5018 5019 5020 5021 5022 5023 5024 5025 5026 5027 5028 5029 5030 5031 5032 5033 5034 5035 5036 5037 5038 5039 5040 5041 5042 5043 5044 5045 5046 5047 5048 5049 5050 5051 5052 5053 5054 5055 5056 5057 5058 5059 5060 5061 5062 5063 5064 5065 5066 5067 5068 5069 5070 5071 5072 5073 5074 5075 5076 5077 5078 5079 5080 5081 5082 5083 5084 5085 5086 5087 5088 5089 5090 5091 5092 5093 5094 5095 5096 5097 5098 5099 5100 5101 5102 5103 5104 5105 5106 5107 5108 5109 5110 5111 5112 5113 5114 5115 5116 5117 5118 5119 5120 5121 5122 5123 5124 5125 5126 5127 5128 5129 5130 5131 5132 5133 5134 5135 5136 5137 5138 5139 5140 5141 5142 5143 5144 5145 5146 5147 5148 5149 5150 5151 5152 5153 5154 5155 5156 5157 5158 5159 5160 5161 5162 5163 5164 5165 5166 5167 5168 5169 5170 5171 5172 5173 5174 5175 5176 5177 5178 5179 5180 5181 5182 5183 5184 5185 5186 5187 5188 5189 5190 5191 5192 5193 5194 5195 5196 5197 5198 5199 5200 5201 5202 5203 5204 5205 5206 5207 5208 5209 5210 5211 5212 5213 5214 5215 5216 5217 5218 5219 5220 5221 5222 5223 5224 5225 5226 5227 5228 5229 5230 5231 5232 5233 5234 5235 5236 5237 5238 5239 5240 5241 5242 5243 5244 5245 5246 5247 5248 5249 5250 5251 5252 5253 5254 5255 5256 5257 5258 5259 5260 5261 5262 5263 5264 5265 5266 5267 5268 5269 5270 5271 5272 5273 5274 5275 5276 5277 5278 5279 5280 5281 5282 5283 5284 5285 5286 5287 5288 5289 5290 5291 5292 5293 5294 5295 5296 5297 5298 5299 5300 5301 5302 5303 5304 5305 5306 5307 5308 5309 5310 5311 5312 5313 5314 5315 5316 5317 5318 5319 5320 5321 5322 5323 5324 5325 5326 5327 5328 5329 5330 5331 5332 5333 5334 5335 5336 5337 5338 5339 5340 5341 5342 5343 5344 5345 5346 5347 5348 5349 5350 5351 5352 5353 5354 5355 5356 5357 5358 5359 5360 5361 5362 5363 5364 5365 5366 5367 5368 5369 5370 5371 5372 5373 5374 5375 5376 5377 5378 5379 5380 5381 5382 5383 5384 5385 5386 5387 5388 5389 5390 5391 5392 5393 5394 5395 5396 5397 5398 5399 5400 5401 5402 5403 5404 5405 5406 5407 5408 5409 5410 5411 5412 5413 5414 5415 5416 5417 5418 5419 5420 5421 5422 5423 5424 5425 5426 5427 5428 5429 5430 5431 5432 5433 5434 5435 5436 5437 5438 5439 5440 5441 5442 5443 5444 5445 5446 5447 5448 5449 5450 5451 5452 5453 5454 5455 5456 5457 5458 5459 5460 5461 5462 5463 5464 5465 5466 5467 5468 5469 5470 5471 5472 5473 5474 5475 5476 5477 5478 5479 5480 5481 5482 5483 5484 5485 5486 5487 5488 5489 5490 5491 5492 5493 5494 5495 5496 5497 5498 5499 5500 5501 5502 5503 5504 5505 5506 5507 5508 5509 5510 5511 5512 5513 5514 5515 5516 5517 5518 5519 5520 5521 5522 5523 5524 5525 5526 5527 5528 5529 5530 5531 5532 5533 5534 5535 5536 5537 5538 5539 5540 5541 5542 5543 5544 5545 5546 5547 5548 5549 5550 5551 5552 5553 5554 5555 5556 5557 5558 5559 5560 5561 5562 5563 5564 5565 5566 5567 5568 5569 5570 5571 5572 5573 5574 5575 5576 5577 5578 5579 5580 5581 5582 5583 5584 5585 5586 5587 5588 5589 5590 5591 5592 5593 5594 5595 5596 5597 5598 5599 5600 5601 5602 5603 5604 5605 5606 5607 5608 5609 5610 5611 5612 5613 5614 5615 5616 5617 5618 5619 5620 5621 5622 5623 5624 5625 5626 5627 5628 5629 5630 5631 5632 5633 5634 5635 5636 5637 5638 5639 5640 5641 5642 5643 5644 5645 5646 5647 5648 5649 5650 5651 5652 5653 5654 5655 5656 5657 5658 5659 5660 5661 5662 5663 5664 5665 5666 5667 5668 5669 5670 5671 5672 5673 5674 5675 5676 5677 5678 5679 5680 5681 5682 5683 5684 5685 5686 5687 5688 5689 5690 5691 5692 5693 5694 5695 5696 5697 5698 5699 5700 5701 5702 5703 5704 5705 5706 5707 5708 5709 5710 5711 5712 5713 5714 5715 5716 5717 5718 5719 5720 5721 5722 5723 5724 5725 5726 5727 5728 5729 5730 5731 5732 5733 5734 5735 5736 5737 5738 5739 5740 5741 5742 5743 5744 5745 5746 5747 5748 5749 5750 5751 5752 5753 5754 5755 5756 5757 5758 5759 5760 5761 5762 5763 5764 5765 5766 5767 5768 5769 5770 5771 5772 5773 5774 5775 5776 5777 5778 5779 5780 5781 5782 5783 5784 5785 5786 5787 5788 5789 5790 5791 5792 5793 5794 5795 5796 5797 5798 5799 5800 5801 5802 5803 5804 5805 5806 5807 5808 5809 5810 5811 5812 5813 5814 5815 5816 5817 5818 5819 5820 5821 5822 5823 5824 5825 5826 5827 5828 5829 5830 5831 5832 5833 5834 5835 5836 5837 5838 5839 5840 5841 5842 5843 5844 5845 5846 5847 5848 5849 5850 5851 5852 5853 5854 5855 5856 5857 5858 5859 5860 5861 5862 5863 5864 5865 5866 5867 5868 5869 5870 5871 5872 5873 5874 5875 5876 5877 5878 5879 5880 5881 5882 5883 5884 5885 5886 5887 5888 5889 5890 5891 5892 5893 5894 5895 5896 5897 5898 5899 5900 5901 5902 5903 5904 5905 5906 5907 5908 5909 5910 5911 5912 5913 5914 5915 5916 5917 5918 5919 5920 5921 5922 5923 5924 5925 5926 5927 5928 5929 5930 5931 5932 5933 5934 5935 5936 5937 5938 5939 5940 5941 5942 5943 5944 5945 5946 5947 5948 5949 5950 5951 5952 5953 5954 5955 5956 5957 5958 5959 5960 5961 5962 5963 5964 5965 5966 5967 5968 5969 5970 5971 5972 5973 5974 5975 5976 5977 5978 5979 5980 5981 5982 5983 5984 5985 5986 5987 5988 5989 5990 5991 5992 5993 5994 5995 5996 5997 5998 5999 6000 6001 6002 6003 6004 6005 6006 6007 6008 6009 6010 6011 6012 6013 6014 6015 6016 6017 6018 6019 6020 6021 6022 6023 6024 6025 6026 6027 6028 6029 6030 6031 6032 6033 6034 6035 6036 6037 6038 6039 6040 6041 6042 6043 6044 6045 6046 6047 6048 6049 6050 6051 6052 6053 6054 6055 6056 6057 6058 6059 6060 6061 6062 6063 6064 6065 6066 6067 6068 6069 6070 6071 6072 6073 6074 6075 6076 6077 6078 6079 6080 6081 6082 6083 6084 6085 6086 6087 6088 6089 6090 6091 6092 6093 6094 6095 6096 6097 6098 6099 6100 6101 6102 6103 6104 6105 6106 6107 6108 6109 6110 6111 6112 6113 6114 6115 6116 6117 6118 6119 6120 6121 6122 6123 6124 6125 6126 6127 6128 6129 6130 6131 6132 6133 6134 6135 6136 6137 6138 6139 6140 6141 6142 6143 6144 6145 6146 6147 6148 6149 6150 6151 6152 6153 6154 6155 6156 6157 6158 6159 6160 6161 6162 6163 6164 6165 6166 6167 6168 6169 6170 6171 6172 6173 6174 6175 6176 6177 6178 6179 6180 6181 6182 6183 6184 6185 6186 6187 6188 6189 6190 6191 6192 6193 6194 6195 6196 6197 6198 6199 6200 6201 6202 6203 6204 6205 6206 6207 6208 6209 6210 6211 6212 6213 6214 6215 6216 6217 6218 6219 6220 6221 6222 6223 6224 6225 6226 6227 6228 6229 6230 6231 6232 6233 6234 6235 6236 6237 6238 6239 6240 6241 6242 6243 6244 6245 6246 6247 6248 6249 6250 6251 6252 6253 6254 6255 6256 6257 6258 6259 6260 6261 6262 6263 6264 6265 6266 6267 6268 6269 6270 6271 6272 6273 6274 6275 6276 6277 6278 6279 6280 6281 6282 6283 6284 6285 6286 6287 6288 6289 6290 6291 6292 6293 6294 6295 6296 6297 6298 6299 6300 6301 6302 6303 6304 6305 6306 6307 6308 6309 6310 6311 6312 6313 6314 6315 6316 6317 6318 6319 6320 6321 6322 6323 6324 6325 6326 6327 6328 6329 6330 6331 6332 6333 6334 6335 6336 6337 6338 6339 6340 6341 6342 6343 6344 6345 6346 6347 6348 6349 6350 6351 6352 6353 6354 6355 6356 6357 6358 6359 6360 6361 6362 6363 6364 6365 6366 6367 6368 6369 6370 6371 6372 6373 6374 6375 6376 6377 6378 6379 6380 6381 6382 6383 6384 6385 6386 6387 6388 6389 6390 6391 6392 6393 6394 6395 6396 6397 6398 6399 6400 6401 6402 6403 6404 6405 6406 6407 6408 6409 6410 6411 6412 6413 6414 6415 6416 6417 6418 6419 6420 6421 6422 6423 6424 6425 6426 6427 6428 6429 6430 6431 6432 6433 6434 6435 6436 6437 6438 6439 6440 6441 6442 6443 6444 6445 6446 6447 6448 6449 6450 6451 6452 6453 6454 6455 6456 6457 6458 6459 6460 6461 6462 6463 6464 6465 6466 6467 6468 6469 6470 6471 6472 6473 6474 6475 6476 6477 6478 6479 6480 6481 6482 6483 6484 6485 6486 6487 6488 6489 6490 6491 6492 6493 6494 6495 6496 6497 6498 6499 6500 6501 6502 6503 6504 6505 6506 6507 6508 6509 6510 6511 6512 6513 6514 6515 6516 6517 6518 6519 6520 6521 6522 6523 6524 6525 6526 6527 6528 6529 6530 6531 6532 6533 6534 6535 6536 6537 6538 6539 6540 6541 6542 6543 6544 6545 6546 6547 6548 6549 6550 6551 6552 6553 6554 6555 6556 6557 6558 6559 6560 6561 6562 6563 6564 6565 6566 6567 6568 6569 6570 6571 6572 6573 6574 6575 6576 6577 6578 6579 6580 6581 6582 6583 6584 6585 6586 6587 6588 6589 6590 6591 6592 6593 6594 6595 6596 6597 6598 6599 6600 6601 6602 6603 6604 6605 6606 6607 6608 6609 6610 6611 6612 6613 6614 6615 6616 6617 6618 6619 6620 6621 6622 6623 6624 6625 6626 6627 6628 6629 6630 6631 6632 6633 6634 6635 6636 6637 6638 6639 6640 6641 6642 6643 6644 6645 6646 6647 6648 6649 6650 6651 6652 6653 6654 6655 6656 6657 6658 6659 6660 6661 6662 6663 6664 6665 6666 6667 6668 6669 6670 6671 6672 6673 6674 6675 6676 6677 6678 6679 6680 6681 6682 6683 6684 6685 6686 6687 6688 6689 6690 6691 6692 6693 6694 6695 6696 6697 6698 6699 6700 6701 6702 6703 6704 6705 6706 6707 6708 6709 6710 6711 6712 6713 6714 6715 6716 6717 6718 6719 6720 6721 6722 6723 6724 6725 6726 6727 6728 6729 6730 6731 6732 6733 6734 6735 6736 6737 6738 6739 6740 6741 6742 6743 6744 6745 6746 6747 6748 6749 6750 6751 6752 6753 6754 6755 6756 6757 6758 6759 6760 6761 6762 6763 6764 6765 6766 6767 6768 6769 6770 6771 6772 6773 6774 6775 6776 6777 6778 6779 6780 6781 6782 6783 6784 6785 6786 6787 6788 6789 6790 6791 6792 6793 6794 6795 6796 6797 6798 6799 6800 6801 6802 6803 6804 6805 6806 6807 6808 6809 6810 6811 6812 6813 6814 6815 6816 6817 6818 6819 6820 6821 6822 6823 6824 6825 6826 6827 6828 6829 6830 6831 6832 6833 6834 6835 6836 6837 6838 6839 6840 6841 6842 6843 6844 6845 6846 6847 6848 6849 6850 6851 6852 6853 6854 6855 6856 6857 6858 6859 6860 6861 6862 6863 6864 6865 6866 6867 6868 6869 6870 6871 6872 6873 6874 6875 6876 6877 6878 6879 6880 6881 6882 6883 6884 6885 6886 6887 6888 6889 6890 6891 6892 6893 6894 6895 6896 6897 6898 6899 6900 6901 6902 6903 6904 6905 6906 6907 6908 6909 6910 6911 6912 6913 6914 6915 6916 6917 6918 6919 6920 6921 6922 6923 6924 6925 6926 6927 6928 6929 6930 6931 6932 6933 6934 6935 6936 6937 6938 6939 6940 6941 6942 6943 6944 6945 6946 6947 6948 6949 6950 6951 6952 6953 6954 6955 6956 6957 6958 6959 6960 6961 6962 6963 6964 6965 6966 6967 6968 6969 6970 6971 6972 6973 6974 6975 6976 6977 6978 6979 6980 6981 6982 6983 6984 6985 6986 6987 6988 6989 6990 6991 6992 6993 6994 6995 6996 6997 6998 6999 7000 7001 7002 7003 7004 7005 7006 7007 7008 7009 7010 7011 7012 7013 7014 7015 7016 7017 7018 7019 7020 7021 7022 7023 7024 7025 7026 7027 7028 7029 7030 7031 7032 7033 7034 7035 7036 7037 7038 7039 7040 7041 7042 7043 7044 7045 7046 7047 7048 7049 7050 7051 7052 7053 7054 7055 7056 7057 7058 7059 7060 7061 7062 7063 7064 7065 7066 7067 7068 7069 7070 7071 7072 7073 7074 7075 7076 7077 7078 7079 7080 7081 7082 7083 7084 7085 7086 7087 7088 7089 7090 7091 7092 7093 7094 7095 7096 7097 7098 7099 7100 7101 7102 7103 7104 7105 7106 7107 7108 7109 7110 7111 7112 7113 7114 7115 7116 7117 7118 7119 7120 7121 7122 7123 7124 7125 7126 7127 7128 7129 7130 7131 7132 7133 7134 7135 7136 7137 7138 7139 7140 7141 7142 7143 7144 7145 7146 7147 7148 7149 7150 7151 7152 7153 7154 7155 7156 7157 7158 7159 7160 7161 7162 7163 7164 7165 7166 7167 7168 7169 7170 7171 7172 7173 7174 7175 7176 7177 7178 7179 7180 7181 7182 7183 7184 7185 7186 7187 7188 7189 7190 7191 7192 7193 7194 7195 7196 7197 7198 7199 7200 7201 7202 7203 7204 7205 7206 7207 7208 7209 7210 7211 7212 7213 7214 7215 7216 7217 7218 7219 7220 7221 7222 7223 7224 7225 7226 7227 7228 7229 7230 7231 7232 7233 7234 7235 7236 7237 7238 7239 7240 7241 7242 7243 7244 7245 7246 7247 7248 7249 7250 7251 7252 7253 7254 7255 7256 7257 7258 7259 7260 7261 7262 7263 7264 7265 7266 7267 7268 7269 7270 7271 7272 7273 7274 7275 7276 7277 7278 7279 7280 7281 7282 7283 7284 7285 7286 7287 7288 7289 7290 7291 7292 7293 7294 7295 7296 7297 7298 7299 7300 7301 7302 7303 7304 7305 7306 7307 7308 7309 7310 7311 7312 7313 7314 7315 7316 7317 7318 7319 7320 7321 7322 7323 7324 7325 7326 7327 7328 7329 7330 7331 7332 7333 7334 7335 7336 7337 7338 7339 7340 7341 7342 7343 7344 7345 7346 7347 7348 7349 7350 7351 7352 7353 7354 7355 7356 7357 7358 7359 7360 7361 7362 7363 7364 7365 7366 7367 7368 7369 7370 7371 7372 7373 7374 7375 7376 7377 7378 7379 7380 7381 7382 7383 7384 7385 7386 7387 7388 7389 7390 7391 7392 7393 7394 7395 7396 7397 7398 7399 7400 7401 7402 7403 7404 7405 7406 7407 7408 7409 7410 7411 7412 7413 7414 7415 7416 7417 7418 7419 7420 7421 7422 7423 7424 7425 7426 7427 7428 7429 7430 7431 7432 7433 7434 7435 7436 7437 7438 7439 7440 7441 7442 7443 7444 7445 7446 7447 7448 7449 7450 7451 7452 7453 7454 7455 7456 7457 7458 7459 7460 7461 7462 7463 7464 7465 7466 7467 7468 7469 7470 7471 7472 7473 7474 7475 7476 7477 7478 7479 7480 7481 7482 7483 7484 7485 7486 7487 7488 7489 7490 7491 7492 7493 7494 7495 7496 7497 7498 7499 7500 7501 7502 7503 7504 7505 7506 7507 7508 7509 7510 7511 7512 7513 7514 7515 7516 7517 7518 7519 7520 7521 7522 7523 7524 7525 7526 7527 7528 7529 7530 7531 7532 7533 7534 7535 7536 7537 7538 7539 7540 7541 7542 7543 7544 7545 7546 7547 7548 7549 7550 7551 7552 7553 7554 7555 7556 7557 7558 7559 7560 7561 7562 7563 7564 7565 7566 7567 7568 7569 7570 7571 7572 7573 7574 7575 7576 7577 7578 7579 7580 7581 7582 7583 7584 7585 7586 7587 7588 7589 7590 7591 7592 7593 7594 7595 7596 7597 7598 7599 7600 7601 7602 7603 7604 7605 7606 7607 7608 7609 7610 7611 7612 7613 7614 7615 7616 7617 7618 7619 7620 7621 7622 7623 7624 7625 7626 7627 7628 7629 7630 7631 7632 7633 7634 7635 7636 7637 7638 7639 7640 7641 7642 7643 7644 7645 7646 7647 7648 7649 7650 7651 7652 7653 7654 7655 7656 7657 7658 7659 7660 7661 7662 7663 7664 7665 7666 7667 7668 7669 7670 7671 7672 7673 7674 7675 7676 7677 7678 7679 7680 7681 7682 7683 7684 7685 7686 7687 7688 7689 7690 7691 7692 7693 7694 7695 7696 7697 7698 7699 7700 7701 7702 7703 7704 7705 7706 7707 7708 7709 7710 7711 7712 7713 7714 7715 7716 7717 7718 7719 7720 7721 7722 7723 7724 7725 7726 7727 7728 7729 7730 7731 7732 7733 7734 7735 7736 7737 7738 7739 7740 7741 7742 7743 7744 7745 7746 7747 7748 7749 7750 7751 7752 7753 7754 7755 7756 7757 7758 7759 7760 7761 7762 7763 7764 7765 7766 7767 7768 7769 7770 7771 7772 7773 7774 7775 7776 7777 7778 7779 7780 7781 7782 7783 7784 7785 7786 7787 7788 7789 7790 7791 7792 7793 7794 7795 7796 7797 7798 7799 7800 7801 7802 7803 7804 7805 7806 7807 7808 7809 7810 7811 7812 7813 7814 7815 7816 7817 7818 7819 7820 7821 7822 7823 7824 7825 7826 7827 7828 7829 7830 7831 7832 7833 7834 7835 7836 7837 7838 7839 7840 7841 7842 7843 7844 7845 7846 7847 7848 7849 7850 7851 7852 7853 7854 7855 7856 7857 7858 7859 7860 7861 7862 7863 7864 7865 7866 7867 7868 7869 7870 7871 7872 7873 7874 7875 7876 7877 7878 7879 7880 7881 7882 7883 7884 7885 7886 7887 7888 7889 7890 7891 7892 7893 7894 7895 7896 7897 7898 7899 7900 7901 7902 7903 7904 7905 7906 7907 7908 7909 7910 7911 7912 7913 7914 7915 7916 7917 7918 7919 7920 7921 7922 7923 7924 7925 7926 7927 7928 7929 7930 7931 7932 7933 7934 7935 7936 7937 7938 7939 7940 7941 7942 7943 7944 7945 7946 7947 7948 7949 7950 7951 7952 7953 7954 7955 7956 7957 7958 7959 7960 7961 7962 7963 7964 7965 7966 7967 7968 7969 7970 7971 7972 7973 7974 7975 7976 7977 7978 7979 7980 7981 7982 7983 7984 7985 7986 7987 7988 7989 7990 7991 7992 7993 7994 7995 7996 7997 7998 7999 8000 8001 8002 8003 8004 8005 8006 8007 8008 8009 8010 8011 8012 8013 8014 8015 8016 8017 8018 8019 8020 8021 8022 8023 8024 8025 8026 8027 8028 8029 8030 8031 8032 8033 8034 8035 8036 8037 8038 8039 8040 8041 8042 8043 8044 8045 8046 8047 8048 8049 8050 8051 8052 8053 8054 8055 8056 8057 8058 8059 8060 8061 8062 8063 8064 8065 8066 8067 8068 8069 8070 8071 8072 8073 8074 8075 8076 8077 8078 8079 8080 8081 8082 8083 8084 8085 8086 8087 8088 8089 8090 8091 8092 8093 8094 8095 8096 8097 8098 8099 8100 8101 8102 8103 8104 8105 8106 8107 8108 8109 8110 8111 8112 8113 8114 8115 8116 8117 8118 8119 8120 8121 8122 8123 8124 8125 8126 8127 8128 8129 8130 8131 8132 8133 8134 8135 8136 8137 8138 8139 8140 8141 8142 8143 8144 8145 8146 8147 8148 8149 8150 8151 8152 8153 8154 8155 8156 8157 8158 8159 8160 8161 8162 8163 8164 8165 8166 8167 8168 8169 8170 8171 8172 8173 8174 8175 8176 8177 8178 8179 8180 8181 8182 8183 8184 8185 8186 8187 8188 8189 8190 8191 8192 8193 8194 8195 8196 8197 8198 8199 8200 8201 8202 8203 8204 8205 8206 8207 8208 8209 8210 8211 8212 8213 8214 8215 8216 8217 8218 8219 8220 8221 8222 8223 8224 8225 8226 8227 8228 8229 8230 8231 8232 8233 8234 8235 8236 8237 8238 8239 8240 8241 8242 8243 8244 8245 8246 8247 8248 8249 8250 8251 8252 8253 8254 8255 8256 8257 8258 8259 8260 8261 8262 8263 8264 8265 8266 8267 8268 8269 8270 8271 8272 8273 8274 8275 8276 8277 8278 8279 8280 8281 8282 8283 8284 8285 8286 8287 8288 8289 8290 8291 8292 8293 8294 8295 8296 8297 8298 8299 8300 8301 8302 8303 8304 8305 8306 8307 8308 8309 8310 8311 8312 8313 8314 8315 8316 8317 8318 8319 8320 8321 8322 8323 8324 8325 8326 8327 8328 8329 8330 8331 8332 8333 8334 8335 8336 8337 8338 8339 8340 8341 8342 8343 8344 8345 8346 8347 8348 8349 8350 8351 8352 8353 8354 8355 8356 8357 8358 8359 8360 8361 8362 8363 8364 8365 8366 8367 8368 8369 8370 8371 8372 8373 8374 8375 8376 8377 8378 8379 8380 8381 8382 8383 8384 8385 8386 8387 8388 8389 8390 8391 8392 8393 8394 8395 8396 8397 8398 8399 8400 8401 8402 8403 8404 8405 8406 8407 8408 8409 8410 8411 8412 8413 8414 8415 8416 8417 8418 8419 8420 8421 8422 8423 8424 8425 8426 8427 8428 8429 8430 8431 8432 8433 8434 8435 8436 8437 8438 8439 8440 8441 8442 8443 8444 8445 8446 8447 8448 8449 8450 8451 8452 8453 8454 8455 8456 8457 8458 8459 8460 8461 8462 8463 8464 8465 8466 8467 8468 8469 8470 8471 8472 8473 8474 8475 8476 8477 8478 8479 8480 8481 8482 8483 8484 8485 8486 8487 8488 8489 8490 8491 8492 8493 8494 8495 8496 8497 8498 8499 8500 8501 8502 8503 8504 8505 8506 8507 8508 8509 8510 8511 8512 8513 8514 8515 8516 8517 8518 8519 8520 8521 8522 8523 8524 8525 8526 8527 8528 8529 8530 8531 8532 8533 8534 8535 8536 8537 8538 8539 8540 8541 8542 8543 8544 8545 8546 8547 8548 8549 8550 8551 8552 8553 8554 8555 8556 8557 8558 8559 8560 8561 8562 8563 8564 8565 8566 8567 8568 8569 8570 8571 8572 8573 8574 8575 8576 8577 8578 8579 8580 8581 8582 8583 8584 8585 8586 8587 8588 8589 8590 8591 8592 8593 8594 8595 8596 8597 8598 8599 8600 8601 8602 8603 8604 8605 8606 8607 8608 8609 8610 8611 8612 8613 8614 8615 8616 8617 8618 8619 8620 8621 8622 8623 8624 8625 8626 8627 8628 8629 8630 8631 8632 8633 8634 8635 8636 8637 8638 8639 8640 8641 8642 8643 8644 8645 8646 8647 8648 8649 8650 8651 8652 8653 8654 8655 8656 8657 8658 8659 8660 8661 8662 8663 8664 8665 8666 8667 8668 8669 8670 8671 8672 8673 8674 8675 8676 8677 8678 8679 8680 8681 8682 8683 8684 8685 8686 8687 8688 8689 8690 8691 8692 8693 8694 8695 8696 8697 8698 8699 8700 8701 8702 8703 8704 8705 8706 8707 8708 8709 8710 8711 8712 8713 8714 8715 8716 8717 8718 8719 8720 8721 8722 8723 8724 8725 8726 8727 8728 8729 8730 8731 8732 8733 8734 8735 8736 8737 8738 8739 8740 8741 8742 8743 8744 8745 8746 8747 8748 8749 8750 8751 8752 8753 8754 8755 8756 8757 8758 8759 8760 8761 8762 8763 8764 8765 8766 8767 8768 8769 8770 8771 8772 8773 8774 8775 8776 8777 8778 8779 8780 8781 8782 8783 8784 8785 8786 8787 8788 8789 8790 8791 8792 8793 8794 8795 8796 8797 8798 8799 8800 8801 8802 8803 8804 8805 8806 8807 8808 8809 8810 8811 8812 8813 8814 8815 8816 8817 8818 8819 8820 8821 8822 8823 8824 8825 8826 8827 8828 8829 8830 8831 8832 8833 8834 8835 8836 8837 8838 8839 8840 8841 8842 8843 8844 8845 8846 8847 8848 8849 8850 8851 8852 8853 8854 8855 8856 8857 8858 8859 8860 8861 8862 8863 8864 8865 8866 8867 8868 8869 8870 8871 8872 8873 8874 8875 8876 8877 8878 8879 8880 8881 8882 8883 8884 8885 8886 8887 8888 8889 8890 8891 8892 8893 8894 8895 8896 8897 8898 8899 8900 8901 8902 8903 8904 8905 8906 8907 8908 8909 8910 8911 8912 8913 8914 8915 8916 8917 8918 8919 8920 8921 8922 8923 8924 8925 8926 8927 8928 8929 8930 8931 8932 8933 8934 8935 8936 8937 8938 8939 8940 8941 8942 8943 8944 8945 8946 8947 8948 8949 8950 8951 8952 8953 8954 8955 8956 8957 8958 8959 8960 8961 8962 8963 8964 8965 8966 8967 8968 8969 8970 8971 8972 8973 8974 8975 8976 8977 8978 8979 8980 8981 8982 8983 8984 8985 8986 8987 8988 8989 8990 8991 8992 8993 8994 8995 8996 8997 8998 8999 9000 9001 9002 9003 9004 9005 9006 9007 9008 9009 9010 9011 9012 9013 9014 9015 9016 9017 9018 9019 9020 9021 9022 9023 9024 9025 9026 9027 9028 9029 9030 9031 9032 9033 9034 9035 9036 9037 9038 9039 9040 9041 9042 9043 9044 9045 9046 9047 9048 9049 9050 9051 9052 9053 9054 9055 9056 9057 9058 9059 9060 9061 9062 9063 9064 9065 9066 9067 9068 9069 9070 9071 9072 9073 9074 9075 9076 9077 9078 9079 9080 9081 9082 9083 9084 9085 9086 9087 9088 9089 9090 9091 9092 9093 9094 9095 9096 9097 9098 9099 9100 9101 9102 9103 9104 9105 9106 9107 9108 9109 9110 9111 9112 9113 9114 9115 9116 9117 9118 9119 9120 9121 9122 9123 9124 9125 9126 9127 9128 9129 9130 9131 9132 9133 9134 9135 9136 9137 9138 9139 9140 9141 9142 9143 9144 9145 9146 9147 9148 9149 9150 9151 9152 9153 9154 9155 9156 9157 9158 9159 9160 9161 9162 9163 9164 9165 9166 9167 9168 9169 9170 9171 9172 9173 9174 9175 9176 9177 9178 9179 9180 9181 9182 9183 9184 9185 9186 9187 9188 9189 9190 9191 9192 9193 9194 9195 9196 9197 9198 9199 9200 9201 9202 9203 9204 9205 9206 9207 9208 9209 9210 9211 9212 9213 9214 9215 9216 9217 9218 9219 9220 9221 9222 9223 9224 9225 9226 9227 9228 9229 9230 9231 9232 9233 9234 9235 9236 9237 9238 9239 9240 9241 9242 9243 9244 9245 9246 9247 9248 9249 9250 9251 9252 9253 9254 9255 9256 9257 9258 9259 9260 9261 9262 9263 9264 9265 9266 9267 9268 9269 9270 9271 9272 9273 9274 9275 9276 9277 9278 9279 9280 9281 9282 9283 9284 9285 9286 9287 9288 9289 9290 9291 9292 9293 9294 9295 9296 9297 9298 9299 9300 9301 9302 9303 9304 9305 9306 9307 9308 9309 9310 9311 9312 9313 9314 9315 9316 9317 9318 9319 9320 9321 9322 9323 9324 9325 9326 9327 9328 9329 9330 9331 9332 9333 9334 9335 9336 9337 9338 9339 9340 9341 9342 9343 9344 9345 9346 9347 9348 9349 9350 9351 9352 9353 9354 9355 9356 9357 9358 9359 9360 9361 9362 9363 9364 9365 9366 9367 9368 9369 9370 9371 9372 9373 9374 9375 9376 9377 9378 9379 9380 9381 9382 9383 9384 9385 9386 9387 9388 9389 9390 9391 9392 9393 9394 9395 9396 9397 9398 9399 9400 9401 9402 9403 9404 9405 9406 9407 9408 9409 9410 9411 9412 9413 9414 9415 9416 9417 9418 9419 9420 9421 9422 9423 9424 9425 9426 9427 9428 9429 9430 9431 9432 9433 9434 9435 9436 9437 9438 9439 9440 9441 9442 9443 9444 9445 9446 9447 9448 9449 9450 9451 9452 9453 9454 9455 9456 9457 9458 9459 9460 9461 9462 9463 9464 9465 9466 9467 9468 9469 9470 9471 9472 9473 9474 9475 9476 9477 9478 9479 9480 9481 9482 9483 9484 9485 9486 9487 9488 9489 9490 9491 9492 9493 9494 9495 9496 9497 9498 9499 9500 9501 9502 9503 9504 9505 9506 9507 9508 9509 9510 9511 9512 9513 9514 9515 9516 9517 9518 9519 9520 9521 9522 9523 9524 9525 9526 9527 9528 9529 9530 9531 9532 9533 9534 9535 9536 9537 9538 9539 9540 9541 9542 9543 9544 9545 9546 9547 9548 9549 9550 9551 9552 9553 9554 9555 9556 9557 9558 9559 9560 9561 9562 9563 9564 9565 9566 9567 9568 9569 9570 9571 9572 9573 9574 9575 9576 9577 9578 9579 9580 9581 9582 9583 9584 9585 9586 9587 9588 9589 9590 9591 9592 9593 9594 9595 9596 9597 9598 9599 9600 9601 9602 9603 9604 9605 9606 9607 9608 9609 9610 9611 9612 9613 9614 9615 9616 9617 9618 9619 9620 9621 9622 9623 9624 9625 9626 9627 9628 9629 9630 9631 9632 9633 9634 9635 9636 9637 9638 9639 9640 9641 9642 9643 9644 9645 9646 9647 9648 9649 9650 9651 9652 9653 9654 9655 9656 9657 9658 9659 9660 9661 9662 9663 9664 9665 9666 9667 9668 9669 9670 9671 9672 9673 9674 9675 9676 9677 9678 9679 9680 9681 9682 9683 9684 9685 9686 9687 9688 9689 9690 9691 9692 9693 9694 9695 9696 9697 9698 9699 9700 9701 9702 9703 9704 9705 9706 9707 9708 9709 9710 9711 9712 9713 9714 9715 9716 9717 9718 9719 9720 9721 9722 9723 9724 9725 9726 9727 9728 9729 9730 9731 9732 9733 9734 9735 9736 9737 9738 9739 9740 9741 9742 9743 9744 9745 9746 9747 9748 9749 9750 9751 9752 9753 9754 9755 9756 9757 9758 9759 9760 9761 9762 9763 9764 9765 9766 9767 9768 9769 9770 9771 9772 9773 9774 9775 9776 9777 9778 9779 9780 9781 9782 9783 9784 9785 9786 9787 9788 9789 9790 9791 9792 9793 9794 9795 9796 9797 9798 9799 9800 9801 9802 9803 9804 9805 9806 9807 9808 9809 9810 9811 9812 9813 9814 9815 9816 9817 9818 9819 9820 9821 9822 9823 9824 9825 9826 9827 9828 9829 9830 9831 9832 9833 9834 9835 9836 9837 9838 9839 9840 9841 9842 9843 9844 9845 9846 9847 9848 9849 9850 9851 9852 9853 9854 9855 9856 9857 9858 9859 9860 9861 9862 9863 9864 9865 9866 9867 9868 9869 9870 9871 9872 9873 9874 9875 9876 9877 9878 9879 9880 9881 9882 9883 9884 9885 9886 9887 9888 9889 9890 9891 9892 9893 9894 9895 9896 9897 9898 9899 9900 9901 9902 9903 9904 9905 9906 9907 9908 9909 9910 9911 9912 9913 9914 9915 9916 9917 9918 9919 9920 9921 9922 9923 9924 9925 9926 9927 9928 9929 9930 9931 9932 9933 9934 9935 9936 9937 9938 9939 9940 9941 9942 9943 9944 9945 9946 9947 9948 9949 9950 9951 9952 9953 9954 9955 9956 9957 9958 9959 9960 9961 9962 9963 9964 9965 9966 9967 9968 9969 9970 9971 9972 9973 9974 9975 9976 9977 9978 9979 9980 9981 9982 9983 9984 9985 9986 9987 9988 9989 9990 9991 9992 9993 9994 9995 9996 9997 9998 9999 10000 10001 10002 10003 10004 10005 10006 10007 10008 10009 10010 10011 10012 10013 10014 10015 10016 10017 10018 10019 10020 10021 10022 10023 10024 10025 10026 10027 10028 10029 10030 10031 10032 10033 10034 10035 10036 10037 10038 10039 10040 10041 10042 10043 10044 10045 10046 10047 10048 10049 10050 10051 10052 10053 10054 10055 10056 10057 10058 10059 10060 10061 10062 10063 10064 10065 10066 10067 10068 10069 10070 10071 10072 10073 10074 10075 10076 10077 10078 10079 10080 10081 10082 10083 10084 10085 10086 10087 10088 10089 10090 10091 10092 10093 10094 10095 10096 10097 10098 10099 10100 10101 10102 10103 10104 10105 10106 10107 10108 10109 10110 10111 10112 10113 10114 10115 10116 10117 10118 10119 10120 10121 10122 10123 10124 10125 10126 10127 10128 10129 10130 10131 10132 10133 10134 10135 10136 10137 10138 10139 10140 10141 10142 10143 10144 10145 10146 10147 10148 10149 10150 10151 10152 10153 10154 10155 10156 10157 10158 10159 10160 10161 10162 10163 10164 10165 10166 10167 10168 10169 10170 10171 10172 10173 10174 10175 10176 10177 10178 10179 10180 10181 10182 10183 10184 10185 10186 10187 10188 10189 10190 10191 10192 10193 10194 10195 10196 10197 10198 10199 10200 10201 10202 10203 10204 10205 10206 10207 10208 10209 10210 10211 10212 10213 10214 10215 10216 10217 10218 10219 10220 10221 10222 10223 10224 10225 10226 10227 10228 10229 10230 10231 10232 10233 10234 10235 10236 10237 10238 10239 10240 10241 10242 10243 10244 10245 10246 10247 10248 10249 10250 10251 10252 10253 10254 10255 10256 10257 10258 10259 10260 10261 10262 10263 10264 10265 10266 10267 10268 10269 10270 10271 10272 10273 10274 10275 10276 10277 10278 10279 10280 10281 10282 10283 10284 10285 10286 10287 10288 10289 10290 10291 10292 10293 10294 10295 10296 10297 10298 10299 10300 10301 10302 10303 10304 10305 10306 10307 10308 10309 10310 10311 10312 10313 10314 10315 10316 10317 10318 10319 10320 10321 10322 10323 10324 10325 10326 10327 10328 10329 10330 10331 10332 10333 10334 10335 10336 10337 10338 10339 10340 10341 10342 10343 10344 10345 10346 10347 10348 10349 10350 10351 10352 10353 10354 10355 10356 10357 10358 10359 10360 10361 10362 10363 10364 10365 10366 10367 10368 10369 10370 10371 10372 10373 10374 10375 10376 10377 10378 10379 10380 10381 10382 10383 10384 10385 10386 10387 10388 10389 10390 10391 10392 10393 10394 10395 10396 10397 10398 10399 10400 10401 10402 10403 10404 10405 10406 10407 10408 10409 10410 10411 10412 10413 10414 10415 10416 10417 10418 10419 10420 10421 10422 10423 10424 10425 10426 10427 10428 10429 10430 10431 10432 10433 10434 10435 10436 10437 10438 10439 10440 10441 10442 10443 10444 10445 10446 10447 10448 10449 10450 10451 10452 10453 10454 10455 10456 10457 10458 10459 10460 10461 10462 10463 10464 10465 10466 10467 10468 10469 10470 10471 10472 10473 10474 10475 10476 10477 10478 10479 10480 10481 10482 10483 10484 10485 10486 10487 10488 10489 10490 10491 10492 10493 10494 10495 10496 10497 10498 10499 10500 10501 10502 10503 10504 10505 10506 10507 10508 10509 10510 10511 10512 10513 10514 10515 10516 10517 10518 10519 10520 10521 10522 10523 10524 10525 10526 10527 10528 10529 10530 10531 10532 10533 10534 10535 10536 10537 10538 10539 10540 10541 10542 10543 10544 10545 10546 10547 10548 10549 10550 10551 10552 10553 10554 10555 10556 10557 10558 10559 10560 10561 10562 10563 10564 10565 10566 10567 10568 10569 10570 10571 10572 10573 10574 10575 10576 10577 10578 10579 10580 10581 10582 10583 10584 10585 10586 10587 10588 10589 10590 10591 10592 10593 10594 10595 10596 10597 10598 10599 10600 10601 10602 10603 10604 10605 10606 10607 10608 10609 10610 10611 10612 10613 10614 10615 10616 10617 10618 10619 10620 10621 10622 10623 10624 10625 10626 10627 10628 10629 10630 10631 10632 10633 10634 10635 10636 10637 10638 10639 10640 10641 10642 10643 10644 10645 10646 10647 10648 10649 10650 10651 10652 10653 10654 10655 10656 10657 10658 10659 10660 10661 10662 10663 10664 10665 10666 10667 10668 10669 10670 10671 10672 10673 10674 10675 10676 10677 10678 10679 10680 10681 10682 10683 10684 10685 10686 10687 10688 10689 10690 10691 10692 10693 10694 10695 10696 10697 10698 10699 10700 10701 10702 10703 10704 10705 10706 10707 10708 10709 10710 10711 10712 10713 10714 10715 10716 10717 10718 10719 10720 10721 10722 10723 10724 10725 10726 10727 10728 10729 10730 10731 10732 10733 10734 10735 10736 10737 10738 10739 10740 10741 10742 10743 10744 10745 10746 10747 10748 10749 10750 10751 10752 10753 10754 10755 10756 10757 10758 10759 10760 10761 10762 10763 10764 10765 10766 10767 10768 10769 10770 10771 10772 10773 10774 10775 10776 10777 10778 10779 10780 10781 10782 10783 10784 10785 10786 10787 10788 10789 10790 10791 10792 10793 10794 10795 10796 10797 10798 10799 10800 10801 10802 10803 10804 10805 10806 10807 10808 10809 10810 10811 10812 10813 10814 10815 10816 10817 10818 10819 10820 10821 10822 10823 10824 10825 10826 10827 10828 10829 10830 10831 10832 10833 10834 10835 10836 10837 10838 10839 10840 10841 10842 10843 10844 10845 10846 10847 10848 10849 10850 10851 10852 10853 10854 10855 10856 10857 10858 10859 10860 10861 10862 10863 10864 10865 10866 10867 10868 10869 10870 10871 10872 10873 10874 10875 10876 10877 10878 10879 10880 10881 10882 10883 10884 10885 10886 10887 10888 10889 10890 10891 10892 10893 10894 10895 10896 10897 10898 10899 10900 10901 10902 10903 10904 10905 10906 10907 10908 10909 10910 10911 10912 10913 10914 10915 10916 10917 10918 10919 10920 10921 10922 10923 10924 10925 10926 10927 10928 10929 10930 10931 10932 10933 10934 10935 10936 10937 10938 10939 10940 10941 10942 10943 10944 10945 10946 10947 10948 10949 10950 10951 10952 10953 10954 10955 10956 10957 10958 10959 10960 10961 10962 10963 10964 10965 10966 10967 10968 10969 10970 10971 10972 10973 10974 10975 10976 10977 10978 10979 10980 10981 10982 10983 10984 10985 10986 10987 10988 10989 10990 10991 10992 10993 10994 10995 10996 10997 10998 10999 11000 11001 11002 11003 11004 11005 11006 11007 11008 11009 11010 11011 11012 11013 11014 11015 11016 11017 11018 11019 11020 11021 11022 11023 11024 11025 11026 11027 11028 11029 11030 11031 11032 11033 11034 11035 11036 11037 11038 11039 11040 11041 11042 11043 11044 11045 11046 11047 11048 11049 11050 11051 11052 11053 11054 11055 11056 11057 11058 11059 11060 11061 11062 11063 11064 11065 11066 11067 11068 11069 11070 11071 11072 11073 11074 11075 11076 11077 11078 11079 11080 11081 11082 11083 11084 11085 11086 11087 11088 11089 11090 11091 11092 11093 11094 11095 11096 11097 11098 11099 11100 11101 11102 11103 11104 11105 11106 11107 11108 11109 11110 11111 11112 11113 11114 11115 11116 11117 11118 11119 11120 11121 11122 11123 11124 11125 11126 11127 11128 11129 11130 11131 11132 11133 11134 11135 11136 11137 11138 11139 11140 11141 11142 11143 11144 11145 11146 11147 11148 11149 11150 11151 11152 11153 11154 11155 11156 11157 11158 11159 11160 11161 11162 11163 11164 11165 11166 11167 11168 11169 11170 11171 11172 11173 11174 11175 11176 11177 11178 11179 11180 11181 11182 11183 11184 11185 11186 11187 11188 11189 11190 11191 11192 11193 11194 11195 11196 11197 11198 11199 11200 11201 11202 11203 11204 11205 11206 11207 11208 11209 11210 11211 11212 11213 11214 11215 11216 11217 11218 11219 11220 11221 11222 11223 11224 11225 11226 11227 11228 11229 11230 11231 11232 11233 11234 11235 11236 11237 11238 11239 11240 11241 11242 11243 11244 11245 11246 11247 11248 11249 11250 11251 11252 11253 11254 11255 11256 11257 11258 11259 11260 11261 11262 11263 11264 11265 11266 11267 11268 11269 11270 11271 11272 11273 11274 11275 11276 11277 11278 11279 11280 11281 11282 11283 11284 11285 11286 11287 11288 11289 11290 11291 11292 11293 11294 11295 11296 11297 11298 11299 11300 11301 11302 11303 11304 11305 11306 11307 11308 11309 11310 11311 11312 11313 11314 11315 11316 11317 11318 11319 11320 11321 11322 11323 11324 11325 11326 11327 11328 11329 11330 11331 11332 11333 11334 11335 11336 11337 11338 11339 11340 11341 11342 11343 11344 11345 11346 11347 11348 11349 11350 11351 11352 11353 11354 11355 11356 11357 11358 11359 11360 11361 11362 11363 11364 11365 11366 11367 11368 11369 11370 11371 11372 11373 11374 11375 11376 11377 11378 11379 11380 11381 11382 11383 11384 11385 11386 11387 11388 11389 11390 11391 11392 11393 11394 11395 11396 11397 11398 11399 11400 11401 11402 11403 11404 11405 11406 11407 11408 11409 11410 11411 11412 11413 11414 11415 11416 11417 11418 11419 11420 11421 11422 11423 11424 11425 11426 11427 11428 11429 11430 11431 11432 11433 11434 11435 11436 11437 11438 11439 11440 11441 11442 11443 11444 11445 11446 11447 11448 11449 11450 11451 11452 11453 11454 11455 11456 11457 11458 11459 11460 11461 11462 11463 11464 11465 11466 11467 11468 11469 11470 11471 11472 11473 11474 11475 11476 11477 11478 11479 11480 11481 11482 11483 11484 11485 11486 11487 11488 11489 11490 11491 11492 11493 11494 11495 11496 11497 11498 11499 11500 11501 11502 11503 11504 11505 11506 11507 11508 11509 11510 11511 11512 11513 11514 11515 11516 11517 11518 11519 11520 11521 11522 11523 11524 11525 11526 11527 11528 11529 11530 11531 11532 11533 11534 11535 11536 11537 11538 11539 11540 11541 11542 11543 11544 11545 11546 11547 11548 11549 11550 11551 11552 11553 11554 11555 11556 11557 11558 11559 11560 11561 11562 11563 11564 11565 11566 11567 11568 11569 11570 11571 11572 11573 11574 11575 11576 11577 11578 11579 11580 11581 11582 11583 11584 11585 11586 11587 11588 11589 11590 11591 11592 11593 11594 11595 11596 11597 11598 11599 11600 11601 11602 11603 11604 11605 11606 11607 11608 11609 11610 11611 11612 11613 11614 11615 11616 11617 11618 11619 11620 11621 11622 11623 11624 11625 11626 11627 11628 11629 11630 11631 11632 11633 11634 11635 11636 11637 11638 11639 11640 11641 11642 11643 11644 11645 11646 11647 11648 11649 11650 11651 11652 11653 11654 11655 11656 11657 11658 11659 11660 11661 11662 11663 11664 11665 11666 11667 11668 11669 11670 11671 11672 11673 11674 11675 11676 11677 11678 11679 11680 11681 11682 11683 11684 11685 11686 11687 11688 11689 11690 11691 11692 11693 11694 11695 11696 11697 11698 11699 11700 11701 11702 11703 11704 11705 11706 11707 11708 11709 11710 11711 11712 11713 11714 11715 11716 11717 11718 11719 11720 11721 11722 11723 11724 11725 11726 11727 11728 11729 11730 11731 11732 11733 11734 11735 11736 11737 11738 11739 11740 11741 11742 11743 11744 11745 11746 11747 11748 11749 11750 11751 11752 11753 11754 11755 11756 11757 11758 11759 11760 11761 11762 11763 11764 11765 11766 11767 11768 11769 11770 11771 11772 11773 11774 11775 11776 11777 11778 11779 11780 11781 11782 11783 11784 11785 11786 11787 11788 11789 11790 11791 11792 11793 11794 11795 11796 11797 11798 11799 11800 11801 11802 11803 11804 11805 11806 11807 11808 11809 11810 11811 11812 11813 11814 11815 11816 11817 11818 11819 11820 11821 11822 11823 11824 11825 11826 11827 11828 11829 11830 11831 11832 11833 11834 11835 11836 11837 11838 11839 11840 11841 11842 11843 11844 11845 11846 11847 11848 11849 11850 11851 11852 11853 11854 11855 11856 11857 11858 11859 11860 11861 11862 11863 11864 11865 11866 11867 11868 11869 11870 11871 11872 11873 11874 11875 11876 11877 11878 11879 11880 11881 11882 11883 11884 11885 11886 11887 11888 11889 11890 11891 11892 11893 11894 11895 11896 11897 11898 11899 11900 11901 11902 11903 11904 11905 11906 11907 11908 11909 11910 11911 11912 11913 11914 11915 11916 11917 11918 11919 11920 11921 11922 11923 11924 11925 11926 11927 11928 11929 11930 11931 11932 11933 11934 11935 11936 11937 11938 11939 11940 11941 11942 11943 11944 11945 11946 11947 11948 11949 11950 11951 11952 11953 11954 11955 11956 11957 11958 11959 11960 11961 11962 11963 11964 11965 11966 11967 11968 11969 11970 11971 11972 11973 11974 11975 11976 11977 11978 11979 11980 11981 11982 11983 11984 11985 11986 11987 11988 11989 11990 11991 11992 11993 11994 11995 11996 11997 11998 11999 12000 12001 12002 12003 12004 12005 12006 12007 12008 12009 12010 12011 12012 12013 12014 12015 12016 12017 12018 12019 12020 12021 12022 12023 12024 12025 12026 12027 12028 12029 12030 12031 12032 12033 12034 12035 12036 12037 12038 12039 12040 12041 12042 12043 12044 12045 12046 12047 12048 12049 12050 12051 12052 12053 12054 12055 12056 12057 12058 12059 12060 12061 12062 12063 12064 12065 12066 12067 12068 12069 12070 12071 12072 12073 12074 12075 12076 12077 12078 12079 12080 12081 12082 12083 12084 12085 12086 12087 12088 12089 12090 12091 12092 12093 12094 12095 12096 12097 12098 12099 12100 12101 12102 12103 12104 12105 12106 12107 12108 12109 12110 12111 12112 12113 12114 12115 12116 12117 12118 12119 12120 12121 12122 12123 12124 12125 12126 12127 12128 12129 12130 12131 12132 12133 12134 12135 12136 12137 12138 12139 12140 12141 12142 12143 12144 12145 12146 12147 12148 12149 12150 12151 12152 12153 12154 12155 12156 12157 12158 12159 12160 12161 12162 12163 12164 12165 12166 12167 12168 12169 12170 12171 12172 12173 12174 12175 12176 12177 12178 12179 12180 12181 12182 12183 12184 12185 12186 12187 12188 12189 12190 12191 12192 12193 12194 12195 12196 12197 12198 12199 12200 12201 12202 12203 12204 12205 12206 12207 12208 12209 12210 12211 12212 12213 12214 12215 12216 12217 12218 12219 12220 12221 12222 12223 12224 12225 12226 12227 12228 12229 12230 12231 12232 12233 12234 12235 12236 12237 12238 12239 12240 12241 12242 12243 12244 12245 12246 12247 12248 12249 12250 12251 12252 12253 12254 12255 12256 12257 12258 12259 12260 12261 12262 12263 12264 12265 12266 12267 12268 12269 12270 12271 12272 12273 12274 12275 12276 12277 12278 12279 12280 12281 12282 12283 12284 12285 12286 12287 12288 12289 12290 12291 12292 12293 12294 12295 12296 12297 12298 12299 12300 12301 12302 12303 12304 12305 12306 12307 12308 12309 12310 12311 12312 12313 12314 12315 12316 12317 12318 12319 12320 12321 12322 12323 12324 12325 12326 12327 12328 12329 12330 12331 12332 12333 12334 12335 12336 12337 12338 12339 12340 12341 12342 12343 12344 12345 12346 12347 12348 12349 12350 12351 12352 12353 12354 12355 12356 12357 12358 12359 12360 12361 12362 12363 12364 12365 12366 12367 12368 12369 12370 12371 12372 12373 12374 12375 12376 12377 12378 12379 12380 12381 12382 12383 12384 12385 12386 12387 12388 12389 12390 12391 12392 12393 12394 12395 12396 12397 12398 12399 12400 12401 12402 12403 12404 12405 12406 12407 12408 12409 12410 12411 12412 12413 12414 12415 12416 12417 12418 12419 12420 12421 12422 12423 12424 12425 12426 12427 12428 12429 12430 12431 12432 12433 12434 12435 12436 12437 12438 12439 12440 12441 12442 12443 12444 12445 12446 12447 12448 12449 12450 12451 12452 12453 12454 12455 12456 12457 12458 12459 12460 12461 12462 12463 12464 12465 12466 12467 12468 12469 12470 12471 12472 12473 12474 12475 12476 12477 12478 12479 12480 12481 12482 12483 12484 12485 12486 12487 12488 12489 12490 12491 12492 12493 12494 12495 12496 12497 12498 12499 12500 12501 12502 12503 12504 12505 12506 12507 12508 12509 12510 12511 12512 12513 12514 12515 12516 12517 12518 12519 12520 12521 12522 12523 12524 12525 12526 12527 12528 12529 12530 12531 12532 12533 12534 12535 12536 12537 12538 12539 12540 12541 12542 12543 12544 12545 12546 12547 12548 12549 12550 12551 12552 12553 12554 12555 12556 12557 12558 12559 12560 12561 12562 12563 12564 12565 12566 12567 12568 12569 12570 12571 12572 12573 12574 12575 12576 12577 12578 12579 12580 12581 12582 12583 12584 12585 12586 12587 12588 12589 12590 12591 12592 12593 12594 12595 12596 12597 12598 12599 12600 12601 12602 12603 12604 12605 12606 12607 12608 12609 12610 12611 12612 12613 12614 12615 12616 12617 12618 12619 12620 12621 12622 12623 12624 12625 12626 12627 12628 12629 12630 12631 12632 12633 12634 12635 12636 12637 12638 12639 12640 12641 12642 12643 12644 12645 12646 12647 12648 12649 12650 12651 12652 12653 12654 12655 12656 12657 12658 12659 12660 12661 12662 12663 12664 12665 12666 12667 12668 12669 12670 12671 12672 12673 12674 12675 12676 12677 12678 12679 12680 12681 12682 12683 12684 12685 12686 12687 12688 12689 12690 12691 12692 12693 12694 12695 12696 12697 12698 12699 12700 12701 12702 12703 12704 12705 12706 12707 12708 12709 12710 12711 12712 12713 12714 12715 12716 12717 12718 12719 12720 12721 12722 12723 12724 12725 12726 12727 12728 12729 12730 12731 12732 12733 12734 12735 12736 12737 12738 12739 12740 12741 12742 12743 12744 12745 12746 12747 12748 12749 12750 12751 12752 12753 12754 12755 12756 12757 12758 12759 12760 12761 12762 12763 12764 12765 12766 12767 12768 12769 12770 12771 12772 12773 12774 12775 12776 12777 12778 12779 12780 12781 12782 12783 12784 12785 12786 12787 12788 12789 12790 12791 12792 12793 12794 12795 12796 12797 12798 12799 12800 12801 12802 12803 12804 12805 12806 12807 12808 12809 12810 12811 12812 12813 12814 12815 12816 12817 12818 12819 12820 12821 12822 12823 12824 12825 12826 12827 12828 12829 12830 12831 12832 12833 12834 12835 12836 12837 12838 12839 12840 12841 12842 12843 12844 12845 12846 12847 12848 12849 12850 12851 12852 12853 12854 12855 12856 12857 12858 12859 12860 12861 12862 12863 12864 12865 12866 12867 12868 12869 12870 12871 12872 12873 12874 12875 12876 12877 12878 12879 12880 12881 12882 12883 12884 12885 12886 12887 12888 12889 12890 12891 12892 12893 12894 12895 12896 12897 12898 12899 12900 12901 12902 12903 12904 12905 12906 12907 12908 12909 12910 12911 12912 12913 12914 12915 12916 12917 12918 12919 12920 12921 12922 12923 12924 12925 12926 12927 12928 12929 12930 12931 12932 12933 12934 12935 12936 12937 12938 12939 12940 12941 12942 12943 12944 12945 12946 12947 12948 12949 12950 12951 12952 12953 12954 12955 12956 12957 12958 12959 12960 12961 12962 12963 12964 12965 12966 12967 12968 12969 12970 12971 12972 12973 12974 12975 12976 12977 12978 12979 12980 12981 12982 12983 12984 12985 12986 12987 12988 12989 12990 12991 12992 12993 12994 12995 12996 12997 12998 12999 13000 13001 13002 13003 13004 13005 13006 13007 13008 13009 13010 13011 13012 13013 13014 13015 13016 13017 13018 13019 13020 13021 13022 13023 13024 13025 13026 13027 13028 13029 13030 13031 13032 13033 13034 13035 13036 13037 13038 13039 13040 13041 13042 13043 13044 13045 13046 13047 13048 13049 13050 13051 13052 13053 13054 13055 13056 13057 13058 13059 13060 13061 13062 13063 13064 13065 13066 13067 13068 13069 13070 13071 13072 13073 13074 13075 13076 13077 13078 13079 13080 13081 13082 13083 13084 13085 13086 13087 13088 13089 13090 13091 13092 13093 13094 13095 13096 13097 13098 13099 13100 13101 13102 13103 13104 13105 13106 13107 13108 13109 13110 13111 13112 13113 13114 13115 13116 13117 13118 13119 13120 13121 13122 13123 13124 13125 13126 13127 13128 13129 13130 13131 13132 13133 13134 13135 13136 13137 13138 13139 13140 13141 13142 13143 13144 13145 13146 13147 13148 13149 13150 13151 13152 13153 13154 13155 13156 13157 13158 13159 13160 13161 13162 13163 13164 13165 13166 13167 13168 13169 13170 13171 13172 13173 13174 13175 13176 13177 13178 13179 13180 13181 13182 13183 13184 13185 13186 13187 13188 13189 13190 13191 13192 13193 13194 13195 13196 13197 13198 13199 13200 13201 13202 13203 13204 13205 13206 13207 13208 13209 13210 13211 13212 13213 13214 13215 13216 13217 13218 13219 13220 13221 13222 13223 13224 13225 13226 13227 13228 13229 13230 13231 13232 13233 13234 13235 13236 13237 13238 13239 13240 13241 13242 13243 13244 13245 13246 13247 13248 13249 13250 13251 13252 13253 13254 13255 13256 13257 13258 13259 13260 13261 13262 13263 13264 13265 13266 13267 13268 13269 13270 13271 13272 13273 13274 13275 13276 13277 13278 13279 13280 13281 13282 13283 13284 13285 13286 13287 13288 13289 13290 13291 13292 13293 13294 13295 13296 13297 13298 13299 13300 13301 13302 13303 13304 13305 13306 13307 13308 13309 13310 13311 13312 13313 13314 13315 13316 13317 13318 13319 13320 13321 13322 13323 13324 13325 13326 13327 13328 13329 13330 13331 13332 13333 13334 13335 13336 13337 13338 13339 13340 13341 13342 13343 13344 13345 13346 13347 13348 13349 13350 13351 13352 13353 13354 13355 13356 13357 13358 13359 13360 13361 13362 13363 13364 13365 13366 13367 13368 13369 13370 13371 13372 13373 13374 13375 13376 13377 13378 13379 13380 13381 13382 13383 13384 13385 13386 13387 13388 13389 13390 13391 13392 13393 13394 13395 13396 13397 13398 13399 13400 13401 13402 13403 13404 13405 13406 13407 13408 13409 13410 13411 13412 13413 13414 13415 13416 13417 13418 13419 13420 13421 13422 13423 13424 13425 13426 13427 13428 13429 13430 13431 13432 13433 13434 13435 13436 13437 13438 13439 13440 13441 13442 13443 13444 13445 13446 13447 13448 13449 13450 13451 13452 13453 13454 13455 13456 13457 13458 13459 13460 13461 13462 13463 13464 13465 13466 13467 13468 13469 13470 13471 13472 13473 13474 13475 13476 13477 13478 13479 13480 13481 13482 13483 13484 13485 13486 13487 13488 13489 13490 13491 13492 13493 13494 13495 13496 13497 13498 13499 13500 13501 13502 13503 13504 13505 13506 13507 13508 13509 13510 13511 13512 13513 13514 13515 13516 13517 13518 13519 13520 13521 13522 13523 13524 13525 13526 13527 13528 13529 13530 13531 13532 13533 13534 13535 13536 13537 13538 13539 13540 13541 13542 13543 13544 13545 13546 13547 13548 13549 13550 13551 13552 13553 13554 13555 13556 13557 13558 13559 13560 13561 13562 13563 13564 13565 13566 13567 13568 13569 13570 13571 13572 13573 13574 13575 13576 13577 13578 13579 13580 13581 13582 13583 13584 13585 13586 13587 13588 13589 13590 13591 13592 13593 13594 13595 13596 13597 13598 13599 13600 13601 13602 13603 13604 13605 13606 13607 13608 13609 13610 13611 13612 13613 13614 13615 13616 13617 13618 13619 13620 13621 13622 13623 13624 13625 13626 13627 13628 13629 13630 13631 13632 13633 13634 13635 13636 13637 13638 13639 13640 13641 13642 13643 13644 13645 13646 13647 13648 13649 13650 13651 13652 13653 13654 13655 13656 13657 13658 13659 13660 13661 13662 13663 13664 13665 13666 13667 13668 13669 13670 13671 13672 13673 13674 13675 13676 13677 13678 13679 13680 13681 13682 13683 13684 13685 13686 13687 13688 13689 13690 13691 13692 13693 13694 13695 13696 13697 13698 13699 13700 13701 13702 13703 13704 13705 13706 13707 13708 13709 13710 13711 13712 13713 13714 13715 13716 13717 13718 13719 13720 13721 13722 13723 13724 13725 13726 13727 13728 13729 13730 13731 13732 13733 13734 13735 13736 13737 13738 13739 13740 13741 13742 13743 13744 13745 13746 13747 13748 13749 13750 13751 13752 13753 13754 13755 13756 13757 13758 13759 13760 13761 13762 13763 13764 13765 13766 13767 13768 13769 13770 13771 13772 13773 13774 13775 13776 13777 13778 13779 13780 13781 13782 13783 13784 13785 13786 13787 13788 13789 13790 13791 13792 13793 13794 13795 13796 13797 13798 13799 13800 13801 13802 13803 13804 13805 13806 13807 13808 13809 13810 13811 13812 13813 13814 13815 13816 13817 13818 13819 13820 13821 13822 13823 13824 13825 13826 13827 13828 13829 13830 13831 13832 13833 13834 13835 13836 13837 13838 13839 13840 13841 13842 13843 13844 13845 13846 13847 13848 13849 13850 13851 13852 13853 13854 13855 13856 13857 13858 13859 13860 13861 13862 13863 13864 13865 13866 13867 13868 13869 13870 13871 13872 13873 13874 13875 13876 13877 13878 13879 13880 13881 13882 13883 13884 13885 13886 13887 13888 13889 13890 13891 13892 13893 13894 13895 13896 13897 13898 13899 13900 13901 13902 13903 13904 13905 13906 13907 13908 13909 13910 13911 13912 13913 13914 13915 13916 13917 13918 13919 13920 13921 13922 13923 13924 13925 13926 13927 13928 13929 13930 13931 13932 13933 13934 13935 13936 13937 13938 13939 13940 13941 13942 13943 13944 13945 13946 13947 13948 13949 13950 13951 13952 13953 13954 13955 13956 13957 13958 13959 13960 13961 13962 13963 13964 13965 13966 13967 13968 13969 13970 13971 13972 13973 13974 13975 13976 13977 13978 13979 13980 13981 13982 13983 13984 13985 13986 13987 13988 13989 13990 13991 13992 13993 13994 13995 13996 13997 13998 13999 14000 14001 14002 14003 14004 14005 14006 14007 14008 14009 14010 14011 14012 14013 14014 14015 14016 14017 14018 14019 14020 14021 14022 14023 14024 14025 14026 14027 14028 14029 14030 14031 14032 14033 14034 14035 14036 14037 14038 14039 14040 14041 14042 14043 14044 14045 14046 14047 14048 14049 14050 14051 14052 14053 14054 14055 14056 14057 14058 14059 14060 14061 14062 14063 14064 14065 14066 14067 14068 14069 14070 14071 14072 14073 14074 14075 14076 14077 14078 14079 14080 14081 14082 14083 14084 14085 14086 14087 14088 14089 14090 14091 14092 14093 14094 14095 14096 14097 14098 14099 14100 14101 14102 14103 14104 14105 14106 14107 14108 14109 14110 14111 14112 14113 14114 14115 14116 14117 14118 14119 14120 14121 14122 14123 14124 14125 14126 14127 14128 14129 14130 14131 14132 14133 14134 14135 14136 14137 14138 14139 14140 14141 14142 14143 14144 14145 14146 14147 14148 14149 14150 14151 14152 14153 14154 14155 14156 14157 14158 14159 14160 14161 14162 14163 14164 14165 14166 14167 14168 14169 14170 14171 14172 14173 14174 14175 14176 14177 14178 14179 14180 14181 14182 14183 14184 14185 14186 14187 14188 14189 14190 14191 14192 14193 14194 14195 14196 14197 14198 14199 14200 14201 14202 14203 14204 14205 14206 14207 14208 14209 14210 14211 14212 14213 14214 14215 14216 14217 14218 14219 14220 14221 14222 14223 14224 14225 14226 14227 14228 14229 14230 14231 14232 14233 14234 14235 14236 14237 14238 14239 14240 14241 14242 14243 14244 14245 14246 14247 14248 14249 14250 14251 14252 14253 14254 14255 14256 14257 14258 14259 14260 14261 14262 14263 14264 14265 14266 14267 14268 14269 14270 14271 14272 14273 14274 14275 14276 14277 14278 14279 14280 14281 14282 14283 14284 14285 14286 14287 14288 14289 14290 14291 14292 14293 14294 14295 14296 14297 14298 14299 14300 14301 14302 14303 14304 14305 14306 14307 14308 14309 14310 14311 14312 14313 14314 14315 14316 14317 14318 14319 14320 14321 14322 14323 14324 14325 14326 14327 14328 14329 14330 14331 14332 14333 14334 14335 14336 14337 14338 14339 14340 14341 14342 14343 14344 14345 14346 14347 14348 14349 14350 14351 14352 14353 14354 14355 14356 14357 14358 14359 14360 14361 14362 14363 14364 14365 14366 14367 14368 14369 14370 14371 14372 14373 14374 14375 14376 14377 14378 14379 14380 14381 14382 14383 14384 14385 14386 14387 14388 14389 14390 14391 14392 14393 14394 14395 14396 14397 14398 14399 14400 14401 14402 14403 14404 14405 14406 14407 14408 14409 14410 14411 14412 14413 14414 14415 14416 14417 14418 14419 14420 14421 14422 14423 14424 14425 14426 14427 14428 14429 14430 14431 14432 14433 14434 14435 14436 14437 14438 14439 14440 14441 14442 14443 14444 14445 14446 14447 14448 14449 14450 14451 14452 14453 14454 14455 14456 14457 14458 14459 14460 14461 14462 14463 14464 14465 14466 14467 14468 14469 14470 14471 14472 14473 14474 14475 14476 14477 14478 14479 14480 14481 14482 14483 14484 14485 14486 14487 14488 14489 14490 14491 14492 14493 14494 14495 14496 14497 14498 14499 14500 14501 14502 14503 14504 14505 14506 14507 14508 14509 14510 14511 14512 14513 14514 14515 14516 14517 14518 14519 14520 14521 14522 14523 14524 14525 14526 14527 14528 14529 14530 14531 14532 14533 14534 14535 14536 14537 14538 14539 14540 14541 14542 14543 14544 14545 14546 14547 14548 14549 14550 14551 14552 14553 14554 14555 14556 14557 14558 14559 14560 14561 14562 14563 14564 14565 14566 14567 14568 14569 14570 14571 14572 14573 14574 14575 14576 14577 14578 14579 14580 14581 14582 14583 14584 14585 14586 14587 14588 14589 14590 14591 14592 14593 14594 14595 14596 14597 14598 14599 14600 14601 14602 14603 14604 14605 14606 14607 14608 14609 14610 14611 14612 14613 14614 14615 14616 14617 14618 14619 14620 14621 14622 14623 14624 14625 14626 14627 14628 14629 14630 14631 14632 14633 14634 14635 14636 14637 14638 14639 14640 14641 14642 14643 14644 14645 14646 14647 14648 14649 14650 14651 14652 14653 14654 14655 14656 14657 14658 14659 14660 14661 14662 14663 14664 14665 14666 14667 14668 14669 14670 14671 14672 14673 14674 14675 14676 14677 14678 14679 14680 14681 14682 14683 14684 14685 14686 14687 14688 14689 14690 14691 14692 14693 14694 14695 14696 14697 14698 14699 14700 14701 14702 14703 14704 14705 14706 14707 14708 14709 14710 14711 14712 14713 14714 14715 14716 14717 14718 14719 14720 14721 14722 14723 14724 14725 14726 14727 14728 14729 14730 14731 14732 14733 14734 14735 14736 14737 14738 14739 14740 14741 14742 14743 14744 14745 14746 14747 14748 14749 14750 14751 14752 14753 14754 14755 14756 14757 14758 14759 14760 14761 14762 14763 14764 14765 14766 14767 14768 14769 14770 14771 14772 14773 14774 14775 14776 14777 14778 14779 14780 14781 14782 14783 14784 14785 14786 14787 14788 14789 14790 14791 14792 14793 14794 14795 14796 14797 14798 14799 14800 14801 14802 14803 14804 14805 14806 14807 14808 14809 14810 14811 14812 14813 14814 14815 14816 14817 14818 14819 14820 14821 14822 14823 14824 14825 14826 14827 14828 14829 14830 14831 14832 14833 14834 14835 14836 14837 14838 14839 14840 14841 14842 14843 14844 14845 14846 14847 14848 14849 14850 14851 14852 14853 14854 14855 14856 14857 14858 14859 14860 14861 14862 14863 14864 14865 14866 14867 14868 14869 14870 14871 14872 14873 14874 14875 14876 14877 14878 14879 14880 14881 14882 14883 14884 14885 14886 14887 14888 14889 14890 14891 14892 14893 14894 14895 14896 14897 14898 14899 14900 14901 14902 14903 14904 14905 14906 14907 14908 14909 14910 14911 14912 14913 14914 14915 14916 14917 14918 14919 14920 14921 14922 14923 14924 14925 14926 14927 14928 14929 14930 14931 14932 14933 14934 14935 14936 14937 14938 14939 14940 14941 14942 14943 14944 14945 14946 14947 14948 14949 14950 14951 14952 14953 14954 14955 14956 14957 14958 14959 14960 14961 14962 14963 14964 14965 14966 14967 14968 14969 14970 14971 14972 14973 14974 14975 14976 14977 14978 14979 14980 14981 14982 14983 14984 14985 14986 14987 14988 14989 14990 14991 14992 14993 14994 14995 14996 14997 14998 14999 15000 15001 15002 15003 15004 15005 15006 15007 15008 15009 15010 15011 15012 15013 15014 15015 15016 15017 15018 15019 15020 15021 15022 15023 15024 15025 15026 15027 15028 15029 15030 15031 15032 15033 15034 15035 15036 15037 15038 15039 15040 15041 15042 15043 15044 15045 15046 15047 15048 15049 15050 15051 15052 15053 15054 15055 15056 15057 15058 15059 15060 15061 15062 15063 15064 15065 15066 15067 15068 15069 15070 15071 15072 15073 15074 15075 15076 15077 15078 15079 15080 15081 15082 15083 15084 15085 15086 15087 15088 15089 15090 15091 15092 15093 15094 15095 15096 15097 15098 15099 15100 15101 15102 15103 15104 15105 15106 15107 15108 15109 15110 15111 15112 15113 15114 15115 15116 15117 15118 15119 15120 15121 15122 15123 15124 15125 15126 15127 15128 15129 15130 15131 15132 15133 15134 15135 15136 15137 15138 15139 15140 15141 15142 15143 15144 15145 15146 15147 15148 15149 15150 15151 15152 15153 15154 15155 15156 15157 15158 15159 15160 15161 15162 15163 15164 15165 15166 15167 15168 15169 15170 15171 15172 15173 15174 15175 15176 15177 15178 15179 15180 15181 15182 15183 15184 15185 15186 15187 15188 15189 15190 15191 15192 15193 15194 15195 15196 15197 15198 15199 15200 15201 15202 15203 15204 15205 15206 15207 15208 15209 15210 15211 15212 15213 15214 15215 15216 15217 15218 15219 15220 15221 15222 15223 15224 15225 15226 15227 15228 15229 15230 15231 15232 15233 15234 15235 15236 15237 15238 15239 15240 15241 15242 15243 15244 15245 15246 15247 15248 15249 15250 15251 15252 15253 15254 15255 15256 15257 15258 15259 15260 15261 15262 15263 15264 15265 15266 15267 15268 15269 15270 15271 15272 15273 15274 15275 15276 15277 15278 15279 15280 15281 15282 15283 15284 15285 15286 15287 15288 15289 15290 15291 15292 15293 15294 15295 15296 15297 15298 15299 15300 15301 15302 15303 15304 15305 15306 15307 15308 15309 15310 15311 15312 15313 15314 15315 15316 15317 15318 15319 15320 15321 15322 15323 15324 15325 15326 15327 15328 15329 15330 15331 15332 15333 15334 15335 15336 15337 15338 15339 15340 15341 15342 15343 15344 15345 15346 15347 15348 15349 15350 15351 15352 15353 15354 15355 15356 15357 15358 15359 15360 15361 15362 15363 15364 15365 15366 15367 15368 15369 15370 15371 15372 15373 15374 15375 15376 15377 15378 15379 15380 15381 15382 15383 15384 15385 15386 15387 15388 15389 15390 15391 15392 15393 15394 15395 15396 15397 15398 15399 15400 15401 15402 15403 15404 15405 15406 15407 15408 15409 15410 15411 15412 15413 15414 15415 15416 15417 15418 15419 15420 15421 15422 15423 15424 15425 15426 15427 15428 15429 15430 15431 15432 15433 15434 15435 15436 15437 15438 15439 15440 15441 15442 15443 15444 15445 15446 15447 15448 15449 15450 15451 15452 15453 15454 15455 15456 15457 15458 15459 15460 15461 15462 15463 15464 15465 15466 15467 15468 15469 15470 15471 15472 15473 15474 15475 15476 15477 15478 15479 15480 15481 15482 15483 15484 15485 15486 15487 15488 15489 15490 15491 15492 15493 15494 15495 15496 15497 15498 15499 15500 15501 15502 15503 15504 15505 15506 15507 15508 15509 15510 15511 15512 15513 15514 15515 15516 15517 15518 15519 15520 15521 15522 15523 15524 15525 15526 15527 15528 15529 15530 15531 15532 15533 15534 15535 15536 15537 15538 15539 15540 15541 15542 15543 15544 15545 15546 15547 15548 15549 15550 15551 15552 15553 15554 15555 15556 15557 15558 15559 15560 15561 15562 15563 15564 15565 15566 15567 15568 15569 15570 15571 15572 15573 15574 15575 15576 15577 15578 15579 15580 15581 15582 15583 15584 15585 15586 15587 15588 15589 15590 15591 15592 15593 15594 15595 15596 15597 15598 15599 15600 15601 15602 15603 15604 15605 15606 15607 15608 15609 15610 15611 15612 15613 15614 15615 15616 15617 15618 15619 15620 15621 15622 15623 15624 15625 15626 15627 15628 15629 15630 15631 15632 15633 15634 15635 15636 15637 15638 15639 15640 15641 15642 15643 15644 15645 15646 15647 15648 15649 15650 15651 15652 15653 15654 15655 15656 15657 15658 15659 15660 15661 15662 15663 15664 15665 15666 15667 15668 15669 15670 15671 15672 15673 15674 15675 15676 15677 15678 15679 15680 15681 15682 15683 15684 15685 15686 15687 15688 15689 15690 15691 15692 15693 15694 15695 15696 15697 15698 15699 15700 15701 15702 15703 15704 15705 15706 15707 15708 15709 15710 15711 15712 15713 15714 15715 15716 15717 15718 15719 15720 15721 15722 15723 15724 15725 15726 15727 15728 15729 15730 15731 15732 15733 15734 15735 15736 15737 15738 15739 15740 15741 15742 15743 15744 15745 15746 15747 15748 15749 15750 15751 15752 15753 15754 15755 15756 15757 15758 15759 15760 15761 15762 15763 15764 15765 15766 15767 15768 15769 15770 15771 15772 15773 15774 15775 15776 15777 15778 15779 15780 15781 15782 15783 15784 15785 15786 15787 15788 15789 15790 15791 15792 15793 15794 15795 15796 15797 15798 15799 15800 15801 15802 15803 15804 15805 15806 15807 15808 15809 15810 15811 15812 15813 15814 15815 15816 15817 15818 15819 15820 15821 15822 15823 15824 15825 15826 15827 15828 15829 15830 15831 15832 15833 15834 15835 15836 15837 15838 15839 15840 15841 15842 15843 15844 15845 15846 15847 15848 15849 15850 15851 15852 15853 15854 15855 15856 15857 15858 15859 15860 15861 15862 15863 15864 15865 15866 15867 15868 15869 15870 15871 15872 15873 15874 15875 15876 15877 15878 15879 15880 15881 15882 15883 15884 15885 15886 15887 15888 15889 15890 15891 15892 15893 15894 15895 15896 15897 15898 15899 15900 15901 15902 15903 15904 15905 15906 15907 15908 15909 15910 15911 15912 15913 15914 15915 15916 15917 15918 15919 15920 15921 15922 15923 15924 15925 15926 15927 15928 15929 15930 15931 15932 15933 15934 15935 15936 15937 15938 15939 15940 15941 15942 15943 15944 15945 15946 15947 15948 15949 15950 15951 15952 15953 15954 15955 15956 15957 15958 15959 15960 15961 15962 15963 15964 15965 15966 15967 15968 15969 15970 15971 15972 15973 15974 15975 15976 15977 15978 15979 15980 15981 15982 15983 15984 15985 15986 15987 15988 15989 15990 15991 15992 15993 15994 15995 15996 15997 15998 15999 16000 16001 16002 16003 16004 16005 16006 16007 16008 16009 16010 16011 16012 16013 16014 16015 16016 16017 16018 16019 16020 16021 16022 16023 16024 16025 16026 16027 16028 16029 16030 16031 16032 16033 16034 16035 16036 16037 16038 16039 16040 16041 16042 16043 16044 16045 16046 16047 16048 16049 16050 16051 16052 16053 16054 16055 16056 16057 16058 16059 16060 16061 16062 16063 16064 16065 16066 16067 16068 16069 16070 16071 16072 16073 16074 16075 16076 16077 16078 16079 16080 16081 16082 16083 16084 16085 16086 16087 16088 16089 16090 16091 16092 16093 16094 16095 16096 16097 16098 16099 16100 16101 16102 16103 16104 16105 16106 16107 16108 16109 16110 16111 16112 16113 16114 16115 16116 16117 16118 16119 16120 16121 16122 16123 16124 16125 16126 16127 16128 16129 16130 16131 16132 16133 16134 16135 16136 16137 16138 16139 16140 16141 16142 16143 16144 16145 16146 16147 16148 16149 16150 16151 16152 16153 16154 16155 16156 16157 16158 16159 16160 16161 16162 16163 16164 16165 16166 16167 16168 16169 16170 16171 16172 16173 16174 16175 16176 16177 16178 16179 16180 16181 16182 16183 16184 16185 16186 16187 16188 16189 16190 16191 16192 16193 16194 16195 16196 16197 16198 16199 16200 16201 16202 16203 16204 16205 16206 16207 16208 16209 16210 16211 16212 16213 16214 16215 16216 16217 16218 16219 16220 16221 16222 16223 16224 16225 16226 16227 16228 16229 16230 16231 16232 16233 16234 16235 16236 16237 16238 16239 16240 16241 16242 16243 16244 16245 16246 16247 16248 16249 16250 16251 16252 16253 16254 16255 16256 16257 16258 16259 16260 16261 16262 16263 16264 16265 16266 16267 16268 16269 16270 16271 16272 16273 16274 16275 16276 16277 16278 16279 16280 16281 16282 16283 16284 16285 16286 16287 16288 16289 16290 16291 16292 16293 16294 16295 16296 16297 16298 16299 16300 16301 16302 16303 16304 16305 16306 16307 16308 16309 16310 16311 16312 16313 16314 16315 16316 16317 16318 16319 16320 16321 16322 16323 16324 16325 16326 16327 16328 16329 16330 16331 16332 16333 16334 16335 16336 16337 16338 16339 16340 16341 16342 16343 16344 16345 16346 16347 16348 16349 16350 16351 16352 16353 16354 16355 16356 16357 16358 16359 16360 16361 16362 16363 16364 16365 16366 16367 16368 16369 16370 16371 16372 16373 16374 16375 16376 16377 16378 16379 16380 16381 16382 16383 16384 16385 16386 16387 16388 16389 16390 16391 16392 16393 16394 16395 16396 16397 16398 16399 16400 16401 16402 16403 16404 16405 16406 16407 16408 16409 16410 16411 16412 16413 16414 16415 16416 16417 16418 16419 16420 16421 16422 16423 16424 16425 16426 16427 16428 16429 16430 16431 16432 16433 16434 16435 16436 16437 16438 16439 16440 16441 16442 16443 16444 16445 16446 16447 16448 16449 16450 16451 16452 16453 16454 16455 16456 16457 16458 16459 16460 16461 16462 16463 16464 16465 16466 16467 16468 16469 16470 16471 16472 16473 16474 16475 16476 16477 16478 16479 16480 16481 16482 16483 16484 16485 16486 16487 16488 16489 16490 16491 16492 16493 16494 16495 16496 16497 16498 16499 16500 16501 16502 16503 16504 16505 16506 16507 16508 16509 16510 16511 16512 16513 16514 16515 16516 16517 16518 16519 16520 16521 16522 16523 16524 16525 16526 16527 16528 16529 16530 16531 16532 16533 16534 16535 16536 16537 16538 16539 16540 16541 16542 16543 16544 16545 16546 16547 16548 16549 16550 16551 16552 16553 16554 16555 16556 16557 16558 16559 16560 16561 16562 16563 16564 16565 16566 16567 16568 16569 16570 16571 16572 16573 16574 16575 16576 16577 16578 16579 16580 16581 16582 16583 16584 16585 16586 16587 16588 16589 16590 16591 16592 16593 16594 16595 16596 16597 16598 16599 16600 16601 16602 16603 16604 16605 16606 16607 16608 16609 16610 16611 16612 16613 16614 16615 16616 16617 16618 16619 16620 16621 16622 16623 16624 16625 16626 16627 16628 16629 16630 16631 16632 16633 16634 16635 16636 16637 16638 16639 16640 16641 16642 16643 16644 16645 16646 16647 16648 16649 16650 16651 16652 16653 16654 16655 16656 16657 16658 16659 16660 16661 16662 16663 16664 16665 16666 16667 16668 16669 16670 16671 16672 16673 16674 16675 16676 16677 16678 16679 16680 16681 16682 16683 16684 16685 16686 16687 16688 16689 16690 16691 16692 16693 16694 16695 16696 16697 16698 16699 16700 16701 16702 16703 16704 16705 16706 16707 16708 16709 16710 16711 16712 16713 16714 16715 16716 16717 16718 16719 16720 16721 16722 16723 16724 16725 16726 16727 16728 16729 16730 16731 16732 16733 16734 16735 16736 16737 16738 16739 16740 16741 16742 16743 16744 16745 16746 16747 16748 16749 16750 16751 16752 16753 16754 16755 16756 16757 16758 16759 16760 16761 16762 16763 16764 16765 16766 16767 16768 16769 16770 16771 16772 16773 16774 16775 16776 16777 16778 16779 16780 16781 16782 16783 16784 16785 16786 16787 16788 16789 16790 16791 16792 16793 16794 16795 16796 16797 16798 16799 16800 16801 16802 16803 16804 16805 16806 16807 16808 16809 16810 16811 16812 16813 16814 16815 16816 16817 16818 16819 16820 16821 16822 16823 16824 16825 16826 16827 16828 16829 16830 16831 16832 16833 16834 16835 16836 16837 16838 16839 16840 16841 16842 16843 16844 16845 16846 16847 16848 16849 16850 16851 16852 16853 16854 16855 16856 16857 16858 16859 16860 16861 16862 16863 16864 16865 16866 16867 16868 16869 16870 16871 16872 16873 16874 16875 16876 16877 16878 16879 16880 16881 16882 16883 16884 16885 16886 16887 16888 16889 16890 16891 16892 16893 16894 16895 16896 16897 16898 16899 16900 16901 16902 16903 16904 16905 16906 16907 16908 16909 16910 16911 16912 16913 16914 16915 16916 16917 16918 16919 16920 16921 16922 16923 16924 16925 16926 16927 16928 16929 16930 16931 16932 16933 16934 16935 16936 16937 16938 16939 16940 16941 16942 16943 16944 16945 16946 16947 16948 16949 16950 16951 16952 16953 16954 16955 16956 16957 16958 16959 16960 16961 16962 16963 16964 16965 16966 16967 16968 16969 16970 16971 16972 16973 16974 16975 16976 16977 16978 16979 16980 16981 16982 16983 16984 16985 16986 16987 16988 16989 16990 16991 16992 16993 16994 16995 16996 16997 16998 16999 17000 17001 17002 17003 17004 17005 17006 17007 17008 17009 17010 17011 17012 17013 17014 17015 17016 17017 17018 17019 17020 17021 17022 17023 17024 17025 17026 17027 17028 17029 17030 17031 17032 17033 17034 17035 17036 17037 17038 17039 17040 17041 17042 17043 17044 17045 17046 17047 17048 17049 17050 17051 17052 17053 17054 17055 17056 17057 17058 17059 17060 17061 17062 17063 17064 17065 17066 17067 17068 17069 17070 17071 17072 17073 17074 17075 17076 17077 17078 17079 17080 17081 17082 17083 17084 17085 17086 17087 17088 17089 17090 17091 17092 17093 17094 17095 17096 17097 17098 17099 17100 17101 17102 17103 17104 17105 17106 17107 17108 17109 17110 17111 17112 17113 17114 17115 17116 17117 17118 17119 17120 17121 17122 17123 17124 17125 17126 17127 17128 17129 17130 17131 17132 17133 17134 17135 17136 17137 17138 17139 17140 17141 17142 17143 17144 17145 17146 17147 17148 17149 17150 17151 17152 17153 17154 17155 17156 17157 17158 17159 17160 17161 17162 17163 17164 17165 17166 17167 17168 17169 17170 17171 17172 17173 17174 17175 17176 17177 17178 17179 17180 17181 17182 17183 17184 17185 17186 17187 17188 17189 17190 17191 17192 17193 17194 17195 17196 17197 17198 17199 17200 17201 17202 17203 17204 17205 17206 17207 17208 17209 17210 17211 17212 17213 17214 17215 17216 17217 17218 17219 17220 17221 17222 17223 17224 17225 17226 17227 17228 17229 17230 17231 17232 17233 17234 17235 17236 17237 17238 17239 17240 17241 17242 17243 17244 17245 17246 17247 17248 17249 17250 17251 17252 17253 17254 17255 17256 17257 17258 17259 17260 17261 17262 17263 17264 17265 17266 17267 17268 17269 17270 17271 17272 17273 17274 17275 17276 17277 17278 17279 17280 17281 17282 17283 17284 17285 17286 17287 17288 17289 17290 17291 17292 17293 17294 17295 17296 17297 17298 17299 17300 17301 17302 17303 17304 17305 17306 17307 17308 17309 17310 17311 17312 17313 17314 17315 17316 17317 17318 17319 17320 17321 17322 17323 17324 17325 17326 17327 17328 17329 17330 17331 17332 17333 17334 17335 17336 17337 17338 17339 17340 17341 17342 17343 17344 17345 17346 17347 17348 17349 17350 17351 17352 17353 17354 17355 17356 17357 17358 17359 17360 17361 17362 17363 17364 17365 17366 17367 17368 17369 17370 17371 17372 17373 17374 17375 17376 17377 17378 17379 17380 17381 17382 17383 17384 17385 17386 17387 17388 17389 17390 17391 17392 17393 17394 17395 17396 17397 17398 17399 17400 17401 17402 17403 17404 17405 17406 17407 17408 17409 17410 17411 17412 17413 17414 17415 17416 17417 17418 17419 17420 17421 17422 17423 17424 17425 17426 17427 17428 17429 17430 17431 17432 17433 17434 17435 17436 17437 17438 17439 17440 17441 17442 17443 17444 17445 17446 17447 17448 17449 17450 17451 17452 17453 17454 17455 17456 17457 17458 17459 17460 17461 17462 17463 17464 17465 17466 17467 17468 17469 17470 17471 17472 17473 17474 17475 17476 17477 17478 17479 17480 17481 17482 17483 17484 17485 17486 17487 17488 17489 17490 17491 17492 17493 17494 17495 17496 17497 17498 17499 17500 17501 17502 17503 17504 17505 17506 17507 17508 17509 17510 17511 17512 17513 17514 17515 17516 17517 17518 17519 17520 17521 17522 17523 17524 17525 17526 17527 17528 17529 17530 17531 17532 17533 17534 17535 17536 17537 17538 17539 17540 17541 17542 17543 17544 17545 17546 17547 17548 17549 17550 17551 17552 17553 17554 17555 17556 17557 17558 17559 17560 17561 17562 17563 17564 17565 17566 17567 17568 17569 17570 17571 17572 17573 17574 17575 17576 17577 17578 17579 17580 17581 17582 17583 17584 17585 17586 17587 17588 17589 17590 17591 17592 17593 17594 17595 17596 17597 17598 17599 17600 17601 17602 17603 17604 17605 17606 17607 17608 17609 17610 17611 17612 17613 17614 17615 17616 17617 17618 17619 17620 17621 17622 17623 17624 17625 17626 17627 17628 17629 17630 17631 17632 17633 17634 17635 17636 17637 17638 17639 17640 17641 17642 17643 17644 17645 17646 17647 17648 17649 17650 17651 17652 17653 17654 17655 17656 17657 17658 17659 17660 17661 17662 17663 17664 17665 17666 17667 17668 17669 17670 17671 17672 17673 17674 17675 17676 17677 17678 17679 17680 17681 17682 17683 17684 17685 17686 17687 17688 17689 17690 17691 17692 17693 17694 17695 17696 17697 17698 17699 17700 17701 17702 17703 17704 17705 17706 17707 17708 17709 17710 17711 17712 17713 17714 17715 17716 17717 17718 17719 17720 17721 17722 17723 17724 17725 17726 17727 17728 17729 17730 17731 17732 17733 17734 17735 17736 17737 17738 17739 17740 17741 17742 17743 17744 17745 17746 17747 17748 17749 17750 17751 17752 17753 17754 17755 17756 17757 17758 17759 17760 17761 17762 17763 17764 17765 17766 17767 17768 17769 17770 17771 17772 17773 17774 17775 17776 17777 17778 17779 17780 17781 17782 17783 17784 17785 17786 17787 17788 17789 17790 17791 17792 17793 17794 17795 17796 17797 17798 17799 17800 17801 17802 17803 17804 17805 17806 17807 17808 17809 17810 17811 17812 17813 17814 17815 17816 17817 17818 17819 17820 17821 17822 17823 17824 17825 17826 17827 17828 17829 17830 17831 17832 17833 17834 17835 17836 17837 17838 17839 17840 17841 17842 17843 17844 17845 17846 17847 17848 17849 17850 17851 17852 17853 17854 17855 17856 17857 17858 17859 17860 17861 17862 17863 17864 17865 17866 17867 17868 17869 17870 17871 17872 17873 17874 17875 17876 17877 17878 17879 17880 17881 17882 17883 17884 17885 17886 17887 17888 17889 17890 17891 17892 17893 17894 17895 17896 17897 17898 17899 17900 17901 17902 17903 17904 17905 17906 17907 17908 17909 17910 17911 17912 17913 17914 17915 17916 17917 17918 17919 17920 17921 17922 17923 17924 17925 17926 17927 17928 17929 17930 17931 17932 17933 17934 17935 17936 17937 17938 17939 17940 17941 17942 17943 17944 17945 17946 17947 17948 17949 17950 17951 17952 17953 17954 17955 17956 17957 17958 17959 17960 17961 17962 17963 17964 17965 17966 17967 17968 17969 17970 17971 17972 17973 17974 17975 17976 17977 17978 17979 17980 17981 17982 17983 17984 17985 17986 17987 17988 17989 17990 17991 17992 17993 17994 17995 17996 17997 17998 17999 18000 18001 18002 18003 18004 18005 18006 18007 18008 18009 18010 18011 18012 18013 18014 18015 18016 18017 18018 18019 18020 18021 18022 18023 18024 18025 18026 18027 18028 18029 18030 18031 18032 18033 18034 18035 18036 18037 18038 18039 18040 18041 18042 18043 18044 18045 18046 18047 18048 18049 18050 18051 18052 18053 18054 18055 18056 18057 18058 18059 18060 18061 18062 18063 18064 18065 18066 18067 18068 18069 18070 18071 18072 18073 18074 18075 18076 18077 18078 18079 18080 18081 18082 18083 18084 18085 18086 18087 18088 18089 18090 18091 18092 18093 18094 18095 18096 18097 18098 18099 18100 18101 18102 18103 18104 18105 18106 18107 18108 18109 18110 18111 18112 18113 18114 18115 18116 18117 18118 18119 18120 18121 18122 18123 18124 18125 18126 18127 18128 18129 18130 18131 18132 18133 18134 18135 18136 18137 18138 18139 18140 18141 18142 18143 18144 18145 18146 18147 18148 18149 18150 18151 18152 18153 18154 18155 18156 18157 18158 18159 18160 18161 18162 18163 18164 18165 18166 18167 18168 18169 18170 18171 18172 18173 18174 18175 18176 18177 18178 18179 18180 18181 18182 18183 18184 18185 18186 18187 18188 18189 18190 18191 18192 18193 18194 18195 18196 18197 18198 18199 18200 18201 18202 18203 18204 18205 18206 18207 18208 18209 18210 18211 18212 18213 18214 18215 18216 18217 18218 18219 18220 18221 18222 18223 18224 18225 18226 18227 18228 18229 18230 18231 18232 18233 18234 18235 18236 18237 18238 18239 18240 18241 18242 18243 18244 18245 18246 18247 18248 18249 18250 18251 18252 18253 18254 18255 18256 18257 18258 18259 18260 18261 18262 18263 18264 18265 18266 18267 18268 18269 18270 18271 18272 18273 18274 18275 18276 18277 18278 18279 18280 18281 18282 18283 18284 18285 18286 18287 18288 18289 18290 18291 18292 18293 18294 18295 18296 18297 18298 18299 18300 18301 18302 18303 18304 18305 18306 18307 18308 18309 18310 18311 18312 18313 18314 18315 18316 18317 18318 18319 18320 18321 18322 18323 18324 18325 18326 18327 18328 18329 18330 18331 18332 18333 18334 18335 18336 18337 18338 18339 18340 18341 18342 18343 18344 18345 18346 18347 18348 18349 18350 18351 18352 18353 18354 18355 18356 18357 18358 18359 18360 18361 18362 18363 18364 18365 18366 18367 18368 18369 18370 18371 18372 18373 18374 18375 18376 18377 18378 18379 18380 18381 18382 18383 18384 18385 18386 18387 18388 18389 18390 18391 18392 18393 18394 18395 18396 18397 18398 18399 18400 18401 18402 18403 18404 18405 18406 18407 18408 18409 18410 18411 18412 18413 18414 18415 18416 18417 18418 18419 18420 18421 18422 18423 18424 18425 18426 18427 18428 18429 18430 18431 18432 18433 18434 18435 18436 18437 18438 18439 18440 18441 18442 18443 18444 18445 18446 18447 18448 18449 18450 18451 18452 18453 18454 18455 18456 18457 18458 18459 18460 18461 18462 18463 18464 18465 18466 18467 18468 18469 18470 18471 18472 18473 18474 18475 18476 18477 18478 18479 18480 18481 18482 18483 18484 18485 18486 18487 18488 18489 18490 18491 18492 18493 18494 18495 18496 18497 18498 18499 18500 18501 18502 18503 18504 18505 18506 18507 18508 18509 18510 18511 18512 18513 18514 18515 18516 18517 18518 18519 18520 18521 18522 18523 18524 18525 18526 18527 18528 18529 18530 18531 18532 18533 18534 18535 18536 18537 18538 18539 18540 18541 18542 18543 18544 18545 18546 18547 18548 18549 18550 18551 18552 18553 18554 18555 18556 18557 18558 18559 18560 18561 18562 18563 18564 18565 18566 18567 18568 18569 18570 18571 18572 18573 18574 18575 18576 18577 18578 18579 18580 18581 18582 18583 18584 18585 18586 18587 18588 18589 18590 18591 18592 18593 18594 18595 18596 18597 18598 18599 18600 18601 18602 18603 18604 18605 18606 18607 18608 18609 18610 18611 18612 18613 18614 18615 18616 18617 18618 18619 18620 18621 18622 18623 18624 18625 18626 18627 18628 18629 18630 18631 18632 18633 18634 18635 18636 18637 18638 18639 18640 18641 18642 18643 18644 18645 18646 18647 18648 18649 18650 18651 18652 18653 18654 18655 18656 18657 18658 18659 18660 18661 18662 18663 18664 18665 18666 18667 18668 18669 18670 18671 18672 18673 18674 18675 18676 18677 18678 18679 18680 18681 18682 18683 18684 18685 18686 18687 18688 18689 18690 18691 18692 18693 18694 18695 18696 18697 18698 18699 18700 18701 18702 18703 18704 18705 18706 18707 18708 18709 18710 18711 18712 18713 18714 18715 18716 18717 18718 18719 18720 18721 18722 18723 18724 18725 18726 18727 18728 18729 18730 18731 18732 18733 18734 18735 18736 18737 18738 18739 18740 18741 18742 18743 18744 18745 18746 18747 18748 18749 18750 18751 18752 18753 18754 18755 18756 18757 18758 18759 18760 18761 18762 18763 18764 18765 18766 18767 18768 18769 18770 18771 18772 18773 18774 18775 18776 18777 18778 18779 18780 18781 18782 18783 18784 18785 18786 18787 18788 18789 18790 18791 18792 18793 18794 18795 18796 18797 18798 18799 18800 18801 18802 18803 18804 18805 18806 18807 18808 18809 18810 18811 18812 18813 18814 18815 18816 18817 18818 18819 18820 18821 18822 18823 18824 18825 18826 18827 18828 18829 18830 18831 18832 18833 18834 18835 18836 18837 18838 18839 18840 18841 18842 18843 18844 18845 18846 18847 18848 18849 18850 18851 18852 18853 18854 18855 18856 18857 18858 18859 18860 18861 18862 18863 18864 18865 18866 18867 18868 18869 18870 18871 18872 18873 18874 18875 18876 18877 18878 18879 18880 18881 18882 18883 18884 18885 18886 18887 18888 18889 18890 18891 18892 18893 18894 18895 18896 18897 18898 18899 18900 18901 18902 18903 18904 18905 18906 18907 18908 18909 18910 18911 18912 18913 18914 18915 18916 18917 18918 18919 18920 18921 18922 18923 18924 18925 18926 18927 18928 18929 18930 18931 18932 18933 18934 18935 18936 18937 18938 18939 18940 18941 18942 18943 18944 18945 18946 18947 18948 18949 18950 18951 18952 18953 18954 18955 18956 18957 18958 18959 18960 18961 18962 18963 18964 18965 18966 18967 18968 18969 18970 18971 18972 18973 18974 18975 18976 18977 18978 18979 18980 18981 18982 18983 18984 18985 18986 18987 18988 18989 18990 18991 18992 18993 18994 18995 18996 18997 18998 18999 19000 19001 19002 19003 19004 19005 19006 19007 19008 19009 19010 19011 19012 19013 19014 19015 19016 19017 19018 19019 19020 19021 19022 19023 19024 19025 19026 19027 19028 19029 19030 19031 19032 19033 19034 19035 19036 19037 19038 19039 19040 19041 19042 19043 19044 19045 19046 19047 19048 19049 19050 19051 19052 19053 19054 19055 19056 19057 19058 19059 19060 19061 19062 19063 19064 19065 19066 19067 19068 19069 19070 19071 19072 19073 19074 19075 19076 19077 19078 19079 19080 19081 19082 19083 19084 19085 19086 19087 19088 19089 19090 19091 19092 19093 19094 19095 19096 19097 19098 19099 19100 19101 19102 19103 19104 19105 19106 19107 19108 19109 19110 19111 19112 19113 19114 19115 19116 19117 19118 19119 19120 19121 19122 19123 19124 19125 19126 19127 19128 19129 19130 19131 19132 19133 19134 19135 19136 19137 19138 19139 19140 19141 19142 19143 19144 19145 19146 19147 19148 19149 19150 19151 19152 19153 19154 19155 19156 19157 19158 19159 19160 19161 19162 19163 19164 19165 19166 19167 19168 19169 19170 19171 19172 19173 19174 19175 19176 19177 19178 19179 19180 19181 19182 19183 19184 19185 19186 19187 19188 19189 19190 19191 19192 19193 19194 19195 19196 19197 19198 19199 19200 19201 19202 19203 19204 19205 19206 19207 19208 19209 19210 19211 19212 19213 19214 19215 19216 19217 19218 19219 19220 19221 19222 19223 19224 19225 19226 19227 19228 19229 19230 19231 19232 19233 19234 19235 19236 19237 19238 19239 19240 19241 19242 19243 19244 19245 19246 19247 19248 19249 19250 19251 19252 19253 19254 19255 19256 19257 19258 19259 19260 19261 19262 19263 19264 19265 19266 19267 19268 19269 19270 19271 19272 19273 19274 19275 19276 19277 19278 19279 19280 19281 19282 19283 19284 19285 19286 19287 19288 19289 19290 19291 19292 19293 19294 19295 19296 19297 19298 19299 19300 19301 19302 19303 19304 19305 19306 19307 19308 19309 19310 19311 19312 19313 19314 19315 19316 19317 19318 19319 19320 19321 19322 19323 19324 19325 19326 19327 19328 19329 19330 19331 19332 19333 19334 19335 19336 19337 19338 19339 19340 19341 19342 19343 19344 19345 19346 19347 19348 19349 19350 19351 19352 19353 19354 19355 19356 19357 19358 19359 19360 19361 19362 19363 19364 19365 19366 19367 19368 19369 19370 19371 19372 19373 19374 19375 19376 19377 19378 19379 19380 19381 19382 19383 19384 19385 19386 19387 19388 19389 19390 19391 19392 19393 19394 19395 19396 19397 19398 19399 19400 19401 19402 19403 19404 19405 19406 19407 19408 19409 19410 19411 19412 19413 19414 19415 19416 19417 19418 19419 19420 19421 19422 19423 19424 19425 19426 19427 19428 19429 19430 19431 19432 19433 19434 19435 19436 19437 19438 19439 19440 19441 19442 19443 19444 19445 19446 19447 19448 19449 19450 19451 19452 19453 19454 19455 19456 19457 19458 19459 19460 19461 19462 19463 19464 19465 19466 19467 19468 19469 19470 19471 19472 19473 19474 19475 19476 19477 19478 19479 19480 19481 19482 19483 19484 19485 19486 19487 19488 19489 19490 19491 19492 19493 19494 19495 19496 19497 19498 19499 19500 19501 19502 19503 19504 19505 19506 19507 19508 19509 19510 19511 19512 19513 19514 19515 19516 19517 19518 19519 19520 19521 19522 19523 19524 19525 19526 19527 19528 19529 19530 19531 19532 19533 19534 19535 19536 19537 19538 19539 19540 19541 19542 19543 19544 19545 19546 19547 19548 19549 19550 19551 19552 19553 19554 19555 19556 19557 19558 19559 19560 19561 19562 19563 19564 19565 19566 19567 19568 19569 19570 19571 19572 19573 19574 19575 19576 19577 19578 19579 19580 19581 19582 19583 19584 19585 19586 19587 19588 19589 19590 19591 19592 19593 19594 19595 19596 19597 19598 19599 19600 19601 19602 19603 19604 19605 19606 19607 19608 19609 19610 19611 19612 19613 19614 19615 19616 19617 19618 19619 19620 19621 19622 19623 19624 19625 19626 19627 19628 19629 19630 19631 19632 19633 19634 19635 19636 19637 19638 19639 19640 19641 19642 19643 19644 19645 19646 19647 19648 19649 19650 19651 19652 19653 19654 19655 19656 19657 19658 19659 19660 19661 19662 19663 19664 19665 19666 19667 19668 19669 19670 19671 19672 19673 19674 19675 19676 19677 19678 19679 19680 19681 19682 19683 19684 19685 19686 19687 19688 19689 19690 19691 19692 19693 19694 19695 19696 19697 19698 19699 19700 19701 19702 19703 19704 19705 19706 19707 19708 19709 19710 19711 19712 19713 19714 19715 19716 19717 19718 19719 19720 19721 19722 19723 19724 19725 19726 19727 19728 19729 19730 19731 19732 19733 19734 19735 19736 19737 19738 19739 19740 19741 19742 19743 19744 19745 19746 19747 19748 19749 19750 19751 19752 19753 19754 19755 19756 19757 19758 19759 19760 19761 19762 19763 19764 19765 19766 19767 19768 19769 19770 19771 19772 19773 19774 19775 19776 19777 19778 19779 19780 19781 19782 19783 19784 19785 19786 19787 19788 19789 19790 19791 19792 19793 19794 19795 19796 19797 19798 19799 19800 19801 19802 19803 19804 19805 19806 19807 19808 19809 19810 19811 19812 19813 19814 19815 19816 19817 19818 19819 19820 19821 19822 19823 19824 19825 19826 19827 19828 19829 19830 19831 19832 19833 19834 19835 19836 19837 19838 19839 19840 19841 19842 19843 19844 19845 19846 19847 19848 19849 19850 19851 19852 19853 19854 19855 19856 19857 19858 19859 19860 19861 19862 19863 19864 19865 19866 19867 19868 19869 19870 19871 19872 19873 19874 19875 19876 19877 19878 19879 19880 19881 19882 19883 19884 19885 19886 19887 19888 19889 19890 19891 19892 19893 19894 19895 19896 19897 19898 19899 19900 19901 19902 19903 19904 19905 19906 19907 19908 19909 19910 19911 19912 19913 19914 19915 19916 19917 19918 19919 19920 19921 19922 19923 19924 19925 19926 19927 19928 19929 19930 19931 19932 19933 19934 19935 19936 19937 19938 19939 19940 19941 19942 19943 19944 19945 19946 19947 19948 19949 19950 19951 19952 19953 19954 19955 19956 19957 19958 19959 19960 19961 19962 19963 19964 19965 19966 19967 19968 19969 19970 19971 19972 19973 19974 19975 19976 19977 19978 19979 19980 19981 19982 19983 19984 19985 19986 19987 19988 19989 19990 19991 19992 19993 19994 19995 19996 19997 19998 19999 20000 20001 20002 20003 20004 20005 20006 20007 20008 20009 20010 20011 20012 20013 20014 20015 20016 20017 20018 20019 20020 20021 20022 20023 20024 20025 20026 20027 20028 20029 20030 20031 20032 20033 20034 20035 20036 20037 20038 20039 20040 20041 20042 20043 20044 20045 20046 20047 20048 20049 20050 20051 20052 20053 20054 20055 20056 20057 20058 20059 20060 20061 20062 20063 20064 20065 20066 20067 20068 20069 20070 20071 20072 20073 20074 20075 20076 20077 20078 20079 20080 20081 20082 20083 20084 20085 20086 20087 20088 20089 20090 20091 20092 20093 20094 20095 20096 20097 20098 20099 20100 20101 20102 20103 20104 20105 20106 20107 20108 20109 20110 20111 20112 20113 20114 20115 20116 20117 20118 20119 20120 20121 20122 20123 20124 20125 20126 20127 20128 20129 20130 20131 20132 20133 20134 20135 20136 20137 20138 20139 20140 20141 20142 20143 20144 20145 20146 20147 20148 20149 20150 20151 20152 20153 20154 20155 20156 20157 20158 20159 20160 20161 20162 20163 20164 20165 20166 20167 20168 20169 20170 20171 20172 20173 20174 20175 20176 20177 20178 20179 20180 20181 20182 20183 20184 20185 20186 20187 20188 20189 20190 20191 20192 20193 20194 20195 20196 20197 20198 20199 20200 20201 20202 20203 20204 20205 20206 20207 20208 20209 20210 20211 20212 20213 20214 20215 20216 20217 20218 20219 20220 20221 20222 20223 20224 20225 20226 20227 20228 20229 20230 20231 20232 20233 20234 20235 20236 20237 20238 20239 20240 20241 20242 20243 20244 20245 20246 20247 20248 20249 20250 20251 20252 20253 20254 20255 20256 20257 20258 20259 20260 20261 20262 20263 20264 20265 20266 20267 20268 20269 20270 20271 20272 20273 20274 20275 20276 20277 20278 20279 20280 20281 20282 20283 20284 20285 20286 20287 20288 20289 20290 20291 20292 20293 20294 20295 20296 20297 20298 20299 20300 20301 20302 20303 20304 20305 20306 20307 20308 20309 20310 20311 20312 20313 20314 20315 20316 20317 20318 20319 20320 20321 20322 20323 20324 20325 20326 20327 20328 20329 20330 20331 20332 20333 20334 20335 20336 20337 20338 20339 20340 20341 20342 20343 20344 20345 20346 20347 20348 20349 20350 20351 20352 20353 20354 20355 20356 20357 20358 20359 20360 20361 20362 20363 20364 20365 20366 20367 20368 20369 20370 20371 20372 20373 20374 20375 20376 20377 20378 20379 20380 20381 20382 20383 20384 20385 20386 20387 20388 20389 20390 20391 20392 20393 20394 20395 20396 20397 20398 20399 20400 20401 20402 20403 20404 20405 20406 20407 20408 20409 20410 20411 20412 20413 20414 20415 20416 20417 20418 20419 20420 20421 20422 20423 20424 20425 20426 20427 20428 20429 20430 20431 20432 20433 20434 20435 20436 20437 20438 20439 20440 20441 20442 20443 20444 20445 20446 20447 20448 20449 20450 20451 20452 20453 20454 20455 20456 20457 20458 20459 20460 20461 20462 20463 20464 20465 20466 20467 20468 20469 20470 20471 20472 20473 20474 20475 20476 20477 20478 20479 20480 20481 20482 20483 20484 20485 20486 20487 20488 20489 20490 20491 20492 20493 20494 20495 20496 20497 20498 20499 20500 20501 20502 20503 20504 20505 20506 20507 20508 20509 20510 20511 20512 20513 20514 20515 20516 20517 20518 20519 20520 20521 20522 20523 20524 20525 20526 20527 20528 20529 20530 20531 20532 20533 20534 20535 20536 20537 20538 20539 20540 20541 20542 20543 20544 20545 20546 20547 20548 20549 20550 20551 20552 20553 20554 20555 20556 20557 20558 20559 20560 20561 20562 20563 20564 20565 20566 20567 20568 20569 20570 20571 20572 20573 20574 20575 20576 20577 20578 20579 20580 20581 20582 20583 20584 20585 20586 20587 20588 20589 20590 20591 20592 20593 20594 20595 20596 20597 20598 20599 20600 20601 20602 20603 20604 20605 20606 20607 20608 20609 20610 20611 20612 20613 20614 20615 20616 20617 20618 20619 20620 20621 20622 20623 20624 20625 20626 20627 20628 20629 20630 20631 20632 20633 20634 20635 20636 20637 20638 20639 20640 20641 20642 20643 20644 20645 20646 20647 20648 20649 20650 20651 20652 20653 20654 20655 20656 20657 20658 20659 20660 20661 20662 20663 20664 20665 20666 20667 20668 20669 20670 20671 20672 20673 20674 20675 20676 20677 20678 20679 20680 20681 20682 20683 20684 20685 20686 20687 20688 20689 20690 20691 20692 20693 20694 20695 20696 20697 20698 20699 20700 20701 20702 20703 20704 20705 20706 20707 20708 20709 20710 20711 20712 20713 20714 20715 20716 20717 20718 20719 20720 20721 20722 20723 20724 20725 20726 20727 20728 20729 20730 20731 20732 20733 20734 20735 20736 20737 20738 20739 20740 20741 20742 20743 20744 20745 20746 20747 20748 20749 20750 20751 20752 20753 20754 20755 20756 20757 20758 20759 20760 20761 20762 20763 20764 20765 20766 20767 20768 20769 20770 20771 20772 20773 20774 20775 20776 20777 20778 20779 20780 20781 20782 20783 20784 20785 20786 20787 20788 20789 20790 20791 20792 20793 20794 20795 20796 20797 20798 20799 20800 20801 20802 20803 20804 20805 20806 20807 20808 20809 20810 20811 20812 20813 20814 20815 20816 20817 20818 20819 20820 20821 20822 20823 20824 20825 20826 20827 20828 20829 20830 20831 20832 20833 20834 20835 20836 20837 20838 20839 20840 20841 20842 20843 20844 20845 20846 20847 20848 20849 20850 20851 20852 20853 20854 20855 20856 20857 20858 20859 20860 20861 20862 20863 20864 20865 20866 20867 20868 20869 20870 20871 20872 20873 20874 20875 20876 20877 20878 20879 20880 20881 20882 20883 20884 20885 20886 20887 20888 20889 20890 20891 20892 20893 20894 20895 20896 20897 20898 20899 20900 20901 20902 20903 20904 20905 20906 20907 20908 20909 20910 20911 20912 20913 20914 20915 20916 20917 20918 20919 20920 20921 20922 20923 20924 20925 20926 20927 20928 20929 20930 20931 20932 20933 20934 20935 20936 20937 20938 20939 20940 20941 20942 20943 20944 20945 20946 20947 20948 20949 20950 20951 20952 20953 20954 20955 20956 20957 20958 20959 20960 20961 20962 20963 20964 20965 20966 20967 20968 20969 20970 20971 20972 20973 20974 20975 20976 20977 20978 20979 20980 20981 20982 20983 20984 20985 20986 20987 20988 20989 20990 20991 20992 20993 20994 20995 20996 20997 20998 20999 21000 21001 21002 21003 21004 21005 21006 21007 21008 21009 21010 21011 21012 21013 21014 21015 21016 21017 21018 21019 21020 21021 21022 21023 21024 21025 21026 21027 21028 21029 21030 21031 21032 21033 21034 21035 21036 21037 21038 21039 21040 21041 21042 21043 21044 21045 21046 21047 21048 21049 21050 21051 21052 21053 21054 21055 21056 21057 21058 21059 21060 21061 21062 21063 21064 21065 21066 21067 21068 21069 21070 21071 21072 21073 21074 21075 21076 21077 21078 21079 21080 21081 21082 21083 21084 21085 21086 21087 21088 21089 21090 21091 21092 21093 21094 21095 21096 21097 21098 21099 21100 21101 21102 21103 21104 21105 21106 21107 21108 21109 21110 21111 21112 21113 21114 21115 21116 21117 21118 21119 21120 21121 21122 21123 21124 21125 21126 21127 21128 21129 21130 21131 21132 21133 21134 21135 21136 21137 21138 21139 21140 21141 21142 21143 21144 21145 21146 21147 21148 21149 21150 21151 21152 21153 21154 21155 21156 21157 21158 21159 21160 21161 21162 21163 21164 21165 21166 21167 21168 21169 21170 21171 21172 21173 21174 21175 21176 21177 21178 21179 21180 21181 21182 21183 21184 21185 21186 21187 21188 21189 21190 21191 21192 21193 21194 21195 21196 21197 21198 21199 21200 21201 21202 21203 21204 21205 21206 21207 21208 21209 21210 21211 21212 21213 21214 21215 21216 21217 21218 21219 21220 21221 21222 21223 21224 21225 21226 21227 21228 21229 21230 21231 21232 21233 21234 21235 21236 21237 21238 21239 21240 21241 21242 21243 21244 21245 21246 21247 21248 21249 21250 21251 21252 21253 21254 21255 21256 21257 21258 21259 21260 21261 21262 21263 21264 21265 21266 21267 21268 21269 21270 21271 21272 21273 21274 21275 21276 21277 21278 21279 21280 21281 21282 21283 21284 21285 21286 21287 21288 21289 21290 21291 21292 21293 21294 21295 21296 21297 21298 21299 21300 21301 21302 21303 21304 21305 21306 21307 21308 21309 21310 21311 21312 21313 21314 21315 21316 21317 21318 21319 21320 21321 21322 21323 21324 21325 21326 21327 21328 21329 21330 21331 21332 21333 21334 21335 21336 21337 21338 21339 21340 21341 21342 21343 21344 21345 21346 21347 21348 21349 21350 21351 21352 21353 21354 21355 21356 21357 21358 21359 21360 21361 21362 21363 21364 21365 21366 21367 21368 21369 21370 21371 21372 21373 21374 21375 21376 21377 21378 21379 21380 21381 21382 21383 21384 21385 21386 21387 21388 21389 21390 21391 21392 21393 21394 21395 21396 21397 21398 21399 21400 21401 21402 21403 21404 21405 21406 21407 21408 21409 21410 21411 21412 21413 21414 21415 21416 21417 21418 21419 21420 21421 21422 21423 21424 21425 21426 21427 21428 21429 21430 21431 21432 21433 21434 21435 21436 21437 21438 21439 21440 21441 21442 21443 21444 21445 21446 21447 21448 21449 21450 21451 21452 21453 21454 21455 21456 21457 21458 21459 21460 21461 21462 21463 21464 21465 21466 21467 21468 21469 21470 21471 21472 21473 21474 21475 21476 21477 21478 21479 21480 21481 21482 21483 21484 21485 21486 21487 21488 21489 21490 21491 21492 21493 21494 21495 21496 21497 21498 21499 21500 21501 21502 21503 21504 21505 21506 21507 21508 21509 21510 21511 21512 21513 21514 21515 21516 21517 21518 21519 21520 21521 21522 21523 21524 21525 21526 21527 21528 21529 21530 21531 21532 21533 21534 21535 21536 21537 21538 21539 21540 21541 21542 21543 21544 21545 21546 21547 21548 21549 21550 21551 21552 21553 21554 21555 21556 21557 21558 21559 21560 21561 21562 21563 21564 21565 21566 21567 21568 21569 21570 21571 21572 21573 21574 21575 21576 21577 21578 21579 21580 21581 21582 21583 21584 21585 21586 21587 21588 21589 21590 21591 21592 21593 21594 21595 21596 21597 21598 21599 21600 21601 21602 21603 21604 21605 21606 21607 21608 21609 21610 21611 21612 21613 21614 21615 21616 21617 21618 21619 21620 21621 21622 21623 21624 21625 21626 21627 21628 21629 21630 21631 21632 21633 21634 21635 21636 21637 21638 21639 21640 21641 21642 21643 21644 21645 21646 21647 21648 21649 21650 21651 21652 21653 21654 21655 21656 21657 21658 21659 21660 21661 21662 21663 21664 21665 21666 21667 21668 21669 21670 21671 21672 21673 21674 21675 21676 21677 21678 21679 21680 21681 21682 21683 21684 21685 21686 21687 21688 21689 21690 21691 21692 21693 21694 21695 21696 21697 21698 21699 21700 21701 21702 21703 21704 21705 21706 21707 21708 21709 21710 21711 21712 21713 21714 21715 21716 21717 21718 21719 21720 21721 21722 21723 21724 21725 21726 21727 21728 21729 21730 21731 21732 21733 21734 21735 21736 21737 21738 21739 21740 21741 21742 21743 21744 21745 21746 21747 21748 21749 21750 21751 21752 21753 21754 21755 21756 21757 21758 21759 21760 21761 21762 21763 21764 21765 21766 21767 21768 21769 21770 21771 21772 21773 21774 21775 21776 21777 21778 21779 21780 21781 21782 21783 21784 21785 21786 21787 21788 21789 21790 21791 21792 21793 21794 21795 21796 21797 21798 21799 21800 21801 21802 21803 21804 21805 21806 21807 21808 21809 21810 21811 21812 21813 21814 21815 21816 21817 21818 21819 21820 21821 21822 21823 21824 21825 21826 21827 21828 21829 21830 21831 21832 21833 21834 21835 21836 21837 21838 21839 21840 21841 21842 21843 21844 21845 21846 21847 21848 21849 21850 21851 21852 21853 21854 21855 21856 21857 21858 21859 21860 21861 21862 21863 21864 21865 21866 21867 21868 21869 21870 21871 21872 21873 21874 21875 21876 21877 21878 21879 21880 21881 21882 21883 21884 21885 21886 21887 21888 21889 21890 21891 21892 21893 21894 21895 21896 21897 21898 21899 21900 21901 21902 21903 21904 21905 21906 21907 21908 21909 21910 21911 21912 21913 21914 21915 21916 21917 21918 21919 21920 21921 21922 21923 21924 21925 21926 21927 21928 21929 21930 21931 21932 21933 21934 21935 21936 21937 21938 21939 21940 21941 21942 21943 21944 21945 21946 21947 21948 21949 21950 21951 21952 21953 21954 21955 21956 21957 21958 21959 21960 21961 21962 21963 21964 21965 21966 21967 21968 21969 21970 21971 21972 21973 21974 21975 21976 21977 21978 21979 21980 21981 21982 21983 21984 21985 21986 21987 21988 21989 21990 21991 21992 21993 21994 21995 21996 21997 21998 21999 22000 22001 22002 22003 22004 22005 22006 22007 22008 22009 22010 22011 22012 22013 22014 22015 22016 22017 22018 22019 22020 22021 22022 22023 22024 22025 22026 22027 22028 22029 22030 22031 22032 22033 22034 22035 22036 22037 22038 22039 22040 22041 22042 22043 22044 22045 22046 22047 22048 22049 22050 22051 22052 22053 22054 22055 22056 22057 22058 22059 22060 22061 22062 22063 22064 22065 22066 22067 22068 22069 22070 22071 22072 22073 22074 22075 22076 22077 22078 22079 22080 22081 22082 22083 22084 22085 22086 22087 22088 22089 22090 22091 22092 22093 22094 22095 22096 22097 22098 22099 22100 22101 22102 22103 22104 22105 22106 22107 22108 22109 22110 22111 22112 22113 22114 22115 22116 22117 22118 22119 22120 22121 22122 22123 22124 22125 22126 22127 22128 22129 22130 22131 22132 22133 22134 22135 22136 22137 22138 22139 22140 22141 22142 22143 22144 22145 22146 22147 22148 22149 22150 22151 22152 22153 22154 22155 22156 22157 22158 22159 22160 22161 22162 22163 22164 22165 22166 22167 22168 22169 22170 22171 22172 22173 22174 22175 22176 22177 22178 22179 22180 22181 22182 22183 22184 22185 22186 22187 22188 22189 22190 22191 22192 22193 22194 22195 22196 22197 22198 22199 22200 22201 22202 22203 22204 22205 22206 22207 22208 22209 22210 22211 22212 22213 22214 22215 22216 22217 22218 22219 22220 22221 22222 22223 22224 22225 22226 22227 22228 22229 22230 22231 22232 22233 22234 22235 22236 22237 22238 22239 22240 22241 22242 22243 22244 22245 22246 22247 22248 22249 22250 22251 22252 22253 22254 22255 22256 22257 22258 22259 22260 22261 22262 22263 22264 22265 22266 22267 22268 22269 22270 22271 22272 22273 22274 22275 22276 22277 22278 22279 22280 22281 22282 22283 22284 22285 22286 22287 22288 22289 22290 22291 22292 22293 22294 22295 22296 22297 22298 22299 22300 22301 22302 22303 22304 22305 22306 22307 22308 22309 22310 22311 22312 22313 22314 22315 22316 22317 22318 22319 22320 22321 22322 22323 22324 22325 22326 22327 22328 22329 22330 22331 22332 22333 22334 22335 22336 22337 22338 22339 22340 22341 22342 22343 22344 22345 22346 22347 22348 22349 22350 22351 22352 22353 22354 22355 22356 22357 22358 22359 22360 22361 22362 22363 22364 22365 22366 22367 22368 22369 22370 22371 22372 22373 22374 22375 22376 22377 22378 22379 22380 22381 22382 22383 22384 22385 22386 22387 22388 22389 22390 22391 22392 22393 22394 22395 22396 22397 22398 22399 22400 22401 22402 22403 22404 22405 22406 22407 22408 22409 22410 22411 22412 22413 22414 22415 22416 22417 22418 22419 22420 22421 22422 22423 22424 22425 22426 22427 22428 22429 22430 22431 22432 22433 22434 22435 22436 22437 22438 22439 22440 22441 22442 22443 22444 22445 22446 22447 22448 22449 22450 22451 22452 22453 22454 22455 22456 22457 22458 22459 22460 22461 22462 22463 22464 22465 22466 22467 22468 22469 22470 22471 22472 22473 22474 22475 22476 22477 22478 22479 22480 22481 22482 22483 22484 22485 22486 22487 22488 22489 22490 22491 22492 22493 22494 22495 22496 22497 22498 22499 22500 22501 22502 22503 22504 22505 22506 22507 22508 22509 22510 22511 22512 22513 22514 22515 22516 22517 22518 22519 22520 22521 22522 22523 22524 22525 22526 22527 22528 22529 22530 22531 22532 22533 22534 22535 22536 22537 22538 22539 22540 22541 22542 22543 22544 22545 22546 22547 22548 22549 22550 22551 22552 22553 22554 22555 22556 22557 22558 22559 22560 22561 22562 22563 22564 22565 22566 22567 22568 22569 22570 22571 22572 22573 22574 22575 22576 22577 22578 22579 22580 22581 22582 22583 22584 22585 22586 22587 22588 22589 22590 22591 22592 22593 22594 22595 22596 22597 22598 22599 22600 22601 22602 22603 22604 22605 22606 22607 22608 22609 22610 22611 22612 22613 22614 22615 22616 22617 22618 22619 22620 22621 22622 22623 22624 22625 22626 22627 22628 22629 22630 22631 22632 22633 22634 22635 22636 22637 22638 22639 22640 22641 22642 22643 22644 22645 22646 22647 22648 22649 22650 22651 22652 22653 22654 22655 22656 22657 22658 22659 22660 22661 22662 22663 22664 22665 22666 22667 22668 22669 22670 22671 22672 22673 22674 22675 22676 22677 22678 22679 22680 22681 22682 22683 22684 22685 22686 22687 22688 22689 22690 22691 22692 22693 22694 22695 22696 22697 22698 22699 22700 22701 22702 22703 22704 22705 22706 22707 22708 22709 22710 22711 22712 22713 22714 22715 22716 22717 22718 22719 22720 22721 22722 22723 22724 22725 22726 22727 22728 22729 22730 22731 22732 22733 22734 22735 22736 22737 22738 22739 22740 22741 22742 22743 22744 22745 22746 22747 22748 22749 22750 22751 22752 22753 22754 22755 22756 22757 22758 22759 22760 22761 22762 22763 22764 22765 22766 22767 22768 22769 22770 22771 22772 22773 22774 22775 22776 22777 22778 22779 22780 22781 22782 22783 22784 22785 22786 22787 22788 22789 22790 22791 22792 22793 22794 22795 22796 22797 22798 22799 22800 22801 22802 22803 22804 22805 22806 22807 22808 22809 22810 22811 22812 22813 22814 22815 22816 22817 22818 22819 22820 22821 22822 22823 22824 22825 22826 22827 22828 22829 22830 22831 22832 22833 22834 22835 22836 22837 22838 22839 22840 22841 22842 22843 22844 22845 22846 22847 22848 22849 22850 22851 22852 22853 22854 22855 22856 22857 22858 22859 22860 22861 22862 22863 22864 22865 22866 22867 22868 22869 22870 22871 22872 22873 22874 22875 22876 22877 22878 22879 22880 22881 22882 22883 22884 22885 22886 22887 22888 22889 22890 22891 22892 22893 22894 22895 22896 22897 22898 22899 22900 22901 22902 22903 22904 22905 22906 22907 22908 22909 22910 22911 22912 22913 22914 22915 22916 22917 22918 22919 22920 22921 22922 22923 22924 22925 22926 22927 22928 22929 22930 22931 22932 22933 22934 22935 22936 22937 22938 22939 22940 22941 22942 22943 22944 22945 22946 22947 22948 22949 22950 22951 22952 22953 22954 22955 22956 22957 22958 22959 22960 22961 22962 22963 22964 22965 22966 22967 22968 22969 22970 22971 22972 22973 22974 22975 22976 22977 22978 22979 22980 22981 22982 22983 22984 22985 22986 22987 22988 22989 22990 22991 22992 22993 22994 22995 22996 22997 22998 22999 23000 23001 23002 23003 23004 23005 23006 23007 23008 23009 23010 23011 23012 23013 23014 23015 23016 23017 23018 23019 23020 23021 23022 23023 23024 23025 23026 23027 23028 23029 23030 23031 23032 23033 23034 23035 23036 23037 23038 23039 23040 23041 23042 23043 23044 23045 23046 23047 23048 23049 23050 23051 23052 23053 23054 23055 23056 23057 23058 23059 23060 23061 23062 23063 23064 23065 23066 23067 23068 23069 23070 23071 23072 23073 23074 23075 23076 23077 23078 23079 23080 23081 23082 23083 23084 23085 23086 23087 23088 23089 23090 23091 23092 23093 23094 23095 23096 23097 23098 23099 23100 23101 23102 23103 23104 23105 23106 23107 23108 23109 23110 23111 23112 23113 23114 23115 23116 23117 23118 23119 23120 23121 23122 23123 23124 23125 23126 23127 23128 23129 23130 23131 23132 23133 23134 23135 23136 23137 23138 23139 23140 23141 23142 23143 23144 23145 23146 23147 23148 23149 23150 23151 23152 23153 23154 23155 23156 23157 23158 23159 23160 23161 23162 23163 23164 23165 23166 23167 23168 23169 23170 23171 23172 23173 23174 23175 23176 23177 23178 23179 23180 23181 23182 23183 23184 23185 23186 23187 23188 23189 23190 23191 23192 23193 23194 23195 23196 23197 23198 23199 23200 23201 23202 23203 23204 23205 23206 23207 23208 23209 23210 23211 23212 23213 23214 23215 23216 23217 23218 23219 23220 23221 23222 23223 23224 23225 23226 23227 23228 23229 23230 23231 23232 23233 23234 23235 23236 23237 23238 23239 23240 23241 23242 23243 23244 23245 23246 23247 23248 23249 23250 23251 23252 23253 23254 23255 23256 23257 23258 23259 23260 23261 23262 23263 23264 23265 23266 23267 23268 23269 23270 23271 23272 23273 23274 23275 23276 23277 23278 23279 23280 23281 23282 23283 23284 23285 23286 23287 23288 23289 23290 23291 23292 23293 23294 23295 23296 23297 23298 23299 23300 23301 23302 23303 23304 23305 23306 23307 23308 23309 23310 23311 23312 23313 23314 23315 23316 23317 23318 23319 23320 23321 23322 23323 23324 23325 23326 23327 23328 23329 23330 23331 23332 23333 23334 23335 23336 23337 23338 23339 23340 23341 23342 23343 23344 23345 23346 23347 23348 23349 23350 23351 23352 23353 23354 23355 23356 23357 23358 23359 23360 23361 23362 23363 23364 23365 23366 23367 23368 23369 23370 23371 23372 23373 23374 23375 23376 23377 23378 23379 23380 23381 23382 23383 23384 23385 23386 23387 23388 23389 23390 23391 23392 23393 23394 23395 23396 23397 23398 23399 23400 23401 23402 23403 23404 23405 23406 23407 23408 23409 23410 23411 23412 23413 23414 23415 23416 23417 23418 23419 23420 23421 23422 23423 23424 23425 23426 23427 23428 23429 23430 23431 23432 23433 23434 23435 23436 23437 23438 23439 23440 23441 23442 23443 23444 23445 23446 23447 23448 23449 23450 23451 23452 23453 23454 23455 23456 23457 23458 23459 23460 23461 23462 23463 23464 23465 23466 23467 23468 23469 23470 23471 23472 23473 23474 23475 23476 23477 23478 23479 23480 23481 23482 23483 23484 23485 23486 23487 23488 23489 23490 23491 23492 23493 23494 23495 23496 23497 23498 23499 23500 23501 23502 23503 23504 23505 23506 23507 23508 23509 23510 23511 23512 23513 23514 23515 23516 23517 23518 23519 23520 23521 23522 23523 23524 23525 23526 23527 23528 23529 23530 23531 23532 23533 23534 23535 23536 23537 23538 23539 23540 23541 23542 23543 23544 23545 23546 23547 23548 23549 23550 23551 23552 23553 23554 23555 23556 23557 23558 23559 23560 23561 23562 23563 23564 23565 23566 23567 23568 23569 23570 23571 23572 23573 23574 23575 23576 23577 23578 23579 23580 23581 23582 23583 23584 23585 23586 23587 23588 23589 23590 23591 23592 23593 23594 23595 23596 23597 23598 23599 23600 23601 23602 23603 23604 23605 23606 23607 23608 23609 23610 23611 23612 23613 23614 23615 23616 23617 23618 23619 23620 23621 23622 23623 23624 23625 23626 23627 23628 23629 23630 23631 23632 23633 23634 23635 23636 23637 23638 23639 23640 23641 23642 23643 23644 23645 23646 23647 23648 23649 23650 23651 23652 23653 23654 23655 23656 23657 23658 23659 23660 23661 23662 23663 23664 23665 23666 23667 23668 23669 23670 23671 23672 23673 23674 23675 23676 23677 23678 23679 23680 23681 23682 23683 23684 23685 23686 23687 23688 23689 23690 23691 23692 23693 23694 23695 23696 23697 23698 23699 23700 23701 23702 23703 23704 23705 23706 23707 23708 23709 23710 23711 23712 23713 23714 23715 23716 23717 23718 23719 23720 23721 23722 23723 23724 23725 23726 23727 23728 23729 23730 23731 23732 23733 23734 23735 23736 23737 23738 23739 23740 23741 23742 23743 23744 23745 23746 23747 23748 23749 23750 23751 23752 23753 23754 23755 23756 23757 23758 23759 23760 23761 23762 23763 23764 23765 23766 23767 23768 23769 23770 23771 23772 23773 23774 23775 23776 23777 23778 23779 23780 23781 23782 23783 23784 23785 23786 23787 23788 23789 23790 23791 23792 23793 23794 23795 23796 23797 23798 23799 23800 23801 23802 23803 23804 23805 23806 23807 23808 23809 23810 23811 23812 23813 23814 23815 23816 23817 23818 23819 23820 23821 23822 23823 23824 23825 23826 23827 23828 23829 23830 23831 23832 23833 23834 23835 23836 23837 23838 23839 23840 23841 23842 23843 23844 23845 23846 23847 23848 23849 23850 23851 23852 23853 23854 23855 23856 23857 23858 23859 23860 23861 23862 23863 23864 23865 23866 23867 23868 23869 23870 23871 23872 23873 23874 23875 23876 23877 23878 23879 23880 23881 23882 23883 23884 23885 23886 23887 23888 23889 23890 23891 23892 23893 23894 23895 23896 23897 23898 23899 23900 23901 23902 23903 23904 23905 23906 23907 23908 23909 23910 23911 23912 23913 23914 23915 23916 23917 23918 23919 23920 23921 23922 23923 23924 23925 23926 23927 23928 23929 23930 23931 23932 23933 23934 23935 23936 23937 23938 23939 23940 23941 23942 23943 23944 23945 23946 23947 23948 23949 23950 23951 23952 23953 23954 23955 23956 23957 23958 23959 23960 23961 23962 23963 23964 23965 23966 23967 23968 23969 23970 23971 23972 23973 23974 23975 23976 23977 23978 23979 23980 23981 23982 23983 23984 23985 23986 23987 23988 23989 23990 23991 23992 23993 23994 23995 23996 23997 23998 23999 24000 24001 24002 24003 24004 24005 24006 24007 24008 24009 24010 24011 24012 24013 24014 24015 24016 24017 24018 24019 24020 24021 24022 24023 24024 24025 24026 24027 24028 24029 24030 24031 24032 24033 24034 24035 24036 24037 24038 24039 24040 24041 24042 24043 24044 24045 24046 24047 24048 24049 24050 24051 24052 24053 24054 24055 24056 24057 24058 24059 24060 24061 24062 24063 24064 24065 24066 24067 24068 24069 24070 24071 24072 24073 24074 24075 24076 24077 24078 24079 24080 24081 24082 24083 24084 24085 24086 24087 24088 24089 24090 24091 24092 24093 24094 24095 24096 24097 24098 24099 24100 24101 24102 24103 24104 24105 24106 24107 24108 24109 24110 24111 24112 24113 24114 24115 24116 24117 24118 24119 24120 24121 24122 24123 24124 24125 24126 24127 24128 24129 24130 24131 24132 24133 24134 24135 24136 24137 24138 24139 24140 24141 24142 24143 24144 24145 24146 24147 24148 24149 24150 24151 24152 24153 24154 24155 24156 24157 24158 24159 24160 24161 24162 24163 24164 24165 24166 24167 24168 24169 24170 24171 24172 24173 24174 24175 24176 24177 24178 24179 24180 24181 24182 24183 24184 24185 24186 24187 24188 24189 24190 24191 24192 24193 24194 24195 24196 24197 24198 24199 24200 24201 24202 24203 24204 24205 24206 24207 24208 24209 24210 24211 24212 24213 24214 24215 24216 24217 24218 24219 24220 24221 24222 24223 24224 24225 24226 24227 24228 24229 24230 24231 24232 24233 24234 24235 24236 24237 24238 24239 24240 24241 24242 24243 24244 24245 24246 24247 24248 24249 24250 24251 24252 24253 24254 24255 24256 24257 24258 24259 24260 24261 24262 24263 24264 24265 24266 24267 24268 24269 24270 24271 24272 24273 24274 24275 24276 24277 24278 24279 24280 24281 24282 24283 24284 24285 24286 24287 24288 24289 24290 24291 24292 24293 24294 24295 24296 24297 24298 24299 24300 24301 24302 24303 24304 24305 24306 24307 24308 24309 24310 24311 24312 24313 24314 24315 24316 24317 24318 24319 24320 24321 24322 24323 24324 24325 24326 24327 24328 24329 24330 24331 24332 24333 24334 24335 24336 24337 24338 24339 24340 24341 24342 24343 24344 24345 24346 24347 24348 24349 24350 24351 24352 24353 24354 24355 24356 24357 24358 24359 24360 24361 24362 24363 24364 24365 24366 24367 24368 24369 24370 24371 24372 24373 24374 24375 24376 24377 24378 24379 24380 24381 24382 24383 24384 24385 24386 24387 24388 24389 24390 24391 24392 24393 24394 24395 24396 24397 24398 24399 24400 24401 24402 24403 24404 24405 24406 24407 24408 24409 24410 24411 24412 24413 24414 24415 24416 24417 24418 24419 24420 24421 24422 24423 24424 24425 24426 24427 24428 24429 24430 24431 24432 24433 24434 24435 24436 24437 24438 24439 24440 24441 24442 24443 24444 24445 24446 24447 24448 24449 24450 24451 24452 24453 24454 24455 24456 24457 24458 24459 24460 24461 24462 24463 24464 24465 24466 24467 24468 24469 24470 24471 24472 24473 24474 24475 24476 24477 24478 24479 24480 24481 24482 24483 24484 24485 24486 24487 24488 24489 24490 24491 24492 24493 24494 24495 24496 24497 24498 24499 24500 24501 24502 24503 24504 24505 24506 24507 24508 24509 24510 24511 24512 24513 24514 24515 24516 24517 24518 24519 24520 24521 24522 24523 24524 24525 24526 24527 24528 24529 24530 24531 24532 24533 24534 24535 24536 24537 24538 24539 24540 24541 24542 24543 24544 24545 24546 24547 24548 24549 24550 24551 24552 24553 24554 24555 24556 24557 24558 24559 24560 24561 24562 24563 24564 24565 24566 24567 24568 24569 24570 24571 24572 24573 24574 24575 24576 24577 24578 24579 24580 24581 24582 24583 24584 24585 24586 24587 24588 24589 24590 24591 24592 24593 24594 24595 24596 24597 24598 24599 24600 24601 24602 24603 24604 24605 24606 24607 24608 24609 24610 24611 24612 24613 24614 24615 24616 24617 24618 24619 24620 24621 24622 24623 24624 24625 24626 24627 24628 24629 24630 24631 24632 24633 24634 24635 24636 24637 24638 24639 24640 24641 24642 24643 24644 24645 24646 24647 24648 24649 24650 24651 24652 24653 24654 24655 24656 24657 24658 24659 24660 24661 24662 24663 24664 24665 24666 24667 24668 24669 24670 24671 24672 24673 24674 24675 24676 24677 24678 24679 24680 24681 24682 24683 24684 24685 24686 24687 24688 24689 24690 24691 24692 24693 24694 24695 24696 24697 24698 24699 24700 24701 24702 24703 24704 24705 24706 24707 24708 24709 24710 24711 24712 24713 24714 24715 24716 24717 24718 24719 24720 24721 24722 24723 24724 24725 24726 24727 24728 24729 24730 24731 24732 24733 24734 24735 24736 24737 24738 24739 24740 24741 24742 24743 24744 24745 24746 24747 24748 24749 24750 24751 24752 24753 24754 24755 24756 24757 24758 24759 24760 24761 24762 24763 24764 24765 24766 24767 24768 24769 24770 24771 24772 24773 24774 24775 24776 24777 24778 24779 24780 24781 24782 24783 24784 24785 24786 24787 24788 24789 24790 24791 24792 24793 24794 24795 24796 24797 24798 24799 24800 24801 24802 24803 24804 24805 24806 24807 24808 24809 24810 24811 24812 24813 24814 24815 24816 24817 24818 24819 24820 24821 24822 24823 24824 24825 24826 24827 24828 24829 24830 24831 24832 24833 24834 24835 24836 24837 24838 24839 24840 24841 24842 24843 24844 24845 24846 24847 24848 24849 24850 24851 24852 24853 24854 24855 24856 24857 24858 24859 24860 24861 24862 24863 24864 24865 24866 24867 24868 24869 24870 24871 24872 24873 24874 24875 24876 24877 24878 24879 24880 24881 24882 24883 24884 24885 24886 24887 24888 24889 24890 24891 24892 24893 24894 24895 24896 24897 24898 24899 24900 24901 24902 24903 24904 24905 24906 24907 24908 24909 24910 24911 24912 24913 24914 24915 24916 24917 24918 24919 24920 24921 24922 24923 24924 24925 24926 24927 24928 24929 24930 24931 24932 24933 24934 24935 24936 24937 24938 24939 24940 24941 24942 24943 24944 24945 24946 24947 24948 24949 24950 24951 24952 24953 24954 24955 24956 24957 24958 24959 24960 24961 24962 24963 24964 24965 24966 24967 24968 24969 24970 24971 24972 24973 24974 24975 24976 24977 24978 24979 24980 24981 24982 24983 24984 24985 24986 24987 24988 24989 24990 24991 24992 24993 24994 24995 24996 24997 24998 24999 25000 25001 25002 25003 25004 25005 25006 25007 25008 25009 25010 25011 25012 25013 25014 25015 25016 25017 25018 25019 25020 25021 25022 25023 25024 25025 25026 25027 25028 25029 25030 25031 25032 25033 25034 25035 25036 25037 25038 25039 25040 25041 25042 25043 25044 25045 25046 25047 25048 25049 25050 25051 25052 25053 25054 25055 25056 25057 25058 25059 25060 25061 25062 25063 25064 25065 25066 25067 25068 25069 25070 25071 25072 25073 25074 25075 25076 25077 25078 25079 25080 25081 25082 25083 25084 25085 25086 25087 25088 25089 25090 25091 25092 25093 25094 25095 25096 25097 25098 25099 25100 25101 25102 25103 25104 25105 25106 25107 25108 25109 25110 25111 25112 25113 25114 25115 25116 25117 25118 25119 25120 25121 25122 25123 25124 25125 25126 25127 25128 25129 25130 25131 25132 25133 25134 25135 25136 25137 25138 25139 25140 25141 25142 25143 25144 25145 25146 25147 25148 25149 25150 25151 25152 25153 25154 25155 25156 25157 25158 25159 25160 25161 25162 25163 25164 25165 25166 25167 25168 25169 25170 25171 25172 25173 25174 25175 25176 25177 25178 25179 25180 25181 25182 25183 25184 25185 25186 25187 25188 25189 25190 25191 25192 25193 25194 25195 25196 25197 25198 25199 25200 25201 25202 25203 25204 25205 25206 25207 25208 25209 25210 25211 25212 25213 25214 25215 25216 25217 25218 25219 25220 25221 25222 25223 25224 25225 25226 25227 25228 25229 25230 25231 25232 25233 25234 25235 25236 25237 25238 25239 25240 25241 25242 25243 25244 25245 25246 25247 25248 25249 25250 25251 25252 25253 25254 25255 25256 25257 25258 25259 25260 25261 25262 25263 25264 25265 25266 25267 25268 25269 25270 25271 25272 25273 25274 25275 25276 25277 25278 25279 25280 25281 25282 25283 25284 25285 25286 25287 25288 25289 25290 25291 25292 25293 25294 25295 25296 25297 25298 25299 25300 25301 25302 25303 25304 25305 25306 25307 25308 25309 25310 25311 25312 25313 25314 25315 25316 25317 25318 25319 25320 25321 25322 25323 25324 25325 25326 25327 25328 25329 25330 25331 25332 25333 25334 25335 25336 25337 25338 25339 25340 25341 25342 25343 25344 25345 25346 25347 25348 25349 25350 25351 25352 25353 25354 25355 25356 25357 25358 25359 25360 25361 25362 25363 25364 25365 25366 25367 25368 25369 25370 25371 25372 25373 25374 25375 25376 25377 25378 25379 25380 25381 25382 25383 25384 25385 25386 25387 25388 25389 25390 25391 25392 25393 25394 25395 25396 25397 25398 25399 25400 25401 25402 25403 25404 25405 25406 25407 25408 25409 25410 25411 25412 25413 25414 25415 25416 25417 25418 25419 25420 25421 25422 25423 25424 25425 25426 25427 25428 25429 25430 25431 25432 25433 25434 25435 25436 25437 25438 25439 25440 25441 25442 25443 25444 25445 25446 25447 25448 25449 25450 25451 25452 25453 25454 25455 25456 25457 25458 25459 25460 25461 25462 25463 25464 25465 25466 25467 25468 25469 25470 25471 25472 25473 25474 25475 25476 25477 25478 25479 25480 25481 25482 25483 25484 25485 25486 25487 25488 25489 25490 25491 25492 25493 25494 25495 25496 25497 25498 25499 25500 25501 25502 25503 25504 25505 25506 25507 25508 25509 25510 25511 25512 25513 25514 25515 25516 25517 25518 25519 25520 25521 25522 25523 25524 25525 25526 25527 25528 25529 25530 25531 25532 25533 25534 25535 25536 25537 25538 25539 25540 25541 25542 25543 25544 25545 25546 25547 25548 25549 25550 25551 25552 25553 25554 25555 25556 25557 25558 25559 25560 25561 25562 25563 25564 25565 25566 25567 25568 25569 25570 25571 25572 25573 25574 25575 25576 25577 25578 25579 25580 25581 25582 25583 25584 25585 25586 25587 25588 25589 25590 25591 25592 25593 25594 25595 25596 25597 25598 25599 25600 25601 25602 25603 25604 25605 25606 25607 25608 25609 25610 25611 25612 25613 25614 25615 25616 25617 25618 25619 25620 25621 25622 25623 25624 25625 25626 25627 25628 25629 25630 25631 25632 25633 25634 25635 25636 25637 25638 25639 25640 25641 25642 25643 25644 25645 25646 25647 25648 25649 25650 25651 25652 25653 25654 25655 25656 25657 25658 25659 25660 25661 25662 25663 25664 25665 25666 25667 25668 25669 25670 25671 25672 25673 25674 25675 25676 25677 25678 25679 25680 25681 25682 25683 25684 25685 25686 25687 25688 25689 25690 25691 25692 25693 25694 25695 25696 25697 25698 25699 25700 25701 25702 25703 25704 25705 25706 25707 25708 25709 25710 25711 25712 25713 25714 25715 25716 25717 25718 25719 25720 25721 25722 25723 25724 25725 25726 25727 25728 25729 25730 25731 25732 25733 25734 25735 25736 25737 25738 25739 25740 25741 25742 25743 25744 25745 25746 25747 25748 25749 25750 25751 25752 25753 25754 25755 25756 25757 25758 25759 25760 25761 25762 25763 25764 25765 25766 25767 25768 25769 25770 25771 25772 25773 25774 25775 25776 25777 25778 25779 25780 25781 25782 25783 25784 25785 25786 25787 25788 25789 25790 25791 25792 25793 25794 25795 25796 25797 25798 25799 25800 25801 25802 25803 25804 25805 25806 25807 25808 25809 25810 25811 25812 25813 25814 25815 25816 25817 25818 25819 25820 25821 25822 25823 25824 25825 25826 25827 25828 25829 25830 25831 25832 25833 25834 25835 25836 25837 25838 25839 25840 25841 25842 25843 25844 25845 25846 25847 25848 25849 25850 25851 25852 25853 25854 25855 25856 25857 25858 25859 25860 25861 25862 25863 25864 25865 25866 25867 25868 25869 25870 25871 25872 25873 25874 25875 25876 25877 25878 25879 25880 25881 25882 25883 25884 25885 25886 25887 25888 25889 25890 25891 25892 25893 25894 25895 25896 25897 25898 25899 25900 25901 25902 25903 25904 25905 25906 25907 25908 25909 25910 25911 25912 25913 25914 25915 25916 25917 25918 25919 25920 25921 25922 25923 25924 25925 25926 25927 25928 25929 25930 25931 25932 25933 25934 25935 25936 25937 25938 25939 25940 25941 25942 25943 25944 25945 25946 25947 25948 25949 25950 25951 25952 25953 25954 25955 25956 25957 25958 25959 25960 25961 25962 25963 25964 25965 25966 25967 25968 25969 25970 25971 25972 25973 25974 25975 25976 25977 25978 25979 25980 25981 25982 25983 25984 25985 25986 25987 25988 25989 25990 25991 25992 25993 25994 25995 25996 25997 25998 25999 26000 26001 26002 26003 26004 26005 26006 26007 26008 26009 26010 26011 26012 26013 26014 26015 26016 26017 26018 26019 26020 26021 26022 26023 26024 26025 26026 26027 26028 26029 26030 26031 26032 26033 26034 26035 26036 26037 26038 26039 26040 26041 26042 26043 26044 26045 26046 26047 26048 26049 26050 26051 26052 26053 26054 26055 26056 26057 26058 26059 26060 26061 26062 26063 26064 26065 26066 26067 26068 26069 26070 26071 26072 26073 26074 26075 26076 26077 26078 26079 26080 26081 26082 26083 26084 26085 26086 26087 26088 26089 26090 26091 26092 26093 26094 26095 26096 26097 26098 26099 26100 26101 26102 26103 26104 26105 26106 26107 26108 26109 26110 26111 26112 26113 26114 26115 26116 26117 26118 26119 26120 26121 26122 26123 26124 26125 26126 26127 26128 26129 26130 26131 26132 26133 26134 26135 26136 26137 26138 26139 26140 26141 26142 26143 26144 26145 26146 26147 26148 26149 26150 26151 26152 26153 26154 26155 26156 26157 26158 26159 26160 26161 26162 26163 26164 26165 26166 26167 26168 26169 26170 26171 26172 26173 26174 26175 26176 26177 26178 26179 26180 26181 26182 26183 26184 26185 26186 26187 26188 26189 26190 26191 26192 26193 26194 26195 26196 26197 26198 26199 26200 26201 26202 26203 26204 26205 26206 26207 26208 26209 26210 26211 26212 26213 26214 26215 26216 26217 26218 26219 26220 26221 26222 26223 26224 26225 26226 26227 26228 26229 26230 26231 26232 26233 26234 26235 26236 26237 26238 26239 26240 26241 26242 26243 26244 26245 26246 26247 26248 26249 26250 26251 26252 26253 26254 26255 26256 26257 26258 26259 26260 26261 26262 26263 26264 26265 26266 26267 26268 26269 26270 26271 26272 26273 26274 26275 26276 26277 26278 26279 26280 26281 26282 26283 26284 26285 26286 26287 26288 26289 26290 26291 26292 26293 26294 26295 26296 26297 26298 26299 26300 26301 26302 26303 26304 26305 26306 26307 26308 26309 26310 26311 26312 26313 26314 26315 26316 26317 26318 26319 26320 26321 26322 26323 26324 26325 26326 26327 26328 26329 26330 26331 26332 26333 26334 26335 26336 26337 26338 26339 26340 26341 26342 26343 26344 26345 26346 26347 26348 26349 26350 26351 26352 26353 26354 26355 26356 26357 26358 26359 26360 26361 26362 26363 26364 26365 26366 26367 26368 26369 26370 26371 26372 26373 26374 26375 26376 26377 26378 26379 26380 26381 26382 26383 26384 26385 26386 26387 26388 26389 26390 26391 26392 26393 26394 26395 26396 26397 26398 26399 26400 26401 26402 26403 26404 26405 26406 26407 26408 26409 26410 26411 26412 26413 26414 26415 26416 26417 26418 26419 26420 26421 26422 26423 26424 26425 26426 26427 26428 26429 26430 26431 26432 26433 26434 26435 26436 26437 26438 26439 26440 26441 26442 26443 26444 26445 26446 26447 26448 26449 26450 26451 26452 26453 26454 26455 26456 26457 26458 26459 26460 26461 26462 26463 26464 26465 26466 26467 26468 26469 26470 26471 26472 26473 26474 26475 26476 26477 26478 26479 26480 26481 26482 26483 26484 26485 26486 26487 26488 26489 26490 26491 26492 26493 26494 26495 26496 26497 26498 26499 26500 26501 26502 26503 26504 26505 26506 26507 26508 26509 26510 26511 26512 26513 26514 26515 26516 26517 26518 26519 26520 26521 26522 26523 26524 26525 26526 26527 26528 26529 26530 26531 26532 26533 26534 26535 26536 26537 26538 26539 26540 26541 26542 26543 26544 26545 26546 26547 26548 26549 26550 26551 26552 26553 26554 26555 26556 26557 26558 26559 26560 26561 26562 26563 26564 26565 26566 26567 26568 26569 26570 26571 26572 26573 26574 26575 26576 26577 26578 26579 26580 26581 26582 26583 26584 26585 26586 26587 26588 26589 26590 26591 26592 26593 26594 26595 26596 26597 26598 26599 26600 26601 26602 26603 26604 26605 26606 26607 26608 26609 26610 26611 26612 26613 26614 26615 26616 26617 26618 26619 26620 26621 26622 26623 26624 26625 26626 26627 26628 26629 26630 26631 26632 26633 26634 26635 26636 26637 26638 26639 26640 26641 26642 26643 26644 26645 26646 26647 26648 26649 26650 26651 26652 26653 26654 26655 26656 26657 26658 26659 26660 26661 26662 26663 26664 26665 26666 26667 26668 26669 26670 26671 26672 26673 26674 26675 26676 26677 26678 26679 26680 26681 26682 26683 26684 26685 26686 26687 26688 26689 26690 26691 26692 26693 26694 26695 26696 26697 26698 26699 26700 26701 26702 26703 26704 26705 26706 26707 26708 26709 26710 26711 26712 26713 26714 26715 26716 26717 26718 26719 26720 26721 26722 26723 26724 26725 26726 26727 26728 26729 26730 26731 26732 26733 26734 26735 26736 26737 26738 26739 26740 26741 26742 26743 26744 26745 26746 26747 26748 26749 26750 26751 26752 26753 26754 26755 26756 26757 26758 26759 26760 26761 26762 26763 26764 26765 26766 26767 26768 26769 26770 26771 26772 26773 26774 26775 26776 26777 26778 26779 26780 26781 26782 26783 26784 26785 26786 26787 26788 26789 26790 26791 26792 26793 26794 26795 26796 26797 26798 26799 26800 26801 26802 26803 26804 26805 26806 26807 26808 26809 26810 26811 26812 26813 26814 26815 26816 26817 26818 26819 26820 26821 26822 26823 26824 26825 26826 26827 26828 26829 26830 26831 26832 26833 26834 26835 26836 26837 26838 26839 26840 26841 26842 26843 26844 26845 26846 26847 26848 26849 26850 26851 26852 26853 26854 26855 26856 26857 26858 26859 26860 26861 26862 26863 26864 26865 26866 26867 26868 26869 26870 26871 26872 26873 26874 26875 26876 26877 26878 26879 26880 26881 26882 26883 26884 26885 26886 26887 26888 26889 26890 26891 26892 26893 26894 26895 26896 26897 26898 26899 26900 26901 26902 26903 26904 26905 26906 26907 26908 26909 26910 26911 26912 26913 26914 26915 26916 26917 26918 26919 26920 26921 26922 26923 26924 26925 26926 26927 26928 26929 26930 26931 26932 26933 26934 26935 26936 26937 26938 26939 26940 26941 26942 26943 26944 26945 26946 26947 26948 26949 26950 26951 26952 26953 26954 26955 26956 26957 26958 26959 26960 26961 26962 26963 26964 26965 26966 26967 26968 26969 26970 26971 26972 26973 26974 26975 26976 26977 26978 26979 26980 26981 26982 26983 26984 26985 26986 26987 26988 26989 26990 26991 26992 26993 26994 26995 26996 26997 26998 26999 27000 27001 27002 27003 27004 27005 27006 27007 27008 27009 27010 27011 27012 27013 27014 27015 27016 27017 27018 27019 27020 27021 27022 27023 27024 27025 27026 27027 27028 27029 27030 27031 27032 27033 27034 27035 27036 27037 27038 27039 27040 27041 27042 27043 27044 27045 27046 27047 27048 27049 27050 27051 27052 27053 27054 27055 27056 27057 27058 27059 27060 27061 27062 27063 27064 27065 27066 27067 27068 27069 27070 27071 27072 27073 27074 27075 27076 27077 27078 27079 27080 27081 27082 27083 27084 27085 27086 27087 27088 27089 27090 27091 27092 27093 27094 27095 27096 27097 27098 27099 27100 27101 27102 27103 27104 27105 27106 27107 27108 27109 27110 27111 27112 27113 27114 27115 27116 27117 27118 27119 27120 27121 27122 27123 27124 27125 27126 27127 27128 27129 27130 27131 27132 27133 27134 27135 27136 27137 27138 27139 27140 27141 27142 27143 27144 27145 27146 27147 27148 27149 27150 27151 27152 27153 27154 27155 27156 27157 27158 27159 27160 27161 27162 27163 27164 27165 27166 27167 27168 27169 27170 27171 27172 27173 27174 27175 27176 27177 27178 27179 27180 27181 27182 27183 27184 27185 27186 27187 27188 27189 27190 27191 27192 27193 27194 27195 27196 27197 27198 27199 27200 27201 27202 27203 27204 27205 27206 27207 27208 27209 27210 27211 27212 27213 27214 27215 27216 27217 27218 27219 27220 27221 27222 27223 27224 27225 27226 27227 27228 27229 27230 27231 27232 27233 27234 27235 27236 27237 27238 27239 27240 27241 27242 27243 27244 27245 27246 27247 27248 27249 27250 27251 27252 27253 27254 27255 27256 27257 27258 27259 27260 27261 27262 27263 27264 27265 27266 27267 27268 27269 27270 27271 27272 27273 27274 27275 27276 27277 27278 27279 27280 27281 27282 27283 27284 27285 27286 27287 27288 27289 27290 27291 27292 27293 27294 27295 27296 27297 27298 27299 27300 27301 27302 27303 27304 27305 27306 27307 27308 27309 27310 27311 27312 27313 27314 27315 27316 27317 27318 27319 27320 27321 27322 27323 27324 27325 27326 27327 27328 27329 27330 27331 27332 27333 27334 27335 27336 27337 27338 27339 27340 27341 27342 27343 27344 27345 27346 27347 27348 27349 27350 27351 27352 27353 27354 27355 27356 27357 27358 27359 27360 27361 27362 27363 27364 27365 27366 27367 27368 27369 27370 27371 27372 27373 27374 27375 27376 27377 27378 27379 27380 27381 27382 27383 27384 27385 27386 27387 27388 27389 27390 27391 27392 27393 27394 27395 27396 27397 27398 27399 27400 27401 27402 27403 27404 27405 27406 27407 27408 27409 27410 27411 27412 27413 27414 27415 27416 27417 27418 27419 27420 27421 27422 27423 27424 27425 27426 27427 27428 27429 27430 27431 27432 27433 27434 27435 27436 27437 27438 27439 27440 27441 27442 27443 27444 27445 27446 27447 27448 27449 27450 27451 27452 27453 27454 27455 27456 27457 27458 27459 27460 27461 27462 27463 27464 27465 27466 27467 27468 27469 27470 27471 27472 27473 27474 27475 27476 27477 27478 27479 27480 27481 27482 27483 27484 27485 27486 27487 27488 27489 27490 27491 27492 27493 27494 27495 27496 27497 27498 27499 27500 27501 27502 27503 27504 27505 27506 27507 27508 27509 27510 27511 27512 27513 27514 27515 27516 27517 27518 27519 27520 27521 27522 27523 27524 27525 27526 27527 27528 27529 27530 27531 27532 27533 27534 27535 27536 27537 27538 27539 27540 27541 27542 27543 27544 27545 27546 27547 27548 27549 27550 27551 27552 27553 27554 27555 27556 27557 27558 27559 27560 27561 27562 27563 27564 27565 27566 27567 27568 27569 27570 27571 27572 27573 27574 27575 27576 27577 27578 27579 27580 27581 27582 27583 27584 27585 27586 27587 27588 27589 27590 27591 27592 27593 27594 27595 27596 27597 27598 27599 27600 27601 27602 27603 27604 27605 27606 27607 27608 27609 27610 27611 27612 27613 27614 27615 27616 27617 27618 27619 27620 27621 27622 27623 27624 27625 27626 27627 27628 27629 27630 27631 27632 27633 27634 27635 27636 27637 27638 27639 27640 27641 27642 27643 27644 27645 27646 27647 27648 27649 27650 27651 27652 27653 27654 27655 27656 27657 27658 27659 27660 27661 27662 27663 27664 27665 27666 27667 27668 27669 27670 27671 27672 27673 27674 27675 27676 27677 27678 27679 27680 27681 27682 27683 27684 27685 27686 27687 27688 27689 27690 27691 27692 27693 27694 27695 27696 27697 27698 27699 27700 27701 27702 27703 27704 27705 27706 27707 27708 27709 27710 27711 27712 27713 27714 27715 27716 27717 27718 27719 27720 27721 27722 27723 27724 27725 27726 27727 27728 27729 27730 27731 27732 27733 27734 27735 27736 27737 27738 27739 27740 27741 27742 27743 27744 27745 27746 27747 27748 27749 27750 27751 27752 27753 27754 27755 27756 27757 27758 27759 27760 27761 27762 27763 27764 27765 27766 27767 27768 27769 27770 27771 27772 27773 27774 27775 27776 27777 27778 27779 27780 27781 27782 27783 27784 27785 27786 27787 27788 27789 27790 27791 27792 27793 27794 27795 27796 27797 27798 27799 27800 27801 27802 27803 27804 27805 27806 27807 27808 27809 27810 27811 27812 27813 27814 27815 27816 27817 27818 27819 27820 27821 27822 27823 27824 27825 27826 27827 27828 27829 27830 27831 27832 27833 27834 27835 27836 27837 27838 27839 27840 27841 27842 27843 27844 27845 27846 27847 27848 27849 27850 27851 27852 27853 27854 27855 27856 27857 27858 27859 27860 27861 27862 27863 27864 27865 27866 27867 27868 27869 27870 27871 27872 27873 27874 27875 27876 27877 27878 27879 27880 27881 27882 27883 27884 27885 27886 27887 27888 27889 27890 27891 27892 27893 27894 27895 27896 27897 27898 27899 27900 27901 27902 27903 27904 27905 27906 27907 27908 27909 27910 27911 27912 27913 27914 27915 27916 27917 27918 27919 27920 27921 27922 27923 27924 27925 27926 27927 27928 27929 27930 27931 27932 27933 27934 27935 27936 27937 27938 27939 27940 27941 27942 27943 27944 27945 27946 27947 27948 27949 27950 27951 27952 27953 27954 27955 27956 27957 27958 27959 27960 27961 27962 27963 27964 27965 27966 27967 27968 27969 27970 27971 27972 27973 27974 27975 27976 27977 27978 27979 27980 27981 27982 27983 27984 27985 27986 27987 27988 27989 27990 27991 27992 27993 27994 27995 27996 27997 27998 27999 28000 28001 28002 28003 28004 28005 28006 28007 28008 28009 28010 28011 28012 28013 28014 28015 28016 28017 28018 28019 28020 28021 28022 28023 28024 28025 28026 28027 28028 28029 28030 28031 28032 28033 28034 28035 28036 28037 28038 28039 28040 28041 28042 28043 28044 28045 28046 28047 28048 28049 28050 28051 28052 28053 28054 28055 28056 28057 28058 28059 28060 28061 28062 28063 28064 28065 28066 28067 28068 28069 28070 28071 28072 28073 28074 28075 28076 28077 28078 28079 28080 28081 28082 28083 28084 28085 28086 28087 28088 28089 28090 28091 28092 28093 28094 28095 28096 28097 28098 28099 28100 28101 28102 28103 28104 28105 28106 28107 28108 28109 28110 28111 28112 28113 28114 28115 28116 28117 28118 28119 28120 28121 28122 28123 28124 28125 28126 28127 28128 28129 28130 28131 28132 28133 28134 28135 28136 28137 28138 28139 28140 28141 28142 28143 28144 28145 28146 28147 28148 28149 28150 28151 28152 28153 28154 28155 28156 28157 28158 28159 28160 28161 28162 28163 28164 28165 28166 28167 28168 28169 28170 28171 28172 28173 28174 28175 28176 28177 28178 28179 28180 28181 28182 28183 28184 28185 28186 28187 28188 28189 28190 28191 28192 28193 28194 28195 28196 28197 28198 28199 28200 28201 28202 28203 28204 28205 28206 28207 28208 28209 28210 28211 28212 28213 28214 28215 28216 28217 28218 28219 28220 28221 28222 28223 28224 28225 28226 28227 28228 28229 28230 28231 28232 28233 28234 28235 28236 28237 28238 28239 28240 28241 28242 28243 28244 28245 28246 28247 28248 28249 28250 28251 28252 28253 28254 28255 28256 28257 28258 28259 28260 28261 28262 28263 28264 28265 28266 28267 28268 28269 28270 28271 28272 28273 28274 28275 28276 28277 28278 28279 28280 28281 28282 28283 28284 28285 28286 28287 28288 28289 28290 28291 28292 28293 28294 28295 28296 28297 28298 28299 28300 28301 28302 28303 28304 28305 28306 28307 28308 28309 28310 28311 28312 28313 28314 28315 28316 28317 28318 28319 28320 28321 28322 28323 28324 28325 28326 28327 28328 28329 28330 28331 28332 28333 28334 28335 28336 28337 28338 28339 28340 28341 28342 28343 28344 28345 28346 28347 28348 28349 28350 28351 28352 28353 28354 28355 28356 28357 28358 28359 28360 28361 28362 28363 28364 28365 28366 28367 28368 28369 28370 28371 28372 28373 28374 28375 28376 28377 28378 28379 28380 28381 28382 28383 28384 28385 28386 28387 28388 28389 28390 28391 28392 28393 28394 28395 28396 28397 28398 28399 28400 28401 28402 28403 28404 28405 28406 28407 28408 28409 28410 28411 28412 28413 28414 28415 28416 28417 28418 28419 28420 28421 28422 28423 28424 28425 28426 28427 28428 28429 28430 28431 28432 28433 28434 28435 28436 28437 28438 28439 28440 28441 28442 28443 28444 28445 28446 28447 28448 28449 28450 28451 28452 28453 28454 28455 28456 28457 28458 28459 28460 28461 28462 28463 28464 28465 28466 28467 28468 28469 28470 28471 28472 28473 28474 28475 28476 28477 28478 28479 28480 28481 28482 28483 28484 28485 28486 28487 28488 28489 28490 28491 28492 28493 28494 28495 28496 28497 28498 28499 28500 28501 28502 28503 28504 28505 28506 28507 28508 28509 28510 28511 28512 28513 28514 28515 28516 28517 28518 28519 28520 28521 28522 28523 28524 28525 28526 28527 28528 28529 28530 28531 28532 28533 28534 28535 28536 28537 28538 28539 28540 28541 28542 28543 28544 28545 28546 28547 28548 28549 28550 28551 28552 28553 28554 28555 28556 28557 28558 28559 28560 28561 28562 28563 28564 28565 28566 28567 28568 28569 28570 28571 28572 28573 28574 28575 28576 28577 28578 28579 28580 28581 28582 28583 28584 28585 28586 28587 28588 28589 28590 28591 28592 28593 28594 28595 28596 28597 28598 28599 28600 28601 28602 28603 28604 28605 28606 28607 28608 28609 28610 28611 28612 28613 28614 28615 28616 28617 28618 28619 28620 28621 28622 28623 28624 28625 28626 28627 28628 28629 28630 28631 28632 28633 28634 28635 28636 28637 28638 28639 28640 28641 28642 28643 28644 28645 28646 28647 28648 28649 28650 28651 28652 28653 28654 28655 28656 28657 28658 28659 28660 28661 28662 28663 28664 28665 28666 28667 28668 28669 28670 28671 28672 28673 28674 28675 28676 28677 28678 28679 28680 28681 28682 28683 28684 28685 28686 28687 28688 28689 28690 28691 28692 28693 28694 28695 28696 28697 28698 28699 28700 28701 28702 28703 28704 28705 28706 28707 28708 28709 28710 28711 28712 28713 28714 28715 28716 28717 28718 28719 28720 28721 28722 28723 28724 28725 28726 28727 28728 28729 28730 28731 28732 28733 28734 28735 28736 28737 28738 28739 28740 28741 28742 28743 28744 28745 28746 28747 28748 28749 28750 28751 28752 28753 28754 28755 28756 28757 28758 28759 28760 28761 28762 28763 28764 28765 28766 28767 28768 28769 28770 28771 28772 28773 28774 28775 28776 28777 28778 28779 28780 28781 28782 28783 28784 28785 28786 28787 28788 28789 28790 28791 28792 28793 28794 28795 28796 28797 28798 28799 28800 28801 28802 28803 28804 28805 28806 28807 28808 28809 28810 28811 28812 28813 28814 28815 28816 28817 28818 28819 28820 28821 28822 28823 28824 28825 28826 28827 28828 28829 28830 28831 28832 28833 28834 28835 28836 28837 28838 28839 28840 28841 28842 28843 28844 28845 28846 28847 28848 28849 28850 28851 28852 28853 28854 28855 28856 28857 28858 28859 28860 28861 28862 28863 28864 28865 28866 28867 28868 28869 28870 28871 28872 28873 28874 28875 28876 28877 28878 28879 28880 28881 28882 28883 28884 28885 28886 28887 28888 28889 28890 28891 28892 28893 28894 28895 28896 28897 28898 28899 28900 28901 28902 28903 28904 28905 28906 28907 28908 28909 28910 28911 28912 28913 28914 28915 28916 28917 28918 28919 28920 28921 28922 28923 28924 28925 28926 28927 28928 28929 28930 28931 28932 28933 28934 28935 28936 28937 28938 28939 28940 28941 28942 28943 28944 28945 28946 28947 28948 28949 28950 28951 28952 28953 28954 28955 28956 28957 28958 28959 28960 28961 28962 28963 28964 28965 28966 28967 28968 28969 28970 28971 28972 28973 28974 28975 28976 28977 28978 28979 28980 28981 28982 28983 28984 28985 28986 28987 28988 28989 28990 28991 28992 28993 28994 28995 28996 28997 28998 28999 29000 29001 29002 29003 29004 29005 29006 29007 29008 29009 29010 29011 29012 29013 29014 29015 29016 29017 29018 29019 29020 29021 29022 29023 29024 29025 29026 29027 29028 29029 29030 29031 29032 29033 29034 29035 29036 29037 29038 29039 29040 29041 29042 29043 29044 29045 29046 29047 29048 29049 29050 29051 29052 29053 29054 29055 29056 29057 29058 29059 29060 29061 29062 29063 29064 29065 29066 29067 29068 29069 29070 29071 29072 29073 29074 29075 29076 29077 29078 29079 29080 29081 29082 29083 29084 29085 29086 29087 29088 29089 29090 29091 29092 29093 29094 29095 29096 29097 29098 29099 29100 29101 29102 29103 29104 29105 29106 29107 29108 29109 29110 29111 29112 29113 29114 29115 29116 29117 29118 29119 29120 29121 29122 29123 29124 29125 29126 29127 29128 29129 29130 29131 29132 29133 29134 29135 29136 29137 29138 29139 29140 29141 29142 29143 29144 29145 29146 29147 29148 29149 29150 29151 29152 29153 29154 29155 29156 29157 29158 29159 29160 29161 29162 29163 29164 29165 29166 29167 29168 29169 29170 29171 29172 29173 29174 29175 29176 29177 29178 29179 29180 29181 29182 29183 29184 29185 29186 29187 29188 29189 29190 29191 29192 29193 29194 29195 29196 29197 29198 29199 29200 29201 29202 29203 29204 29205 29206 29207 29208 29209 29210 29211 29212 29213 29214 29215 29216 29217 29218 29219 29220 29221 29222 29223 29224 29225 29226 29227 29228 29229 29230 29231 29232 29233 29234 29235 29236 29237 29238 29239 29240 29241 29242 29243 29244 29245 29246 29247 29248 29249 29250 29251 29252 29253 29254 29255 29256 29257 29258 29259 29260 29261 29262 29263 29264 29265 29266 29267 29268 29269 29270 29271 29272 29273 29274 29275 29276 29277 29278 29279 29280 29281 29282 29283 29284 29285 29286 29287 29288 29289 29290 29291 29292 29293 29294 29295 29296 29297 29298 29299 29300 29301 29302 29303 29304 29305 29306 29307 29308 29309 29310 29311 29312 29313 29314 29315 29316 29317 29318 29319 29320 29321 29322 29323 29324 29325 29326 29327 29328 29329 29330 29331 29332 29333 29334 29335 29336 29337 29338 29339 29340 29341 29342 29343 29344 29345 29346 29347 29348 29349 29350 29351 29352 29353 29354 29355 29356 29357 29358 29359 29360 29361 29362 29363 29364 29365 29366 29367 29368 29369 29370 29371 29372 29373 29374 29375 29376 29377 29378 29379 29380 29381 29382 29383 29384 29385 29386 29387 29388 29389 29390 29391 29392 29393 29394 29395 29396 29397 29398 29399 29400 29401 29402 29403 29404 29405 29406 29407 29408 29409 29410 29411 29412 29413 29414 29415 29416 29417 29418 29419 29420 29421 29422 29423 29424 29425 29426 29427 29428 29429 29430 29431 29432 29433 29434 29435 29436 29437 29438 29439 29440 29441 29442 29443 29444 29445 29446 29447 29448 29449 29450 29451 29452 29453 29454 29455 29456 29457 29458 29459 29460 29461 29462 29463 29464 29465 29466 29467 29468 29469 29470 29471 29472 29473 29474 29475 29476 29477 29478 29479 29480 29481 29482 29483 29484 29485 29486 29487 29488 29489 29490 29491 29492 29493 29494 29495 29496 29497 29498 29499 29500 29501 29502 29503 29504 29505 29506 29507 29508 29509 29510 29511 29512 29513 29514 29515 29516 29517 29518 29519 29520 29521 29522 29523 29524 29525 29526 29527 29528 29529 29530 29531 29532 29533 29534 29535 29536 29537 29538 29539 29540 29541 29542 29543 29544 29545 29546 29547 29548 29549 29550 29551 29552 29553 29554 29555 29556 29557 29558 29559 29560 29561 29562 29563 29564 29565 29566 29567 29568 29569 29570 29571 29572 29573 29574 29575 29576 29577 29578 29579 29580 29581 29582 29583 29584 29585 29586 29587 29588 29589 29590 29591 29592 29593 29594 29595 29596 29597 29598 29599 29600 29601 29602 29603 29604 29605 29606 29607 29608 29609 29610 29611 29612 29613 29614 29615 29616 29617 29618 29619 29620 29621 29622 29623 29624 29625 29626 29627 29628 29629 29630 29631 29632 29633 29634 29635 29636 29637 29638 29639 29640 29641 29642 29643 29644 29645 29646 29647 29648 29649 29650 29651 29652 29653 29654 29655 29656 29657 29658 29659 29660 29661 29662 29663 29664 29665 29666 29667 29668 29669 29670 29671 29672 29673 29674 29675 29676 29677 29678 29679 29680 29681 29682 29683 29684 29685 29686 29687 29688 29689 29690 29691 29692 29693 29694 29695 29696 29697 29698 29699 29700 29701 29702 29703 29704 29705 29706 29707 29708 29709 29710 29711 29712 29713 29714 29715 29716 29717 29718 29719 29720 29721 29722 29723 29724 29725 29726 29727 29728 29729 29730 29731 29732 29733 29734 29735 29736 29737 29738 29739 29740 29741 29742 29743 29744 29745 29746 29747 29748 29749 29750 29751 29752 29753 29754 29755 29756 29757 29758 29759 29760 29761 29762 29763 29764 29765 29766 29767 29768 29769 29770 29771 29772 29773 29774 29775 29776 29777 29778 29779 29780 29781 29782 29783 29784 29785 29786 29787 29788 29789 29790 29791 29792 29793 29794 29795 29796 29797 29798 29799 29800 29801 29802 29803 29804 29805 29806 29807 29808 29809 29810 29811 29812 29813 29814 29815 29816 29817 29818 29819 29820 29821 29822 29823 29824 29825 29826 29827 29828 29829 29830 29831 29832 29833 29834 29835 29836 29837 29838 29839 29840 29841 29842 29843 29844 29845 29846 29847 29848 29849 29850 29851 29852 29853 29854 29855 29856 29857 29858 29859 29860 29861 29862 29863 29864 29865 29866 29867 29868 29869 29870 29871 29872 29873 29874 29875 29876 29877 29878 29879 29880 29881 29882 29883 29884 29885 29886 29887 29888 29889 29890 29891 29892 29893 29894 29895 29896 29897 29898 29899 29900 29901 29902 29903 29904 29905 29906 29907 29908 29909 29910 29911 29912 29913 29914 29915 29916 29917 29918 29919 29920 29921 29922 29923 29924 29925 29926 29927 29928 29929 29930 29931 29932 29933 29934 29935 29936 29937 29938 29939 29940 29941 29942 29943 29944 29945 29946 29947 29948 29949 29950 29951 29952 29953 29954 29955 29956 29957 29958 29959 29960 29961 29962 29963 29964 29965 29966 29967 29968 29969 29970 29971 29972 29973 29974 29975 29976 29977 29978 29979 29980 29981 29982 29983 29984 29985 29986 29987 29988 29989 29990 29991 29992 29993 29994 29995 29996 29997 29998 29999 30000 30001 30002 30003 30004 30005 30006 30007 30008 30009 30010 30011 30012 30013 30014 30015 30016 30017 30018 30019 30020 30021 30022 30023 30024 30025 30026 30027 30028 30029 30030 30031 30032 30033 30034 30035 30036 30037 30038 30039 30040 30041 30042 30043 30044 30045 30046 30047 30048 30049 30050 30051 30052 30053 30054 30055 30056 30057 30058 30059 30060 30061 30062 30063 30064 30065 30066 30067 30068 30069 30070 30071 30072 30073 30074 30075 30076 30077 30078 30079 30080 30081 30082 30083 30084 30085 30086 30087 30088 30089 30090 30091 30092 30093 30094 30095 30096 30097 30098 30099 30100 30101 30102 30103 30104 30105 30106 30107 30108 30109 30110 30111 30112 30113 30114 30115 30116 30117 30118 30119 30120 30121 30122 30123 30124 30125 30126 30127 30128 30129 30130 30131 30132 30133 30134 30135 30136 30137 30138 30139 30140 30141 30142 30143 30144 30145 30146 30147 30148 30149 30150 30151 30152 30153 30154 30155 30156 30157 30158 30159 30160 30161 30162 30163 30164 30165 30166 30167 30168 30169 30170 30171 30172 30173 30174 30175 30176 30177 30178 30179 30180 30181 30182 30183 30184 30185 30186 30187 30188 30189 30190 30191 30192 30193 30194 30195 30196 30197 30198 30199 30200 30201 30202 30203 30204 30205 30206 30207 30208 30209 30210 30211 30212 30213 30214 30215 30216 30217 30218 30219 30220 30221 30222 30223 30224 30225 30226 30227 30228 30229 30230 30231 30232 30233 30234 30235 30236 30237 30238 30239 30240 30241 30242 30243 30244 30245 30246 30247 30248 30249 30250 30251 30252 30253 30254 30255 30256 30257 30258 30259 30260 30261 30262 30263 30264 30265 30266 30267 30268 30269 30270 30271 30272 30273 30274 30275 30276 30277 30278 30279 30280 30281 30282 30283 30284 30285 30286 30287 30288 30289 30290 30291 30292 30293 30294 30295 30296 30297 30298 30299 30300 30301 30302 30303 30304 30305 30306 30307 30308 30309 30310 30311 30312 30313 30314 30315 30316 30317 30318 30319 30320 30321 30322 30323 30324 30325 30326 30327 30328 30329 30330 30331 30332 30333 30334 30335 30336 30337 30338 30339 30340 30341 30342 30343 30344 30345 30346 30347 30348 30349 30350 30351 30352 30353 30354 30355 30356 30357 30358 30359 30360 30361 30362 30363 30364 30365 30366 30367 30368 30369 30370 30371 30372 30373 30374 30375 30376 30377 30378 30379 30380 30381 30382 30383 30384 30385 30386 30387 30388 30389 30390 30391 30392 30393 30394 30395 30396 30397 30398 30399 30400 30401 30402 30403 30404 30405 30406 30407 30408 30409 30410 30411 30412 30413 30414 30415 30416 30417 30418 30419 30420 30421 30422 30423 30424 30425 30426 30427 30428 30429 30430 30431 30432 30433 30434 30435 30436 30437 30438 30439 30440 30441 30442 30443 30444 30445 30446 30447 30448 30449 30450 30451 30452 30453 30454 30455 30456 30457 30458 30459 30460 30461 30462 30463 30464 30465 30466 30467 30468 30469 30470 30471 30472 30473 30474 30475 30476 30477 30478 30479 30480 30481 30482 30483 30484 30485 30486 30487 30488 30489 30490 30491 30492 30493 30494 30495 30496 30497 30498 30499 30500 30501 30502 30503 30504 30505 30506 30507 30508 30509 30510 30511 30512 30513 30514 30515 30516 30517 30518 30519 30520 30521 30522 30523 30524 30525 30526 30527 30528 30529 30530 30531 30532 30533 30534 30535 30536 30537 30538 30539 30540 30541 30542 30543 30544 30545 30546 30547 30548 30549 30550 30551 30552 30553 30554 30555 30556 30557 30558 30559 30560 30561 30562 30563 30564 30565 30566 30567 30568 30569 30570 30571 30572 30573 30574 30575 30576 30577 30578 30579 30580 30581 30582 30583 30584 30585 30586 30587 30588 30589 30590 30591 30592 30593 30594 30595 30596 30597 30598 30599 30600 30601 30602 30603 30604 30605 30606 30607 30608 30609 30610 30611 30612 30613 30614 30615 30616 30617 30618 30619 30620 30621 30622 30623 30624 30625 30626 30627 30628 30629 30630 30631 30632 30633 30634 30635 30636 30637 30638 30639 30640 30641 30642 30643 30644 30645 30646 30647 30648 30649 30650 30651 30652 30653 30654 30655 30656 30657 30658 30659 30660 30661 30662 30663 30664 30665 30666 30667 30668 30669 30670 30671 30672 30673 30674 30675 30676 30677 30678 30679 30680 30681 30682 30683 30684 30685 30686 30687 30688 30689 30690 30691 30692 30693 30694 30695 30696 30697 30698 30699 30700 30701 30702 30703 30704 30705 30706 30707 30708 30709 30710 30711 30712 30713 30714 30715 30716 30717 30718 30719 30720 30721 30722 30723 30724 30725 30726 30727 30728 30729 30730 30731 30732 30733 30734 30735 30736 30737 30738 30739 30740 30741 30742 30743 30744 30745 30746 30747 30748 30749 30750 30751 30752 30753 30754 30755 30756 30757 30758 30759 30760 30761 30762 30763 30764 30765 30766 30767 30768 30769 30770 30771 30772 30773 30774 30775 30776 30777 30778 30779 30780 30781 30782 30783 30784 30785 30786 30787 30788 30789 30790 30791 30792 30793 30794 30795 30796 30797 30798 30799 30800 30801 30802 30803 30804 30805 30806 30807 30808 30809 30810 30811 30812 30813 30814 30815 30816 30817 30818 30819 30820 30821 30822 30823 30824 30825 30826 30827 30828 30829 30830 30831 30832 30833 30834 30835 30836 30837 30838 30839 30840 30841 30842 30843 30844 30845 30846 30847 30848 30849 30850 30851 30852 30853 30854 30855 30856 30857 30858 30859 30860 30861 30862 30863 30864 30865 30866 30867 30868 30869 30870 30871 30872 30873 30874 30875 30876 30877 30878 30879 30880 30881 30882 30883 30884 30885 30886 30887 30888 30889 30890 30891 30892 30893 30894 30895 30896 30897 30898 30899 30900 30901 30902 30903 30904 30905 30906 30907 30908 30909 30910 30911 30912 30913 30914 30915 30916 30917 30918 30919 30920 30921 30922 30923 30924 30925 30926 30927 30928 30929 30930 30931 30932 30933 30934 30935 30936 30937 30938 30939 30940 30941 30942 30943 30944 30945 30946 30947 30948 30949 30950 30951 30952 30953 30954 30955 30956 30957 30958 30959 30960 30961 30962 30963 30964 30965 30966 30967 30968 30969 30970 30971 30972 30973 30974 30975 30976 30977 30978 30979 30980 30981 30982 30983 30984 30985 30986 30987 30988 30989 30990 30991 30992 30993 30994 30995 30996 30997 30998 30999 31000 31001 31002 31003 31004 31005 31006 31007 31008 31009 31010 31011 31012 31013 31014 31015 31016 31017 31018 31019 31020 31021 31022 31023 31024 31025 31026 31027 31028 31029 31030 31031 31032 31033 31034 31035 31036 31037 31038 31039 31040 31041 31042 31043 31044 31045 31046 31047 31048 31049 31050 31051 31052 31053 31054 31055 31056 31057 31058 31059 31060 31061 31062 31063 31064 31065 31066 31067 31068 31069 31070 31071 31072 31073 31074 31075 31076 31077 31078 31079 31080 31081 31082 31083 31084 31085 31086 31087 31088 31089 31090 31091 31092 31093 31094 31095 31096 31097 31098 31099 31100 31101 31102 31103 31104 31105 31106 31107 31108 31109 31110 31111 31112 31113 31114 31115 31116 31117 31118 31119 31120 31121 31122 31123 31124 31125 31126 31127 31128 31129 31130 31131 31132 31133 31134 31135 31136 31137 31138 31139 31140 31141 31142 31143 31144 31145 31146 31147 31148 31149 31150 31151 31152 31153 31154 31155 31156 31157 31158 31159 31160 31161 31162 31163 31164 31165 31166 31167 31168 31169 31170 31171 31172 31173 31174 31175 31176 31177 31178 31179 31180 31181 31182 31183 31184 31185 31186 31187 31188 31189 31190 31191 31192 31193 31194 31195 31196 31197 31198 31199 31200 31201 31202 31203 31204 31205 31206 31207 31208 31209 31210 31211 31212 31213 31214 31215 31216 31217 31218 31219 31220 31221 31222 31223 31224 31225 31226 31227 31228 31229 31230 31231 31232 31233 31234 31235 31236 31237 31238 31239 31240 31241 31242 31243 31244 31245 31246 31247 31248 31249 31250 31251 31252 31253 31254 31255 31256 31257 31258 31259 31260 31261 31262 31263 31264 31265 31266 31267 31268 31269 31270 31271 31272 31273 31274 31275 31276 31277 31278 31279 31280 31281 31282 31283 31284 31285 31286 31287 31288 31289 31290 31291 31292 31293 31294 31295 31296 31297 31298 31299 31300 31301 31302 31303 31304 31305 31306 31307 31308 31309 31310 31311 31312 31313 31314 31315 31316 31317 31318 31319 31320 31321 31322 31323 31324 31325 31326 31327 31328 31329 31330 31331 31332 31333 31334 31335 31336 31337 31338 31339 31340 31341 31342 31343 31344 31345 31346 31347 31348 31349 31350 31351 31352 31353 31354 31355 31356 31357 31358 31359 31360 31361 31362 31363 31364 31365 31366 31367 31368 31369 31370 31371 31372 31373 31374 31375 31376 31377 31378 31379 31380 31381 31382 31383 31384 31385 31386 31387 31388 31389 31390 31391 31392 31393 31394 31395 31396 31397 31398 31399 31400 31401 31402 31403 31404 31405 31406 31407 31408 31409 31410 31411 31412 31413 31414 31415 31416 31417 31418 31419 31420 31421 31422 31423 31424 31425 31426 31427 31428 31429 31430 31431 31432 31433 31434 31435 31436 31437 31438 31439 31440 31441 31442 31443 31444 31445 31446 31447 31448 31449 31450 31451 31452 31453 31454 31455 31456 31457 31458 31459 31460 31461 31462 31463 31464 31465 31466 31467 31468 31469 31470 31471 31472 31473 31474 31475 31476 31477 31478 31479 31480 31481 31482 31483 31484 31485 31486 31487 31488 31489 31490 31491 31492 31493 31494 31495 31496 31497 31498 31499 31500 31501 31502 31503 31504 31505 31506 31507 31508 31509 31510 31511 31512 31513 31514 31515 31516 31517 31518 31519 31520 31521 31522 31523 31524 31525 31526 31527 31528 31529 31530 31531 31532 31533 31534 31535 31536 31537 31538 31539 31540 31541 31542 31543 31544 31545 31546 31547 31548 31549 31550 31551 31552 31553 31554 31555 31556 31557 31558 31559 31560 31561 31562 31563 31564 31565 31566 31567 31568 31569 31570 31571 31572 31573 31574 31575 31576 31577 31578 31579 31580 31581 31582 31583 31584 31585 31586 31587 31588 31589 31590 31591 31592 31593 31594 31595 31596 31597 31598 31599 31600 31601 31602 31603 31604 31605 31606 31607 31608 31609 31610 
</DataArray>
<DataArray type="UInt32" Name="offsets" format="ascii">
3 6 9 12 14 17 20 23 26 29 32 35 38 41 44 47 50 53 56 59 62 65 68 71 74 77 80 83 85 88 91 94 97 99 102 105 108 111 114 117 120 123 125 128 131 134 137 139 141 144 147 150 153 156 159 162 164 167 170 172 174 176 179 181 183 185 188 191 194 196 199 202 205 208 211 214 217 220 223 226 229 232 235 238 241 244 247 250 253 256 259 261 264 267 270 273 276 279 281 284 287 289 292 294 297 300 303 306 308 311 314 316 319 322 324 327 330 333 335 338 341 344 347 350 353 356 359 362 365 368 371 374 377 380 383 386 389 392 395 398 401 404 407 410 413 415 418 421 424 426 429 432 435 438 441 444 447 449 452 455 458 461 463 466 469 472 474 477 480 483 486 489 492 495 498 501 504 507 510 512 515 517 520 523 526 528 531 534 537 540 543 546 549 552 555 558 561 564 566 568 571 574 577 580 582 585 587 590 593 596 599 602 605 608 611 614 617 620 623 626 629 632 635 638 641 644 647 650 653 656 659 661 664 667 670 673 676 679 682 685 688 690 693 695 698 701 704 707 710 712 715 718 721 724 727 730 733 735 738 741 744 747 749 752 755 758 761 764 767 770 773 776 778 781 784 787 790 793 796 799 802 804 807 809 812 815 817 820 823 826 829 832 834 837 840 843 846 849 851 854 857 860 863 866 868 871 874 877 880 883 886 889 892 895 898 900 903 905 908 911 914 917 919 922 924 927 930 933 935 938 941 944 946 949 952 955 958 961 964 966 969 972 974 977 980 983 986 989 992 995 998 1001 1004 1007 1009 1011 1014 1017 1019 1022 1025 1028 1031 1034 1037 1040 1042 1045 1048 1051 1054 1057 1060 1063 1065 1068 1070 1073 1076 1079 1082 1085 1088 1091 1094 1097 1100 1103 1105 1108 1111 1114 1117 1120 1123 1125 1128 1131 1134 1137 1140 1143 1146 1148 1151 1154 1156 1159 1162 1165 1167 1170 1173 1176 1179 1182 1185 1187 1190 1193 1196 1198 1201 1204 1207 1209 1212 1215 1217 1220 1223 1226 1229 1231 1233 1236 1239 1241 1243 1246 1249 1252 1255 1257 1260 1263 1266 1269 1272 1275 1278 1280 1283 1286 1289 1292 1294 1297 1300 1303 1306 1309 1312 1315 1317 1320 1323 1326 1328 1331 1333 1336 1338 1341 1344 1347 1350 1353 1355 1358 1361 1364 1366 1369 1371 1374 1377 1379 1382 1385 1387 1390 1393 1396 1399 1402 1405 1408 1411 1414 1417 1420 1423 1426 1429 1431 1434 1437 1440 1443 1446 1449 1451 1454 1456 1459 1462 1465 1468 1470 1473 1476 1479 1482 1484 1487 1490 1493 1496 1499 1502 1504 1507 1510 1513 1516 1519 1522 1525 1527 1530 1533 1536 1539 1542 1544 1547 1550 1553 1556 1558 1561 1564 1567 1570 1572 1575 1578 1581 1584 1587 1590 1593 1595 1598 1601 1604 1607 1610 1613 1616 1619 1622 1625 1628 1630 1633 1636 1639 1642 1645 1648 1651 1654 1656 1659 1662 1665 1668 1671 1674 1677 1680 1683 1686 1689 1692 1695 1698 1701 1704 1706 1709 1712 1715 1718 1721 1724 1727 1730 1733 1736 1739 1742 1745 1748 1751 1754 1757 1760 1763 1766 1769 1772 1775 1778 1781 1784 1787 1790 1793 1796 1799 1802 1805 1808 1811 1814 1817 1820 1823 1826 1829 1832 1835 1838 1841 1844 1847 1850 1853 1856 1859 1862 1865 1868 1871 1874 1877 1880 1883 1886 1888 1891 1894 1896 1899 1902 1905 1908 1911 1914 1917 1920 1923 1925 1928 1931 1934 1937 1939 1942 1945 1948 1951 1954 1957 1960 1963 1966 1969 1972 1975 1978 1981 1984 1986 1989 1992 1995 1998 2001 2004 2007 2010 2013 2016 2019 2022 2025 2028 2030 2033 2036 2039 2042 2045 2048 2051 2054 2057 2059 2061 2064 2067 2070 2072 2075 2078 2081 2084 2087 2090 2093 2096 2099 2102 2105 2108 2110 2113 2116 2119 2122 2125 2128 2131 2134 2137 2140 2143 2146 2149 2152 2155 2158 2161 2164 2167 2170 2173 2176 2179 2182 2185 2188 2191 2194 2197 2200 2203 2206 2209 2212 2215 2218 2221 2224 2227 2230 2233 2236 2239 2241 2244 2247 2250 2253 2256 2259 2261 2264 2267 2269 2272 2275 2278 2280 2283 2286 2289 2292 2295 2298 2301 2304 2307 2310 2313 2316 2319 2322 2325 2328 2331 2334 2337 2340 2343 2346 2349 2352 2355 2358 2361 2364 2367 2370 2373 2376 2379 2382 2385 2388 2391 2394 2397 2400 2403 2406 2409 2412 2415 2418 2421 2424 2427 2430 2433 2436 2439 2442 2445 2448 2451 2454 2457 2460 2463 2466 2468 2471 2474 2477 2480 2483 2486 2489 2492 2495 2498 2501 2504 2506 2509 2512 2515 2518 2521 2524 2527 2530 2533 2536 2539 2542 2545 2548 2550 2553 2555 2558 2561 2563 2566 2569 2572 2574 2577 2580 2583 2586 2589 2592 2595 2597 2600 2602 2605 2608 2611 2614 2617 2619 2622 2625 2628 2631 2634 2636 2639 2642 2645 2648 2651 2653 2655 2658 2661 2664 2667 2670 2672 2675 2678 2681 2683 2686 2688 2691 2694 2697 2699 2702 2704 2707 2710 2713 2715 2718 2720 2723 2726 2729 2732 2734 2737 2740 2743 2746 2749 2752 2755 2758 2761 2764 2766 2768 2771 2773 2776 2779 2781 2784 2787 2789 2792 2795 2798 2801 2803 2806 2809 2812 2815 2818 2821 2824 2827 2830 2833 2836 2839 2842 2845 2848 2851 2854 2857 2860 2863 2866 2869 2872 2875 2878 2881 2884 2887 2890 2893 2896 2898 2901 2903 2905 2908 2911 2913 2916 2919 2922 2925 2928 2931 2934 2937 2940 2943 2946 2949 2952 2955 2958 2960 2963 2966 2969 2972 2975 2978 2981 2983 2986 2989 2992 2995 2998 3001 3004 3006 3009 3012 3015 3018 3021 3024 3027 3029 3032 3035 3037 3040 3043 3046 3049 3052 3054 3056 3059 3062 3065 3068 3071 3073 3076 3079 3082 3085 3087 3090 3093 3095 3098 3101 3104 3107 3110 3112 3114 3117 3120 3123 3126 3129 3132 3135 3138 3141 3144 3147 3150 3152 3155 3158 3161 3164 3167 3170 3173 3176 3179 3182 3185 3188 3191 3194 3197 3200 3203 3206 3209 3212 3215 3218 3221 3224 3226 3229 3232 3235 3238 3240 3243 3246 3249 3251 3254 3257 3260 3263 3266 3269 3272 3274 3277 3280 3283 3286 3289 3291 3294 3297 3300 3303 3306 3309 3312 3315 3318 3321 3324 3327 3330 3333 3336 3339 3342 3345 3347 3350 3353 3356 3359 3362 3365 3368 3371 3374 3377 3380 3382 3384 3387 3390 3393 3395 3397 3400 3403 3406 3408 3411 3414 3416 3419 3422 3425 3427 3430 3432 3434 3437 3440 3443 3446 3449 3452 3455 3458 3461 3464 3467 3470 3472 3475 3478 3480 3483 3486 3488 3491 3493 3496 3499 3502 3504 3507 3510 3513 3516 3519 3522 3525 3528 3530 3533 3536 3539 3542 3545 3547 3550 3553 3556 3559 3562 3565 3568 3570 3573 3576 3579 3582 3585 3588 3591 3594 3596 3599 3601 3604 3607 3610 3613 3615 3618 3620 3623 3625 3628 3630 3633 3636 3639 3642 3645 3648 3651 3653 3656 3659 3661 3664 3666 3669 3671 3674 3677 3679 3682 3685 3688 3691 3694 3697 3700 3703 3705 3708 3711 3714 3717 3720 3723 3725 3728 3731 3734 3737 3740 3743 3746 3749 3752 3755 3758 3761 3763 3766 3769 3772 3774 3777 3780 3783 3786 3789 3792 3794 3797 3800 3803 3806 3809 3812 3815 3818 3821 3824 3827 3830 3833 3836 3839 3842 3845 3848 3851 3854 3857 3860 3863 3866 3869 3872 3875 3877 3880 3882 3885 3888 3891 3894 3897 3900 3903 3906 3909 3912 3915 3918 3920 3923 3926 3928 3931 3934 3936 3939 3942 3945 3948 3951 3954 3957 3960 3963 3966 3969 3971 3974 3976 3979 3982 3985 3988 3991 3994 3997 4000 4003 4006 4009 4012 4015 4018 4021 4024 4027 4030 4033 4035 4038 4041 4044 4047 4049 4052 4055 4058 4061 4063 4066 4069 4071 4073 4076 4079 4082 4085 4088 4091 4094 4097 4100 4103 4106 4109 4112 4114 4117 4120 4123 4126 4129 4132 4135 4138 4141 4143 4146 4148 4151 4154 4157 4160 4163 4166 4169 4172 4175 4178 4181 4184 4187 4190 4193 4196 4199 4202 4204 4207 4210 4213 4216 4219 4222 4225 4228 4231 4234 4237 4240 4243 4246 4249 4252 4255 4258 4261 4264 4267 4270 4273 4276 4279 4282 4285 4288 4291 4294 4297 4300 4303 4306 4309 4312 4315 4318 4321 4324 4327 4330 4333 4336 4338 4341 4344 4347 4350 4353 4356 4359 4361 4364 4367 4370 4373 4376 4379 4382 4385 4388 4391 4393 4396 4399 4402 4405 4408 4410 4413 4416 4419 4422 4425 4428 4431 4434 4437 4440 4443 4446 4449 4451 4454 4457 4459 4462 4464 4467 4470 4473 4476 4479 4482 4485 4488 4491 4494 4497 4500 4503 4506 4509 4512 4515 4517 4519 4522 4524 4527 4530 4533 4536 4539 4542 4544 4546 4549 4551 4554 4557 4560 4563 4566 4569 4571 4574 4577 4580 4583 4586 4589 4592 4595 4598 4601 4604 4607 4609 4612 4615 4617 4620 4623 4626 4629 4632 4634 4637 4639 4642 4644 4647 4650 4653 4656 4659 4662 4665 4668 4671 4674 4677 4679 4682 4684 4687 4690 4692 4695 4698 4701 4704 4707 4710 4713 4716 4719 4721 4723 4726 4729 4732 4735 4737 4739 4742 4745 4748 4750 4753 4756 4759 4761 4764 4767 4770 4773 4776 4778 4781 4784 4786 4789 4791 4794 4797 4800 4802 4805 4808 4811 4814 4817 4820 4822 4825 4827 4829 4832 4835 4838 4841 4844 4847 4850 4852 4855 4858 4860 4863 4865 4868 4871 4874 4877 4880 4883 4886 4889 4892 4895 4898 4901 4904 4907 4910 4913 4916 4919 4922 4925 4928 4931 4934 4937 4940 4942 4945 4948 4951 4954 4957 4960 4963 4965 4968 4971 4974 4977 4979 4982 4985 4988 4991 4994 4997 5000 5003 5006 5009 5012 5014 5017 5020 5023 5026 5029 5032 5035 5038 5041 5043 5046 5049 5052 5055 5058 5061 5064 5067 5070 5073 5075 5078 5081 5083 5086 5089 5092 5095 5098 5101 5104 5106 5109 5112 5115 5117 5120 5122 5125 5127 5130 5133 5136 5139 5142 5145 5148 5151 5154 5157 5160 5163 5166 5169 5171 5174 5177 5180 5182 5185 5188 5190 5193 5196 5199 5202 5205 5208 5211 5214 5217 5220 5223 5226 5229 5231 5234 5236 5239 5242 5244 5247 5249 5252 5255 5258 5261 5264 5267 5270 5272 5275 5278 5281 5284 5287 5290 5293 5295 5298 5301 5304 5306 5309 5312 5315 5318 5321 5324 5326 5329 5332 5335 5338 5340 5343 5346 5349 5352 5355 5358 5361 5364 5367 5370 5373 5375 5378 5381 5384 5387 5390 5392 5394 5397 5400 5403 5405 5407 5410 5413 5416 5418 5421 5424 5426 5429 5432 5434 5437 5439 5441 5444 5447 5450 5453 5455 5458 5461 5464 5467 5470 5473 5475 5478 5481 5484 5487 5490 5492 5495 5498 5501 5504 5507 5509 5512 5515 5518 5521 5524 5527 5530 5533 5536 5539 5542 5545 5548 5550 5553 5556 5559 5562 5565 5567 5570 5572 5575 5578 5581 5584 5587 5590 5592 5595 5598 5601 5604 5607 5610 5612 5614 5616 5619 5622 5625 5627 5630 5633 5636 5639 5642 5645 5648 5651 5654 5657 5660 5662 5665 5668 5671 5674 5677 5680 5683 5686 5689 5692 5695 5698 5700 5702 5704 5707 5710 5712 5715 5718 5721 5723 5726 5729 5731 5734 5736 5739 5741 5744 5746 5748 5750 5753 5756 5759 5762 5765 5767 5770 5773 5775 5778 5781 5784 5786 5789 5791 5794 5797 5800 5803 5805 5808 5811 5814 5817 5820 5823 5826 5828 5831 5834 5837 5840 5842 5845 5848 5851 5854 5857 5860 5863 5865 5868 5871 5873 5876 5879 5882 5885 5888 5890 5893 5896 5899 5902 5905 5908 5911 5914 5917 5919 5922 5925 5928 5931 5934 5937 5940 5942 5945 5948 5951 5954 5957 5959 5962 5965 5967 5970 5973 5976 5979 5982 5985 5988 5991 5994 5997 6000 6003 6006 6009 6012 6015 6018 6021 6024 6027 6030 6033 6036 6039 6042 6045 6048 6051 6054 6057 6060 6063 6066 6069 6072 6075 6078 6081 6084 6087 6089 6092 6094 6097 6099 6102 6105 6107 6110 6113 6116 6119 6122 6125 6128 6131 6134 6136 6138 6141 6144 6147 6150 6152 6155 6158 6160 6163 6166 6169 6172 6175 6177 6180 6183 6186 6188 6191 6193 6195 6197 6200 6203 6206 6209 6212 6215 6218 6221 6224 6227 6230 6233 6236 6239 6242 6245 6248 6251 6254 6257 6260 6263 6266 6269 6272 6275 6278 6280 6283 6286 6288 6291 6294 6296 6299 6302 6305 6308 6311 6313 6316 6319 6321 6324 6327 6329 6331 6334 6336 6338 6341 6344 6347 6349 6352 6354 6357 6360 6363 6366 6369 6372 6375 6377 6380 6383 6386 6389 6392 6395 6398 6401 6404 6407 6410 6413 6416 6419 6422 6425 6428 6431 6434 6437 6440 6443 6446 6449 6452 6455 6458 6461 6464 6467 6470 6473 6476 6479 6482 6485 6488 6491 6494 6497 6500 6503 6505 6508 6511 6514 6517 6520 6523 6525 6528 6531 6534 6537 6540 6543 6546 6549 6552 6555 6558 6561 6564 6566 6569 6572 6575 6577 6580 6583 6586 6589 6592 6595 6598 6600 6603 6606 6609 6612 6615 6618 6621 6624 6627 6630 6633 6636 6639 6642 6645 6648 6650 6653 6655 6658 6661 6663 6666 6669 6672 6675 6677 6680 6683 6686 6689 6692 6695 6698 6701 6704 6706 6709 6712 6714 6717 6719 6722 6725 6728 6731 6734 6736 6739 6742 6744 6747 6750 6753 6756 6759 6761 6764 6767 6770 6772 6775 6778 6781 6784 6786 6789 6792 6795 6797 6800 6803 6806 6809 6812 6815 6817 6820 6823 6826 6828 6831 6834 6836 6839 6842 6844 6847 6849 6851 6854 6857 6860 6863 6866 6869 6872 6875 6878 6881 6884 6887 6890 6893 6896 6899 6902 6905 6908 6911 6914 6917 6920 6923 6926 6929 6932 6935 6938 6941 6944 6947 6950 6953 6956 6959 6962 6965 6968 6971 6974 6977 6980 6982 6985 6988 6990 6993 6996 6999 7001 7004 7007 7010 7013 7016 7019 7022 7025 7028 7031 7034 7036 7039 7042 7045 7048 7051 7054 7057 7060 7062 7065 7068 7071 7074 7077 7080 7083 7086 7089 7092 7094 7097 7100 7102 7105 7108 7110 7112 7115 7118 7120 7123 7126 7129 7132 7135 7138 7141 7144 7147 7150 7153 7156 7159 7161 7164 7167 7169 7172 7175 7178 7181 7184 7187 7190 7193 7195 7198 7201 7203 7205 7208 7210 7213 7216 7219 7222 7224 7227 7230 7233 7236 7238 7241 7244 7247 7250 7253 7256 7259 7262 7265 7268 7271 7274 7276 7279 7282 7285 7287 7290 7293 7296 7299 7302 7305 7307 7310 7313 7316 7319 7321 7324 7327 7329 7331 7334 7337 7340 7343 7346 7348 7351 7354 7356 7359 7362 7365 7368 7371 7374 7377 7379 7382 7384 7387 7390 7393 7396 7399 7402 7405 7407 7410 7413 7416 7419 7422 7425 7427 7430 7433 7436 7439 7441 7444 7447 7450 7453 7456 7458 7461 7464 7467 7470 7472 7475 7478 7481 7484 7487 7490 7493 7496 7499 7502 7504 7507 7510 7512 7515 7517 7520 7523 7525 7527 7530 7533 7536 7538 7541 7544 7547 7550 7553 7556 7559 7561 7564 7567 7570 7573 7576 7579 7581 7584 7587 7590 7593 7596 7599 7601 7604 7606 7608 7611 7614 7617 7620 7622 7625 7628 7631 7633 7636 7639 7642 7645 7648 7651 7654 7657 7660 7663 7666 7669 7672 7675 7678 7681 7684 7687 7690 7693 7696 7699 7702 7705 7707 7710 7713 7715 7718 7721 7724 7727 7730 7732 7734 7737 7740 7742 7745 7748 7751 7754 7756 7759 7761 7764 7767 7770 7773 7775 7778 7781 7784 7787 7790 7793 7796 7798 7801 7804 7807 7810 7813 7816 7818 7821 7824 7826 7829 7832 7834 7837 7840 7843 7845 7847 7850 7853 7855 7858 7861 7864 7867 7870 7872 7875 7878 7881 7884 7887 7890 7893 7896 7899 7901 7903 7906 7909 7911 7914 7917 7920 7923 7926 7929 7932 7935 7938 7940 7943 7946 7948 7951 7953 7956 7959 7961 7964 7966 7969 7972 7975 7977 7980 7983 7985 7988 7990 7993 7996 7999 8002 8005 8008 8011 8014 8016 8019 8021 8024 8027 8030 8032 8035 8038 8041 8044 8047 8050 8052 8055 8058 8061 8064 8067 8069 8072 8074 8076 8079 8082 8085 8088 8091 8093 8096 8099 8102 8104 8107 8109 8112 8115 8118 8121 8124 8127 8130 8133 8136 8138 8141 8144 8146 8148 8151 8154 8157 8159 8162 8165 8168 8171 8173 8176 8178 8181 8184 8187 8190 8193 8196 8199 8202 8204 8207 8209 8212 8215 8218 8221 8224 8227 8230 8233 8236 8239 8242 8244 8247 8250 8253 8256 8259 8262 8265 8268 8270 8273 8275 8277 8280 8282 8285 8288 8291 8294 8296 8299 8302 8305 8307 8310 8313 8316 8319 8322 8325 8327 8330 8333 8336 8339 8342 8344 8346 8349 8352 8355 8358 8361 8364 8367 8370 8373 8375 8378 8381 8384 8387 8390 8393 8396 8399 8402 8405 8407 8410 8413 8416 8419 8422 8424 8427 8429 8432 8434 8437 8440 8443 8446 8449 8452 8455 8458 8460 8463 8466 8469 8472 8475 8478 8481 8484 8487 8490 8493 8496 8499 8502 8505 8508 8511 8514 8517 8520 8522 8525 8528 8531 8534 8537 8540 8543 8546 8549 8551 8554 8557 8560 8563 8566 8568 8571 8574 8577 8580 8583 8586 8589 8591 8593 8596 8599 8601 8604 8607 8610 8613 8616 8619 8622 8625 8628 8630 8633 8635 8638 8641 8644 8647 8650 8652 8655 8658 8661 8664 8667 8670 8673 8676 8679 8682 8685 8688 8691 8693 8695 8698 8701 8704 8707 8710 8713 8716 8719 8722 8725 8728 8730 8733 8736 8738 8741 8743 8745 8748 8750 8753 8755 8758 8761 8763 8766 8769 8772 8775 8777 8779 8782 8785 8788 8791 8794 8797 8800 8803 8806 8809 8812 8815 8817 8820 8823 8826 8829 8832 8835 8838 8840 8842 8845 8847 8850 8852 8855 8858 8861 8864 8867 8870 8872 8875 8877 8880 8883 8886 8889 8892 8895 8897 8900 8902 8905 8908 8911 8914 8917 8920 8923 8926 8929 8932 8935 8938 8941 8944 8947 8950 8953 8956 8959 8962 8965 8968 8971 8973 8976 8979 8982 8984 8987 8990 8992 8995 8998 9000 9003 9006 9009 9012 9015 9018 9021 9024 9027 9029 9032 9035 9038 9040 9043 9046 9049 9052 9054 9057 9060 9063 9065 9068 9071 9074 9076 9079 9082 9084 9087 9090 9093 9096 9099 9102 9105 9108 9110 9112 9114 9117 9119 9122 9125 9128 9130 9133 9136 9139 9142 9145 9148 9150 9152 9155 9158 9161 9164 9167 9170 9173 9175 9178 9181 9183 9186 9189 9192 9194 9197 9200 9203 9205 9208 9211 9214 9217 9220 9222 9225 9228 9231 9234 9237 9240 9242 9245 9248 9251 9253 9256 9259 9262 9265 9267 9270 9272 9274 9277 9280 9282 9285 9287 9290 9292 9295 9298 9300 9303 9306 9309 9312 9315 9318 9321 9324 9327 9330 9333 9335 9338 9340 9343 9346 9349 9352 9355 9358 9361 9364 9367 9370 9373 9376 9379 9382 9385 9388 9391 9394 9396 9399 9402 9405 9408 9411 9414 9417 9420 9423 9426 9429 9432 9435 9438 9441 9443 9446 9449 9452 9455 9458 9460 9463 9466 9469 9472 9475 9478 9481 9484 9487 9490 9492 9495 9498 9501 9504 9507 9510 9512 9515 9518 9521 9524 9527 9530 9533 9536 9539 9542 9545 9548 9551 9554 9557 9560 9563 9566 9569 9572 9575 9578 9581 9584 9587 9590 9593 9596 9599 9602 9605 9607 9610 9613 9616 9619 9622 9625 9628 9631 9634 9637 9640 9643 9646 9649 9651 9653 9656 9659 9662 9665 9668 9671 9674 9676 9679 9682 9685 9688 9691 9693 9696 9699 9702 9705 9708 9711 9714 9716 9719 9722 9725 9728 9730 9733 9736 9739 9742 9745 9748 9751 9753 9756 9759 9762 9765 9767 9769 9772 9774 9777 9780 9782 9784 9787 9789 9792 9795 9797 9799 9802 9805 9808 9811 9814 9817 9820 9823 9825 9828 9831 9834 9837 9840 9843 9846 9849 9852 9855 9858 9861 9864 9867 9869 9872 9874 9877 9879 9882 9885 9887 9890 9893 9895 9898 9900 9903 9906 9909 9911 9913 9916 9919 9921 9924 9927 9929 9932 9935 9938 9941 9944 9947 9950 9953 9956 9959 9962 9964 9967 9970 9973 9976 9979 9982 9985 9988 9991 9994 9997 10000 10003 10006 10009 10012 10015 10018 10021 10024 10027 10030 10033 10036 10039 10042 10045 10048 10050 10053 10056 10059 10062 10064 10067 10070 10073 10076 10079 10081 10084 10086 10089 10091 10094 10097 10099 10102 10105 10108 10111 10113 10115 10118 10121 10124 10127 10130 10133 10136 10139 10142 10145 10148 10150 10153 10156 10158 10161 10164 10167 10170 10173 10176 10178 10181 10184 10187 10190 10193 10196 10198 10201 10204 10207 10210 10213 10216 10219 10222 10225 10228 10231 10233 10236 10239 10242 10245 10247 10250 10253 10256 10258 10261 10264 10267 10270 10273 10275 10278 10281 10284 10287 10289 10292 10295 10297 10300 10302 10305 10308 10311 10314 10317 10320 10323 10326 10329 10332 10334 10337 10340 10343 10346 10349 10352 10355 10357 10360 10363 10366 10369 10372 10375 10378 10381 10384 10387 10390 10393 10396 10399 10402 10405 10408 10411 10413 10415 10418 10421 10424 10427 10430 10433 10436 10438 10441 10444 10447 10450 10453 10456 10458 10461 10464 10467 10470 10473 10476 10479 10482 10484 10487 10490 10492 10495 10498 10501 10504 10507 10510 10513 10516 10519 10522 10524 10527 10530 10533 10536 10539 10542 10545 10548 10551 10554 10557 10560 10563 10566 10569 10572 10575 10577 10579 10582 10584 10587 10590 10593 10596 10599 10601 10604 10607 10610 10613 10616 10619 10622 10624 10627 10630 10633 10636 10639 10642 10645 10648 10651 10654 10657 10660 10663 10666 10668 10671 10674 10677 10680 10683 10686 10688 10691 10694 10697 10700 10703 10706 10709 10712 10715 10718 10721 10724 10727 10730 10733 10735 10738 10741 10743 10746 10748 10751 10754 10757 10760 10763 10765 10767 10770 10773 10776 10779 10781 10783 10786 10789 10792 10795 10798 10801 10804 10807 10810 10813 10815 10818 10821 10824 10827 10830 10833 10836 10839 10842 10844 10847 10850 10852 10854 10856 10859 10862 10864 10867 10870 10873 10875 10878 10881 10884 10887 10889 10892 10895 10898 10900 10903 10906 10909 10912 10915 10918 10921 10923 10926 10929 10932 10934 10937 10940 10943 10946 10949 10952 10955 10958 10961 10964 10967 10970 10973 10976 10978 10981 10984 10987 10989 10992 10995 10998 11001 11004 11007 11009 11012 11015 11018 11021 11024 11027 11030 11033 11035 11038 11041 11044 11047 11050 11053 11056 11059 11062 11065 11068 11071 11074 11077 11080 11083 11086 11089 11092 11095 11098 11101 11104 11106 11109 11112 11114 11117 11120 11122 11124 11127 11130 11132 11135 11138 11141 11144 11147 11150 11153 11156 11158 11161 11164 11167 11170 11173 11176 11179 11182 11185 11188 11190 11193 11196 11199 11202 11205 11208 11211 11214 11217 11220 11223 11226 11229 11232 11235 11238 11241 11244 11247 11250 11253 11256 11259 11262 11265 11268 11271 11273 11276 11278 11281 11284 11287 11290 11293 11295 11298 11301 11303 11306 11309 11311 11314 11317 11320 11323 11326 11329 11332 11335 11338 11341 11344 11346 11349 11352 11355 11357 11360 11363 11366 11369 11372 11375 11378 11381 11384 11387 11389 11392 11395 11398 11401 11404 11407 11409 11412 11415 11418 11421 11424 11427 11430 11433 11435 11438 11441 11444 11447 11449 11452 11455 11458 11461 11464 11467 11470 11473 11476 11479 11482 11485 11488 11491 11494 11497 11500 11503 11506 11509 11511 11514 11517 11520 11523 11525 11528 11531 11534 11537 11540 11543 11546 11549 11552 11555 11558 11561 11564 11566 11569 11572 11575 11578 11580 11583 11586 11589 11592 11595 11597 11599 11602 11605 11608 11611 11613 11616 11619 11622 11625 11628 11631 11634 11637 11640 11643 11646 11649 11652 11655 11658 11661 11664 11667 11670 11673 11676 11679 11682 11685 11688 11691 11694 11696 11699 11702 11705 11708 11710 11713 11716 11719 11722 11725 11727 11730 11733 11736 11738 11741 11744 11747 11750 11753 11756 11759 11762 11764 11767 11770 11773 11776 11779 11782 11784 11787 11790 11793 11796 11798 11801 11804 11807 11810 11813 11816 11819 11822 11825 11828 11831 11833 11836 11839 11842 11845 11848 11851 11854 11857 11859 11862 11865 11868 11871 11873 11876 11879 11882 11885 11887 11890 11893 11896 11898 11901 11904 11907 11910 11913 11916 11919 11922 11925 11927 11930 11932 11935 11938 11941 11944 11946 11949 11951 11954 11957 11960 11963 11966 11968 11971 11974 11976 11979 11982 11984 11987 11990 11992 11995 11998 12000 12002 12004 12007 12009 12012 12014 12017 12020 12023 12025 12028 12031 12033 12035 12038 12040 12043 12045 12048 12051 12054 12057 12060 12063 12066 12069 12072 12075 12078 12081 12084 12087 12090 12093 12096 12099 12102 12105 12108 12111 12114 12117 12119 12122 12125 12128 12131 12134 12137 12140 12143 12146 12149 12152 12155 12158 12161 12164 12167 12170 12173 12176 12179 12182 12184 12187 12190 12193 12196 12199 12202 12205 12208 12211 12214 12217 12220 12223 12226 12229 12232 12235 12238 12241 12244 12247 12250 12253 12256 12259 12262 12265 12268 12270 12273 12275 12278 12281 12284 12287 12290 12293 12296 12299 12302 12305 12308 12311 12314 12317 12320 12323 12326 12329 12332 12335 12338 12341 12344 12346 12349 12352 12354 12357 12360 12363 12365 12368 12371 12374 12376 12379 12382 12385 12388 12391 12394 12397 12400 12403 12406 12409 12412 12415 12418 12421 12424 12426 12429 12431 12433 12435 12438 12441 12444 12447 12449 12452 12455 12457 12459 12462 12465 12468 12470 12472 12475 12478 12481 12484 12487 12490 12493 12496 12498 12500 12503 12506 12509 12511 12514 12516 12519 12522 12525 12527 12530 12533 12536 12539 12541 12544 12546 12549 12552 12555 12558 12561 12564 12567 12570 12573 12576 12579 12582 12585 12587 12590 12593 12595 12598 12600 12603 12605 12607 12610 12613 12616 12619 12622 12624 12626 12629 12632 12635 12638 12640 12643 12646 12649 12652 12655 12658 12660 12663 12665 12668 12671 12674 12676 12679 12682 12684 12687 12690 12693 12696 12699 12702 12704 12707 12709 12712 12715 12718 12721 12723 12726 12729 12732 12735 12738 12741 12744 12746 12749 12752 12755 12758 12761 12764 12766 12769 12772 12774 12777 12780 12782 12785 12788 12791 12794 12797 12800 12803 12806 12809 12812 12815 12818 12821 12823 12826 12829 12832 12835 12838 12841 12844 12846 12848 12851 12854 12857 12860 12862 12865 12868 12871 12874 12877 12880 12883 12885 12888 12891 12893 12896 12898 12901 12903 12905 12908 12911 12914 12917 12920 12923 12926 12928 12931 12934 12937 12940 12942 12945 12947 12950 12953 12955 12958 12961 12964 12967 12970 12973 12976 12979 12982 12985 12988 12991 12994 12997 13000 13003 13006 13009 13012 13015 13018 13020 13023 13026 13029 13032 13035 13038 13041 13044 13047 13049 13052 13055 13058 13061 13064 13067 13069 13072 13075 13078 13081 13084 13087 13090 13093 13096 13099 13102 13105 13108 13111 13114 13117 13119 13122 13125 13128 13131 13134 13136 13139 13142 13145 13148 13151 13154 13157 13160 13163 13166 13169 13172 13175 13178 13181 13184 13187 13190 13193 13196 13199 13201 13204 13207 13210 13213 13216 13218 13221 13224 13227 13230 13233 13236 13239 13242 13244 13247 13250 13253 13256 13259 13262 13265 13268 13271 13274 13277 13280 13282 13285 13288 13291 13294 13296 13299 13302 13305 13308 13310 13313 13316 13319 13322 13325 13328 13331 13334 13337 13340 13343 13346 13348 13351 13354 13357 13360 13363 13366 13369 13372 13375 13378 13381 13384 13387 13390 13393 13396 13399 13401 13403 13406 13409 13412 13414 13417 13419 13422 13424 13427 13430 13432 13435 13438 13441 13444 13447 13450 13452 13455 13457 13460 13463 13466 13469 13472 13474 13477 13479 13482 13485 13488 13491 13494 13497 13500 13503 13506 13509 13512 13515 13518 13521 13524 13527 13530 13533 13535 13538 13541 13544 13547 13550 13552 13555 13558 13561 13564 13567 13570 13573 13576 13579 13582 13585 13588 13591 13594 13597 13599 13602 13605 13607 13610 13613 13616 13619 13621 13624 13627 13629 13631 13634 13637 13640 13642 13645 13647 13649 13652 13655 13657 13660 13662 13665 13667 13670 13673 13675 13678 13680 13683 13685 13688 13691 13694 13697 13700 13702 13705 13708 13711 13714 13717 13720 13723 13725 13727 13730 13733 13736 13738 13741 13743 13746 13749 13752 13755 13758 13761 13764 13766 13769 13772 13775 13778 13781 13783 13786 13789 13792 13795 13798 13800 13802 13805 13808 13811 13814 13817 13820 13823 13826 13829 13832 13835 13838 13841 13844 13847 13850 13853 13856 13859 13862 13865 13868 13871 13874 13877 13880 13883 13885 13888 13891 13893 13895 13898 13901 13904 13907 13909 13912 13915 13917 13920 13923 13926 13929 13932 13935 13938 13941 13944 13947 13949 13952 13955 13958 13960 13963 13966 13969 13971 13974 13976 13979 13982 13985 13988 13991 13994 13996 13999 14001 14004 14007 14010 14013 14016 14019 14021 14024 14027 14030 14033 14035 14037 14039 14042 14044 14047 14050 14053 14056 14059 14062 14065 14067 14070 14073 14076 14079 14082 14085 14088 14091 14094 14097 14100 14102 14105 14108 14111 14114 14116 14119 14122 14124 14127 14130 14132 14135 14137 14140 14142 14145 14147 14149 14152 14155 14157 14160 14162 14165 14168 14171 14174 14177 14180 14183 14185 14188 14191 14194 14197 14200 14203 14206 14209 14212 14214 14217 14220 14222 14225 14228 14231 14234 14237 14240 14243 14246 14249 14251 14254 14257 14259 14262 14265 14268 14271 14274 14277 14280 14283 14286 14289 14292 14295 14298 14301 14304 14307 14310 14313 14316 14319 14322 14325 14328 14331 14334 14337 14340 14343 14346 14349 14352 14355 14358 14361 14364 14367 14370 14373 14376 14379 14382 14385 14388 14391 14393 14395 14398 14401 14404 14407 14410 14413 14416 14418 14421 14424 14427 14429 14432 14435 14438 14441 14443 14446 14449 14451 14454 14457 14460 14463 14466 14469 14472 14475 14478 14481 14484 14487 14490 14493 14496 14499 14502 14505 14508 14511 14514 14517 14520 14523 14526 14529 14531 14534 14536 14539 14542 14545 14548 14550 14552 14554 14557 14560 14563 14566 14569 14571 14574 14576 14579 14582 14585 14588 14591 14594 14597 14600 14603 14606 14609 14612 14615 14618 14621 14624 14627 14630 14633 14635 14638 14641 14643 14646 14649 14652 14655 14658 14661 14664 14667 14670 14673 14676 14679 14682 14685 14688 14691 14694 14697 14700 14703 14706 14709 14711 14714 14717 14720 14723 14725 14727 14729 14732 14735 14738 14741 14744 14747 14749 14752 14755 14758 14761 14764 14767 14770 14773 14776 14779 14782 14785 14788 14791 14794 14797 14799 14802 14805 14808 14811 14813 14816 14819 14822 14825 14828 14831 14834 14837 14839 14842 14845 14848 14851 14854 14857 14860 14863 14865 14868 14870 14873 14876 14878 14881 14883 14886 14889 14891 14894 14897 14899 14902 14904 14907 14910 14913 14916 14919 14921 14924 14927 14930 14933 14936 14938 14941 14944 14947 14950 14953 14956 14959 14962 14964 14967 14970 14973 14976 14979 14981 14984 14987 14989 14991 14994 14996 14999 15002 15005 15008 15011 15014 15017 15020 15023 15025 15028 15031 15034 15036 15039 15042 15045 15047 15050 15053 15055 15058 15061 15064 15067 15070 15073 15076 15079 15082 15085 15088 15091 15094 15097 15100 15103 15106 15109 15112 15114 15116 15119 15121 15124 15127 15130 15133 15136 15139 15142 15144 15147 15150 15153 15156 15159 15161 15164 15166 15169 15172 15175 15178 15181 15184 15187 15190 15193 15196 15199 15202 15205 15208 15211 15214 15217 15220 15223 15226 15229 15232 15235 15238 15240 15243 15245 15248 15251 15254 15257 15260 15263 15265 15267 15270 15273 15276 15278 15281 15284 15287 15289 15292 15295 15298 15300 15303 15305 15308 15311 15314 15317 15320 15323 15326 15329 15332 15335 15338 15341 15344 15346 15349 15352 15355 15358 15360 15363 15366 15369 15372 15375 15378 15381 15384 15387 15390 15393 15396 15399 15401 15404 15407 15410 15413 15416 15419 15422 15425 15428 15430 15433 15436 15438 15440 15443 15446 15449 15452 15455 15457 15460 15463 15466 15469 15472 15475 15478 15480 15483 15486 15489 15492 15495 15498 15501 15503 15506 15509 15512 15515 15518 15521 15523 15525 15528 15530 15533 15536 15539 15542 15545 15548 15550 15553 15555 15558 15560 15563 15566 15569 15572 15574 15577 15579 15582 15584 15587 15590 15593 15596 15599 15602 15605 15608 15611 15614 15617 15620 15623 15626 15629 15632 15635 15637 15640 15643 15646 15649 15651 15654 15657 15660 15663 15666 15668 15671 15673 15676 15679 15682 15685 15688 15691 15694 15697 15700 15703 15705 15708 15711 15714 15717 15720 15723 15726 15729 15732 15735 15738 15740 15743 15746 15749 15752 15755 15758 15761 15764 15767 15770 15773 15776 15779 15782 15785 15787 15789 15792 15795 15797 15800 15803 15805 15807 15810 15813 15816 15819 15821 15824 15827 15830 15833 15836 15839 15841 15843 15846 15849 15852 15854 15857 15860 15863 15865 15868 15870 15873 15876 15879 15881 15884 15887 15889 15892 15895 15898 15900 15903 15906 15909 15912 15915 15918 15921 15924 15927 15930 15933 15936 15939 15942 15945 15948 15951 15954 15957 15959 15962 15965 15968 15971 15974 15977 15980 15983 15985 15988 15991 15994 15997 16000 16003 16006 16008 16011 16014 16017 16020 16023 16026 16029 16032 16035 16038 16041 16044 16047 16050 16053 16056 16059 16062 16065 16068 16071 16074 16077 16080 16083 16086 16089 16092 16095 16098 16101 16104 16107 16110 16113 16116 16119 16122 16125 16128 16131 16134 16137 16140 16143 16146 16149 16152 16155 16158 16161 16164 16167 16170 16173 16176 16179 16182 16185 16188 16191 16194 16197 16200 16203 16206 16209 16212 16215 16218 16221 16224 16226 16229 16232 16235 16238 16241 16244 16247 16249 16252 16255 16258 16261 16264 16267 16270 16272 16275 16278 16281 16284 16287 16290 16293 16296 16299 16302 16305 16308 16311 16314 16317 16320 16323 16326 16329 16332 16335 16338 16341 16344 16347 16350 16353 16356 16359 16362 16365 16368 16371 16373 16376 16379 16381 16384 16387 16390 16392 16395 16398 16401 16404 16407 16410 16413 16416 16419 16422 16425 16428 16430 16433 16436 16439 16442 16445 16448 16451 16454 16457 16460 16463 16466 16469 16472 16475 16478 16481 16484 16487 16490 16493 16496 16499 16502 16505 16508 16511 16514 16517 16520 16523 16526 16529 16532 16535 16538 16541 16544 16547 16550 16552 16555 16558 16561 16564 16567 16570 16573 16576 16579 16582 16585 16588 16591 16594 16597 16600 16603 16606 16609 16611 16614 16617 16620 16623 16625 16628 16631 16633 16636 16639 16642 16645 16648 16651 16654 16657 16660 16663 16666 16669 16672 16675 16678 16681 16684 16686 16689 16691 16694 16697 16700 16703 16705 16708 16711 16714 16717 16720 16723 16726 16729 16732 16735 16738 16741 16744 16747 16750 16753 16756 16759 16762 16765 16768 16771 16774 16777 16780 16783 16786 16789 16792 16795 16798 16801 16804 16807 16810 16813 16816 16819 16822 16825 16828 16831 16834 16837 16840 16843 16846 16849 16852 16855 16858 16861 16864 16867 16870 16873 16876 16879 16882 16885 16888 16891 16894 16897 16900 16903 16906 16909 16912 16915 16918 16921 16924 16927 16930 16933 16936 16939 16942 16945 16948 16951 16954 16957 16960 16963 16966 16969 16972 16975 16978 16981 16984 16987 16990 16993 16996 16999 17002 17005 17008 17011 17014 17017 17020 17023 17026 17029 17032 17035 17038 17040 17043 17046 17048 17051 17054 17056 17059 17062 17065 17067 17070 17073 17076 17079 17082 17084 17087 17090 17093 17096 17099 17102 17105 17108 17111 17113 17116 17119 17122 17125 17128 17131 17134 17137 17140 17142 17145 17148 17151 17154 17157 17160 17163 17166 17169 17172 17175 17178 17181 17184 17187 17190 17193 17196 17199 17202 17205 17208 17211 17214 17217 17220 17223 17226 17229 17232 17235 17238 17240 17243 17246 17249 17252 17255 17258 17261 17264 17267 17270 17273 17276 17279 17282 17285 17288 17291 17294 17297 17300 17303 17306 17309 17312 17315 17318 17321 17324 17327 17330 17333 17336 17339 17342 17345 17348 17351 17354 17357 17360 17363 17366 17369 17372 17375 17378 17380 17383 17386 17388 17391 17394 17397 17400 17403 17406 17409 17412 17415 17418 17421 17424 17427 17430 17432 17435 17438 17441 17443 17446 17449 17452 17455 17458 17461 17464 17467 17470 17473 17476 17479 17482 17485 17488 17491 17494 17497 17500 17503 17506 17509 17512 17515 17518 17521 17524 17527 17530 17533 17536 17539 17542 17545 17548 17551 17554 17557 17560 17563 17566 17569 17572 17575 17578 17581 17584 17587 17590 17593 17596 17599 17602 17605 17608 17611 17614 17617 17620 17623 17626 17629 17632 17635 17637 17640 17643 17646 17649 17652 17655 17658 17661 17664 17667 17670 17673 17675 17678 17681 17684 17687 17690 17692 17694 17697 17700 17703 17706 17708 17711 17713 17715 17718 17720 17723 17726 17728 17731 17733 17736 17739 17742 17745 17748 17751 17754 17756 17759 17762 17765 17768 17771 17773 17776 17779 17782 17785 17787 17790 17793 17796 17798 17801 17803 17806 17809 17812 17815 17818 17821 17823 17826 17829 17832 17835 17838 17841 17844 17847 17850 17853 17856 17858 17861 17864 17867 17870 17873 17876 17878 17881 17884 17887 17890 17893 17896 17899 17902 17905 17908 17911 17914 17916 17919 17922 17924 17927 17930 17932 17935 17938 17941 17944 17947 17950 17953 17956 17959 17962 17965 17968 17971 17974 17977 17980 17982 17985 17988 17991 17994 17997 17999 18002 18005 18008 18011 18014 18017 18020 18023 18026 18029 18032 18035 18038 18041 18044 18046 18049 18052 18055 18058 18061 18064 18067 18070 18073 18076 18078 18081 18084 18087 18090 18093 18096 18099 18101 18104 18107 18110 18113 18116 18119 18121 18124 18127 18130 18133 18136 18139 18142 18145 18148 18151 18154 18157 18160 18163 18166 18169 18172 18175 18178 18181 18184 18187 18190 18193 18196 18199 18202 18205 18208 18211 18214 18217 18220 18223 18226 18229 18232 18235 18238 18241 18244 18247 18250 18253 18256 18259 18262 18265 18268 18271 18274 18277 18280 18282 18285 18288 18291 18294 18297 18300 18303 18306 18309 18312 18315 18318 18321 18324 18327 18330 18333 18336 18339 18342 18345 18348 18351 18354 18357 18360 18363 18366 18368 18371 18374 18377 18380 18383 18386 18389 18392 18395 18397 18400 18403 18406 18409 18412 18415 18417 18419 18422 18425 18428 18431 18434 18437 18440 18443 18446 18449 18452 18455 18457 18460 18463 18466 18468 18470 18473 18476 18479 18482 18485 18488 18491 18494 18497 18500 18503 18506 18509 18512 18515 18518 18520 18522 18525 18528 18531 18534 18537 18539 18542 18545 18547 18550 18553 18556 18559 18562 18564 18567 18570 18573 18576 18578 18581 18584 18587 18590 18593 18596 18599 18602 18605 18607 18610 18613 18616 18619 18622 18625 18628 18631 18634 18637 18640 18643 18646 18649 18652 18655 18658 18661 18664 18667 18670 18673 18675 18678 18681 18684 18687 18690 18693 18695 18698 18701 18704 18707 18710 18713 18716 18719 18722 18725 18728 18731 18733 18736 18739 18742 18744 18747 18749 18752 18755 18758 18761 18764 18767 18769 18772 18775 18778 18781 18784 18786 18789 18792 18795 18798 18801 18804 18807 18810 18813 18816 18819 18821 18823 18826 18829 18832 18835 18838 18841 18844 18847 18850 18853 18856 18858 18861 18864 18867 18870 18873 18876 18879 18882 18885 18888 18891 18894 18896 18899 18902 18905 18908 18911 18914 18917 18920 18922 18925 18928 18930 18933 18936 18939 18942 18944 18946 18949 18952 18955 18958 18960 18962 18965 18968 18971 18974 18977 18980 18983 18986 18989 18992 18995 18998 19001 19004 19007 19010 19013 19016 19019 19022 19025 19028 19030 19033 19036 19039 19042 19045 19048 19051 19054 19056 19059 19061 19064 19067 19070 19073 19076 19079 19082 19085 19088 19091 19094 19097 19100 19102 19105 19108 19111 19114 19117 19120 19122 19125 19128 19130 19132 19134 19137 19140 19143 19146 19149 19152 19155 19157 19159 19162 19165 19168 19171 19174 19176 19179 19181 19183 19185 19188 19191 19193 19196 19199 19202 19205 19208 19211 19213 19216 19219 19222 19224 19227 19230 19233 19236 19239 19242 19244 19247 19250 19253 19256 19259 19262 19265 19268 19271 19274 19277 19280 19283 19286 19289 19292 19295 19298 19301 19304 19307 19310 19313 19316 19319 19322 19325 19328 19331 19334 19337 19340 19343 19346 19349 19352 19355 19358 19361 19363 19366 19369 19372 19375 19378 19381 19384 19387 19390 19393 19396 19399 19402 19404 19407 19410 19413 19416 19419 19422 19425 19428 19431 19434 19437 19440 19443 19446 19449 19452 19455 19458 19461 19464 19467 19470 19473 19476 19479 19482 19485 19488 19491 19494 19497 19500 19503 19506 19509 19512 19515 19518 19521 19524 19527 19530 19533 19536 19539 19542 19545 19548 19551 19554 19557 19560 19563 19566 19569 19572 19575 19578 19581 19584 19587 19590 19593 19596 19599 19602 19605 19608 19611 19614 19617 19620 19623 19626 19629 19631 19634 19637 19640 19643 19645 19647 19650 19653 19656 19659 19662 19665 19668 19670 19672 19675 19678 19681 19684 19687 19689 19692 19695 19697 19700 19703 19706 19709 19712 19715 19717 19720 19723 19726 19729 19732 19735 19738 19741 19744 19747 19749 19752 19755 19758 19761 19764 19767 19770 19773 19776 19779 19782 19784 19787 19790 19792 19795 19798 19801 19803 19806 19809 19812 19815 19817 19820 19823 19826 19829 19832 19835 19838 19841 19844 19847 19850 19853 19856 19859 19862 19865 19868 19871 19874 19877 19880 19883 19886 19889 19892 19895 19898 19901 19904 19907 19910 19913 19916 19919 19922 19925 19928 19931 19934 19937 19940 19943 19946 19949 19952 19955 19958 19961 19964 19967 19970 19973 19976 19979 19982 19985 19988 19991 19994 19997 20000 20003 20006 20009 20012 20015 20018 20021 20024 20027 20030 20033 20036 20039 20042 20045 20048 20051 20053 20056 20059 20062 20065 20067 20070 20073 20076 20079 20081 20084 20087 20089 20092 20095 20098 20101 20104 20106 20109 20112 20115 20118 20121 20124 20126 20129 20132 20135 20138 20140 20143 20146 20149 20152 20155 20158 20161 20164 20167 20170 20173 20176 20179 20182 20184 20187 20189 20192 20195 20198 20201 20204 20207 20210 20213 20216 20219 20222 20225 20228 20231 20234 20237 20240 20243 20246 20249 20251 20254 20257 20260 20262 20265 20268 20271 20274 20277 20280 20283 20286 20289 20292 20295 20298 20301 20304 20307 20310 20313 20315 20318 20321 20324 20327 20330 20332 20335 20338 20341 20344 20346 20349 20352 20354 20357 20360 20363 20366 20369 20372 20375 20378 20381 20384 20386 20389 20392 20395 20398 20401 20404 20407 20410 20413 20416 20418 20421 20424 20426 20429 20432 20434 20437 20440 20442 20445 20448 20451 20454 20457 20460 20463 20466 20469 20472 20474 20477 20480 20482 20484 20487 20490 20493 20496 20499 20502 20505 20508 20511 20514 20517 20520 20523 20526 20529 20532 20535 20538 20541 20544 20547 20550 20553 20556 20559 20562 20565 20568 20571 20573 20576 20579 20582 20585 20588 20591 20594 20597 20599 20602 20605 20607 20610 20613 20616 20619 20621 20624 20627 20630 20633 20636 20638 20641 20644 20647 20650 20653 20656 20659 20661 20664 20667 20670 20673 20676 20679 20682 20685 20687 20690 20693 20696 20699 20702 20705 20708 20711 20714 20717 20720 20723 20726 20729 20732 20735 20738 20741 20744 20747 20750 20753 20756 20759 20762 20765 20768 20771 20774 20777 20780 20783 20786 20789 20792 20795 20798 20801 20804 20807 20810 20813 20816 20819 20822 20825 20828 20831 20834 20837 20840 20843 20846 20849 20852 20854 20857 20860 20863 20865 20868 20871 20874 20877 20880 20883 20885 20888 20890 20893 20896 20898 20901 20904 20907 20909 20912 20915 20918 20921 20924 20927 20930 20933 20935 20938 20941 20943 20946 20949 20952 20955 20958 20961 20964 20967 20970 20972 20975 20978 20981 20984 20987 20990 20993 20996 20999 21002 21005 21008 21011 21014 21017 21020 21023 21026 21029 21032 21035 21038 21041 21044 21047 21049 21052 21055 21058 21060 21063 21066 21069 21072 21075 21078 21080 21083 21085 21088 21091 21093 21096 21099 21102 21104 21107 21110 21113 21115 21117 21120 21123 21126 21128 21130 21133 21136 21139 21142 21145 21148 21151 21153 21155 21158 21161 21163 21166 21168 21171 21174 21177 21180 21183 21186 21189 21191 21194 21197 21200 21203 21206 21208 21211 21214 21217 21220 21223 21226 21229 21232 21235 21237 21240 21243 21245 21248 21251 21254 21257 21260 21263 21266 21269 21271 21274 21277 21280 21283 21286 21288 21291 21294 21297 21300 21303 21306 21309 21312 21315 21318 21320 21323 21326 21329 21331 21334 21337 21340 21343 21346 21349 21352 21355 21358 21361 21364 21367 21369 21372 21375 21378 21381 21383 21386 21388 21391 21393 21396 21399 21402 21405 21408 21411 21414 21417 21420 21423 21426 21429 21432 21435 21438 21441 21444 21446 21449 21452 21455 21457 21460 21462 21465 21467 21469 21472 21475 21478 21481 21484 21487 21490 21492 21494 21497 21500 21503 21505 21508 21510 21513 21516 21519 21522 21525 21528 21531 21534 21537 21540 21543 21545 21548 21550 21553 21556 21559 21561 21564 21567 21570 21573 21576 21579 21582 21585 21588 21591 21593 21595 21598 21601 21604 21607 21609 21612 21615 21618 21621 21623 21626 21629 21632 21635 21638 21641 21643 21646 21649 21652 21654 21657 21659 21662 21665 21668 21671 21673 21676 21679 21682 21685 21688 21691 21694 21697 21699 21702 21705 21708 21711 21714 21717 21720 21723 21726 21729 21732 21735 21738 21741 21744 21747 21749 21752 21755 21757 21760 21762 21765 21768 21771 21774 21777 21780 21783 21786 21788 21791 21794 21797 21800 21803 21805 21808 21811 21814 21817 21820 21822 21825 21828 21831 21834 21837 21840 21843 21846 21848 21851 21854 21857 21860 21863 21866 21868 21870 21873 21876 21879 21882 21885 21888 21891 21894 21896 21899 21902 21905 21908 21911 21914 21916 21919 21922 21924 21927 21930 21932 21935 21938 21941 21944 21947 21950 21953 21956 21959 21962 21965 21968 21971 21974 21977 21980 21983 21986 21989 21992 21995 21998 22001 22004 22007 22010 22013 22016 22019 22022 22025 22028 22031 22034 22037 22040 22043 22046 22049 22052 22055 22058 22061 22064 22067 22070 22073 22076 22079 22082 22085 22088 22091 22094 22097 22100 22103 22106 22109 22112 22115 22118 22120 22123 22126 22129 22132 22135 22138 22141 22144 22147 22150 22153 22156 22159 22162 22165 22168 22171 22174 22177 22180 22183 22186 22189 22192 22195 22198 22201 22204 22207 22210 22213 22216 22219 22222 22225 22228 22231 22234 22237 22240 22243 22246 22249 22252 22255 22258 22261 22264 22267 22270 22273 22276 22279 22282 22285 22288 22291 22294 22297 22300 22303 22306 22309 22312 22315 22318 22321 22324 22327 22330 22333 22336 22339 22342 22345 22348 22351 22354 22356 22359 22362 22365 22367 22370 22373 22376 22379 22382 22384 22386 22389 22392 22394 22397 22400 22403 22406 22409 22412 22414 22416 22419 22422 22425 22428 22431 22434 22437 22440 22443 22446 22449 22452 22455 22458 22461 22464 22467 22469 22472 22475 22478 22481 22484 22487 22490 22493 22496 22499 22502 22505 22508 22511 22514 22516 22518 22521 22524 22527 22530 22533 22536 22539 22542 22545 22548 22551 22554 22557 22560 22563 22566 22569 22572 22575 22577 22580 22583 22586 22589 22592 22595 22598 22601 22604 22607 22610 22613 22616 22619 22622 22624 22627 22630 22633 22635 22637 22639 22642 22644 22647 22650 22653 22655 22657 22660 22663 22665 22668 22671 22673 22676 22679 22682 22685 22687 22690 22693 22695 22697 22700 22703 22706 22709 22712 22715 22717 22720 22723 22726 22729 22732 22735 22738 22741 22744 22747 22750 22752 22755 22758 22761 22764 22767 22770 22773 22776 22779 22782 22785 22788 22791 22794 22797 22800 22803 22806 22809 22811 22814 22816 22819 22822 22825 22828 22831 22834 22837 22840 22843 22846 22849 22852 22855 22858 22861 22864 22867 22870 22873 22876 22879 22881 22884 22887 22890 22893 22896 22899 22902 22905 22908 22911 22914 22917 22920 22923 22926 22929 22931 22934 22936 22939 22942 22944 22947 22950 22953 22956 22959 22962 22965 22968 22971 22974 22977 22980 22983 22986 22988 22991 22994 22997 23000 23003 23006 23009 23012 23015 23018 23021 23023 23026 23029 23032 23035 23038 23041 23044 23047 23050 23053 23056 23059 23061 23064 23067 23070 23073 23076 23079 23082 23085 23088 23091 23094 23097 23100 23102 23105 23108 23111 23114 23117 23120 23123 23126 23129 23132 23135 23138 23141 23144 23147 23150 23153 23156 23159 23162 23165 23168 23171 23173 23176 23179 23182 23185 23187 23190 23193 23196 23199 23202 23205 23208 23211 23214 23217 23220 23222 23225 23228 23231 23234 23237 23240 23243 23246 23249 23252 23255 23258 23261 23264 23267 23270 23273 23276 23279 23282 23285 23288 23290 23293 23296 23299 23302 23304 23307 23310 23313 23316 23319 23322 23325 23328 23331 23334 23337 23340 23343 23346 23348 23351 23353 23356 23359 23362 23364 23367 23370 23373 23376 23378 23380 23383 23386 23389 23392 23395 23398 23401 23404 23407 23410 23413 23416 23418 23421 23424 23426 23429 23432 23435 23438 23441 23444 23447 23450 23453 23456 23459 23462 23465 23468 23471 23474 23477 23480 23483 23486 23489 23492 23495 23498 23501 23504 23507 23510 23513 23516 23519 23522 23525 23528 23530 23533 23536 23539 23542 23544 23547 23550 23553 23556 23559 23561 23564 23567 23570 23572 23575 23578 23581 23584 23586 23589 23592 23595 23598 23600 23603 23606 23609 23611 23614 23617 23620 23623 23626 23629 23631 23634 23637 23640 23643 23646 23649 23652 23654 23656 23659 23662 23665 23668 23671 23674 23677 23679 23682 23685 23688 23691 23693 23696 23699 23702 23705 23707 23710 23713 23716 23719 23722 23725 23728 23731 23734 23737 23740 23743 23746 23749 23752 23755 23758 23761 23764 23767 23770 23772 23775 23778 23781 23784 23787 23790 23793 23796 23799 23802 23805 23808 23811 23814 23816 23818 23821 23824 23827 23830 23832 23834 23837 23840 23842 23845 23848 23851 23854 23857 23860 23863 23866 23869 23872 23875 23878 23881 23883 23886 23889 23892 23895 23898 23901 23904 23906 23909 23912 23915 23917 23920 23923 23926 23929 23932 23934 23937 23940 23943 23946 23949 23952 23955 23958 23961 23964 23967 23970 23973 23976 23979 23982 23985 23987 23990 23993 23996 23999 24002 24005 24008 24011 24014 24017 24020 24023 24026 24029 24032 24035 24038 24040 24043 24046 24049 24051 24054 24057 24060 24063 24066 24069 24072 24075 24078 24081 24084 24087 24090 24093 24096 24099 24102 24105 24108 24111 24114 24117 24120 24123 24126 24129 24132 24135 24138 24141 24144 24147 24150 24153 24156 24159 24162 24165 24168 24171 24174 24177 24180 24183 24186 24189 24192 24195 24197 24200 24203 24206 24209 24212 24214 24217 24220 24223 24226 24229 24232 24235 24238 24240 24243 24246 24248 24251 24254 24257 24260 24263 24266 24269 24272 24275 24278 24280 24283 24285 24287 24290 24293 24296 24298 24301 24304 24307 24310 24313 24315 24317 24320 24323 24326 24329 24332 24335 24338 24341 24344 24347 24350 24353 24356 24359 24362 24364 24367 24370 24373 24376 24378 24380 24383 24386 24389 24392 24395 24398 24401 24404 24407 24410 24413 24416 24419 24421 24424 24427 24430 24433 24436 24439 24442 24445 24448 24451 24454 24457 24460 24463 24466 24469 24472 24475 24478 24481 24484 24487 24490 24493 24496 24499 24502 24505 24508 24511 24514 24517 24520 24523 24526 24529 24531 24534 24537 24540 24543 24546 24549 24552 24555 24558 24561 24564 24567 24570 24573 24576 24579 24582 24585 24588 24591 24594 24596 24599 24602 24605 24608 24610 24613 24616 24619 24622 24625 24628 24631 24634 24637 24639 24642 24644 24647 24650 24653 24656 24658 24661 24664 24667 24669 24672 24675 24678 24681 24683 24685 24687 24690 24692 24695 24698 24701 24703 24706 24708 24711 24714 24717 24720 24722 24725 24728 24731 24734 24736 24739 24742 24744 24747 24750 24753 24756 24758 24761 24764 24767 24770 24773 24776 24779 24782 24785 24788 24791 24794 24797 24800 24803 24806 24809 24812 24815 24817 24820 24823 24826 24829 24832 24835 24838 24841 24844 24847 24850 24853 24856 24859 24862 24865 24868 24871 24874 24877 24880 24883 24886 24889 24892 24895 24898 24901 24904 24907 24910 24913 24916 24919 24922 24925 24928 24931 24934 24937 24940 24943 24946 24949 24952 24955 24958 24961 24964 24967 24970 24973 24976 24979 24981 24984 24987 24990 24992 24994 24997 25000 25002 25004 25007 25009 25011 25014 25017 25020 25023 25025 25027 25030 25033 25035 25038 25041 25044 25047 25050 25053 25056 25059 25062 25065 25068 25071 25074 25077 25080 25082 25085 25088 25091 25094 25097 25100 25103 25105 25108 25111 25113 25116 25119 25122 25124 25127 25130 25133 25136 25139 25142 25145 25148 25150 25153 25156 25159 25162 25165 25168 25171 25174 25177 25180 25183 25186 25189 25191 25194 25197 25200 25203 25206 25208 25210 25213 25215 25218 25221 25223 25226 25229 25232 25235 25238 25240 25243 25246 25249 25252 25255 25258 25260 25263 25266 25269 25272 25275 25278 25281 25284 25287 25290 25292 25295 25298 25301 25303 25306 25309 25312 25315 25318 25321 25324 25326 25329 25332 25335 25338 25341 25344 25347 25350 25353 25356 25359 25362 25365 25368 25371 25374 25377 25379 25382 25385 25388 25391 25394 25397 25400 25403 25406 25409 25412 25415 25418 25421 25424 25427 25430 25433 25436 25439 25442 25445 25448 25451 25454 25457 25460 25463 25466 25469 25472 25475 25478 25481 25484 25487 25490 25493 25496 25499 25502 25505 25508 25511 25514 25517 25520 25522 25525 25528 25531 25533 25536 25539 25542 25545 25548 25550 25553 25556 25559 25562 25565 25568 25571 25574 25577 25580 25583 25586 25589 25592 25595 25598 25600 25603 25605 25608 25611 25614 25617 25620 25623 25626 25629 25631 25634 25637 25640 25642 25645 25648 25651 25653 25656 25659 25662 25664 25667 25669 25672 25675 25678 25681 25684 25687 25690 25693 25696 25698 25701 25704 25707 25710 25712 25715 25718 25721 25724 25727 25730 25733 25736 25738 25741 25743 25746 25749 25752 25755 25757 25760 25763 25766 25769 25772 25775 25778 25781 25783 25786 25789 25792 25795 25797 25800 25803 25806 25809 25812 25815 25817 25820 25823 25826 25828 25831 25834 25837 25840 25843 25846 25849 25852 25855 25858 25861 25864 25867 25870 25873 25876 25879 25882 25885 25888 25891 25893 25896 25899 25902 25905 25908 25911 25914 25917 25920 25923 25926 25929 25932 25935 25938 25941 25943 25946 25949 25952 25955 25958 25960 25963 25966 25969 25972 25974 25977 25980 25983 25986 25989 25992 25995 25997 26000 26003 26006 26009 26012 26015 26018 26021 26024 26027 26030 26033 26036 26039 26042 26045 26048 26051 26054 26057 26059 26062 26065 26068 26071 26074 26077 26079 26082 26085 26088 26091 26094 26096 26099 26102 26105 26107 26110 26113 26116 26119 26122 26125 26128 26131 26134 26137 26140 26142 26144 26147 26150 26153 26156 26159 26162 26165 26168 26171 26174 26176 26179 26182 26184 26186 26189 26192 26195 26198 26201 26204 26206 26209 26212 26215 26217 26219 26221 26224 26227 26229 26232 26235 26238 26240 26243 26245 26247 26250 26253 26256 26259 26262 26264 26266 26269 26271 26273 26276 26278 26281 26284 26287 26290 26293 26296 26299 26302 26305 26308 26311 26313 26316 26319 26322 26324 26327 26330 26333 26336 26339 26342 26344 26347 26350 26353 26356 26359 26362 26365 26367 26370 26372 26375 26378 26381 26384 26386 26389 26392 26394 26397 26399 26401 26403 26406 26409 26411 26414 26417 26420 26423 26426 26428 26431 26434 26436 26439 26442 26444 26447 26450 26452 26454 26457 26460 26463 26466 26469 26472 26475 26478 26481 26484 26486 26489 26492 26495 26498 26501 26504 26507 26509 26511 26514 26517 26520 26523 26526 26529 26532 26534 26537 26540 26543 26546 26548 26551 26553 26556 26558 26561 26563 26565 26568 26571 26573 26576 26578 26581 26584 26586 26589 26592 26594 26597 26599 26602 26605 26608 26611 26614 26617 26620 26623 26626 26629 26632 26635 26637 26640 26643 26646 26649 26652 26655 26658 26661 26664 26667 26670 26672 26675 26678 26680 26683 26686 26689 26691 26694 26696 26699 26702 26705 26708 26710 26713 26716 26719 26722 26725 26728 26731 26734 26737 26740 26743 26746 26749 26751 26753 26756 26759 26761 26764 26767 26769 26771 26774 26777 26780 26783 26786 26789 26792 26795 26798 26800 26803 26806 26808 26811 26814 26816 26818 26821 26823 26826 26829 26831 26834 26837 26839 26842 26844 26847 26850 26853 26855 26858 26861 26864 26867 26870 26873 26876 26879 26882 26885 26888 26891 26894 26897 26900 26902 26905 26908 26911 26914 26917 26920 26922 26925 26928 26930 26933 26936 26938 26941 26944 26947 26950 26953 26956 26958 26961 26964 26967 26969 26972 26975 26977 26980 26983 26986 26989 26992 26994 26997 27000 27002 27005 27008 27011 27014 27016 27019 27021 27024 27026 27029 27032 27035 27037 27040 27043 27046 27049 27052 27055 27057 27060 27062 27065 27068 27071 27074 27077 27080 27083 27086 27089 27092 27095 27097 27100 27103 27106 27109 27112 27115 27118 27120 27123 27126 27129 27132 27135 27138 27141 27143 27146 27149 27152 27155 27157 27160 27163 27166 27169 27172 27175 27178 27181 27184 27187 27190 27193 27196 27199 27202 27205 27208 27211 27214 27217 27220 27223 27226 27229 27232 27235 27238 27241 27244 27247 27249 27252 27255 27258 27261 27264 27267 27270 27273 27276 27279 27282 27284 27287 27290 27292 27294 27297 27300 27303 27306 27308 27311 27314 27316 27319 27322 27324 27327 27329 27332 27335 27337 27340 27343 27346 27349 27352 27355 27357 27359 27362 27365 27368 27371 27374 27377 27380 27382 27385 27388 27391 27393 27396 27399 27402 27405 27408 27411 27414 27417 27420 27423 27426 27429 27432 27435 27438 27440 27443 27446 27449 27452 27455 27457 27460 27463 27466 27469 27472 27475 27478 27481 27484 27487 27490 27493 27496 27498 27501 27503 27506 27509 27512 27515 27518 27520 27523 27525 27528 27531 27534 27537 27540 27543 27546 27549 27552 27555 27558 27561 27563 27566 27568 27571 27574 27577 27580 27582 27585 27587 27590 27593 27596 27598 27601 27603 27606 27609 27611 27613 27616 27618 27620 27623 27626 27629 27632 27635 27638 27641 27643 27646 27649 27652 27655 27658 27660 27663 27666 27668 27671 27673 27676 27679 27681 27684 27687 27690 27693 27696 27699 27701 27704 27706 27709 27711 27714 27717 27720 27723 27725 27728 27730 27732 27735 27738 27741 27744 27747 27750 27753 27756 27759 27762 27765 27768 27770 27772 27774 27777 27780 27783 27786 27789 27792 27795 27798 27801 27804 27807 27810 27813 27816 27819 27822 27825 27828 27830 27833 27836 27839 27842 27844 27847 27850 27853 27856 27859 27862 27865 27868 27871 27873 27875 27878 27881 27883 27886 27889 27892 27895 27898 27900 27903 27906 27909 27912 27915 27918 27921 27924 27927 27930 27933 27936 27939 27942 27944 27947 27950 27953 27956 27959 27962 27965 27968 27971 27974 27977 27980 27983 27986 27989 27992 27995 27998 28001 28003 28006 28009 28012 28015 28018 28021 28024 28026 28029 28032 28035 28038 28041 28043 28046 28049 28052 28055 28058 28061 28064 28067 28070 28073 28076 28079 28082 28085 28087 28090 28093 28096 28099 28102 28105 28108 28111 28114 28117 28119 28122 28125 28128 28131 28133 28136 28139 28142 28145 28148 28151 28154 28157 28160 28163 28166 28169 28172 28175 28178 28181 28184 28187 28190 28193 28196 28199 28202 28205 28208 28211 28214 28217 28220 28223 28226 28229 28232 28235 28238 28241 28244 28247 28250 28253 28256 28259 28262 28265 28268 28271 28274 28277 28280 28283 28286 28289 28292 28295 28298 28301 28304 28307 28310 28313 28316 28319 28322 28325 28328 28331 28334 28336 28339 28342 28345 28348 28351 28353 28356 28359 28362 28365 28367 28370 28373 28376 28379 28382 28385 28388 28391 28394 28397 28400 28403 28406 28409 28412 28415 28418 28421 28424 28427 28430 28433 28436 28439 28442 28445 28448 28451 28454 28457 28459 28462 28465 28468 28470 28473 28476 28479 28482 28485 28488 28491 28494 28497 28500 28503 28506 28509 28512 28515 28518 28521 28524 28527 28530 28533 28536 28538 28541 28544 28547 28550 28552 28555 28558 28560 28563 28566 28568 28571 28574 28577 28580 28583 28585 28588 28591 28594 28597 28599 28601 28604 28607 28609 28612 28615 28618 28621 28623 28625 28628 28631 28634 28636 28638 28641 28644 28647 28649 28651 28654 28657 28659 28662 28665 28668 28671 28674 28676 28679 28682 28684 28687 28690 28693 28695 28698 28700 28703 28706 28709 28712 28715 28718 28721 28724 28727 28730 28733 28736 28739 28742 28745 28747 28750 28753 28756 28758 28761 28764 28767 28770 28773 28776 28779 28782 28785 28788 28791 28793 28796 28799 28801 28804 28806 28809 28812 28815 28817 28819 28822 28825 28828 28830 28833 28836 28839 28842 28844 28847 28850 28853 28856 28859 28862 28864 28867 28870 28873 28876 28879 28881 28884 28886 28889 28892 28895 28898 28901 28904 28907 28910 28912 28915 28918 28921 28924 28927 28930 28933 28936 28939 28942 28945 28948 28951 28954 28957 28960 28963 28966 28969 28971 28974 28977 28980 28983 28986 28989 28992 28995 28998 29000 29003 29006 29009 29012 29015 29018 29021 29024 29026 29029 29032 29034 29037 29040 29043 29046 29049 29052 29055 29058 29061 29064 29067 29070 29073 29076 29079 29082 29085 29088 29091 29094 29097 29099 29102 29105 29108 29111 29114 29117 29120 29123 29126 29129 29132 29134 29137 29140 29143 29146 29149 29152 29155 29157 29160 29163 29166 29169 29172 29175 29178 29181 29184 29187 29190 29192 29195 29198 29201 29204 29207 29209 29212 29215 29218 29221 29224 29227 29230 29233 29236 29239 29242 29245 29247 29250 29253 29256 29259 29262 29265 29268 29271 29274 29277 29280 29283 29286 29289 29292 29295 29298 29301 29304 29307 29310 29313 29316 29319 29322 29325 29328 29331 29334 29336 29339 29342 29345 29348 29351 29354 29357 29359 29362 29365 29368 29371 29374 29376 29379 29382 29385 29388 29391 29394 29396 29399 29402 29405 29407 29410 29413 29416 29419 29422 29425 29428 29431 29434 29437 29440 29443 29446 29448 29451 29454 29457 29459 29462 29465 29468 29471 29474 29477 29480 29483 29486 29489 29492 29495 29498 29501 29504 29507 29510 29513 29516 29519 29522 29525 29528 29531 29534 29537 29540 29543 29546 29549 29552 29555 29558 29561 29564 29567 29570 29573 29576 29579 29582 29585 29588 29591 29593 29596 29599 29602 29605 29608 29611 29613 29616 29619 29622 29625 29628 29631 29633 29636 29639 29642 29645 29648 29651 29654 29657 29660 29663 29666 29669 29672 29675 29678 29681 29684 29687 29690 29693 29696 29699 29702 29705 29708 29711 29714 29717 29720 29722 29725 29728 29730 29733 29736 29738 29741 29744 29747 29750 29752 29755 29758 29761 29763 29766 29769 29772 29775 29778 29781 29784 29787 29790 29793 29796 29799 29802 29804 29807 29810 29813 29816 29819 29821 29824 29827 29830 29833 29836 29839 29841 29844 29847 29849 29852 29855 29858 29861 29863 29866 29869 29872 29875 29878 29881 29884 29887 29889 29891 29894 29897 29900 29903 29906 29908 29911 29914 29917 29920 29923 29926 29929 29932 29935 29938 29941 29944 29947 29950 29952 29955 29958 29961 29964 29967 29970 29972 29975 29978 29981 29984 29986 29989 29992 29995 29998 30001 30004 30007 30009 30012 30015 30018 30021 30024 30026 30028 30031 30034 30037 30040 30043 30045 30048 30051 30054 30057 30060 30063 30066 30069 30072 30075 30078 30081 30084 30087 30090 30093 30096 30099 30102 30105 30108 30111 30114 30117 30120 30123 30126 30129 30132 30134 30137 30140 30143 30146 30148 30151 30154 30157 30160 30163 30166 30169 30172 30175 30178 30181 30184 30187 30190 30193 30196 30199 30202 30205 30208 30211 30214 30217 30219 30222 30225 30228 30230 30233 30236 30239 30242 30244 30247 30250 30253 30256 30259 30262 30265 30268 30271 30274 30277 30280 30282 30285 30288 30291 30293 30296 30299 30302 30304 30307 30310 30313 30316 30319 30322 30325 30328 30331 30334 30337 30340 30343 30346 30349 30352 30355 30358 30361 30363 30366 30369 30372 30375 30378 30381 30384 30387 30390 30393 30396 30398 30401 30404 30407 30410 30413 30416 30418 30421 30423 30426 30428 30431 30434 30437 30440 30443 30446 30449 30452 30455 30458 30461 30464 30467 30469 30471 30474 30477 30480 30483 30486 30488 30491 30494 30497 30500 30502 30505 30508 30511 30514 30517 30520 30523 30526 30529 30532 30535 30538 30541 30544 30547 30550 30553 30556 30558 30561 30563 30566 30569 30572 30575 30577 30580 30583 30585 30588 30591 30594 30597 30600 30603 30606 30609 30612 30615 30618 30621 30624 30627 30629 30632 30635 30638 30641 30644 30647 30650 30653 30656 30659 30662 30665 30668 30671 30674 30677 30679 30682 30685 30688 30691 30694 30696 30699 30702 30704 30707 30710 30713 30715 30718 30721 30724 30727 30729 30732 30735 30738 30741 30744 30747 30750 30753 30756 30759 30762 30765 30768 30771 30774 30777 30780 30783 30785 30788 30791 30793 30796 30799 30802 30805 30807 30810 30813 30816 30819 30821 30824 30827 30830 30833 30836 30839 30842 30845 30848 30851 30854 30857 30860 30863 30866 30869 30871 30874 30876 30879 30882 30885 30888 30891 30894 30897 30899 30902 30905 30908 30911 30913 30916 30919 30921 30924 30927 30930 30933 30936 30938 30941 30944 30947 30950 30953 30956 30959 30962 30965 30968 30971 30974 30977 30980 30983 30986 30989 30991 30994 30996 30998 31001 31004 31007 31010 31013 31016 31019 31022 31025 31028 31031 31034 31037 31040 31042 31045 31048 31051 31054 31057 31059 31062 31065 31068 31071 31074 31076 31079 31082 31085 31088 31091 31094 31097 31100 31103 31106 31109 31112 31115 31118 31121 31124 31127 31130 31133 31136 31139 31141 31143 31146 31149 31152 31154 31157 31160 31163 31166 31169 31172 31175 31178 31181 31184 31187 31189 31192 31195 31198 31201 31204 31207 31210 31213 31216 31219 31222 31225 31228 31231 31234 31237 31240 31243 31246 31249 31252 31255 31258 31261 31264 31267 31270 31273 31276 31279 31282 31285 31288 31291 31294 31296 31299 31302 31304 31307 31310 31313 31316 31319 31322 31325 31328 31331 31334 31337 31340 31343 31346 31349 31352 31355 31358 31361 31364 31367 31370 31372 31375 31378 31381 31384 31387 31390 31392 31395 31398 31401 31404 31407 31410 31413 31416 31419 31422 31425 31428 31431 31434 31436 31439 31442 31445 31448 31451 31454 31456 31459 31462 31465 31467 31470 31473 31476 31479 31482 31485 31488 31491 31494 31497 31500 31503 31506 31509 31512 31515 31518 31521 31524 31527 31530 31533 31536 31539 31542 31545 31548 31551 31554 31556 31559 31562 31565 31568 31571 31574 31577 31579 31582 31585 31587 31590 31593 31596 31599 31602 31605 31608 31611 
</DataArray>
<DataArray type="UInt32" Name="types" format="ascii">
5 5 5 5 3 5 5 5 5 5 5 5 5 5 5 5 5 5 5 5 5 5 5 5 5 5 5 5 3 5 5 5 5 3 5 5 5 5 5 5 5 5 3 5 5 5 5 3 3 5 5 5 5 5 5 5 3 5 5 3 3 3 5 3 3 3 5 5 5 3 5 5 5 5 5 5 5 5 5 5 5 5 5 5 5 5 5 5 5 5 5 3 5 5 5 5 5 5 3 5 5 3 5 3 5 5 5 5 3 5 5 3 5 5 3 5 5 5 3 5 5 5 5 5 5 5 5 5 5 5 5 5 5 5 5 5 5 5 5 5 5 5 5 5 5 3 5 5 5 3 5 5 5 5 5 5 5 3 5 5 5 5 3 5 5 5 3 5 5 5 5 5 5 5 5 5 5 5 5 3 5 3 5 5 5 3 5 5 5 5 5 5 5 5 5 5 5 5 3 3 5 5 5 5 3 5 3 5 5 5 5 5 5 5 5 5 5 5 5 5 5 5 5 5 5 5 5 5 5 5 5 3 5 5 5 5 5 5 5 5 5 3 5 3 5 5 5 5 5 3 5 5 5 5 5 5 5 3 5 5 5 5 3 5 5 5 5 5 5 5 5 5 3 5 5 5 5 5 5 5 5 3 5 3 5 5 3 5 5 5 5 5 3 5 5 5 5 5 3 5 5 5 5 5 3 5 5 5 5 5 5 5 5 5 5 3 5 3 5 5 5 5 3 5 3 5 5 5 3 5 5 5 3 5 5 5 5 5 5 3 5 5 3 5 5 5 5 5 5 5 5 5 5 5 3 3 5 5 3 5 5 5 5 5 5 5 3 5 5 5 5 5 5 5 3 5 3 5 5 5 5 5 5 5 5 5 5 5 3 5 5 5 5 5 5 3 5 5 5 5 5 5 5 3 5 5 3 5 5 5 3 5 5 5 5 5 5 3 5 5 5 3 5 5 5 3 5 5 3 5 5 5 5 3 3 5 5 3 3 5 5 5 5 3 5 5 5 5 5 5 5 3 5 5 5 5 3 5 5 5 5 5 5 5 3 5 5 5 3 5 3 5 3 5 5 5 5 5 3 5 5 5 3 5 3 5 5 3 5 5 3 5 5 5 5 5 5 5 5 5 5 5 5 5 5 3 5 5 5 5 5 5 3 5 3 5 5 5 5 3 5 5 5 5 3 5 5 5 5 5 5 3 5 5 5 5 5 5 5 3 5 5 5 5 5 3 5 5 5 5 3 5 5 5 5 3 5 5 5 5 5 5 5 3 5 5 5 5 5 5 5 5 5 5 5 3 5 5 5 5 5 5 5 5 3 5 5 5 5 5 5 5 5 5 5 5 5 5 5 5 5 3 5 5 5 5 5 5 5 5 5 5 5 5 5 5 5 5 5 5 5 5 5 5 5 5 5 5 5 5 5 5 5 5 5 5 5 5 5 5 5 5 5 5 5 5 5 5 5 5 5 5 5 5 5 5 5 5 5 5 5 5 3 5 5 3 5 5 5 5 5 5 5 5 5 3 5 5 5 5 3 5 5 5 5 5 5 5 5 5 5 5 5 5 5 5 3 5 5 5 5 5 5 5 5 5 5 5 5 5 5 3 5 5 5 5 5 5 5 5 5 3 3 5 5 5 3 5 5 5 5 5 5 5 5 5 5 5 5 3 5 5 5 5 5 5 5 5 5 5 5 5 5 5 5 5 5 5 5 5 5 5 5 5 5 5 5 5 5 5 5 5 5 5 5 5 5 5 5 5 5 5 5 3 5 5 5 5 5 5 3 5 5 3 5 5 5 3 5 5 5 5 5 5 5 5 5 5 5 5 5 5 5 5 5 5 5 5 5 5 5 5 5 5 5 5 5 5 5 5 5 5 5 5 5 5 5 5 5 5 5 5 5 5 5 5 5 5 5 5 5 5 5 5 5 5 5 5 5 5 3 5 5 5 5 5 5 5 5 5 5 5 5 3 5 5 5 5 5 5 5 5 5 5 5 5 5 5 3 5 3 5 5 3 5 5 5 3 5 5 5 5 5 5 5 3 5 3 5 5 5 5 5 3 5 5 5 5 5 3 5 5 5 5 5 3 3 5 5 5 5 5 3 5 5 5 3 5 3 5 5 5 3 5 3 5 5 5 3 5 3 5 5 5 5 3 5 5 5 5 5 5 5 5 5 5 3 3 5 3 5 5 3 5 5 3 5 5 5 5 3 5 5 5 5 5 5 5 5 5 5 5 5 5 5 5 5 5 5 5 5 5 5 5 5 5 5 5 5 5 5 5 3 5 3 3 5 5 3 5 5 5 5 5 5 5 5 5 5 5 5 5 5 5 3 5 5 5 5 5 5 5 3 5 5 5 5 5 5 5 3 5 5 5 5 5 5 5 3 5 5 3 5 5 5 5 5 3 3 5 5 5 5 5 3 5 5 5 5 3 5 5 3 5 5 5 5 5 3 3 5 5 5 5 5 5 5 5 5 5 5 5 3 5 5 5 5 5 5 5 5 5 5 5 5 5 5 5 5 5 5 5 5 5 5 5 5 3 5 5 5 5 3 5 5 5 3 5 5 5 5 5 5 5 3 5 5 5 5 5 3 5 5 5 5 5 5 5 5 5 5 5 5 5 5 5 5 5 5 3 5 5 5 5 5 5 5 5 5 5 5 3 3 5 5 5 3 3 5 5 5 3 5 5 3 5 5 5 3 5 3 3 5 5 5 5 5 5 5 5 5 5 5 5 3 5 5 3 5 5 3 5 3 5 5 5 3 5 5 5 5 5 5 5 5 3 5 5 5 5 5 3 5 5 5 5 5 5 5 3 5 5 5 5 5 5 5 5 3 5 3 5 5 5 5 3 5 3 5 3 5 3 5 5 5 5 5 5 5 3 5 5 3 5 3 5 3 5 5 3 5 5 5 5 5 5 5 5 3 5 5 5 5 5 5 3 5 5 5 5 5 5 5 5 5 5 5 5 3 5 5 5 3 5 5 5 5 5 5 3 5 5 5 5 5 5 5 5 5 5 5 5 5 5 5 5 5 5 5 5 5 5 5 5 5 5 5 3 5 3 5 5 5 5 5 5 5 5 5 5 5 5 3 5 5 3 5 5 3 5 5 5 5 5 5 5 5 5 5 5 3 5 3 5 5 5 5 5 5 5 5 5 5 5 5 5 5 5 5 5 5 5 3 5 5 5 5 3 5 5 5 5 3 5 5 3 3 5 5 5 5 5 5 5 5 5 5 5 5 5 3 5 5 5 5 5 5 5 5 5 3 5 3 5 5 5 5 5 5 5 5 5 5 5 5 5 5 5 5 5 5 3 5 5 5 5 5 5 5 5 5 5 5 5 5 5 5 5 5 5 5 5 5 5 5 5 5 5 5 5 5 5 5 5 5 5 5 5 5 5 5 5 5 5 5 5 3 5 5 5 5 5 5 5 3 5 5 5 5 5 5 5 5 5 5 3 5 5 5 5 5 3 5 5 5 5 5 5 5 5 5 5 5 5 5 3 5 5 3 5 3 5 5 5 5 5 5 5 5 5 5 5 5 5 5 5 5 5 3 3 5 3 5 5 5 5 5 5 3 3 5 3 5 5 5 5 5 5 3 5 5 5 5 5 5 5 5 5 5 5 5 3 5 5 3 5 5 5 5 5 3 5 3 5 3 5 5 5 5 5 5 5 5 5 5 5 3 5 3 5 5 3 5 5 5 5 5 5 5 5 5 3 3 5 5 5 5 3 3 5 5 5 3 5 5 5 3 5 5 5 5 5 3 5 5 3 5 3 5 5 5 3 5 5 5 5 5 5 3 5 3 3 5 5 5 5 5 5 5 3 5 5 3 5 3 5 5 5 5 5 5 5 5 5 5 5 5 5 5 5 5 5 5 5 5 5 5 5 5 5 3 5 5 5 5 5 5 5 3 5 5 5 5 3 5 5 5 5 5 5 5 5 5 5 5 3 5 5 5 5 5 5 5 5 5 3 5 5 5 5 5 5 5 5 5 5 3 5 5 3 5 5 5 5 5 5 5 3 5 5 5 3 5 3 5 3 5 5 5 5 5 5 5 5 5 5 5 5 5 5 3 5 5 5 3 5 5 3 5 5 5 5 5 5 5 5 5 5 5 5 5 3 5 3 5 5 3 5 3 5 5 5 5 5 5 5 3 5 5 5 5 5 5 5 3 5 5 5 3 5 5 5 5 5 5 3 5 5 5 5 3 5 5 5 5 5 5 5 5 5 5 5 3 5 5 5 5 5 3 3 5 5 5 3 3 5 5 5 3 5 5 3 5 5 3 5 3 3 5 5 5 5 3 5 5 5 5 5 5 3 5 5 5 5 5 3 5 5 5 5 5 3 5 5 5 5 5 5 5 5 5 5 5 5 5 3 5 5 5 5 5 3 5 3 5 5 5 5 5 5 3 5 5 5 5 5 5 3 3 3 5 5 5 3 5 5 5 5 5 5 5 5 5 5 5 3 5 5 5 5 5 5 5 5 5 5 5 5 3 3 3 5 5 3 5 5 5 3 5 5 3 5 3 5 3 5 3 3 3 5 5 5 5 5 3 5 5 3 5 5 5 3 5 3 5 5 5 5 3 5 5 5 5 5 5 5 3 5 5 5 5 3 5 5 5 5 5 5 5 3 5 5 3 5 5 5 5 5 3 5 5 5 5 5 5 5 5 5 3 5 5 5 5 5 5 5 3 5 5 5 5 5 3 5 5 3 5 5 5 5 5 5 5 5 5 5 5 5 5 5 5 5 5 5 5 5 5 5 5 5 5 5 5 5 5 5 5 5 5 5 5 5 5 5 5 5 3 5 3 5 3 5 5 3 5 5 5 5 5 5 5 5 5 3 3 5 5 5 5 3 5 5 3 5 5 5 5 5 3 5 5 5 3 5 3 3 3 5 5 5 5 5 5 5 5 5 5 5 5 5 5 5 5 5 5 5 5 5 5 5 5 5 5 5 3 5 5 3 5 5 3 5 5 5 5 5 3 5 5 3 5 5 3 3 5 3 3 5 5 5 3 5 3 5 5 5 5 5 5 5 3 5 5 5 5 5 5 5 5 5 5 5 5 5 5 5 5 5 5 5 5 5 5 5 5 5 5 5 5 5 5 5 5 5 5 5 5 5 5 5 5 5 5 3 5 5 5 5 5 5 3 5 5 5 5 5 5 5 5 5 5 5 5 5 3 5 5 5 3 5 5 5 5 5 5 5 3 5 5 5 5 5 5 5 5 5 5 5 5 5 5 5 5 3 5 3 5 5 3 5 5 5 5 3 5 5 5 5 5 5 5 5 5 3 5 5 3 5 3 5 5 5 5 5 3 5 5 3 5 5 5 5 5 3 5 5 5 3 5 5 5 5 3 5 5 5 3 5 5 5 5 5 5 3 5 5 5 3 5 5 3 5 5 3 5 3 3 5 5 5 5 5 5 5 5 5 5 5 5 5 5 5 5 5 5 5 5 5 5 5 5 5 5 5 5 5 5 5 5 5 5 5 5 5 5 5 5 5 5 5 3 5 5 3 5 5 5 3 5 5 5 5 5 5 5 5 5 5 5 3 5 5 5 5 5 5 5 5 3 5 5 5 5 5 5 5 5 5 5 3 5 5 3 5 5 3 3 5 5 3 5 5 5 5 5 5 5 5 5 5 5 5 5 3 5 5 3 5 5 5 5 5 5 5 5 3 5 5 3 3 5 3 5 5 5 5 3 5 5 5 5 3 5 5 5 5 5 5 5 5 5 5 5 5 3 5 5 5 3 5 5 5 5 5 5 3 5 5 5 5 3 5 5 3 3 5 5 5 5 5 3 5 5 3 5 5 5 5 5 5 5 3 5 3 5 5 5 5 5 5 5 3 5 5 5 5 5 5 3 5 5 5 5 3 5 5 5 5 5 3 5 5 5 5 3 5 5 5 5 5 5 5 5 5 5 3 5 5 3 5 3 5 5 3 3 5 5 5 3 5 5 5 5 5 5 5 3 5 5 5 5 5 5 3 5 5 5 5 5 5 3 5 3 3 5 5 5 5 3 5 5 5 3 5 5 5 5 5 5 5 5 5 5 5 5 5 5 5 5 5 5 5 5 5 5 5 5 3 5 5 3 5 5 5 5 5 3 3 5 5 3 5 5 5 5 3 5 3 5 5 5 5 3 5 5 5 5 5 5 5 3 5 5 5 5 5 5 3 5 5 3 5 5 3 5 5 5 3 3 5 5 3 5 5 5 5 5 3 5 5 5 5 5 5 5 5 5 3 3 5 5 3 5 5 5 5 5 5 5 5 5 3 5 5 3 5 3 5 5 3 5 3 5 5 5 3 5 5 3 5 3 5 5 5 5 5 5 5 5 3 5 3 5 5 5 3 5 5 5 5 5 5 3 5 5 5 5 5 3 5 3 3 5 5 5 5 5 3 5 5 5 3 5 3 5 5 5 5 5 5 5 5 5 3 5 5 3 3 5 5 5 3 5 5 5 5 3 5 3 5 5 5 5 5 5 5 5 3 5 3 5 5 5 5 5 5 5 5 5 5 5 3 5 5 5 5 5 5 5 5 3 5 3 3 5 3 5 5 5 5 3 5 5 5 3 5 5 5 5 5 5 3 5 5 5 5 5 3 3 5 5 5 5 5 5 5 5 5 3 5 5 5 5 5 5 5 5 5 5 3 5 5 5 5 5 3 5 3 5 3 5 5 5 5 5 5 5 5 3 5 5 5 5 5 5 5 5 5 5 5 5 5 5 5 5 5 5 5 5 3 5 5 5 5 5 5 5 5 5 3 5 5 5 5 5 3 5 5 5 5 5 5 5 3 3 5 5 3 5 5 5 5 5 5 5 5 5 3 5 3 5 5 5 5 5 3 5 5 5 5 5 5 5 5 5 5 5 5 5 3 3 5 5 5 5 5 5 5 5 5 5 5 3 5 5 3 5 3 3 5 3 5 3 5 5 3 5 5 5 5 3 3 5 5 5 5 5 5 5 5 5 5 5 5 3 5 5 5 5 5 5 5 3 3 5 3 5 3 5 5 5 5 5 5 3 5 3 5 5 5 5 5 5 3 5 3 5 5 5 5 5 5 5 5 5 5 5 5 5 5 5 5 5 5 5 5 5 5 5 3 5 5 5 3 5 5 3 5 5 3 5 5 5 5 5 5 5 5 5 3 5 5 5 3 5 5 5 5 3 5 5 5 3 5 5 5 3 5 5 3 5 5 5 5 5 5 5 5 3 3 3 5 3 5 5 5 3 5 5 5 5 5 5 3 3 5 5 5 5 5 5 5 3 5 5 3 5 5 5 3 5 5 5 3 5 5 5 5 5 3 5 5 5 5 5 5 3 5 5 5 3 5 5 5 5 3 5 3 3 5 5 3 5 3 5 3 5 5 3 5 5 5 5 5 5 5 5 5 5 5 3 5 3 5 5 5 5 5 5 5 5 5 5 5 5 5 5 5 5 5 5 3 5 5 5 5 5 5 5 5 5 5 5 5 5 5 5 3 5 5 5 5 5 3 5 5 5 5 5 5 5 5 5 5 3 5 5 5 5 5 5 3 5 5 5 5 5 5 5 5 5 5 5 5 5 5 5 5 5 5 5 5 5 5 5 5 5 5 5 5 5 5 5 3 5 5 5 5 5 5 5 5 5 5 5 5 5 5 3 3 5 5 5 5 5 5 5 3 5 5 5 5 5 3 5 5 5 5 5 5 5 3 5 5 5 5 3 5 5 5 5 5 5 5 3 5 5 5 5 3 3 5 3 5 5 3 3 5 3 5 5 3 3 5 5 5 5 5 5 5 5 3 5 5 5 5 5 5 5 5 5 5 5 5 5 5 3 5 3 5 3 5 5 3 5 5 3 5 3 5 5 5 3 3 5 5 3 5 5 3 5 5 5 5 5 5 5 5 5 5 5 3 5 5 5 5 5 5 5 5 5 5 5 5 5 5 5 5 5 5 5 5 5 5 5 5 5 5 5 5 3 5 5 5 5 3 5 5 5 5 5 3 5 3 5 3 5 5 3 5 5 5 5 3 3 5 5 5 5 5 5 5 5 5 5 5 3 5 5 3 5 5 5 5 5 5 3 5 5 5 5 5 5 3 5 5 5 5 5 5 5 5 5 5 5 3 5 5 5 5 3 5 5 5 3 5 5 5 5 5 3 5 5 5 5 3 5 5 3 5 3 5 5 5 5 5 5 5 5 5 5 3 5 5 5 5 5 5 5 3 5 5 5 5 5 5 5 5 5 5 5 5 5 5 5 5 5 5 3 3 5 5 5 5 5 5 5 3 5 5 5 5 5 5 3 5 5 5 5 5 5 5 5 3 5 5 3 5 5 5 5 5 5 5 5 5 5 3 5 5 5 5 5 5 5 5 5 5 5 5 5 5 5 5 5 3 3 5 3 5 5 5 5 5 3 5 5 5 5 5 5 5 3 5 5 5 5 5 5 5 5 5 5 5 5 5 5 3 5 5 5 5 5 5 3 5 5 5 5 5 5 5 5 5 5 5 5 5 5 5 3 5 5 3 5 3 5 5 5 5 5 3 3 5 5 5 5 3 3 5 5 5 5 5 5 5 5 5 5 3 5 5 5 5 5 5 5 5 5 3 5 5 3 3 3 5 5 3 5 5 5 3 5 5 5 5 3 5 5 5 3 5 5 5 5 5 5 5 3 5 5 5 3 5 5 5 5 5 5 5 5 5 5 5 5 5 5 3 5 5 5 3 5 5 5 5 5 5 3 5 5 5 5 5 5 5 5 3 5 5 5 5 5 5 5 5 5 5 5 5 5 5 5 5 5 5 5 5 5 5 5 3 5 5 3 5 5 3 3 5 5 3 5 5 5 5 5 5 5 5 3 5 5 5 5 5 5 5 5 5 5 3 5 5 5 5 5 5 5 5 5 5 5 5 5 5 5 5 5 5 5 5 5 5 5 5 5 5 5 3 5 3 5 5 5 5 5 3 5 5 3 5 5 3 5 5 5 5 5 5 5 5 5 5 5 3 5 5 5 3 5 5 5 5 5 5 5 5 5 5 3 5 5 5 5 5 5 3 5 5 5 5 5 5 5 5 3 5 5 5 5 3 5 5 5 5 5 5 5 5 5 5 5 5 5 5 5 5 5 5 5 5 3 5 5 5 5 3 5 5 5 5 5 5 5 5 5 5 5 5 5 3 5 5 5 5 3 5 5 5 5 5 3 3 5 5 5 5 3 5 5 5 5 5 5 5 5 5 5 5 5 5 5 5 5 5 5 5 5 5 5 5 5 5 5 5 3 5 5 5 5 3 5 5 5 5 5 3 5 5 5 3 5 5 5 5 5 5 5 5 3 5 5 5 5 5 5 3 5 5 5 5 3 5 5 5 5 5 5 5 5 5 5 5 3 5 5 5 5 5 5 5 5 3 5 5 5 5 3 5 5 5 5 3 5 5 5 3 5 5 5 5 5 5 5 5 5 3 5 3 5 5 5 5 3 5 3 5 5 5 5 5 3 5 5 3 5 5 3 5 5 3 5 5 3 3 3 5 3 5 3 5 5 5 3 5 5 3 3 5 3 5 3 5 5 5 5 5 5 5 5 5 5 5 5 5 5 5 5 5 5 5 5 5 5 5 5 3 5 5 5 5 5 5 5 5 5 5 5 5 5 5 5 5 5 5 5 5 5 3 5 5 5 5 5 5 5 5 5 5 5 5 5 5 5 5 5 5 5 5 5 5 5 5 5 5 5 5 3 5 3 5 5 5 5 5 5 5 5 5 5 5 5 5 5 5 5 5 5 5 5 5 5 5 3 5 5 3 5 5 5 3 5 5 5 3 5 5 5 5 5 5 5 5 5 5 5 5 5 5 5 5 3 5 3 3 3 5 5 5 5 3 5 5 3 3 5 5 5 3 3 5 5 5 5 5 5 5 5 3 3 5 5 5 3 5 3 5 5 5 3 5 5 5 5 3 5 3 5 5 5 5 5 5 5 5 5 5 5 5 5 3 5 5 3 5 3 5 3 3 5 5 5 5 5 3 3 5 5 5 5 3 5 5 5 5 5 5 3 5 3 5 5 5 3 5 5 3 5 5 5 5 5 5 3 5 3 5 5 5 5 3 5 5 5 5 5 5 5 3 5 5 5 5 5 5 3 5 5 3 5 5 3 5 5 5 5 5 5 5 5 5 5 5 5 5 3 5 5 5 5 5 5 5 3 3 5 5 5 5 3 5 5 5 5 5 5 5 3 5 5 3 5 3 5 3 3 5 5 5 5 5 5 5 3 5 5 5 5 3 5 3 5 5 3 5 5 5 5 5 5 5 5 5 5 5 5 5 5 5 5 5 5 5 5 5 3 5 5 5 5 5 5 5 5 5 3 5 5 5 5 5 5 3 5 5 5 5 5 5 5 5 5 5 5 5 5 5 5 5 3 5 5 5 5 5 3 5 5 5 5 5 5 5 5 5 5 5 5 5 5 5 5 5 5 5 5 5 3 5 5 5 5 5 3 5 5 5 5 5 5 5 5 3 5 5 5 5 5 5 5 5 5 5 5 5 3 5 5 5 5 3 5 5 5 5 3 5 5 5 5 5 5 5 5 5 5 5 5 3 5 5 5 5 5 5 5 5 5 5 5 5 5 5 5 5 5 3 3 5 5 5 3 5 3 5 3 5 5 3 5 5 5 5 5 5 3 5 3 5 5 5 5 5 3 5 3 5 5 5 5 5 5 5 5 5 5 5 5 5 5 5 5 5 5 3 5 5 5 5 5 3 5 5 5 5 5 5 5 5 5 5 5 5 5 5 5 3 5 5 3 5 5 5 5 3 5 5 3 3 5 5 5 3 5 3 3 5 5 3 5 3 5 3 5 5 3 5 3 5 3 5 5 5 5 5 3 5 5 5 5 5 5 5 3 3 5 5 5 3 5 3 5 5 5 5 5 5 5 3 5 5 5 5 5 3 5 5 5 5 5 3 3 5 5 5 5 5 5 5 5 5 5 5 5 5 5 5 5 5 5 5 5 5 5 5 5 5 5 5 3 5 5 3 3 5 5 5 5 3 5 5 3 5 5 5 5 5 5 5 5 5 5 3 5 5 5 3 5 5 5 3 5 3 5 5 5 5 5 5 3 5 3 5 5 5 5 5 5 3 5 5 5 5 3 3 3 5 3 5 5 5 5 5 5 5 3 5 5 5 5 5 5 5 5 5 5 5 3 5 5 5 5 3 5 5 3 5 5 3 5 3 5 3 5 3 3 5 5 3 5 3 5 5 5 5 5 5 5 3 5 5 5 5 5 5 5 5 5 3 5 5 3 5 5 5 5 5 5 5 5 5 3 5 5 3 5 5 5 5 5 5 5 5 5 5 5 5 5 5 5 5 5 5 5 5 5 5 5 5 5 5 5 5 5 5 5 5 5 5 5 5 5 5 5 5 5 5 5 5 3 3 5 5 5 5 5 5 5 3 5 5 5 3 5 5 5 5 3 5 5 3 5 5 5 5 5 5 5 5 5 5 5 5 5 5 5 5 5 5 5 5 5 5 5 5 5 5 3 5 3 5 5 5 5 3 3 3 5 5 5 5 5 3 5 3 5 5 5 5 5 5 5 5 5 5 5 5 5 5 5 5 5 5 5 3 5 5 3 5 5 5 5 5 5 5 5 5 5 5 5 5 5 5 5 5 5 5 5 5 5 3 5 5 5 5 3 3 3 5 5 5 5 5 5 3 5 5 5 5 5 5 5 5 5 5 5 5 5 5 5 5 3 5 5 5 5 3 5 5 5 5 5 5 5 5 3 5 5 5 5 5 5 5 5 3 5 3 5 5 3 5 3 5 5 3 5 5 3 5 3 5 5 5 5 5 3 5 5 5 5 5 3 5 5 5 5 5 5 5 5 3 5 5 5 5 5 3 5 5 3 3 5 3 5 5 5 5 5 5 5 5 5 3 5 5 5 3 5 5 5 3 5 5 3 5 5 5 5 5 5 5 5 5 5 5 5 5 5 5 5 5 5 5 3 3 5 3 5 5 5 5 5 5 5 3 5 5 5 5 5 3 5 3 5 5 5 5 5 5 5 5 5 5 5 5 5 5 5 5 5 5 5 5 5 5 5 5 3 5 3 5 5 5 5 5 5 3 3 5 5 5 3 5 5 5 3 5 5 5 3 5 3 5 5 5 5 5 5 5 5 5 5 5 5 5 3 5 5 5 5 3 5 5 5 5 5 5 5 5 5 5 5 5 5 3 5 5 5 5 5 5 5 5 5 3 5 5 3 3 5 5 5 5 5 3 5 5 5 5 5 5 5 3 5 5 5 5 5 5 5 3 5 5 5 5 5 5 3 3 5 3 5 5 5 5 5 5 3 5 3 5 3 5 5 5 5 3 5 3 5 3 5 5 5 5 5 5 5 5 5 5 5 5 5 5 5 5 5 3 5 5 5 5 3 5 5 5 5 5 3 5 3 5 5 5 5 5 5 5 5 5 5 3 5 5 5 5 5 5 5 5 5 5 5 3 5 5 5 5 5 5 5 5 5 5 5 5 5 5 5 3 3 5 5 3 5 5 3 3 5 5 5 5 3 5 5 5 5 5 5 3 3 5 5 5 3 5 5 5 3 5 3 5 5 5 3 5 5 3 5 5 5 3 5 5 5 5 5 5 5 5 5 5 5 5 5 5 5 5 5 5 5 3 5 5 5 5 5 5 5 5 3 5 5 5 5 5 5 5 3 5 5 5 5 5 5 5 5 5 5 5 5 5 5 5 5 5 5 5 5 5 5 5 5 5 5 5 5 5 5 5 5 5 5 5 5 5 5 5 5 5 5 5 5 5 5 5 5 5 5 5 5 5 5 5 5 5 5 5 5 5 5 5 5 5 5 5 5 5 5 5 5 3 5 5 5 5 5 5 5 3 5 5 5 5 5 5 5 3 5 5 5 5 5 5 5 5 5 5 5 5 5 5 5 5 5 5 5 5 5 5 5 5 5 5 5 5 5 5 5 5 5 3 5 5 3 5 5 5 3 5 5 5 5 5 5 5 5 5 5 5 5 3 5 5 5 5 5 5 5 5 5 5 5 5 5 5 5 5 5 5 5 5 5 5 5 5 5 5 5 5 5 5 5 5 5 5 5 5 5 5 5 5 3 5 5 5 5 5 5 5 5 5 5 5 5 5 5 5 5 5 5 5 3 5 5 5 5 3 5 5 3 5 5 5 5 5 5 5 5 5 5 5 5 5 5 5 5 5 3 5 3 5 5 5 5 3 5 5 5 5 5 5 5 5 5 5 5 5 5 5 5 5 5 5 5 5 5 5 5 5 5 5 5 5 5 5 5 5 5 5 5 5 5 5 5 5 5 5 5 5 5 5 5 5 5 5 5 5 5 5 5 5 5 5 5 5 5 5 5 5 5 5 5 5 5 5 5 5 5 5 5 5 5 5 5 5 5 5 5 5 5 5 5 5 5 5 5 5 5 5 5 5 5 5 5 5 5 5 5 5 5 5 5 5 5 5 5 3 5 5 3 5 5 3 5 5 5 3 5 5 5 5 5 3 5 5 5 5 5 5 5 5 5 3 5 5 5 5 5 5 5 5 5 3 5 5 5 5 5 5 5 5 5 5 5 5 5 5 5 5 5 5 5 5 5 5 5 5 5 5 5 5 5 5 5 5 3 5 5 5 5 5 5 5 5 5 5 5 5 5 5 5 5 5 5 5 5 5 5 5 5 5 5 5 5 5 5 5 5 5 5 5 5 5 5 5 5 5 5 5 5 5 5 3 5 5 3 5 5 5 5 5 5 5 5 5 5 5 5 5 5 3 5 5 5 3 5 5 5 5 5 5 5 5 5 5 5 5 5 5 5 5 5 5 5 5 5 5 5 5 5 5 5 5 5 5 5 5 5 5 5 5 5 5 5 5 5 5 5 5 5 5 5 5 5 5 5 5 5 5 5 5 5 5 5 5 5 5 5 5 3 5 5 5 5 5 5 5 5 5 5 5 5 3 5 5 5 5 5 3 3 5 5 5 5 3 5 3 3 5 3 5 5 3 5 3 5 5 5 5 5 5 5 3 5 5 5 5 5 3 5 5 5 5 3 5 5 5 3 5 3 5 5 5 5 5 5 3 5 5 5 5 5 5 5 5 5 5 5 3 5 5 5 5 5 5 3 5 5 5 5 5 5 5 5 5 5 5 5 3 5 5 3 5 5 3 5 5 5 5 5 5 5 5 5 5 5 5 5 5 5 5 3 5 5 5 5 5 3 5 5 5 5 5 5 5 5 5 5 5 5 5 5 5 3 5 5 5 5 5 5 5 5 5 5 3 5 5 5 5 5 5 5 3 5 5 5 5 5 5 3 5 5 5 5 5 5 5 5 5 5 5 5 5 5 5 5 5 5 5 5 5 5 5 5 5 5 5 5 5 5 5 5 5 5 5 5 5 5 5 5 5 5 5 5 5 5 5 5 5 5 5 5 5 3 5 5 5 5 5 5 5 5 5 5 5 5 5 5 5 5 5 5 5 5 5 5 5 5 5 5 5 5 3 5 5 5 5 5 5 5 5 5 3 5 5 5 5 5 5 3 3 5 5 5 5 5 5 5 5 5 5 5 5 3 5 5 5 3 3 5 5 5 5 5 5 5 5 5 5 5 5 5 5 5 5 3 3 5 5 5 5 5 3 5 5 3 5 5 5 5 5 3 5 5 5 5 3 5 5 5 5 5 5 5 5 5 3 5 5 5 5 5 5 5 5 5 5 5 5 5 5 5 5 5 5 5 5 5 5 3 5 5 5 5 5 5 3 5 5 5 5 5 5 5 5 5 5 5 5 3 5 5 5 3 5 3 5 5 5 5 5 5 3 5 5 5 5 5 3 5 5 5 5 5 5 5 5 5 5 5 3 3 5 5 5 5 5 5 5 5 5 5 5 3 5 5 5 5 5 5 5 5 5 5 5 5 3 5 5 5 5 5 5 5 5 3 5 5 3 5 5 5 5 3 3 5 5 5 5 3 3 5 5 5 5 5 5 5 5 5 5 5 5 5 5 5 5 5 5 5 5 5 5 3 5 5 5 5 5 5 5 5 3 5 3 5 5 5 5 5 5 5 5 5 5 5 5 5 3 5 5 5 5 5 5 3 5 5 3 3 3 5 5 5 5 5 5 5 3 3 5 5 5 5 5 3 5 3 3 3 5 5 3 5 5 5 5 5 5 3 5 5 5 3 5 5 5 5 5 5 3 5 5 5 5 5 5 5 5 5 5 5 5 5 5 5 5 5 5 5 5 5 5 5 5 5 5 5 5 5 5 5 5 5 5 5 5 5 5 5 3 5 5 5 5 5 5 5 5 5 5 5 5 5 3 5 5 5 5 5 5 5 5 5 5 5 5 5 5 5 5 5 5 5 5 5 5 5 5 5 5 5 5 5 5 5 5 5 5 5 5 5 5 5 5 5 5 5 5 5 5 5 5 5 5 5 5 5 5 5 5 5 5 5 5 5 5 5 5 5 5 5 5 5 5 5 5 5 5 5 3 5 5 5 5 3 3 5 5 5 5 5 5 5 3 3 5 5 5 5 5 3 5 5 3 5 5 5 5 5 5 3 5 5 5 5 5 5 5 5 5 5 3 5 5 5 5 5 5 5 5 5 5 5 3 5 5 3 5 5 5 3 5 5 5 5 3 5 5 5 5 5 5 5 5 5 5 5 5 5 5 5 5 5 5 5 5 5 5 5 5 5 5 5 5 5 5 5 5 5 5 5 5 5 5 5 5 5 5 5 5 5 5 5 5 5 5 5 5 5 5 5 5 5 5 5 5 5 5 5 5 5 5 5 5 5 5 5 5 5 5 5 5 5 5 3 5 5 5 5 3 5 5 5 5 3 5 5 3 5 5 5 5 5 3 5 5 5 5 5 5 3 5 5 5 5 3 5 5 5 5 5 5 5 5 5 5 5 5 5 5 3 5 3 5 5 5 5 5 5 5 5 5 5 5 5 5 5 5 5 5 5 5 5 3 5 5 5 3 5 5 5 5 5 5 5 5 5 5 5 5 5 5 5 5 5 3 5 5 5 5 5 3 5 5 5 5 3 5 5 3 5 5 5 5 5 5 5 5 5 5 3 5 5 5 5 5 5 5 5 5 5 3 5 5 3 5 5 3 5 5 3 5 5 5 5 5 5 5 5 5 5 3 5 5 3 3 5 5 5 5 5 5 5 5 5 5 5 5 5 5 5 5 5 5 5 5 5 5 5 5 5 5 5 5 5 3 5 5 5 5 5 5 5 5 3 5 5 3 5 5 5 5 3 5 5 5 5 5 3 5 5 5 5 5 5 5 3 5 5 5 5 5 5 5 5 3 5 5 5 5 5 5 5 5 5 5 5 5 5 5 5 5 5 5 5 5 5 5 5 5 5 5 5 5 5 5 5 5 5 5 5 5 5 5 5 5 5 5 5 5 5 5 5 5 5 5 5 5 5 5 5 3 5 5 5 3 5 5 5 5 5 5 3 5 3 5 5 3 5 5 5 3 5 5 5 5 5 5 5 5 3 5 5 3 5 5 5 5 5 5 5 5 5 3 5 5 5 5 5 5 5 5 5 5 5 5 5 5 5 5 5 5 5 5 5 5 5 5 5 3 5 5 5 3 5 5 5 5 5 5 3 5 3 5 5 3 5 5 5 3 5 5 5 3 3 5 5 5 3 3 5 5 5 5 5 5 5 3 3 5 5 3 5 3 5 5 5 5 5 5 5 3 5 5 5 5 5 3 5 5 5 5 5 5 5 5 5 3 5 5 3 5 5 5 5 5 5 5 5 3 5 5 5 5 5 3 5 5 5 5 5 5 5 5 5 5 3 5 5 5 3 5 5 5 5 5 5 5 5 5 5 5 5 3 5 5 5 5 3 5 3 5 3 5 5 5 5 5 5 5 5 5 5 5 5 5 5 5 5 5 3 5 5 5 3 5 3 5 3 3 5 5 5 5 5 5 5 3 3 5 5 5 3 5 3 5 5 5 5 5 5 5 5 5 5 5 3 5 3 5 5 5 3 5 5 5 5 5 5 5 5 5 5 3 3 5 5 5 5 3 5 5 5 5 3 5 5 5 5 5 5 3 5 5 5 3 5 3 5 5 5 5 3 5 5 5 5 5 5 5 5 3 5 5 5 5 5 5 5 5 5 5 5 5 5 5 5 5 3 5 5 3 5 3 5 5 5 5 5 5 5 5 3 5 5 5 5 5 3 5 5 5 5 5 3 5 5 5 5 5 5 5 5 3 5 5 5 5 5 5 3 3 5 5 5 5 5 5 5 5 3 5 5 5 5 5 5 3 5 5 3 5 5 3 5 5 5 5 5 5 5 5 5 5 5 5 5 5 5 5 5 5 5 5 5 5 5 5 5 5 5 5 5 5 5 5 5 5 5 5 5 5 5 5 5 5 5 5 5 5 5 5 5 5 5 5 5 5 5 5 5 5 5 5 5 5 3 5 5 5 5 5 5 5 5 5 5 5 5 5 5 5 5 5 5 5 5 5 5 5 5 5 5 5 5 5 5 5 5 5 5 5 5 5 5 5 5 5 5 5 5 5 5 5 5 5 5 5 5 5 5 5 5 5 5 5 5 5 5 5 5 5 5 5 5 5 5 5 5 5 5 5 5 5 5 3 5 5 5 3 5 5 5 5 5 3 3 5 5 3 5 5 5 5 5 5 3 3 5 5 5 5 5 5 5 5 5 5 5 5 5 5 5 5 5 3 5 5 5 5 5 5 5 5 5 5 5 5 5 5 5 3 3 5 5 5 5 5 5 5 5 5 5 5 5 5 5 5 5 5 5 5 3 5 5 5 5 5 5 5 5 5 5 5 5 5 5 5 3 5 5 5 3 3 3 5 3 5 5 5 3 3 5 5 3 5 5 3 5 5 5 5 3 5 5 3 3 5 5 5 5 5 5 3 5 5 5 5 5 5 5 5 5 5 5 3 5 5 5 5 5 5 5 5 5 5 5 5 5 5 5 5 5 5 5 3 5 3 5 5 5 5 5 5 5 5 5 5 5 5 5 5 5 5 5 5 5 5 5 3 5 5 5 5 5 5 5 5 5 5 5 5 5 5 5 5 3 5 3 5 5 3 5 5 5 5 5 5 5 5 5 5 5 5 5 5 3 5 5 5 5 5 5 5 5 5 5 5 3 5 5 5 5 5 5 5 5 5 5 5 5 3 5 5 5 5 5 5 5 5 5 5 5 5 5 3 5 5 5 5 5 5 5 5 5 5 5 5 5 5 5 5 5 5 5 5 5 5 5 3 5 5 5 5 3 5 5 5 5 5 5 5 5 5 5 5 3 5 5 5 5 5 5 5 5 5 5 5 5 5 5 5 5 5 5 5 5 5 5 3 5 5 5 5 3 5 5 5 5 5 5 5 5 5 5 5 5 5 5 3 5 3 5 5 5 3 5 5 5 5 3 3 5 5 5 5 5 5 5 5 5 5 5 5 3 5 5 3 5 5 5 5 5 5 5 5 5 5 5 5 5 5 5 5 5 5 5 5 5 5 5 5 5 5 5 5 5 5 5 5 5 5 3 5 5 5 5 3 5 5 5 5 5 3 5 5 5 3 5 5 5 5 3 5 5 5 5 3 5 5 5 3 5 5 5 5 5 5 3 5 5 5 5 5 5 5 3 3 5 5 5 5 5 5 5 3 5 5 5 5 3 5 5 5 5 3 5 5 5 5 5 5 5 5 5 5 5 5 5 5 5 5 5 5 5 5 5 3 5 5 5 5 5 5 5 5 5 5 5 5 5 5 3 3 5 5 5 5 3 3 5 5 3 5 5 5 5 5 5 5 5 5 5 5 5 5 3 5 5 5 5 5 5 5 3 5 5 5 3 5 5 5 5 5 3 5 5 5 5 5 5 5 5 5 5 5 5 5 5 5 5 5 3 5 5 5 5 5 5 5 5 5 5 5 5 5 5 5 5 5 3 5 5 5 3 5 5 5 5 5 5 5 5 5 5 5 5 5 5 5 5 5 5 5 5 5 5 5 5 5 5 5 5 5 5 5 5 5 5 5 5 5 5 5 5 5 5 5 5 5 5 5 5 3 5 5 5 5 5 3 5 5 5 5 5 5 5 5 3 5 5 3 5 5 5 5 5 5 5 5 5 5 3 5 3 3 5 5 5 3 5 5 5 5 5 3 3 5 5 5 5 5 5 5 5 5 5 5 5 5 5 5 3 5 5 5 5 3 3 5 5 5 5 5 5 5 5 5 5 5 5 5 3 5 5 5 5 5 5 5 5 5 5 5 5 5 5 5 5 5 5 5 5 5 5 5 5 5 5 5 5 5 5 5 5 5 5 5 5 3 5 5 5 5 5 5 5 5 5 5 5 5 5 5 5 5 5 5 5 5 5 3 5 5 5 5 3 5 5 5 5 5 5 5 5 5 3 5 3 5 5 5 5 3 5 5 5 3 5 5 5 5 3 3 3 5 3 5 5 5 3 5 3 5 5 5 5 3 5 5 5 5 3 5 5 3 5 5 5 5 3 5 5 5 5 5 5 5 5 5 5 5 5 5 5 5 5 5 5 5 3 5 5 5 5 5 5 5 5 5 5 5 5 5 5 5 5 5 5 5 5 5 5 5 5 5 5 5 5 5 5 5 5 5 5 5 5 5 5 5 5 5 5 5 5 5 5 5 5 5 5 5 5 5 5 3 5 5 5 3 3 5 5 3 3 5 3 3 5 5 5 5 3 3 5 5 3 5 5 5 5 5 5 5 5 5 5 5 5 5 5 5 3 5 5 5 5 5 5 5 3 5 5 3 5 5 5 3 5 5 5 5 5 5 5 5 3 5 5 5 5 5 5 5 5 5 5 5 5 5 3 5 5 5 5 5 3 3 5 3 5 5 3 5 5 5 5 5 3 5 5 5 5 5 5 3 5 5 5 5 5 5 5 5 5 5 3 5 5 5 3 5 5 5 5 5 5 5 3 5 5 5 5 5 5 5 5 5 5 5 5 5 5 5 5 5 3 5 5 5 5 5 5 5 5 5 5 5 5 5 5 5 5 5 5 5 5 5 5 5 5 5 5 5 5 5 5 5 5 5 5 5 5 5 5 5 5 5 5 5 5 5 5 5 3 5 5 5 3 5 5 5 5 5 3 5 5 5 5 5 5 5 5 5 5 5 5 5 5 5 5 3 5 3 5 5 5 5 5 5 5 5 3 5 5 5 3 5 5 5 3 5 5 5 3 5 3 5 5 5 5 5 5 5 5 5 3 5 5 5 5 3 5 5 5 5 5 5 5 5 3 5 3 5 5 5 5 3 5 5 5 5 5 5 5 5 3 5 5 5 5 3 5 5 5 5 5 5 3 5 5 5 3 5 5 5 5 5 5 5 5 5 5 5 5 5 5 5 5 5 5 5 5 5 3 5 5 5 5 5 5 5 5 5 5 5 5 5 5 5 5 3 5 5 5 5 5 3 5 5 5 5 3 5 5 5 5 5 5 5 3 5 5 5 5 5 5 5 5 5 5 5 5 5 5 5 5 5 5 5 5 3 5 5 5 5 5 5 3 5 5 5 5 5 3 5 5 5 3 5 5 5 5 5 5 5 5 5 5 5 3 3 5 5 5 5 5 5 5 5 5 5 3 5 5 3 3 5 5 5 5 5 5 3 5 5 5 3 3 3 5 5 3 5 5 5 3 5 3 3 5 5 5 5 5 3 3 5 3 3 5 3 5 5 5 5 5 5 5 5 5 5 5 3 5 5 5 3 5 5 5 5 5 5 3 5 5 5 5 5 5 5 3 5 3 5 5 5 5 3 5 5 3 5 3 3 3 5 5 3 5 5 5 5 5 3 5 5 3 5 5 3 5 5 3 3 5 5 5 5 5 5 5 5 5 5 3 5 5 5 5 5 5 5 3 3 5 5 5 5 5 5 5 3 5 5 5 5 3 5 3 5 3 5 3 3 5 5 3 5 3 5 5 3 5 5 3 5 3 5 5 5 5 5 5 5 5 5 5 5 5 3 5 5 5 5 5 5 5 5 5 5 5 3 5 5 3 5 5 5 3 5 3 5 5 5 5 3 5 5 5 5 5 5 5 5 5 5 5 5 5 3 3 5 5 3 5 5 3 3 5 5 5 5 5 5 5 5 5 3 5 5 3 5 5 3 3 5 3 5 5 3 5 5 3 5 3 5 5 5 3 5 5 5 5 5 5 5 5 5 5 5 5 5 5 5 3 5 5 5 5 5 5 3 5 5 3 5 5 3 5 5 5 5 5 5 3 5 5 5 3 5 5 3 5 5 5 5 5 3 5 5 3 5 5 5 5 3 5 3 5 3 5 5 5 3 5 5 5 5 5 5 3 5 3 5 5 5 5 5 5 5 5 5 5 5 3 5 5 5 5 5 5 5 3 5 5 5 5 5 5 5 3 5 5 5 5 3 5 5 5 5 5 5 5 5 5 5 5 5 5 5 5 5 5 5 5 5 5 5 5 5 5 5 5 5 5 5 3 5 5 5 5 5 5 5 5 5 5 5 3 5 5 3 3 5 5 5 5 3 5 5 3 5 5 3 5 3 5 5 3 5 5 5 5 5 5 3 3 5 5 5 5 5 5 5 3 5 5 5 3 5 5 5 5 5 5 5 5 5 5 5 5 5 5 5 3 5 5 5 5 5 3 5 5 5 5 5 5 5 5 5 5 5 5 5 3 5 3 5 5 5 5 5 3 5 3 5 5 5 5 5 5 5 5 5 5 5 5 3 5 3 5 5 5 5 3 5 3 5 5 5 3 5 3 5 5 3 3 5 3 3 5 5 5 5 5 5 5 3 5 5 5 5 5 3 5 5 3 5 3 5 5 3 5 5 5 5 5 5 3 5 3 5 3 5 5 5 5 3 5 3 3 5 5 5 5 5 5 5 5 5 5 5 5 3 3 3 5 5 5 5 5 5 5 5 5 5 5 5 5 5 5 5 5 5 3 5 5 5 5 3 5 5 5 5 5 5 5 5 5 3 3 5 5 3 5 5 5 5 5 3 5 5 5 5 5 5 5 5 5 5 5 5 5 5 3 5 5 5 5 5 5 5 5 5 5 5 5 5 5 5 5 5 5 5 3 5 5 5 5 5 5 5 3 5 5 5 5 5 3 5 5 5 5 5 5 5 5 5 5 5 5 5 5 3 5 5 5 5 5 5 5 5 5 5 3 5 5 5 5 3 5 5 5 5 5 5 5 5 5 5 5 5 5 5 5 5 5 5 5 5 5 5 5 5 5 5 5 5 5 5 5 5 5 5 5 5 5 5 5 5 5 5 5 5 5 5 5 5 5 5 5 5 5 5 5 5 5 5 5 5 5 5 5 5 5 5 5 3 5 5 5 5 5 3 5 5 5 5 3 5 5 5 5 5 5 5 5 5 5 5 5 5 5 5 5 5 5 5 5 5 5 5 5 5 5 5 5 5 5 3 5 5 5 3 5 5 5 5 5 5 5 5 5 5 5 5 5 5 5 5 5 5 5 5 5 5 3 5 5 5 5 3 5 5 3 5 5 3 5 5 5 5 5 3 5 5 5 5 3 3 5 5 3 5 5 5 5 3 3 5 5 5 3 3 5 5 5 3 3 5 5 3 5 5 5 5 5 3 5 5 3 5 5 5 3 5 3 5 5 5 5 5 5 5 5 5 5 5 5 5 5 5 3 5 5 5 3 5 5 5 5 5 5 5 5 5 5 5 3 5 5 3 5 3 5 5 5 3 3 5 5 5 3 5 5 5 5 3 5 5 5 5 5 5 3 5 5 5 5 5 3 5 3 5 5 5 5 5 5 5 5 3 5 5 5 5 5 5 5 5 5 5 5 5 5 5 5 5 5 5 5 3 5 5 5 5 5 5 5 5 5 3 5 5 5 5 5 5 5 5 3 5 5 3 5 5 5 5 5 5 5 5 5 5 5 5 5 5 5 5 5 5 5 5 5 3 5 5 5 5 5 5 5 5 5 5 5 3 5 5 5 5 5 5 5 3 5 5 5 5 5 5 5 5 5 5 5 3 5 5 5 5 5 3 5 5 5 5 5 5 5 5 5 5 5 5 3 5 5 5 5 5 5 5 5 5 5 5 5 5 5 5 5 5 5 5 5 5 5 5 5 5 5 5 5 5 3 5 5 5 5 5 5 5 3 5 5 5 5 5 3 5 5 5 5 5 5 3 5 5 5 3 5 5 5 5 5 5 5 5 5 5 5 5 5 3 5 5 5 3 5 5 5 5 5 5 5 5 5 5 5 5 5 5 5 5 5 5 5 5 5 5 5 5 5 5 5 5 5 5 5 5 5 5 5 5 5 5 5 5 5 5 5 5 3 5 5 5 5 5 5 3 5 5 5 5 5 5 3 5 5 5 5 5 5 5 5 5 5 5 5 5 5 5 5 5 5 5 5 5 5 5 5 5 5 5 5 5 3 5 5 3 5 5 3 5 5 5 5 3 5 5 5 3 5 5 5 5 5 5 5 5 5 5 5 5 5 3 5 5 5 5 5 3 5 5 5 5 5 5 3 5 5 3 5 5 5 5 3 5 5 5 5 5 5 5 5 3 3 5 5 5 5 5 3 5 5 5 5 5 5 5 5 5 5 5 5 5 5 3 5 5 5 5 5 5 3 5 5 5 5 3 5 5 5 5 5 5 5 3 5 5 5 5 5 3 3 5 5 5 5 5 3 5 5 5 5 5 5 5 5 5 5 5 5 5 5 5 5 5 5 5 5 5 5 5 5 5 5 5 5 5 3 5 5 5 5 3 5 5 5 5 5 5 5 5 5 5 5 5 5 5 5 5 5 5 5 5 5 5 5 3 5 5 5 3 5 5 5 5 3 5 5 5 5 5 5 5 5 5 5 5 5 3 5 5 5 3 5 5 5 3 5 5 5 5 5 5 5 5 5 5 5 5 5 5 5 5 5 5 5 3 5 5 5 5 5 5 5 5 5 5 5 3 5 5 5 5 5 5 3 5 3 5 3 5 5 5 5 5 5 5 5 5 5 5 5 5 3 3 5 5 5 5 5 3 5 5 5 5 3 5 5 5 5 5 5 5 5 5 5 5 5 5 5 5 5 5 5 3 5 3 5 5 5 5 3 5 5 3 5 5 5 5 5 5 5 5 5 5 5 5 5 5 3 5 5 5 5 5 5 5 5 5 5 5 5 5 5 5 5 3 5 5 5 5 5 3 5 5 3 5 5 5 3 5 5 5 5 3 5 5 5 5 5 5 5 5 5 5 5 5 5 5 5 5 5 5 3 5 5 3 5 5 5 5 3 5 5 5 5 3 5 5 5 5 5 5 5 5 5 5 5 5 5 5 5 5 3 5 3 5 5 5 5 5 5 5 3 5 5 5 5 3 5 5 3 5 5 5 5 5 3 5 5 5 5 5 5 5 5 5 5 5 5 5 5 5 5 5 3 5 3 3 5 5 5 5 5 5 5 5 5 5 5 5 5 5 3 5 5 5 5 5 3 5 5 5 5 5 3 5 5 5 5 5 5 5 5 5 5 5 5 5 5 5 5 5 5 5 5 5 3 3 5 5 5 3 5 5 5 5 5 5 5 5 5 5 5 3 5 5 5 5 5 5 5 5 5 5 5 5 5 5 5 5 5 5 5 5 5 5 5 5 5 5 5 5 5 5 5 5 5 5 5 3 5 5 3 5 5 5 5 5 5 5 5 5 5 5 5 5 5 5 5 5 5 5 5 5 5 3 5 5 5 5 5 5 3 5 5 5 5 5 5 5 5 5 5 5 5 5 5 3 5 5 5 5 5 5 3 5 5 5 3 5 5 5 5 5 5 5 5 5 5 5 5 5 5 5 5 5 5 5 5 5 5 5 5 5 5 5 5 5 3 5 5 5 5 5 5 5 3 5 5 3 5 5 5 5 5 5 5 5 
</DataArray>
</Cells>
<PointData Scalars="" Vectors="displacement," Tensors="">
<DataArray type="Float64" Name="displacement" NumberOfComponents="3" format="ascii">
-0.015000207326371817 -2.5766643489735257e-07 0 -0.013958279986692881 -9.270207277145189e-05 0 -0.013462175510797739 -7.0614899855537928e-05 0 -0.015000207326371817 -2.5766643489735257e-07 0 -0.014997763795604231 4.4136906895963231e-07 0 -0.014401176829348286 -7.0384516168677742e-05 0 -0.015000207326371817 -2.5766643489735257e-07 0 -0.014401176829348286 -7.0384516168677742e-05 0 -0.013958279986692881 -9.270207277145189e-05 0 -0.015000207326371817 -2.5766643489735257e-07 0 -0.013462175510797739 -7.0614899855537928e-05 0 -0.012919761823086769 1.0931354301891612e-07 0 -0.014999796134612378 2.8893261819079176e-08 0 -0.014474048703966208 -2.1032841369646556e-06 0 -0.014997763795604231 4.4136906895963231e-07 0 -0.014326446755482444 -4.3971459964752785e-05 0 -0.013912853370835403 5.6929593082405266e-05 0 -0.014997763795604231 4.4136906895963231e-07 0 -0.014401176829348286 -7.0384516168677742e-05 0 -0.014326446755482444 -4.3971459964752785e-05 0 -0.014401176829348286 -7.0384516168677742e-05 0 -0.014326446755482444 -4.3971459964752785e-05 0 -0.014026893264502452 -0.00010816882261316229 0 -0.014401176829348286 -7.0384516168677742e-05 0 -0.013958279986692881 -9.270207277145189e-05 0 -0.013972140875146402 -0.00012082799139708559 0 -0.014401176829348286 -7.0384516168677742e-05 0 -0.013972140875146402 -0.00012082799139708559 0 -0.014026893264502452 -0.00010816882261316229 0 -0.013958279986692881 -9.270207277145189e-05 0 -0.013723438889349598 -9.9266844291085823e-05 0 -0.013972140875146402 -0.00012082799139708559 0 -0.013958279986692881 -9.270207277145189e-05 0 -0.013462175510797739 -7.0614899855537928e-05 0 -0.013723438889349598 -9.9266844291085823e-05 0 -0.013462175510797739 -7.0614899855537928e-05 0 -0.013723438889349598 -9.9266844291085823e-05 0 -0.013364601157885563 -3.121893044497075e-05 0 -0.013707473206072154 -1.610694634430247e-05 0 -0.013896545640604047 2.6019816147094005e-05 0 -0.013776551365491253 2.1962231955682473e-05 0 -0.013707473206072154 -1.610694634430247e-05 0 -0.013723438889349598 -9.9266844291085823e-05 0 -0.013364601157885563 -3.121893044497075e-05 0 -0.013723438889349598 -9.9266844291085823e-05 0 -0.013972140875146402 -0.00012082799139708559 0 -0.013881045429715431 -0.00010855448869079976 0 -0.013707473206072154 -1.610694634430247e-05 0 -0.013723438889349598 -9.9266844291085823e-05 0 -0.013896545640604047 2.6019816147094005e-05 0 -0.013723438889349598 -9.9266844291085823e-05 0 -0.013896545640604047 2.6019816147094005e-05 0 -0.013881045429715431 -0.00010855448869079976 0 -0.013896545640604047 2.6019816147094005e-05 0 -0.013881045429715431 -0.00010855448869079976 0 -0.013998471541026503 -0.00010460775370836518 0 -0.013881045429715431 -0.00010855448869079976 0 -0.013940434272697448 -0.00012577137162922666 0 -0.013998471541026503 -0.00010460775370836518 0 -0.013881045429715431 -0.00010855448869079976 0 -0.013934837801170259 -8.9768274717685393e-05 0 -0.013940434272697448 -0.00012577137162922666 0 -0.013940434272697448 -0.00012577137162922666 0 -0.01404726183997497 -0.00029873200004996959 0 -0.013998471541026503 -0.00010460775370836518 0 -0.013881045429715431 -0.00010855448869079976 0 -0.013934837801170259 -8.9768274717685393e-05 0 -0.014026893264502452 -0.00010816882261316229 0 -0.013972140875146402 -0.00012082799139708559 0 -0.013881045429715431 -0.00010855448869079976 0 -0.014026893264502452 -0.00010816882261316229 0 -0.01499999007022456 1.3085586300332455e-08 0 -0.015000013815167107 -2.5867361303885324e-08 0 -0.014999242046025011 -7.0459847302209693e-07 0 -0.014326446755482444 -4.3971459964752785e-05 0 -0.014026893264502452 -0.00010816882261316229 0 -0.013912853370835403 5.6929593082405266e-05 0 -0.013934837801170259 -8.9768274717685393e-05 0 -0.013912853370835403 5.6929593082405266e-05 0 -0.013940434272697448 -0.00012577137162922666 0 -0.013934837801170259 -8.9768274717685393e-05 0 -0.014026893264502452 -0.00010816882261316229 0 -0.013912853370835403 5.6929593082405266e-05 0 -0.014474048703966208 -2.1032841369646556e-06 0 -0.014543222588225803 -0.0001427870715616614 0 -0.015000013815167107 -2.5867361303885324e-08 0 -0.01500001093556449 3.0148448599541352e-08 0 -0.015009362495113154 -3.7654768047482021e-05 0 -0.013912853370835403 5.6929593082405266e-05 0 -0.013940434272697448 -0.00012577137162922666 0 -0.01404726183997497 -0.00029873200004996959 0 -0.015000013815167107 -2.5867361303885324e-08 0 -0.014999242046025011 -7.0459847302209693e-07 0 -0.015009362495113154 -3.7654768047482021e-05 0 -0.01500001093556449 3.0148448599541352e-08 0 -0.015009362495113154 -3.7654768047482021e-05 0 -0.01482578005504499 -0.00011285613477721106 0 -0.014543222588225803 -0.0001427870715616614 0 -0.014800365079493904 -0.00012181757451771449 0 -0.01500001093556449 3.0148448599541352e-08 0 -0.01482578005504499 -0.00011285613477721106 0 -0.014999621744691039 -1.8281667326126707e-07 0 -0.014394227260225042 -0.00014126541366234072 0 -0.014779135024981963 -0.00011907769639984508 0 -0.014256556020480975 5.8076944635772617e-06 0 -0.01404726183997497 -0.00029873200004996959 0 -0.014394227260225042 -0.00014126541366234072 0 -0.01482578005504499 -0.00011285613477721106 0 -0.014394227260225042 -0.00014126541366234072 0 -0.01482578005504499 -0.00011285613477721106 0 -0.014779135024981963 -0.00011907769639984508 0 -0.014394227260225042 -0.00014126541366234072 0 -0.013998471541026503 -0.00010460775370836518 0 -0.014256556020480975 5.8076944635772617e-06 0 -0.01404726183997497 -0.00029873200004996959 0 -0.014394227260225042 -0.00014126541366234072 0 -0.013998471541026503 -0.00010460775370836518 0 -0.014991260324688005 3.792612661260798e-05 0 -0.014999635277002441 -3.9347093351625467e-08 0 -0.015000212682974374 5.6469267241517631e-08 0 -0.014991260324688005 3.792612661260798e-05 0 -0.015000212682974374 5.6469267241517631e-08 0 -0.015008369834468701 2.7720720755653286e-05 0 -0.014785405865567317 -1.1097952145729921e-05 0 -0.01499995246278313 -7.1402747904000601e-08 0 -0.01482578005504499 -0.00011285613477721106 0 -0.014779135024981963 -0.00011907769639984508 0 -0.014999621744691039 -1.8281667326126707e-07 0 -0.01483028158916521 7.3105201214476598e-05 0 -0.014991260324688005 3.792612661260798e-05 0 -0.014999635277002441 -3.9347093351625467e-08 0 -0.01483028158916521 7.3105201214476598e-05 0 -0.014991260324688005 3.792612661260798e-05 0 -0.014961098605413522 0.00015295098643485294 0 -0.014991260324688005 3.792612661260798e-05 0 -0.014961098605413522 0.00015295098643485294 0 -0.01502860488200981 4.2698165362587322e-05 0 -0.01225556523936901 -0.00015980522132134746 0 -0.012266164625154799 -0.00068408792135381388 0 -0.01225556523936901 -0.00015980522132134746 0 -0.011920775257544579 -4.7476078278636276e-05 0 -0.01483028158916521 7.3105201214476598e-05 0 -0.014961098605413522 0.00015295098643485294 0 -0.014776834076002736 0.0003294617627252989 0 -0.0094887478406286575 -0.00032990773849934815 0 -0.0093373068723669392 -0.00041867760420214204 0 -0.009367912756794862 -0.00029738009877092571 0 -0.0095069423314595013 -0.00056823807655781401 0 -0.0094887478406286575 -0.00032990773849934815 0 -0.0093373068723669392 -0.00041867760420214204 0 -0.0095069423314595013 -0.00056823807655781401 0 -0.0094887478406286575 -0.00032990773849934815 0 -0.0096516669066757568 -0.00047301533524303496 0 -0.013896545640604047 2.6019816147094005e-05 0 -0.014256556020480975 5.8076944635772617e-06 0 -0.01442865616255881 0.00024843659554455095 0 -0.013896545640604047 2.6019816147094005e-05 0 -0.013998471541026503 -0.00010460775370836518 0 -0.014256556020480975 5.8076944635772617e-06 0 -0.014779135024981963 -0.00011907769639984508 0 -0.014256556020480975 5.8076944635772617e-06 0 -0.01442865616255881 0.00024843659554455095 0 -0.014785405865567317 -1.1097952145729921e-05 0 -0.014751397152810349 0.00026450446621602161 0 -0.01483028158916521 7.3105201214476598e-05 0 -0.014649558079275066 0.00027207918534827036 0 -0.014776834076002736 0.0003294617627252989 0 -0.014649558079275066 0.00027207918534827036 0 -0.014776834076002736 0.0003294617627252989 0 -0.014461888894295111 0.00056858368406230832 0 -0.011920775257544579 -4.7476078278636276e-05 0 -0.012594601859566458 0.00032283650014998166 0 -0.014751397152810349 0.00026450446621602161 0 -0.012594601859566458 0.00032283650014998166 0 -0.0143055219215586 0.00014923443266257917 0 -0.012594601859566458 0.00032283650014998166 0 -0.013896545640604047 2.6019816147094005e-05 0 -0.01442865616255881 0.00024843659554455095 0 -0.014132663351772703 0.00082185104825618406 0 -0.012594601859566458 0.00032283650014998166 0 -0.010163119675426087 -0.00025856324979672271 0 -0.012594601859566458 0.00032283650014998166 0 -0.011554788938211033 -8.882145592848125e-06 0 -0.012594601859566458 0.00032283650014998166 0 -0.012907891297116629 6.20294405411476e-05 0 -0.0093373068723669392 -0.00041867760420214204 0 -0.0092727617565326291 -0.00024056468283675423 0 -0.009367912756794862 -0.00029738009877092571 0 -0.0093373068723669392 -0.00041867760420214204 0 -0.0091978289500812428 -0.0002789158913578478 0 -0.0092727617565326291 -0.00024056468283675423 0 -0.0091978289500812428 -0.0002789158913578478 0 -0.0092727617565326291 -0.00024056468283675423 0 -0.0092233264651857411 -0.00015182607279613463 0 -0.010163119675426087 -0.00025856324979672271 0 -0.010167458169001099 -0.00017233561392454431 0 -0.0092727617565326291 -0.00024056468283675423 0 -0.0093169290311777876 -0.0001150163158248895 0 -0.0092233264651857411 -0.00015182607279613463 0 -0.0093169290311777876 -0.0001150163158248895 0 -0.0092233264651857411 -0.00015182607279613463 0 -0.0092560826937449787 -1.964311221813023e-05 0 -0.011358398220330674 -5.0775149304371649e-05 0 -0.011822728197355695 -0.00039557192729401219 0 -0.011798789306702881 -0.00015439966223114706 0 -0.011604211786533102 0.00035846138842000289 0 -0.011798789306702881 -0.00015439966223114706 0 -0.011982502783635201 5.3240933306675601e-05 0 -0.011544010270838369 0.00044800332793514279 0 -0.011358398220330674 -5.0775149304371649e-05 0 -0.011798789306702881 -0.00015439966223114706 0 -0.0094887478406286575 -0.00032990773849934815 0 -0.009382900701234197 -0.00020417927186396122 0 -0.0094513919911025941 -0.0001771080358732266 0 -0.0094887478406286575 -0.00032990773849934815 0 -0.0094513919911025941 -0.0001771080358732266 0 -0.00957683471798868 -0.00018397858871396598 0 -0.0092727617565326291 -0.00024056468283675423 0 -0.009367912756794862 -0.00029738009877092571 0 -0.009382900701234197 -0.00020417927186396122 0 -0.0094887478406286575 -0.00032990773849934815 0 -0.009367912756794862 -0.00029738009877092571 0 -0.009382900701234197 -0.00020417927186396122 0 -0.0092727617565326291 -0.00024056468283675423 0 -0.0093169290311777876 -0.0001150163158248895 0 -0.009382900701234197 -0.00020417927186396122 0 -0.0093169290311777876 -0.0001150163158248895 0 -0.009382900701234197 -0.00020417927186396122 0 -0.0093817044212118565 -9.2082963237944489e-05 0 -0.0094513919911025941 -0.0001771080358732266 0 -0.0094343339276044512 -9.2669996088784728e-05 0 -0.00957683471798868 -0.00018397858871396598 0 -0.009382900701234197 -0.00020417927186396122 0 -0.0093817044212118565 -9.2082963237944489e-05 0 -0.0094513919911025941 -0.0001771080358732266 0 -0.0093817044212118565 -9.2082963237944489e-05 0 -0.0094513919911025941 -0.0001771080358732266 0 -0.0094343339276044512 -9.2669996088784728e-05 0 -0.0093888543270580875 -2.0922753390434511e-05 0 -0.0094343339276044512 -9.2669996088784728e-05 0 -0.0093301604232336587 -4.4370769808354205e-05 0 -0.0093888543270580875 -2.0922753390434511e-05 0 -0.0094343339276044512 -9.2669996088784728e-05 0 -0.009509417957118774 -5.8873259998227175e-05 0 -0.0093817044212118565 -9.2082963237944489e-05 0 -0.0094343339276044512 -9.2669996088784728e-05 0 -0.0093301604232336587 -4.4370769808354205e-05 0 -0.0093888543270580875 -2.0922753390434511e-05 0 -0.0093301604232336587 -4.4370769808354205e-05 0 -0.009214353006332986 -5.3432676369325022e-05 0 -0.0093169290311777876 -0.0001150163158248895 0 -0.0093817044212118565 -9.2082963237944489e-05 0 -0.0093815139073395813 1.9251262355242642e-05 0 -0.0093301604232336587 -4.4370769808354205e-05 0 -0.0093815139073395813 1.9251262355242642e-05 0 -0.009214353006332986 -5.3432676369325022e-05 0 -0.0093817044212118565 -9.2082963237944489e-05 0 -0.0093301604232336587 -4.4370769808354205e-05 0 -0.0093815139073395813 1.9251262355242642e-05 0 -0.0092318452607452819 -0.00012940326728669922 0 -0.0091880676304093769 -4.902139660721587e-05 0 -0.0093815139073395813 1.9251262355242642e-05 0 -0.009214353006332986 -5.3432676369325022e-05 0 -0.0096449025093098498 -0.00070635927194737905 0 -0.009214353006332986 -5.3432676369325022e-05 0 -0.0087947708534552201 0.00028407518987171124 0 -0.009102372058809911 0.00022506883217913076 0 -0.009214353006332986 -5.3432676369325022e-05 0 -0.0093570083125207506 0.00011683856692450756 0 -0.009102372058809911 0.00022506883217913076 0 -0.0093888543270580875 -2.0922753390434511e-05 0 -0.009214353006332986 -5.3432676369325022e-05 0 -0.0093570083125207506 0.00011683856692450756 0 -0.010613460379682927 4.6459833017026123e-05 0 -0.0099366758628774005 0.00019721168028654301 0 -0.010201089518937272 -0.00012713188802204777 0 -0.011358398220330674 -5.0775149304371649e-05 0 -0.011177697805839607 -0.00052680668056323803 0 -0.011822728197355695 -0.00039557192729401219 0 -0.010167458169001099 -0.00017233561392454431 0 -0.011342714984454459 -1.6241974538705694e-05 0 -0.010613460379682927 4.6459833017026123e-05 0 -0.0099366758628774005 0.00019721168028654301 0 -0.010805175177201446 0.00037063692050112994 0 -0.0093169290311777876 -0.0001150163158248895 0 -0.0093815139073395813 1.9251262355242642e-05 0 -0.0092560826937449787 -1.964311221813023e-05 0 -0.0092408581799654985 -7.4425060095988671e-06 0 -0.010167458169001099 -0.00017233561392454431 0 -0.0093815139073395813 1.9251262355242642e-05 0 -0.0099306288799961319 0.00015576215215045894 0 -0.0098382966964340405 -0.00010067056597856393 0 -0.010167458169001099 -0.00017233561392454431 0 -0.010029224089883724 -6.3801136630826547e-05 0 -0.0099366758628774005 0.00019721168028654301 0 -0.0098382966964340405 -0.00010067056597856393 0 -0.010201089518937272 -0.00012713188802204777 0 -0.0098382966964340405 -0.00010067056597856393 0 -0.010201089518937272 -0.00012713188802204777 0 -0.0096449025093098498 -0.00070635927194737905 0 -0.0093815139073395813 1.9251262355242642e-05 0 -0.0098382966964340405 -0.00010067056597856393 0 -0.0096449025093098498 -0.00070635927194737905 0 -0.010201089518937272 -0.00012713188802204777 0 -0.010570848312162932 -0.00034575361615405477 0 -0.0096449025093098498 -0.00070635927194737905 0 -0.010825632100154213 -0.00020619871856744824 0 -0.0091880676304093769 -4.902139660721587e-05 0 -0.010613460379682927 4.6459833017026123e-05 0 -0.010201089518937272 -0.00012713188802204777 0 -0.010570848312162932 -0.00034575361615405477 0 -0.010704795254919455 1.3583899466307693e-05 0 -0.011262305155044611 -9.8978610008290489e-05 0 -0.010581314410494563 -0.00020320934241918159 0 -0.010825632100154213 -0.00020619871856744824 0 -0.011436759108323197 0.00012722915784643601 0 -0.010613460379682927 4.6459833017026123e-05 0 -0.010570848312162932 -0.00034575361615405477 0 -0.011571314669148432 0.00013176859479152792 0 -0.010704795254919455 1.3583899466307693e-05 0 -0.011262305155044611 -9.8978610008290489e-05 0 -0.011571314669148432 0.00013176859479152792 0 -0.011342714984454459 -1.6241974538705694e-05 0 -0.012275138943564216 0.00013404404403581747 0 -0.010613460379682927 4.6459833017026123e-05 0 -0.010805175177201446 0.00037063692050112994 0 -0.011571314669148432 0.00013176859479152792 0 -0.010805175177201446 0.00037063692050112994 0 -0.011571314669148432 0.00013176859479152792 0 -0.011696835636290873 0.00046673229669402035 0 -0.011936599991962026 0.00023704350671558552 0 -0.011571314669148432 0.00013176859479152792 0 -0.011696835636290873 0.00046673229669402035 0 -0.01198610187774048 0.00031306181888377915 0 -0.012275138943564216 0.00013404404403581747 0 -0.011571314669148432 0.00013176859479152792 0 -0.011601910878891617 -3.7576862429540123e-05 0 -0.011796630786633058 5.6657241703843507e-05 0 -0.011936599991962026 0.00023704350671558552 0 -0.011571314669148432 0.00013176859479152792 0 -0.011796630786633058 5.6657241703843507e-05 0 -0.011262305155044611 -9.8978610008290489e-05 0 -0.011571314669148432 0.00013176859479152792 0 -0.011601910878891617 -3.7576862429540123e-05 0 -0.011262305155044611 -9.8978610008290489e-05 0 -0.011601910878891617 -3.7576862429540123e-05 0 -0.011496984566990663 -0.00013804044713568712 0 -0.011435790945892903 -2.9377740789261851e-07 0 -0.012260350878491694 0.0001322081280438166 0 -0.012919761823086769 1.0931354301891612e-07 0 -0.011601910878891617 -3.7576862429540123e-05 0 -0.011711271350206449 -3.9919768113947123e-05 0 -0.011496984566990663 -0.00013804044713568712 0 -0.011601910878891617 -3.7576862429540123e-05 0 -0.011711271350206449 -3.9919768113947123e-05 0 -0.011796630786633058 5.6657241703843507e-05 0 -0.011711271350206449 -3.9919768113947123e-05 0 -0.011435790945892903 -2.9377740789261851e-07 0 -0.012260350878491694 0.0001322081280438166 0 -0.011711271350206449 -3.9919768113947123e-05 0 -0.011796630786633058 5.6657241703843507e-05 0 -0.012260350878491694 0.0001322081280438166 0 -0.011936599991962026 0.00023704350671558552 0 -0.011796630786633058 5.6657241703843507e-05 0 -0.012260350878491694 0.0001322081280438166 0 -0.011936599991962026 0.00023704350671558552 0 -0.012260350878491694 0.0001322081280438166 0 -0.012444537364444855 0.00027223480250303375 0 -0.012260350878491694 0.0001322081280438166 0 -0.012444537364444855 0.00027223480250303375 0 -0.012847859124735531 6.2897710733595503e-05 0 -0.012444537364444855 0.00027223480250303375 0 -0.012847859124735531 6.2897710733595503e-05 0 -0.013143803520804851 0.00010358164506090253 0 -0.012260350878491694 0.0001322081280438166 0 -0.012919761823086769 1.0931354301891612e-07 0 -0.012847859124735531 6.2897710733595503e-05 0 -0.013462175510797739 -7.0614899855537928e-05 0 -0.012919761823086769 1.0931354301891612e-07 0 -0.012847859124735531 6.2897710733595503e-05 0 -0.012847859124735531 6.2897710733595503e-05 0 -0.013364601157885563 -3.121893044497075e-05 0 -0.013143803520804851 0.00010358164506090253 0 -0.013462175510797739 -7.0614899855537928e-05 0 -0.012847859124735531 6.2897710733595503e-05 0 -0.013364601157885563 -3.121893044497075e-05 0 -0.013707473206072154 -1.610694634430247e-05 0 -0.013364601157885563 -3.121893044497075e-05 0 -0.013481035582350073 1.9438333825464632e-05 0 -0.013481035582350073 1.9438333825464632e-05 0 -0.013660656645414755 0.00018078345518349179 0 -0.013143803520804851 0.00010358164506090253 0 -0.013364601157885563 -3.121893044497075e-05 0 -0.013481035582350073 1.9438333825464632e-05 0 -0.013143803520804851 0.00010358164506090253 0 -0.013707473206072154 -1.610694634430247e-05 0 -0.013481035582350073 1.9438333825464632e-05 0 -0.013697702597516431 4.4535802299704679e-05 0 -0.013707473206072154 -1.610694634430247e-05 0 -0.013776551365491253 2.1962231955682473e-05 0 -0.013697702597516431 4.4535802299704679e-05 0 -0.013776551365491253 2.1962231955682473e-05 0 -0.013697702597516431 4.4535802299704679e-05 0 -0.013660656645414755 0.00018078345518349179 0 -0.013481035582350073 1.9438333825464632e-05 0 -0.013697702597516431 4.4535802299704679e-05 0 -0.013660656645414755 0.00018078345518349179 0 -0.011798789306702881 -0.00015439966223114706 0 -0.011982502783635201 5.3240933306675601e-05 0 -0.012404593334594927 -0.00026961866942899461 0 -0.011822728197355695 -0.00039557192729401219 0 -0.011798789306702881 -0.00015439966223114706 0 -0.012404593334594927 -0.00026961866942899461 0 -0.012907891297116629 6.20294405411476e-05 0 -0.012275138943564216 0.00013404404403581747 0 -0.013660656645414755 0.00018078345518349179 0 -0.013148949867526398 0.00050640514386784215 0 -0.013143803520804851 0.00010358164506090253 0 -0.012444537364444855 0.00027223480250303375 0 -0.013148949867526398 0.00050640514386784215 0 -0.013143803520804851 0.00010358164506090253 0 -0.011936599991962026 0.00023704350671558552 0 -0.012444537364444855 0.00027223480250303375 0 -0.011714207860638688 0.00042359332693194419 0 -0.012470432567345783 0.0003101796000349706 0 -0.012275138943564216 0.00013404404403581747 0 -0.014881936185018841 -4.6337378837543584e-05 0 -0.014892677164929428 -2.9192951343457636e-05 0 -0.014885252013197505 -4.5832570790329191e-05 0 -0.014881936185018841 -4.6337378837543584e-05 0 -0.014879877296145011 -2.7947688738835744e-05 0 -0.014892677164929428 -2.9192951343457636e-05 0 -0.014881936185018841 -4.6337378837543584e-05 0 -0.014871205330205696 -4.5604342125600669e-05 0 -0.014879877296145011 -2.7947688738835744e-05 0 -0.014871205330205696 -4.5604342125600669e-05 0 -0.014880773353641538 -5.4844343302731138e-05 0 -0.014857910758599538 -6.6714045135993669e-05 0 -0.014881936185018841 -4.6337378837543584e-05 0 -0.014871205330205696 -4.5604342125600669e-05 0 -0.014880773353641538 -5.4844343302731138e-05 0 -0.014881936185018841 -4.6337378837543584e-05 0 -0.014880773353641538 -5.4844343302731138e-05 0 -0.01488041859111437 -4.6789667255587211e-05 0 -0.014880773353641538 -5.4844343302731138e-05 0 -0.01488041859111437 -4.6789667255587211e-05 0 -0.014901341126760408 -4.1165137751720773e-05 0 -0.015070835080688879 3.6370094226740836e-05 0 -0.013869380433505888 2.6788341778038256e-05 0 -0.014881936185018841 -4.6337378837543584e-05 0 -0.01488041859111437 -4.6789667255587211e-05 0 -0.014885252013197505 -4.5832570790329191e-05 0 -0.014994476490914722 -5.6329805306660402e-06 0 -0.014999791550359362 -9.2752574375174302e-07 0 -0.014993988925381528 5.2079496692340402e-09 0 -0.014999996142760832 -1.5429881280058103e-10 0 -0.014999791550359362 -9.2752574375174302e-07 0 -0.014993988925381528 5.2079496692340402e-09 0 -0.014999996142760832 -1.5429881280058103e-10 0 -0.014999791550359362 -9.2752574375174302e-07 0 -0.015000002013801656 -6.9089869918572512e-10 0 -0.015070835080688879 3.6370094226740836e-05 0 -0.01493474921101378 -3.0710501770272748e-05 0 -0.01488041859111437 -4.6789667255587211e-05 0 -0.014908416959792907 -1.9552852988454811e-05 0 -0.014901341126760408 -4.1165137751720773e-05 0 -0.014901341126760408 -4.1165137751720773e-05 0 -0.014950606914982482 -1.9580647143621272e-05 0 -0.014894347528658746 -5.077124499273021e-05 0 -0.014908416959792907 -1.9552852988454811e-05 0 -0.014901341126760408 -4.1165137751720773e-05 0 -0.014950606914982482 -1.9580647143621272e-05 0 -0.01493474921101378 -3.0710501770272748e-05 0 -0.014999998095378974 1.6864257233216242e-08 0 -0.014908416959792907 -1.9552852988454811e-05 0 -0.014950606914982482 -1.9580647143621272e-05 0 -0.014999800804765675 9.9298002459779652e-09 0 -0.014950606914982482 -1.9580647143621272e-05 0 -0.014999800804765675 9.9298002459779652e-09 0 -0.014999996955971651 -4.5013427582663146e-09 0 -0.014950606914982482 -1.9580647143621272e-05 0 -0.014964241961290727 -1.9946189065626516e-05 0 -0.014999996955971651 -4.5013427582663146e-09 0 -0.014950606914982482 -1.9580647143621272e-05 0 -0.014927249393087073 -4.1663708787419277e-05 0 -0.014964241961290727 -1.9946189065626516e-05 0 -0.014927249393087073 -4.1663708787419277e-05 0 -0.014877378651771597 -6.2411274808374498e-05 0 -0.014947456421801494 -6.8758135742261596e-05 0 -0.014927249393087073 -4.1663708787419277e-05 0 -0.014894347528658746 -5.077124499273021e-05 0 -0.014877378651771597 -6.2411274808374498e-05 0 -0.014950606914982482 -1.9580647143621272e-05 0 -0.014927249393087073 -4.1663708787419277e-05 0 -0.014894347528658746 -5.077124499273021e-05 0 -0.014880773353641538 -5.4844343302731138e-05 0 -0.014901341126760408 -4.1165137751720773e-05 0 -0.014894347528658746 -5.077124499273021e-05 0 -0.014880773353641538 -5.4844343302731138e-05 0 -0.014894347528658746 -5.077124499273021e-05 0 -0.014857910758599538 -6.6714045135993669e-05 0 -0.014894347528658746 -5.077124499273021e-05 0 -0.014857910758599538 -6.6714045135993669e-05 0 -0.014877378651771597 -6.2411274808374498e-05 0 -0.014857910758599538 -6.6714045135993669e-05 0 -0.014877378651771597 -6.2411274808374498e-05 0 -0.014795723665167697 -8.342104566247078e-05 0 -0.014877378651771597 -6.2411274808374498e-05 0 -0.014947456421801494 -6.8758135742261596e-05 0 -0.014795723665167697 -8.342104566247078e-05 0 -0.014699715362263653 -0.00023805139628825024 0 -0.014799422888590034 -9.6407540120273323e-05 0 -0.014457744653602968 -0.00042888770510049262 0 -0.014274590916772956 -0.00020351574599068281 0 -0.014795723665167697 -8.342104566247078e-05 0 -0.01212854974318889 -0.00027666143940773084 0 -0.011739328185088081 -0.000644276451392806 0 -0.0099482530851213516 -0.00038542328278523449 0 -0.0097991016150194184 -0.00052769637036712046 0 -0.0097772360452847689 -0.00037924416736978209 0 -0.014457744653602968 -0.00042888770510049262 0 -0.014274590916772956 -0.00020351574599068281 0 -0.013908042017080288 -0.00062415468716381394 0 -0.014457744653602968 -0.00042888770510049262 0 -0.014058968988399237 -0.00078274854066885116 0 -0.013908042017080288 -0.00062415468716381394 0 -0.014699715362263653 -0.00023805139628825024 0 -0.014535822398171232 -0.00043128407190172132 0 -0.014927249393087073 -4.1663708787419277e-05 0 -0.014947456421801494 -6.8758135742261596e-05 0 -0.01496557527829616 -3.1648317012177013e-05 0 -0.014947456421801494 -6.8758135742261596e-05 0 -0.01496557527829616 -3.1648317012177013e-05 0 -0.014994179930705051 -2.9424479777688998e-05 0 -0.014927249393087073 -4.1663708787419277e-05 0 -0.01496557527829616 -3.1648317012177013e-05 0 -0.014964241961290727 -1.9946189065626516e-05 0 -0.01496557527829616 -3.1648317012177013e-05 0 -0.014964241961290727 -1.9946189065626516e-05 0 -0.014987872055551091 -1.1525656113905325e-05 0 -0.014964241961290727 -1.9946189065626516e-05 0 -0.014999996955971651 -4.5013427582663146e-09 0 -0.014987872055551091 -1.1525656113905325e-05 0 -0.014999996955971651 -4.5013427582663146e-09 0 -0.014987872055551091 -1.1525656113905325e-05 0 -0.014999987257265169 -7.6039855270983808e-09 0 -0.014987872055551091 -1.1525656113905325e-05 0 -0.014996923478081294 -1.0881811806411102e-05 0 -0.014999987257265169 -7.6039855270983808e-09 0 -0.014987872055551091 -1.1525656113905325e-05 0 -0.014994179930705051 -2.9424479777688998e-05 0 -0.014996923478081294 -1.0881811806411102e-05 0 -0.01496557527829616 -3.1648317012177013e-05 0 -0.014987872055551091 -1.1525656113905325e-05 0 -0.014994179930705051 -2.9424479777688998e-05 0 -0.014994179930705051 -2.9424479777688998e-05 0 -0.014996923478081294 -1.0881811806411102e-05 0 -0.015000345885869258 -6.8731278470888718e-06 0 -0.014058968988399237 -0.00078274854066885116 0 -0.013665692852683093 -0.0011292343174244945 0 -0.013566183474917653 -0.0010533921674918739 0 -0.014058968988399237 -0.00078274854066885116 0 -0.013566183474917653 -0.0010533921674918739 0 -0.013908042017080288 -0.00062415468716381394 0 -0.014535822398171232 -0.00043128407190172132 0 -0.014231889460806522 -0.00039365686319068016 0 -0.012266164625154799 -0.00068408792135381388 0 -0.011739328185088081 -0.000644276451392806 0 -0.014999987257265169 -7.6039855270983808e-09 0 -0.015000008795036863 -3.0897354064045016e-09 0 -0.015000345885869258 -6.8731278470888718e-06 0 -0.014996923478081294 -1.0881811806411102e-05 0 -0.014999987257265169 -7.6039855270983808e-09 0 -0.015000345885869258 -6.8731278470888718e-06 0 -0.014991260324688005 3.792612661260798e-05 0 -0.015008369834468701 2.7720720755653286e-05 0 -0.01502860488200981 4.2698165362587322e-05 0 -0.015000212682974374 5.6469267241517631e-08 0 -0.015038759686722707 3.098795278016918e-05 0 -0.015008369834468701 2.7720720755653286e-05 0 -0.015000593876588825 5.3692509722134716e-07 0 -0.014231889460806522 -0.00039365686319068016 0 -0.015038759686722707 3.098795278016918e-05 0 -0.015008369834468701 2.7720720755653286e-05 0 -0.01502860488200981 4.2698165362587322e-05 0 -0.014231889460806522 -0.00039365686319068016 0 -0.012266164625154799 -0.00068408792135381388 0 -0.0095069423314595013 -0.00056823807655781401 0 -0.0096889641173350041 -0.00070102649066477746 0 -0.0096516669066757568 -0.00047301533524303496 0 -0.0096889641173350041 -0.00070102649066477746 0 -0.0096516669066757568 -0.00047301533524303496 0 -0.0097991016150194184 -0.00052769637036712046 0 -0.0096516669066757568 -0.00047301533524303496 0 -0.0097991016150194184 -0.00052769637036712046 0 -0.0097772360452847689 -0.00037924416736978209 0 -0.0096516669066757568 -0.00047301533524303496 0 -0.0097772360452847689 -0.00037924416736978209 0 -0.0096480117294451741 -0.00032672314758015248 0 -0.0094887478406286575 -0.00032990773849934815 0 -0.0096516669066757568 -0.00047301533524303496 0 -0.0096480117294451741 -0.00032672314758015248 0 -0.0094887478406286575 -0.00032990773849934815 0 -0.0096480117294451741 -0.00032672314758015248 0 -0.00957683471798868 -0.00018397858871396598 0 -0.0096480117294451741 -0.00032672314758015248 0 -0.0097504356852388899 -0.00022378658145909972 0 -0.00957683471798868 -0.00018397858871396598 0 -0.0097772360452847689 -0.00037924416736978209 0 -0.0096480117294451741 -0.00032672314758015248 0 -0.0097504356852388899 -0.00022378658145909972 0 -0.0097772360452847689 -0.00037924416736978209 0 -0.0097504356852388899 -0.00022378658145909972 0 -0.0098505076473040798 -0.00028358951690124153 0 -0.0097504356852388899 -0.00022378658145909972 0 -0.0097381670841432486 -8.1415504610523118e-05 0 -0.0096690534870375495 -0.00014192112442966025 0 -0.0097504356852388899 -0.00022378658145909972 0 -0.0096690534870375495 -0.00014192112442966025 0 -0.00957683471798868 -0.00018397858871396598 0 -0.0097504356852388899 -0.00022378658145909972 0 -0.0097381670841432486 -8.1415504610523118e-05 0 -0.0098143592320698806 -0.00010218859022968901 0 -0.0097381670841432486 -8.1415504610523118e-05 0 -0.0096690534870375495 -0.00014192112442966025 0 -0.0096184259209552963 -7.8249003566220292e-05 0 -0.00957683471798868 -0.00018397858871396598 0 -0.009509417957118774 -5.8873259998227175e-05 0 -0.0096184259209552963 -7.8249003566220292e-05 0 -0.0096690534870375495 -0.00014192112442966025 0 -0.00957683471798868 -0.00018397858871396598 0 -0.0096184259209552963 -7.8249003566220292e-05 0 -0.0094343339276044512 -9.2669996088784728e-05 0 -0.00957683471798868 -0.00018397858871396598 0 -0.009509417957118774 -5.8873259998227175e-05 0 -0.009509417957118774 -5.8873259998227175e-05 0 -0.0096184259209552963 -7.8249003566220292e-05 0 -0.0095382423911545278 2.0412461554924696e-05 0 -0.0096184259209552963 -7.8249003566220292e-05 0 -0.0095382423911545278 2.0412461554924696e-05 0 -0.009668820277351305 -2.8384352114361743e-06 0 -0.0093888543270580875 -2.0922753390434511e-05 0 -0.009509417957118774 -5.8873259998227175e-05 0 -0.0095382423911545278 2.0412461554924696e-05 0 -0.0093888543270580875 -2.0922753390434511e-05 0 -0.0093570083125207506 0.00011683856692450756 0 -0.0095382423911545278 2.0412461554924696e-05 0 -0.0093570083125207506 0.00011683856692450756 0 -0.0095382423911545278 2.0412461554924696e-05 0 -0.0095437875857926173 0.00014973279771493574 0 -0.0095382423911545278 2.0412461554924696e-05 0 -0.0096458255487892296 9.7015257047943971e-05 0 -0.009668820277351305 -2.8384352114361743e-06 0 -0.0095382423911545278 2.0412461554924696e-05 0 -0.0095437875857926173 0.00014973279771493574 0 -0.0096458255487892296 9.7015257047943971e-05 0 -0.0093570083125207506 0.00011683856692450756 0 -0.0095437875857926173 0.00014973279771493574 0 -0.0095278137220630096 0.00030720033827511011 0 -0.0097326311759141255 0.00016355397558124143 0 -0.0097307330234263981 0.00053498670181420386 0 -0.0096458255487892296 9.7015257047943971e-05 0 -0.0097880579190741581 3.9861972102172681e-05 0 -0.0096779264205783307 0.00027999504432399446 0 -0.0096979215837007526 0.00029417320592992822 0 -0.009719253362275436 0.00050889485864114492 0 -0.0094960840175010077 0.00069266170720202753 0 -0.0095437875857926173 0.00014973279771493574 0 -0.0096458255487892296 9.7015257047943971e-05 0 -0.0096779264205783307 0.00027999504432399446 0 -0.0097381670841432486 -8.1415504610523118e-05 0 -0.0097880579190741581 3.9861972102172681e-05 0 -0.0098143592320698806 -0.00010218859022968901 0 -0.0096458255487892296 9.7015257047943971e-05 0 -0.009668820277351305 -2.8384352114361743e-06 0 -0.0097880579190741581 3.9861972102172681e-05 0 -0.0097381670841432486 -8.1415504610523118e-05 0 -0.009668820277351305 -2.8384352114361743e-06 0 -0.0097880579190741581 3.9861972102172681e-05 0 -0.0097381670841432486 -8.1415504610523118e-05 0 -0.0096184259209552963 -7.8249003566220292e-05 0 -0.009668820277351305 -2.8384352114361743e-06 0 -0.0097880579190741581 3.9861972102172681e-05 0 -0.0098143592320698806 -0.00010218859022968901 0 -0.0099328138616945841 -9.7413300362294522e-05 0 -0.0099411752369452065 0.00019983282021423463 0 -0.0096979215837007526 0.00029417320592992822 0 -0.0099328138616945841 -9.7413300362294522e-05 0 -0.0097326311759141255 0.00016355397558124143 0 -0.0099202491764232674 -8.7778001222222165e-05 0 -0.0099411752369452065 0.00019983282021423463 0 -0.0096979215837007526 0.00029417320592992822 0 -0.0099028597017843251 0.00037858021369149153 0 -0.0099747060175706566 0.00023264314398135433 0 -0.0092535197066502001 0.0010769297485302555 0 -0.0099028597017843251 0.00037858021369149153 0 -0.009719253362275436 0.00050889485864114492 0 -0.0097794606567733148 0.00067033574865448084 0 -0.0099028597017843251 0.00037858021369149153 0 -0.010020428256460571 0.00049891999631874746 0 -0.0097593853170920963 0.00069505486963783133 0 -0.0096979215837007526 0.00029417320592992822 0 -0.0099028597017843251 0.00037858021369149153 0 -0.009719253362275436 0.00050889485864114492 0 -0.01018458025159003 0.00052383211410438784 0 -0.010020428256460571 0.00049891999631874746 0 -0.010124490239568082 0.0004414033405231895 0 -0.01018458025159003 0.00052383211410438784 0 -0.010124490239568082 0.0004414033405231895 0 -0.010251699988515319 0.00047784443550749601 0 -0.0102457993744025 0.00065410596678856076 0 -0.010220789907908793 0.00070632033459936685 0 -0.01018458025159003 0.00052383211410438784 0 -0.010020428256460571 0.00049891999631874746 0 -0.010046032160450779 0.00066890804358860773 0 -0.0099028597017843251 0.00037858021369149153 0 -0.010020428256460571 0.00049891999631874746 0 -0.010079887719459748 0.00031463238696505073 0 -0.010020428256460571 0.00049891999631874746 0 -0.010079887719459748 0.00031463238696505073 0 -0.010124490239568082 0.0004414033405231895 0 -0.010079887719459748 0.00031463238696505073 0 -0.010124490239568082 0.0004414033405231895 0 -0.010251699988515319 0.00047784443550749601 0 -0.010148812272415351 0.00022415407887321914 0 -0.010291946657557356 -8.2097090671156615e-05 0 -0.010384875429105912 0.000314706998134169 0 -0.0099411752369452065 0.00019983282021423463 0 -0.010095446110132028 0.00012322336315507133 0 -0.0099328138616945841 -9.7413300362294522e-05 0 -0.010079887719459748 0.00031463238696505073 0 -0.010095446110132028 0.00012322336315507133 0 -0.010251699988515319 0.00047784443550749601 0 -0.010123258635759774 0.00015283874585230063 0 -0.010220789907908793 0.00070632033459936685 0 -0.010148812272415351 0.00022415407887321914 0 -0.010384875429105912 0.000314706998134169 0 -0.010360090046789859 0.00069438490000948397 0 -0.0099411752369452065 0.00019983282021423463 0 -0.0099028597017843251 0.00037858021369149153 0 -0.010079887719459748 0.00031463238696505073 0 -0.0099411752369452065 0.00019983282021423463 0 -0.010079887719459748 0.00031463238696505073 0 -0.010095446110132028 0.00012322336315507133 0 -0.010095446110132028 0.00012322336315507133 0 -0.0099785254402462494 -0.00017321709057382351 0 -0.0099328138616945841 -9.7413300362294522e-05 0 -0.010123258635759774 0.00015283874585230063 0 -0.009988849218558046 -0.00013941390420412657 0 -0.010148812272415351 0.00022415407887321914 0 -0.010291946657557356 -8.2097090671156615e-05 0 -0.0099785254402462494 -0.00017321709057382351 0 -0.0097504356852388899 -0.00022378658145909972 0 -0.0098143592320698806 -0.00010218859022968901 0 -0.0098603962102718924 -0.0001822208941552995 0 -0.0098143592320698806 -0.00010218859022968901 0 -0.0098603962102718924 -0.0001822208941552995 0 -0.0099328138616945841 -9.7413300362294522e-05 0 -0.0098603962102718924 -0.0001822208941552995 0 -0.0099785254402462494 -0.00017321709057382351 0 -0.0099328138616945841 -9.7413300362294522e-05 0 -0.0098603962102718924 -0.0001822208941552995 0 -0.0099785254402462494 -0.00017321709057382351 0 -0.0098505076473040798 -0.00028358951690124153 0 -0.0099482530851213516 -0.00038542328278523449 0 -0.0099785254402462494 -0.00017321709057382351 0 -0.0098505076473040798 -0.00028358951690124153 0 -0.0099482530851213516 -0.00038542328278523449 0 -0.0097772360452847689 -0.00037924416736978209 0 -0.0098505076473040798 -0.00028358951690124153 0 -0.0097504356852388899 -0.00022378658145909972 0 -0.0098603962102718924 -0.0001822208941552995 0 -0.0098505076473040798 -0.00028358951690124153 0 -0.0099482530851213516 -0.00038542328278523449 0 -0.010291946657557356 -8.2097090671156615e-05 0 -0.0099785254402462494 -0.00017321709057382351 0 -0.01212854974318889 -0.00027666143940773084 0 -0.012502026876511096 -1.6310383429431178e-05 0 -0.014274590916772956 -0.00020351574599068281 0 -0.014600538719772379 9.1451235621351249e-05 0 -0.014795723665167697 -8.342104566247078e-05 0 -0.014795723665167697 -8.342104566247078e-05 0 -0.014779133826548082 6.180381748607771e-05 0 -0.01485063320338169 -1.5627759481309261e-05 0 -0.014871205330205696 -4.5604342125600669e-05 0 -0.014857910758599538 -6.6714045135993669e-05 0 -0.01485063320338169 -1.5627759481309261e-05 0 -0.014857910758599538 -6.6714045135993669e-05 0 -0.014795723665167697 -8.342104566247078e-05 0 -0.01485063320338169 -1.5627759481309261e-05 0 -0.014779133826548082 6.180381748607771e-05 0 -0.01485064152183606 0.00010048618992094875 0 -0.01485063320338169 -1.5627759481309261e-05 0 -0.014600538719772379 9.1451235621351249e-05 0 -0.014795723665167697 -8.342104566247078e-05 0 -0.014779133826548082 6.180381748607771e-05 0 -0.014600538719772379 9.1451235621351249e-05 0 -0.014779133826548082 6.180381748607771e-05 0 -0.014737496608478111 0.00020815688055076105 0 -0.010291946657557356 -8.2097090671156615e-05 0 -0.010384875429105912 0.000314706998134169 0 -0.010735403353106146 0.00044009061818433301 0 -0.012502026876511096 -1.6310383429431178e-05 0 -0.012309737599461834 0.00051799646746707683 0 -0.010384875429105912 0.000314706998134169 0 -0.010360090046789859 0.00069438490000948397 0 -0.010735403353106146 0.00044009061818433301 0 -0.010220789907908793 0.00070632033459936685 0 -0.012309737599461834 0.00051799646746707683 0 -0.011175781012646109 0.00081571815484361612 0 -0.010777299571974331 0.00078162270998018645 0 -0.011277543308259929 0.0004463811274609902 0 -0.011175781012646109 0.00081571815484361612 0 -0.011419487534490231 0.0010344159187262406 0 -0.010913229653857348 0.0010804354627955619 0 -0.010220789907908793 0.00070632033459936685 0 -0.0095957279066129133 0.0010620193798899875 0 -0.011175781012646109 0.00081571815484361612 0 -0.010777299571974331 0.00078162270998018645 0 -0.010913229653857348 0.0010804354627955619 0 -0.01018458025159003 0.00052383211410438784 0 -0.010246387846764028 0.00048207498133576122 0 -0.010318192595387951 0.00064433842772686765 0 -0.01148598155395392 0.00073253279776974538 0 -0.011798763912861492 0.00065103055718543704 0 -0.011886619300231726 0.00098824784671419988 0 -0.01148598155395392 0.00073253279776974538 0 -0.011886619300231726 0.00098824784671419988 0 -0.011419487534490231 0.0010344159187262406 0 -0.011175781012646109 0.00081571815484361612 0 -0.01148598155395392 0.00073253279776974538 0 -0.011419487534490231 0.0010344159187262406 0 -0.011598490429927206 0.00043591735631245878 0 -0.012309737599461834 0.00051799646746707683 0 -0.01148598155395392 0.00073253279776974538 0 -0.011696539685996463 0.00045923631906215101 0 -0.011308023757050773 0.00048043329799355599 0 -0.011175781012646109 0.00081571815484361612 0 -0.01148598155395392 0.00073253279776974538 0 -0.011277543308259929 0.0004463811274609902 0 -0.01148598155395392 0.00073253279776974538 0 -0.011696539685996463 0.00045923631906215101 0 -0.011798763912861492 0.00065103055718543704 0 -0.014779133826548082 6.180381748607771e-05 0 -0.014737496608478111 0.00020815688055076105 0 -0.01485064152183606 0.00010048618992094875 0 -0.011696539685996463 0.00045923631906215101 0 -0.011308023757050773 0.00048043329799355599 0 -0.011845512904037894 0.00011630418081457125 0 -0.012309737599461834 0.00051799646746707683 0 -0.013693073909551266 -3.932157747509745e-05 0 -0.011845512904037894 0.00011630418081457125 0 -0.012129848687131557 0.00036361366625802427 0 -0.012367844551440427 -0.00023961560617335512 0 -0.011696539685996463 0.00045923631906215101 0 -0.011845512904037894 0.00011630418081457125 0 -0.012129848687131557 0.00036361366625802427 0 -0.011696539685996463 0.00045923631906215101 0 -0.012129848687131557 0.00036361366625802427 0 -0.011798763912861492 0.00065103055718543704 0 -0.010549812527462657 0.00075291271978406482 0 -0.01057824515964069 0.0010125830313407352 0 -0.01035464837263533 0.0011943687410355594 0 -0.012129848687131557 0.00036361366625802427 0 -0.011798763912861492 0.00065103055718543704 0 -0.011886619300231726 0.00098824784671419988 0 -0.011302242214374703 0.00059161001170213081 0 -0.010783113972490901 0.0010391378133868653 0 -0.010471392011964259 0.0011845286975736443 0 -0.01057824515964069 0.0010125830313407352 0 -0.01035464837263533 0.0011943687410355594 0 -0.010798437882387667 0.0010298559429234913 0 -0.010691545788180596 0.0012013108555455169 0 -0.010961820573932166 0.0012301978875228082 0 -0.010798437882387667 0.0010298559429234913 0 -0.01057824515964069 0.0010125830313407352 0 -0.010691545788180596 0.0012013108555455169 0 -0.010471392011964259 0.0011845286975736443 0 -0.01057824515964069 0.0010125830313407352 0 -0.010691545788180596 0.0012013108555455169 0 -0.010549812527462657 0.00075291271978406482 0 -0.01057824515964069 0.0010125830313407352 0 -0.010827730742537126 0.00083312018010377024 0 -0.010798437882387667 0.0010298559429234913 0 -0.01057824515964069 0.0010125830313407352 0 -0.010827730742537126 0.00083312018010377024 0 -0.010798437882387667 0.0010298559429234913 0 -0.010827730742537126 0.00083312018010377024 0 -0.010962083885499959 0.00097042354336866017 0 -0.010827730742537126 0.00083312018010377024 0 -0.010868704246004493 0.00059489015525023405 0 -0.011036733054274451 0.00079040531593849899 0 -0.010549812527462657 0.00075291271978406482 0 -0.010868704246004493 0.00059489015525023405 0 -0.01075638174703965 0.00029441714667983792 0 -0.010549812527462657 0.00075291271978406482 0 -0.010827730742537126 0.00083312018010377024 0 -0.010868704246004493 0.00059489015525023405 0 -0.011302242214374703 0.00059161001170213081 0 -0.012242189098150629 -1.7368219474176558e-05 0 -0.010868704246004493 0.00059489015525023405 0 -0.01075638174703965 0.00029441714667983792 0 -0.011138770886371108 0.00042733846984808181 0 -0.013693073909551266 -3.932157747509745e-05 0 -0.012242189098150629 -1.7368219474176558e-05 0 -0.01485064152183606 0.00010048618992094875 0 -0.014897478183581126 2.087652936082114e-05 0 -0.01485063320338169 -1.5627759481309261e-05 0 -0.014897478183581126 2.087652936082114e-05 0 -0.01485063320338169 -1.5627759481309261e-05 0 -0.014879877296145011 -2.7947688738835744e-05 0 -0.014871205330205696 -4.5604342125600669e-05 0 -0.01485063320338169 -1.5627759481309261e-05 0 -0.014879877296145011 -2.7947688738835744e-05 0 -0.014897478183581126 2.087652936082114e-05 0 -0.014879877296145011 -2.7947688738835744e-05 0 -0.014892677164929428 -2.9192951343457636e-05 0 -0.012242189098150629 -1.7368219474176558e-05 0 -0.01314905942437901 -3.7854671109353745e-05 0 -0.0075151932383898615 0.0015722201623377945 0 -0.0073846091591300783 0.0016657065440608249 0 -0.0074488042808649206 0.0014807085905697891 0 -0.0073777084220683483 0.0016707257932705285 0 -0.0073515671950599168 0.0016681210663372684 0 -0.0075151932383898615 0.0015722201623377945 0 -0.0075856278340785191 0.0014883436678071761 0 -0.0076381656010850538 0.0015798067669738683 0 -0.0075151932383898615 0.0015722201623377945 0 -0.0075856278340785191 0.0014883436678071761 0 -0.0074488042808649206 0.0014807085905697891 0 -0.0075151932383898615 0.0015722201623377945 0 -0.0074753528258770944 0.001671608526641867 0 -0.0076381656010850538 0.0015798067669738683 0 -0.0090485372909545232 0.0018029597179336887 0 -0.0085871736611848794 0.0018156786612642376 0 -0.010539251156329421 0.001947862410165495 0 -0.010365583591038664 0.0017692806066100478 0 -0.010068692234261444 0.0022635912101628491 0 -0.0075151932383898615 0.0015722201623377945 0 -0.0074753528258770944 0.001671608526641867 0 -0.0073846091591300783 0.0016657065440608249 0 -0.010539251156329421 0.001947862410165495 0 -0.010640323030476248 0.0016099673085251838 0 -0.010981377193279683 0.0016373467210290308 0 -0.0090485372909545232 0.0018029597179336887 0 -0.0091985404662920794 0.0016792781155645609 0 -0.0074753528258770944 0.001671608526641867 0 -0.0073846091591300783 0.0016657065440608249 0 -0.0073858448217103958 0.0016601921178456282 0 -0.010640323030476248 0.0016099673085251838 0 -0.010765120797585416 0.0013935474431250525 0 -0.010981377193279683 0.0016373467210290308 0 -0.010640323030476248 0.0016099673085251838 0 -0.010765120797585416 0.0013935474431250525 0 -0.010573489533057069 0.0013778303832983564 0 -0.010765120797585416 0.0013935474431250525 0 -0.010573489533057069 0.0013778303832983564 0 -0.010691545788180596 0.0012013108555455169 0 -0.010471392011964259 0.0011845286975736443 0 -0.010573489533057069 0.0013778303832983564 0 -0.010691545788180596 0.0012013108555455169 0 -0.010765120797585416 0.0013935474431250525 0 -0.010691545788180596 0.0012013108555455169 0 -0.010961820573932166 0.0012301978875228082 0 -0.010783113972490901 0.0010391378133868653 0 -0.010028736221303966 0.0017208852640428153 0 -0.010341758155030824 0.0011910152572699834 0 -0.010387205802052615 0.0013946219994927019 0 -0.01011816809597639 0.0016739988179695967 0 -0.010471392011964259 0.0011845286975736443 0 -0.010341758155030824 0.0011910152572699834 0 -0.010387205802052615 0.0013946219994927019 0 -0.010534096166014537 0.0010906493062910058 0 -0.010783113972490901 0.0010391378133868653 0 -0.010471392011964259 0.0011845286975736443 0 -0.010573489533057069 0.0013778303832983564 0 -0.010387205802052615 0.0013946219994927019 0 -0.010573489533057069 0.0013778303832983564 0 -0.010387205802052615 0.0013946219994927019 0 -0.010428825147243333 0.0015468102597343616 0 -0.010640323030476248 0.0016099673085251838 0 -0.010573489533057069 0.0013778303832983564 0 -0.010428825147243333 0.0015468102597343616 0 -0.010387205802052615 0.0013946219994927019 0 -0.010428825147243333 0.0015468102597343616 0 -0.01011816809597639 0.0016739988179695967 0 -0.010428825147243333 0.0015468102597343616 0 -0.010365583591038664 0.0017692806066100478 0 -0.01011816809597639 0.0016739988179695967 0 -0.010640323030476248 0.0016099673085251838 0 -0.010428825147243333 0.0015468102597343616 0 -0.010365583591038664 0.0017692806066100478 0 -0.010539251156329421 0.001947862410165495 0 -0.010640323030476248 0.0016099673085251838 0 -0.010365583591038664 0.0017692806066100478 0 -0.0098330453067935041 0.0017393968729131814 0 -0.01011816809597639 0.0016739988179695967 0 -0.0099411466137068003 0.0014110216078967465 0 -0.010349150732125247 0.0011165563002370523 0 -0.01011816809597639 0.0016739988179695967 0 -0.0099411466137068003 0.0014110216078967465 0 -0.010349150732125247 0.0011165563002370523 0 -0.0099411466137068003 0.0014110216078967465 0 -0.0099610467508479284 0.0011480093658109353 0 -0.0099411466137068003 0.0014110216078967465 0 -0.0099610467508479284 0.0011480093658109353 0 -0.0095763574395667916 0.001179995840264487 0 -0.010783113972490901 0.0010391378133868653 0 -0.010833691280349108 0.001073984417772067 0 -0.008694163402711964 0.0017451875263125363 0 -0.0095957279066129133 0.0010620193798899875 0 -0.0076876239330647151 0.0016256747737297154 0 -0.0077485858691365289 0.0017196545556701136 0 -0.0077702807955706606 0.0016624090329622589 0 -0.0098330453067935041 0.0017393968729131814 0 -0.0099411466137068003 0.0014110216078967465 0 -0.0095763574395667916 0.001179995840264487 0 -0.010833691280349108 0.001073984417772067 0 -0.0095957279066129133 0.0010620193798899875 0 -0.0076876239330647151 0.0016256747737297154 0 -0.0077805158161340024 0.0015980146541233052 0 -0.0077702807955706606 0.0016624090329622589 0 -0.0076876239330647151 0.0016256747737297154 0 -0.0076991766620337562 0.0015630030558368225 0 -0.0077805158161340024 0.0015980146541233052 0 -0.0076991766620337562 0.0015630030558368225 0 -0.0077558863927063423 0.0015392918781078971 0 -0.0077805158161340024 0.0015980146541233052 0 -0.0076991766620337562 0.0015630030558368225 0 -0.0077017245232433168 0.0015293347995494553 0 -0.0077558863927063423 0.0015392918781078971 0 -0.0076991766620337562 0.0015630030558368225 0 -0.0076693056587852785 0.0015343115745919298 0 -0.0077017245232433168 0.0015293347995494553 0 -0.0076991766620337562 0.0015630030558368225 0 -0.0076693056587852785 0.0015343115745919298 0 -0.007626918051355294 0.0015359739246405893 0 -0.0076876239330647151 0.0016256747737297154 0 -0.0076991766620337562 0.0015630030558368225 0 -0.007626918051355294 0.0015359739246405893 0 -0.008694163402711964 0.0017451875263125363 0 -0.0085871736611848794 0.0018156786612642376 0 -0.0098330453067935041 0.0017393968729131814 0 -0.01011816809597639 0.0016739988179695967 0 -0.010068692234261444 0.0022635912101628491 0 -0.010365583591038664 0.0017692806066100478 0 -0.01011816809597639 0.0016739988179695967 0 -0.010068692234261444 0.0022635912101628491 0 -0.0076693056587852785 0.0015343115745919298 0 -0.007626918051355294 0.0015359739246405893 0 -0.007636378248109873 0.0015284534858479549 0 -0.0076693056587852785 0.0015343115745919298 0 -0.0076548044177013686 0.0015187037224805497 0 -0.007636378248109873 0.0015284534858479549 0 -0.0076548044177013686 0.0015187037224805497 0 -0.007636378248109873 0.0015284534858479549 0 -0.0076374484139573795 0.0015000066157224113 0 -0.0076693056587852785 0.0015343115745919298 0 -0.0076548044177013686 0.0015187037224805497 0 -0.007670610398511502 0.001507063833490471 0 -0.0075856278340785191 0.0014883436678071761 0 -0.0076253444695848762 0.0015368495707720352 0 -0.007636378248109873 0.0015284534858479549 0 -0.0085871736611848794 0.0018156786612642376 0 -0.0083565826979429721 0.0018721142001163979 0 -0.0075856278340785191 0.0014883436678071761 0 -0.0076374484139573795 0.0015000066157224113 0 -0.0076499148174043333 0.0014703717409053965 0 -0.0076079925554626785 0.0013005874971566216 0 -0.0085871736611848794 0.0018156786612642376 0 -0.0075856278340785191 0.0014883436678071761 0 -0.007636378248109873 0.0015284534858479549 0 -0.0076374484139573795 0.0015000066157224113 0 -0.0076374484139573795 0.0015000066157224113 0 -0.007670610398511502 0.001507063833490471 0 -0.0076499148174043333 0.0014703717409053965 0 -0.0076548044177013686 0.0015187037224805497 0 -0.0076374484139573795 0.0015000066157224113 0 -0.007670610398511502 0.001507063833490471 0 -0.0076847108172289685 0.0014783380687260219 0 -0.007670610398511502 0.001507063833490471 0 -0.0076499148174043333 0.0014703717409053965 0 -0.0076847108172289685 0.0014783380687260219 0 -0.007670610398511502 0.001507063833490471 0 -0.0077149645657716651 0.0015033484851268877 0 -0.0076847108172289685 0.0014783380687260219 0 -0.0077149645657716651 0.0015033484851268877 0 -0.0077155843934940977 0.0014646993048821816 0 -0.0077149645657716651 0.0015033484851268877 0 -0.0077518680852910133 0.0014940101704308012 0 -0.0077155843934940977 0.0014646993048821816 0 -0.0077149645657716651 0.0015033484851268877 0 -0.0077017245232433168 0.0015293347995494553 0 -0.0077558863927063423 0.0015392918781078971 0 -0.007670610398511502 0.001507063833490471 0 -0.0077149645657716651 0.0015033484851268877 0 -0.0077017245232433168 0.0015293347995494553 0 -0.0076693056587852785 0.0015343115745919298 0 -0.007670610398511502 0.001507063833490471 0 -0.0077017245232433168 0.0015293347995494553 0 -0.0077518680852910133 0.0014940101704308012 0 -0.0078176919965471676 0.0015249231648935917 0 -0.0077554537390723257 0.0014352115288718094 0 -0.007801462016932977 0.0014560906348186702 0 -0.0076915107564354103 0.0012943674111103305 0 -0.0077518680852910133 0.0014940101704308012 0 -0.0078176919965471676 0.0015249231648935917 0 -0.0077558863927063423 0.0015392918781078971 0 -0.0077149645657716651 0.0015033484851268877 0 -0.0077518680852910133 0.0014940101704308012 0 -0.0077558863927063423 0.0015392918781078971 0 -0.0079049553389122906 0.001260160984495283 0 -0.0077733230427206451 0.0013793542669804822 0 -0.0079320122360440042 0.0015183713831026331 0 -0.0079049553389122906 0.001260160984495283 0 -0.0077733230427206451 0.0013793542669804822 0 -0.0076734574792848183 0.0011579178927718947 0 -0.0077733230427206451 0.0013793542669804822 0 -0.0078880152800294458 0.0016019623753098428 0 -0.0079320122360440042 0.0015183713831026331 0 -0.0078176919965471676 0.0015249231648935917 0 -0.0078150435269201141 0.0015708385993508293 0 -0.0078880152800294458 0.0016019623753098428 0 -0.007801462016932977 0.0014560906348186702 0 -0.0078783613599265057 0.0015937632057921515 0 -0.0078150435269201141 0.0015708385993508293 0 -0.0077805158161340024 0.0015980146541233052 0 -0.0078325093171552704 0.0016039232249996922 0 -0.0078176919965471676 0.0015249231648935917 0 -0.0078150435269201141 0.0015708385993508293 0 -0.0077558863927063423 0.0015392918781078971 0 -0.0078150435269201141 0.0015708385993508293 0 -0.0077558863927063423 0.0015392918781078971 0 -0.0077805158161340024 0.0015980146541233052 0 -0.0077805158161340024 0.0015980146541233052 0 -0.0078255146187313877 0.0016509004095900468 0 -0.0078325093171552704 0.0016039232249996922 0 -0.0077805158161340024 0.0015980146541233052 0 -0.0078255146187313877 0.0016509004095900468 0 -0.0077702807955706606 0.0016624090329622589 0 -0.0078255146187313877 0.0016509004095900468 0 -0.0077702807955706606 0.0016624090329622589 0 -0.0078123522520372616 0.0017174892483417846 0 -0.010020428256460571 0.00049891999631874746 0 -0.010046032160450779 0.00066890804358860773 0 -0.0097593853170920963 0.00069505486963783133 0 -0.0095957279066129133 0.0010620193798899875 0 -0.0087788832535141224 0.0011991177573379796 0 -0.0077485858691365289 0.0017196545556701136 0 -0.0077702807955706606 0.0016624090329622589 0 -0.0078123522520372616 0.0017174892483417846 0 -0.01018458025159003 0.00052383211410438784 0 -0.010318192595387951 0.00064433842772686765 0 -0.010046032160450779 0.00066890804358860773 0 -0.0087788832535141224 0.0011991177573379796 0 -0.0092535197066502001 0.0010769297485302555 0 -0.0078255146187313877 0.0016509004095900468 0 -0.0078123522520372616 0.0017174892483417846 0 -0.0078875684560125569 0.001719387760901477 0 -0.0078255146187313877 0.0016509004095900468 0 -0.0078875684560125569 0.001719387760901477 0 -0.0078880152800294458 0.0016019623753098428 0 -0.0078875684560125569 0.001719387760901477 0 -0.0078880152800294458 0.0016019623753098428 0 -0.0079608627009330347 0.0015817806152865468 0 -0.0092535197066502001 0.0010769297485302555 0 -0.0089334766244133171 0.0015396062877421036 0 -0.0078150435269201141 0.0015708385993508293 0 -0.0078325093171552704 0.0016039232249996922 0 -0.0078880152800294458 0.0016019623753098428 0 -0.0078255146187313877 0.0016509004095900468 0 -0.0078325093171552704 0.0016039232249996922 0 -0.0078880152800294458 0.0016019623753098428 0 -0.0096906616911359156 0.0010607404657985149 0 -0.0096794668598295473 0.00085045090247080337 0 -0.0095086054092708219 0.0011750840834140789 0 -0.0099543997538208435 0.0008292776301783932 0 -0.0097963408812171363 0.0012522745644615448 0 -0.0096906616911359156 0.0010607404657985149 0 -0.0078880152800294458 0.0016019623753098428 0 -0.0079608627009330347 0.0015817806152865468 0 -0.0079320122360440042 0.0015183713831026331 0 -0.0097963408812171363 0.0012522745644615448 0 -0.0095086054092708219 0.0011750840834140789 0 -0.0095654327880224758 0.0014277375604125481 0 -0.0097307330234263981 0.00053498670181420386 0 -0.009582097812877409 0.0010283498473527624 0 -0.0097963408812171363 0.0012522745644615448 0 -0.0096906616911359156 0.0010607404657985149 0 -0.0095086054092708219 0.0011750840834140789 0 -0.009719253362275436 0.00050889485864114492 0 -0.0097794606567733148 0.00067033574865448084 0 -0.0094960840175010077 0.00069266170720202753 0 -0.0099543997538208435 0.0008292776301783932 0 -0.0096906616911359156 0.0010607404657985149 0 -0.0096794668598295473 0.00085045090247080337 0 -0.0092535197066502001 0.0010769297485302555 0 -0.0097307330234263981 0.00053498670181420386 0 -0.0099377330227354566 0.00027644011393818677 0 -0.0095278137220630096 0.00030720033827511011 0 -0.0096660772655082512 0.00085678326987461773 0 -0.0093570083125207506 0.00011683856692450756 0 -0.0095278137220630096 0.00030720033827511011 0 -0.0092388970905024782 0.00028355127219402811 0 -0.0095437875857926173 0.00014973279771493574 0 -0.0096779264205783307 0.00027999504432399446 0 -0.0095278137220630096 0.00030720033827511011 0 -0.0097307330234263981 0.00053498670181420386 0 -0.0096012339737282567 0.00034494754221442507 0 -0.0095278137220630096 0.00030720033827511011 0 -0.0096660772655082512 0.00085678326987461773 0 -0.0090184857976437667 0.00050320984604381531 0 -0.0095086054092708219 0.0011750840834140789 0 -0.0092889398154259468 0.0015515485483339926 0 -0.0095654327880224758 0.0014277375604125481 0 -0.009582097812877409 0.0010283498473527624 0 -0.0093176459557303779 0.0015079877021715038 0 -0.0096660772655082512 0.00085678326987461773 0 -0.0092889398154259468 0.0015515485483339926 0 -0.0091398616163421171 0.0010831821465281028 0 -0.0092889398154259468 0.0015515485483339926 0 -0.0095654327880224758 0.0014277375604125481 0 -0.009649954400646971 0.0017485316162985259 0 -0.0079608627009330347 0.0015817806152865468 0 -0.0079320122360440042 0.0015183713831026331 0 -0.0080988127265464345 0.0012696697318014044 0 -0.0097963408812171363 0.0012522745644615448 0 -0.0095654327880224758 0.0014277375604125481 0 -0.009649954400646971 0.0017485316162985259 0 -0.0089334766244133171 0.0015396062877421036 0 -0.0079492727043710652 0.00098923674047913948 0 -0.0075010892389303137 0.00095462631784686903 0 -0.0080255948049142052 0.0016202311635908752 0 -0.006932376211350128 0.00038537884141143485 0 -0.0069098137003820621 0.00037587156837544372 0 -0.0069117524156610119 0.00039777551462253811 0 -0.0078955978288006191 0.001177485172510924 0 -0.0079320122360440042 0.0015183713831026331 0 -0.0080988127265464345 0.0012696697318014044 0 -0.0075010892389303137 0.00095462631784686903 0 -0.0079492727043710652 0.00098923674047913948 0 -0.0079492727043710652 0.00098923674047913948 0 -0.008054169748471748 0.0012699710734618943 0 -0.0066665743170246511 0.0007603238885524465 0 -0.0068772853085734918 0.00069243526590150799 0 -0.0067715990076426674 0.00053340745614015891 0 -0.0092889398154259468 0.0015515485483339926 0 -0.009649954400646971 0.0017485316162985259 0 -0.0090139743048878503 0.0015265213795722689 0 -0.0066665743170246511 0.0007603238885524465 0 -0.0068772853085734918 0.00069243526590150799 0 -0.0070082719831804372 0.00094148635549114765 0 -0.0068772853085734918 0.00069243526590150799 0 -0.0067715990076426674 0.00053340745614015891 0 -0.0069373648440620604 0.00056964632069644871 0 -0.0079492727043710652 0.00098923674047913948 0 -0.006791747119401152 0.00046792816779445861 0 -0.0069098137003820621 0.00037587156837544372 0 -0.0068867984763783157 0.00039945087808405212 0 -0.0069117524156610119 0.00039777551462253811 0 -0.006932376211350128 0.00038537884141143485 0 -0.0069117524156610119 0.00039777551462253811 0 -0.0069380021925233926 0.00041704450549686316 0 -0.0068867984763783157 0.00039945087808405212 0 -0.0069117524156610119 0.00039777551462253811 0 -0.0068959449670521998 0.00041860409173882779 0 -0.0069117524156610119 0.00039777551462253811 0 -0.0068959449670521998 0.00041860409173882779 0 -0.0069380021925233926 0.00041704450549686316 0 -0.0068959449670521998 0.00041860409173882779 0 -0.0069180460112401067 0.0004490555179028711 0 -0.0069380021925233926 0.00041704450549686316 0 -0.0068959449670521998 0.00041860409173882779 0 -0.0068756431527871959 0.00043539657557784353 0 -0.0069180460112401067 0.0004490555179028711 0 -0.006862766251527143 0.00042338017618657949 0 -0.0068611399023567506 0.00044284600038526522 0 -0.0068795909001170752 0.00041582524948639171 0 -0.006791747119401152 0.00046792816779445861 0 -0.0068590881103552286 0.00042639716543267837 0 -0.0068867984763783157 0.00039945087808405212 0 -0.0068959449670521998 0.00041860409173882779 0 -0.006862766251527143 0.00042338017618657949 0 -0.0067715990076426674 0.00053340745614015891 0 -0.006862766251527143 0.00042338017618657949 0 -0.0068795909001170752 0.00041582524948639171 0 -0.0068959449670521998 0.00041860409173882779 0 -0.0068756431527871959 0.00043539657557784353 0 -0.006862766251527143 0.00042338017618657949 0 -0.0068756431527871959 0.00043539657557784353 0 -0.006862766251527143 0.00042338017618657949 0 -0.0068611399023567506 0.00044284600038526522 0 -0.0067830421057947015 0.00032260994356783412 0 -0.0068674143231824249 0.00040787036819960173 0 -0.00668271796959366 0.00017977234106821675 0 -0.0067198503023627202 0.00015419058721832988 0 -0.0067880835704363521 0.000212372219356166 0 -0.00668271796959366 0.00017977234106821675 0 -0.0067198503023627202 0.00015419058721832988 0 -0.0066983051839735238 0.00013575916064923003 0 -0.00668271796959366 0.00017977234106821675 0 -0.0066983051839735238 0.00013575916064923003 0 -0.0066941755446209396 0.00012480514152878183 0 -0.0066983051839735238 0.00013575916064923003 0 -0.0067158038787067595 0.00013407696252083147 0 -0.006695824219771369 0.00013096083212600629 0 -0.0067198503023627202 0.00015419058721832988 0 -0.0066983051839735238 0.00013575916064923003 0 -0.0067158038787067595 0.00013407696252083147 0 -0.0068856609163750974 0.00045109168857122985 0 -0.006910598090751713 0.00048181082591628387 0 -0.0068828992172426592 0.00048491782671000988 0 -0.0068611399023567506 0.00044284600038526522 0 -0.0068856609163750974 0.00045109168857122985 0 -0.0068828992172426592 0.00048491782671000988 0 -0.0067830421057947015 0.00032260994356783412 0 -0.0067825025961140003 0.0002678495572452331 0 -0.0069130609267870641 0.00050796561478356702 0 -0.0069180460112401067 0.0004490555179028711 0 -0.0069581281115063112 0.00048321133348855881 0 -0.0068756431527871959 0.00043539657557784353 0 -0.0068611399023567506 0.00044284600038526522 0 -0.0068856609163750974 0.00045109168857122985 0 -0.0068756431527871959 0.00043539657557784353 0 -0.0069130609267870641 0.00050796561478356702 0 -0.0069180460112401067 0.0004490555179028711 0 -0.0068919860265495405 0.00046080978037777733 0 -0.0068636381914217986 0.00042306271601399211 0 -0.0074714595996886917 0.0012513774304614138 0 -0.0075302898987065622 0.001274526410767445 0 -0.0075153236334428164 0.0012002562796862 0 -0.0068636381914217986 0.00042306271601399211 0 -0.0070390219964173596 0.00088906640685990611 0 -0.0074714595996886917 0.0012513774304614138 0 -0.0074868481135366462 0.0013115825192667649 0 -0.0075302898987065622 0.001274526410767445 0 -0.0072295040500568704 0.00089100355530013315 0 -0.0070390219964173596 0.00088906640685990611 0 -0.0069130609267870641 0.00050796561478356702 0 -0.0069581281115063112 0.00048321133348855881 0 -0.0069720919143471654 0.00058630057865192466 0 -0.0074868481135366462 0.0013115825192667649 0 -0.0075302898987065622 0.001274526410767445 0 -0.0075493015480860345 0.0013231193165942664 0 -0.0075302898987065622 0.001274526410767445 0 -0.0075153236334428164 0.0012002562796862 0 -0.0075684552912286636 0.001223122537062531 0 -0.0075153236334428164 0.0012002562796862 0 -0.007537917935577702 0.0011406400336651554 0 -0.0075684552912286636 0.001223122537062531 0 -0.0077377234432167074 0.0014332809655324761 0 -0.0077026478801799549 0.0014214755256094062 0 -0.0076692728299798353 0.0013614644646887831 0 -0.0076915107564354103 0.0012943674111103305 0 -0.0076109812014286881 0.0012911676381506425 0 -0.0075153236334428164 0.0012002562796862 0 -0.0074913558097825942 0.0011543109884690228 0 -0.007537917935577702 0.0011406400336651554 0 -0.0074714595996886917 0.0012513774304614138 0 -0.0075153236334428164 0.0012002562796862 0 -0.0074597045434166877 0.0011768539373891098 0 -0.0069180460112401067 0.0004490555179028711 0 -0.0069581281115063112 0.00048321133348855881 0 -0.0069380021925233926 0.00041704450549686316 0 -0.0072295040500568704 0.00089100355530013315 0 -0.0071764101487108963 0.0007489796984462276 0 -0.0075153236334428164 0.0012002562796862 0 -0.0074597045434166877 0.0011768539373891098 0 -0.0074913558097825942 0.0011543109884690228 0 -0.0075010892389303137 0.00095462631784686903 0 -0.0076915107564354103 0.0012943674111103305 0 -0.0074522491290216599 0.0010989001508980639 0 -0.0074913558097825942 0.0011543109884690228 0 -0.007537917935577702 0.0011406400336651554 0 -0.0074522491290216599 0.0010989001508980639 0 -0.0074597045434166877 0.0011768539373891098 0 -0.0074913558097825942 0.0011543109884690228 0 -0.0075010892389303137 0.00095462631784686903 0 -0.0071764101487108963 0.0007489796984462276 0 -0.0077518680852910133 0.0014940101704308012 0 -0.0077554537390723257 0.0014352115288718094 0 -0.0077155843934940977 0.0014646993048821816 0 -0.0077554537390723257 0.0014352115288718094 0 -0.0077026478801799549 0.0014214755256094062 0 -0.0077155843934940977 0.0014646993048821816 0 -0.0076915107564354103 0.0012943674111103305 0 -0.0077416000600900913 0.0013835512013159249 0 -0.0077026478801799549 0.0014214755256094062 0 -0.0076734407190389414 0.0014464617638418262 0 -0.0076589983247674145 0.0014089738834353537 0 -0.0076734407190389414 0.0014464617638418262 0 -0.0076199582671469014 0.001433866955186995 0 -0.0076589983247674145 0.0014089738834353537 0 -0.0076847108172289685 0.0014783380687260219 0 -0.0077155843934940977 0.0014646993048821816 0 -0.0076734407190389414 0.0014464617638418262 0 -0.0077026478801799549 0.0014214755256094062 0 -0.0077155843934940977 0.0014646993048821816 0 -0.0076734407190389414 0.0014464617638418262 0 -0.0076847108172289685 0.0014783380687260219 0 -0.0076734407190389414 0.0014464617638418262 0 -0.0076499148174043333 0.0014703717409053965 0 -0.0076734407190389414 0.0014464617638418262 0 -0.0076499148174043333 0.0014703717409053965 0 -0.0076199582671469014 0.001433866955186995 0 -0.0075856278340785191 0.0014883436678071761 0 -0.0076199582671469014 0.001433866955186995 0 -0.0075594902372590816 0.0014060091739568638 0 -0.0075856278340785191 0.0014883436678071761 0 -0.0076499148174043333 0.0014703717409053965 0 -0.0076199582671469014 0.001433866955186995 0 -0.0076199582671469014 0.001433866955186995 0 -0.0076157211410466811 0.0013881620823825208 0 -0.0076589983247674145 0.0014089738834353537 0 -0.0076199582671469014 0.001433866955186995 0 -0.0076157211410466811 0.0013881620823825208 0 -0.0075594902372590816 0.0014060091739568638 0 -0.0076157211410466811 0.0013881620823825208 0 -0.0075740998904925928 0.0013391516240213815 0 -0.0075594902372590816 0.0014060091739568638 0 -0.0076157211410466811 0.0013881620823825208 0 -0.0076692728299798353 0.0013614644646887831 0 -0.0076589983247674145 0.0014089738834353537 0 -0.0077026478801799549 0.0014214755256094062 0 -0.0076692728299798353 0.0013614644646887831 0 -0.0076589983247674145 0.0014089738834353537 0 -0.0075907496753931736 0.0013096955919679855 0 -0.0075740998904925928 0.0013391516240213815 0 -0.007563114434613361 0.0013236836426467656 0 -0.0076109812014286881 0.0012911676381506425 0 -0.0075996045007133209 0.0013101970051767504 0 -0.0075302898987065622 0.001274526410767445 0 -0.0075684552912286636 0.001223122537062531 0 -0.0075907496753931736 0.0013096955919679855 0 -0.0075302898987065622 0.001274526410767445 0 -0.0075907496753931736 0.0013096955919679855 0 -0.0075493015480860345 0.0013231193165942664 0 -0.0076692728299798353 0.0013614644646887831 0 -0.0075907496753931736 0.0013096955919679855 0 -0.0075740998904925928 0.0013391516240213815 0 -0.0076157211410466811 0.0013881620823825208 0 -0.0076692728299798353 0.0013614644646887831 0 -0.0075740998904925928 0.0013391516240213815 0 -0.0075740998904925928 0.0013391516240213815 0 -0.007563114434613361 0.0013236836426467656 0 -0.0075153399542967677 0.0013608259562166692 0 -0.0071302191427689357 0.0022477716868666529 0 -0.0071767685435099897 0.0020482946643237644 0 -0.0072748532210864577 0.0021641400146062634 0 -0.007334035468809859 0.0017985095094565423 0 -0.0073476177256765335 0.0017054757033139443 0 -0.0075153399542967677 0.0013608259562166692 0 -0.0075594902372590816 0.0014060091739568638 0 -0.0074488042808649206 0.0014807085905697891 0 -0.0073476177256765335 0.0017054757033139443 0 -0.0073515671950599168 0.0016681210663372684 0 -0.0075740998904925928 0.0013391516240213815 0 -0.0075153399542967677 0.0013608259562166692 0 -0.0075594902372590816 0.0014060091739568638 0 -0.0075856278340785191 0.0014883436678071761 0 -0.0075594902372590816 0.0014060091739568638 0 -0.0074488042808649206 0.0014807085905697891 0 -0.0071767685435099897 0.0020482946643237644 0 -0.0072493975644763583 0.0018415529259714191 0 -0.007346143670560989 0.0018976659549103608 0 -0.0099625934285487525 9.8229895236521495e-05 0 -0.0097254265422081054 -5.884652037904303e-05 0 -0.0099741397168861077 -3.2897304273651265e-05 0 -0.0090546341602365885 0.00038839002453855236 0 -0.0083359970230044832 0.00067396320397023466 0 -0.0077387541123294813 0.00089514469869143355 0 -0.0079174359325727139 0.00081541076489505347 0 -0.0076627969430547744 0.00095651546419482951 0 -0.010141865277683152 -4.7367940656259481e-06 0 -0.0099625934285487525 9.8229895236521495e-05 0 -0.0099741397168861077 -3.2897304273651265e-05 0 -0.010141865277683152 -4.7367940656259481e-06 0 -0.0099625934285487525 9.8229895236521495e-05 0 -0.010256439990858197 6.4718667817640935e-05 0 -0.010141865277683152 -4.7367940656259481e-06 0 -0.010306349807170254 -5.0977268666193869e-05 0 -0.010256439990858197 6.4718667817640935e-05 0 -0.0078983788850865242 0.00098328534420639036 0 -0.0083359970230044832 0.00067396320397023466 0 -0.0077306587185572689 0.00079201405327996384 0 -0.0077702530856544041 0.00068027121316377752 0 -0.0079174359325727139 0.00081541076489505347 0 -0.0077702530856544041 0.00068027121316377752 0 -0.0079174359325727139 0.00081541076489505347 0 -0.007917853542040186 0.00051549665493451368 0 -0.0077387541123294813 0.00089514469869143355 0 -0.0077306587185572689 0.00079201405327996384 0 -0.0079174359325727139 0.00081541076489505347 0 -0.0077387541123294813 0.00089514469869143355 0 -0.0077306587185572689 0.00079201405327996384 0 -0.007631269356409948 0.00086141246543705314 0 -0.0077306587185572689 0.00079201405327996384 0 -0.0077702530856544041 0.00068027121316377752 0 -0.00762304693161897 0.00071388573831856767 0 -0.0079174359325727139 0.00081541076489505347 0 -0.007917853542040186 0.00051549665493451368 0 -0.008236987785885266 0.00063121791621713168 0 -0.0090546341602365885 0.00038839002453855236 0 -0.0089375989980462808 0.00035849056850855218 0 -0.0099625934285487525 9.8229895236521495e-05 0 -0.0097254265422081054 -5.884652037904303e-05 0 -0.0096807287397495216 0.00012522861197265516 0 -0.0097254265422081054 -5.884652037904303e-05 0 -0.0093234346701573205 3.4243444095658838e-05 0 -0.0096807287397495216 0.00012522861197265516 0 -0.0096487636396491057 -1.8310929614480213e-07 0 -0.0097254265422081054 -5.884652037904303e-05 0 -0.0093234346701573205 3.4243444095658838e-05 0 -0.0096487636396491057 -1.8310929614480213e-07 0 -0.0097254265422081054 -5.884652037904303e-05 0 -0.010375549115953279 1.9003244520258827e-07 0 -0.0097254265422081054 -5.884652037904303e-05 0 -0.009851278807271829 7.2959972860634265e-06 0 -0.010375549115953279 1.9003244520258827e-07 0 -0.0097254265422081054 -5.884652037904303e-05 0 -0.009851278807271829 7.2959972860634265e-06 0 -0.0099741397168861077 -3.2897304273651265e-05 0 -0.011435790945892903 -2.9377740789261851e-07 0 -0.011346488697261349 -5.9318411550855945e-05 0 -0.010378827988243538 5.7744516435553923e-07 0 -0.010607071060449617 -5.509897679538742e-05 0 -0.010377306267907423 -1.4449670795159476e-08 0 -0.011711271350206449 -3.9919768113947123e-05 0 -0.011435790945892903 -2.9377740789261851e-07 0 -0.011346488697261349 -5.9318411550855945e-05 0 -0.011711271350206449 -3.9919768113947123e-05 0 -0.011346488697261349 -5.9318411550855945e-05 0 -0.011496984566990663 -0.00013804044713568712 0 -0.011346488697261349 -5.9318411550855945e-05 0 -0.011496984566990663 -0.00013804044713568712 0 -0.011347958369443469 -0.00029899730694510341 0 -0.011262305155044611 -9.8978610008290489e-05 0 -0.011496984566990663 -0.00013804044713568712 0 -0.011347958369443469 -0.00029899730694510341 0 -0.009851278807271829 7.2959972860634265e-06 0 -0.0099741397168861077 -3.2897304273651265e-05 0 -0.010081784848872483 -0.00022305869560258673 0 -0.010607071060449617 -5.509897679538742e-05 0 -0.010696214954507663 -0.00023140920191691238 0 -0.0099741397168861077 -3.2897304273651265e-05 0 -0.010232682143958401 -9.0575509390766756e-05 0 -0.010081784848872483 -0.00022305869560258673 0 -0.010232682143958401 -9.0575509390766756e-05 0 -0.010081784848872483 -0.00022305869560258673 0 -0.01047944707396452 -0.00017546178905678705 0 -0.010141865277683152 -4.7367940656259481e-06 0 -0.010232682143958401 -9.0575509390766756e-05 0 -0.010306349807170254 -5.0977268666193869e-05 0 -0.010141865277683152 -4.7367940656259481e-06 0 -0.0099741397168861077 -3.2897304273651265e-05 0 -0.010232682143958401 -9.0575509390766756e-05 0 -0.010696214954507663 -0.00023140920191691238 0 -0.010573623068212423 -0.00020695893178036183 0 -0.011262305155044611 -9.8978610008290489e-05 0 -0.011347958369443469 -0.00029899730694510341 0 -0.010581314410494563 -0.00020320934241918159 0 -0.010704795254919455 1.3583899466307693e-05 0 -0.010581314410494563 -0.00020320934241918159 0 -0.010384584801745521 -0.00022332062494383046 0 -0.010581314410494563 -0.00020320934241918159 0 -0.01047944707396452 -0.00017546178905678705 0 -0.010384584801745521 -0.00022332062494383046 0 -0.010081784848872483 -0.00022305869560258673 0 -0.010581314410494563 -0.00020320934241918159 0 -0.01047944707396452 -0.00017546178905678705 0 -0.0091880676304093769 -4.902139660721587e-05 0 -0.0090100823047782677 0.00025141741611248896 0 -0.0078796140000512438 -1.3018782654470871e-05 0 -0.0078107630671410263 0.00057712695433406595 0 -0.0074168019886235413 0.00077377530341398511 0 -0.01047944707396452 -0.00017546178905678705 0 -0.010384584801745521 -0.00022332062494383046 0 -0.01047324554702748 -0.00015058039780919838 0 -0.0078107630671410263 0.00057712695433406595 0 -0.0075535525437065267 0.00089159556853276689 0 -0.0074168019886235413 0.00077377530341398511 0 -0.0078107630671410263 0.00057712695433406595 0 -0.0076533021602158127 0.0010437934056707857 0 -0.0075535525437065267 0.00089159556853276689 0 -0.0076533021602158127 0.0010437934056707857 0 -0.0075535525437065267 0.00089159556853276689 0 -0.0075440448422839394 0.0009695304266822617 0 -0.0075535525437065267 0.00089159556853276689 0 -0.0074548389810555121 0.00089696085993175279 0 -0.0074168019886235413 0.00077377530341398511 0 -0.0075535525437065267 0.00089159556853276689 0 -0.0074548389810555121 0.00089696085993175279 0 -0.0075440448422839394 0.0009695304266822617 0 -0.0090100823047782677 0.00025141741611248896 0 -0.0083359970230044832 0.00067396320397023466 0 -0.0074548389810555121 0.00089696085993175279 0 -0.0074168019886235413 0.00077377530341398511 0 -0.0073346361753317251 0.0011483722819095176 0 -0.010306349807170254 -5.0977268666193869e-05 0 -0.01047324554702748 -0.00015058039780919838 0 -0.010256439990858197 6.4718667817640935e-05 0 -0.010306349807170254 -5.0977268666193869e-05 0 -0.010381049678891101 -0.00011221979292689131 0 -0.01047324554702748 -0.00015058039780919838 0 -0.010232682143958401 -9.0575509390766756e-05 0 -0.010306349807170254 -5.0977268666193869e-05 0 -0.010381049678891101 -0.00011221979292689131 0 -0.010232682143958401 -9.0575509390766756e-05 0 -0.01047944707396452 -0.00017546178905678705 0 -0.010381049678891101 -0.00011221979292689131 0 -0.01047944707396452 -0.00017546178905678705 0 -0.010381049678891101 -0.00011221979292689131 0 -0.01047324554702748 -0.00015058039780919838 0 -0.0095278137220630096 0.00030720033827511011 0 -0.0092388970905024782 0.00028355127219402811 0 -0.0090184857976437667 0.00050320984604381531 0 -0.0093570083125207506 0.00011683856692450756 0 -0.0092388970905024782 0.00028355127219402811 0 -0.009102372058809911 0.00022506883217913076 0 -0.0092388970905024782 0.00028355127219402811 0 -0.009102372058809911 0.00022506883217913076 0 -0.0090184857976437667 0.00050320984604381531 0 -0.0078796140000512438 -1.3018782654470871e-05 0 -0.0078107630671410263 0.00057712695433406595 0 -0.0090184857976437667 0.00050320984604381531 0 -0.0087947708534552201 0.00028407518987171124 0 -0.009102372058809911 0.00022506883217913076 0 -0.0090184857976437667 0.00050320984604381531 0 -0.0091880676304093769 -4.902139660721587e-05 0 -0.0086907900554142603 0.00045784677532080005 0 -0.0078107630671410263 0.00057712695433406595 0 -0.0076533021602158127 0.0010437934056707857 0 -0.0085669211509565822 0.00093046790050129845 0 -0.0078107630671410263 0.00057712695433406595 0 -0.0085669211509565822 0.00093046790050129845 0 -0.0090184857976437667 0.00050320984604381531 0 -0.0096660772655082512 0.00085678326987461773 0 -0.0090184857976437667 0.00050320984604381531 0 -0.0091398616163421171 0.0010831821465281028 0 -0.0085669211509565822 0.00093046790050129845 0 -0.0090184857976437667 0.00050320984604381531 0 -0.0091398616163421171 0.0010831821465281028 0 -0.0092889398154259468 0.0015515485483339926 0 -0.0091398616163421171 0.0010831821465281028 0 -0.0090139743048878503 0.0015265213795722689 0 -0.0085669211509565822 0.00093046790050129845 0 -0.0091398616163421171 0.0010831821465281028 0 -0.0090139743048878503 0.0015265213795722689 0 -0.0076533021602158127 0.0010437934056707857 0 -0.0070082719831804372 0.00094148635549114765 0 -0.0073550500708961493 0.00083414594677511935 0 -0.0076533021602158127 0.0010437934056707857 0 -0.0085669211509565822 0.00093046790050129845 0 -0.0090139743048878503 0.0015265213795722689 0 -0.0076318045150396696 0.0010344654229122153 0 -0.008054169748471748 0.0012699710734618943 0 -0.0070082719831804372 0.00094148635549114765 0 -0.0073550500708961493 0.00083414594677511935 0 -0.0071367712401616233 0.00079789830880248706 0 -0.0073550500708961493 0.00083414594677511935 0 -0.0072849070138863948 0.00068986350950369084 0 -0.0074052611694422222 0.00075547275000578435 0 -0.0073550500708961493 0.00083414594677511935 0 -0.0072849070138863948 0.00068986350950369084 0 -0.0071964130371478755 0.00072006991172700817 0 -0.0071964130371478755 0.00072006991172700817 0 -0.0070237959797995802 0.00071357646711093473 0 -0.0071042087027243621 0.00063055787464006622 0 -0.0071964130371478755 0.00072006991172700817 0 -0.0071367712401616233 0.00079789830880248706 0 -0.0070237959797995802 0.00071357646711093473 0 -0.0072849070138863948 0.00068986350950369084 0 -0.0071964130371478755 0.00072006991172700817 0 -0.0071042087027243621 0.00063055787464006622 0 -0.0073550500708961493 0.00083414594677511935 0 -0.0071964130371478755 0.00072006991172700817 0 -0.0071367712401616233 0.00079789830880248706 0 -0.0068772853085734918 0.00069243526590150799 0 -0.0070082719831804372 0.00094148635549114765 0 -0.0070237959797995802 0.00071357646711093473 0 -0.0070082719831804372 0.00094148635549114765 0 -0.0071367712401616233 0.00079789830880248706 0 -0.0070237959797995802 0.00071357646711093473 0 -0.0068772853085734918 0.00069243526590150799 0 -0.0070237959797995802 0.00071357646711093473 0 -0.0069373648440620604 0.00056964632069644871 0 -0.0075416164206032997 0.0009210893601738849 0 -0.0075860779268218824 0.0009089520968608893 0 -0.0075492577665919099 0.000930173499696655 0 -0.0075416164206032997 0.0009210893601738849 0 -0.0075695858819042712 0.00087304202385589207 0 -0.0075860779268218824 0.0009089520968608893 0 -0.0075416164206032997 0.0009210893601738849 0 -0.0075695858819042712 0.00087304202385589207 0 -0.0075320554785944273 0.00085871053021725589 0 -0.0075695858819042712 0.00087304202385589207 0 -0.007631269356409948 0.00086141246543705314 0 -0.0075860779268218824 0.0009089520968608893 0 -0.0077387541123294813 0.00089514469869143355 0 -0.007631269356409948 0.00086141246543705314 0 -0.0076532541884219854 0.00095290735388470671 0 -0.007631269356409948 0.00086141246543705314 0 -0.0075860779268218824 0.0009089520968608893 0 -0.0076532541884219854 0.00095290735388470671 0 -0.0072363476728519362 0.0011211360089911509 0 -0.0083359970230044832 0.00067396320397023466 0 -0.0075860779268218824 0.0009089520968608893 0 -0.0076532541884219854 0.00095290735388470671 0 -0.0075492577665919099 0.000930173499696655 0 -0.0074548389810555121 0.00089696085993175279 0 -0.0076532541884219854 0.00095290735388470671 0 -0.0075492577665919099 0.000930173499696655 0 -0.0074548389810555121 0.00089696085993175279 0 -0.0075492577665919099 0.000930173499696655 0 -0.0075214845238338176 0.0009366258549746222 0 -0.0075416164206032997 0.0009210893601738849 0 -0.0075492577665919099 0.000930173499696655 0 -0.0075214845238338176 0.0009366258549746222 0 -0.0074548389810555121 0.00089696085993175279 0 -0.0075214845238338176 0.0009366258549746222 0 -0.0075440448422839394 0.0009695304266822617 0 -0.0076533021602158127 0.0010437934056707857 0 -0.0073550500708961493 0.00083414594677511935 0 -0.00752877914986018 0.00093529599601909288 0 -0.0075440448422839394 0.0009695304266822617 0 -0.00752877914986018 0.00093529599601909288 0 -0.0075270037350667019 0.0009140843687457966 0 -0.0075416164206032997 0.0009210893601738849 0 -0.0075214845238338176 0.0009366258549746222 0 -0.0075440448422839394 0.0009695304266822617 0 -0.0075416164206032997 0.0009210893601738849 0 -0.0075440448422839394 0.0009695304266822617 0 -0.0075270037350667019 0.0009140843687457966 0 -0.0076533021602158127 0.0010437934056707857 0 -0.0075440448422839394 0.0009695304266822617 0 -0.00752877914986018 0.00093529599601909288 0 -0.0073550500708961493 0.00083414594677511935 0 -0.00752877914986018 0.00093529599601909288 0 -0.0074789779275348115 0.00084846912269454628 0 -0.00752877914986018 0.00093529599601909288 0 -0.0075270037350667019 0.0009140843687457966 0 -0.0074789779275348115 0.00084846912269454628 0 -0.0075416164206032997 0.0009210893601738849 0 -0.0075270037350667019 0.0009140843687457966 0 -0.0075320554785944273 0.00085871053021725589 0 -0.0075270037350667019 0.0009140843687457966 0 -0.0074789779275348115 0.00084846912269454628 0 -0.0075320554785944273 0.00085871053021725589 0 -0.0074789779275348115 0.00084846912269454628 0 -0.0074946165247194059 0.00075276341913453572 0 -0.0075320554785944273 0.00085871053021725589 0 -0.0074789779275348115 0.00084846912269454628 0 -0.0074052611694422222 0.00075547275000578435 0 -0.0074946165247194059 0.00075276341913453572 0 -0.0073550500708961493 0.00083414594677511935 0 -0.0074789779275348115 0.00084846912269454628 0 -0.0074052611694422222 0.00075547275000578435 0 -0.0072849070138863948 0.00068986350950369084 0 -0.0074052611694422222 0.00075547275000578435 0 -0.007408662757721317 0.00063954731464250397 0 -0.0074052611694422222 0.00075547275000578435 0 -0.0074946165247194059 0.00075276341913453572 0 -0.007408662757721317 0.00063954731464250397 0 -0.0074946165247194059 0.00075276341913453572 0 -0.0075708481696870186 0.00080335090023761892 0 -0.00762304693161897 0.00071388573831856767 0 -0.0074946165247194059 0.00075276341913453572 0 -0.00762304693161897 0.00071388573831856767 0 -0.0075373352774160849 0.00059233073271227927 0 -0.0074946165247194059 0.00075276341913453572 0 -0.0075708481696870186 0.00080335090023761892 0 -0.0075320554785944273 0.00085871053021725589 0 -0.0075695858819042712 0.00087304202385589207 0 -0.007631269356409948 0.00086141246543705314 0 -0.0075708481696870186 0.00080335090023761892 0 -0.0075695858819042712 0.00087304202385589207 0 -0.0075708481696870186 0.00080335090023761892 0 -0.0075320554785944273 0.00085871053021725589 0 -0.007631269356409948 0.00086141246543705314 0 -0.0075708481696870186 0.00080335090023761892 0 -0.00762304693161897 0.00071388573831856767 0 -0.0077306587185572689 0.00079201405327996384 0 -0.007631269356409948 0.00086141246543705314 0 -0.00762304693161897 0.00071388573831856767 0 -0.00762304693161897 0.00071388573831856767 0 -0.0075373352774160849 0.00059233073271227927 0 -0.0077064297363318756 0.00053311778703213461 0 -0.0075966592403055345 0.00043713974275177921 0 -0.0075373352774160849 0.00059233073271227927 0 -0.0077064297363318756 0.00053311778703213461 0 -0.0075966592403055345 0.00043713974275177921 0 -0.0075373352774160849 0.00059233073271227927 0 -0.0074267186179237865 0.00045466988871680516 0 -0.0074946165247194059 0.00075276341913453572 0 -0.0075373352774160849 0.00059233073271227927 0 -0.007408662757721317 0.00063954731464250397 0 -0.0075373352774160849 0.00059233073271227927 0 -0.007408662757721317 0.00063954731464250397 0 -0.0074267186179237865 0.00045466988871680516 0 -0.0072849070138863948 0.00068986350950369084 0 -0.007408662757721317 0.00063954731464250397 0 -0.0072862041561057474 0.00055288223051675985 0 -0.0072862041561057474 0.00055288223051675985 0 -0.0074267186179237865 0.00045466988871680516 0 -0.0071893187416255718 0.00041204896618495792 0 -0.007408662757721317 0.00063954731464250397 0 -0.0072862041561057474 0.00055288223051675985 0 -0.0074267186179237865 0.00045466988871680516 0 -0.0071893187416255718 0.00041204896618495792 0 -0.0070954302155900248 0.00023767545282180513 0 -0.0073736359771041128 0.00016594290897949143 0 -0.0074267186179237865 0.00045466988871680516 0 -0.0071893187416255718 0.00041204896618495792 0 -0.0073736359771041128 0.00016594290897949143 0 -0.0074267186179237865 0.00045466988871680516 0 -0.0075683069348259227 0.00027021446977478544 0 -0.0073736359771041128 0.00016594290897949143 0 -0.0075966592403055345 0.00043713974275177921 0 -0.0075683069348259227 0.00027021446977478544 0 -0.0077522032096428092 0.00033867174600471869 0 -0.0075966592403055345 0.00043713974275177921 0 -0.0074267186179237865 0.00045466988871680516 0 -0.0075683069348259227 0.00027021446977478544 0 -0.0067715990076426674 0.00053340745614015891 0 -0.0069373648440620604 0.00056964632069644871 0 -0.0068795909001170752 0.00041582524948639171 0 -0.0069373648440620604 0.00056964632069644871 0 -0.0070415013177155209 0.00048889366206899469 0 -0.0071042087027243621 0.00063055787464006622 0 -0.0070237959797995802 0.00071357646711093473 0 -0.0069373648440620604 0.00056964632069644871 0 -0.0071042087027243621 0.00063055787464006622 0 -0.0069373648440620604 0.00056964632069644871 0 -0.0070415013177155209 0.00048889366206899469 0 -0.0068795909001170752 0.00041582524948639171 0 -0.0070415013177155209 0.00048889366206899469 0 -0.0071042087027243621 0.00063055787464006622 0 -0.0071677664128997811 0.00056178718032215457 0 -0.0070415013177155209 0.00048889366206899469 0 -0.0071677664128997811 0.00056178718032215457 0 -0.0071893187416255718 0.00041204896618495792 0 -0.0072849070138863948 0.00068986350950369084 0 -0.0071042087027243621 0.00063055787464006622 0 -0.0071677664128997811 0.00056178718032215457 0 -0.0072849070138863948 0.00068986350950369084 0 -0.0072862041561057474 0.00055288223051675985 0 -0.0071677664128997811 0.00056178718032215457 0 -0.0072862041561057474 0.00055288223051675985 0 -0.0071677664128997811 0.00056178718032215457 0 -0.0071893187416255718 0.00041204896618495792 0 -0.0071893187416255718 0.00041204896618495792 0 -0.006996307472379162 0.00034009087247590519 0 -0.0070954302155900248 0.00023767545282180513 0 -0.0070415013177155209 0.00048889366206899469 0 -0.0071893187416255718 0.00041204896618495792 0 -0.006996307472379162 0.00034009087247590519 0 -0.0068795909001170752 0.00041582524948639171 0 -0.0067880835704363521 0.000212372219356166 0 -0.006877003299809864 0.00028474066089887649 0 -0.0070415013177155209 0.00048889366206899469 0 -0.006996307472379162 0.00034009087247590519 0 -0.0068795909001170752 0.00041582524948639171 0 -0.006996307472379162 0.00034009087247590519 0 -0.0068795909001170752 0.00041582524948639171 0 -0.006877003299809864 0.00028474066089887649 0 -0.00668271796959366 0.00017977234106821675 0 -0.0068795909001170752 0.00041582524948639171 0 -0.0067880835704363521 0.000212372219356166 0 -0.0067880835704363521 0.000212372219356166 0 -0.0068599390704589102 0.00018804394920361156 0 -0.0067600321231439699 0.00015515463494041683 0 -0.0067198503023627202 0.00015419058721832988 0 -0.0067880835704363521 0.000212372219356166 0 -0.0067600321231439699 0.00015515463494041683 0 -0.0067880835704363521 0.000212372219356166 0 -0.006877003299809864 0.00028474066089887649 0 -0.0068599390704589102 0.00018804394920361156 0 -0.006996307472379162 0.00034009087247590519 0 -0.006877003299809864 0.00028474066089887649 0 -0.0068599390704589102 0.00018804394920361156 0 -0.006996307472379162 0.00034009087247590519 0 -0.0068599390704589102 0.00018804394920361156 0 -0.0070954302155900248 0.00023767545282180513 0 -0.0068599390704589102 0.00018804394920361156 0 -0.0070954302155900248 0.00023767545282180513 0 -0.0070776701450029336 6.5955062224985176e-05 0 -0.0066773932944959608 -0.00013990626076524582 0 -0.0069229424487485093 -8.7285300664984692e-05 0 -0.0070776701450029336 6.5955062224985176e-05 0 -0.0066530584789031505 -0.00014465324232719164 0 -0.0073848077578919698 -0.00021716783690087408 0 -0.0068599390704589102 0.00018804394920361156 0 -0.0070776701450029336 6.5955062224985176e-05 0 -0.0066530584789031505 -0.00014465324232719164 0 -0.0068255122403369523 0.00017365810671069289 0 -0.0066493441029424616 -2.0122483566462299e-05 0 -0.0068599390704589102 0.00018804394920361156 0 -0.0067600321231439699 0.00015515463494041683 0 -0.0067114318184118404 0.0001193559078924696 0 -0.0068599390704589102 0.00018804394920361156 0 -0.0066530584789031505 -0.00014465324232719164 0 -0.0065650487415357664 -0.00017551366242630443 0 -0.0067158038787067595 0.00013407696252083147 0 -0.0067600321231439699 0.00015515463494041683 0 -0.0067114318184118404 0.0001193559078924696 0 -0.0067198503023627202 0.00015419058721832988 0 -0.0067158038787067595 0.00013407696252083147 0 -0.0067600321231439699 0.00015515463494041683 0 -0.0075683069348259227 0.00027021446977478544 0 -0.0076189706759444576 2.5505230690439784e-05 0 -0.0073736359771041128 0.00016594290897949143 0 -0.0075683069348259227 0.00027021446977478544 0 -0.0076189706759444576 2.5505230690439784e-05 0 -0.0078266107980139565 8.612140747628802e-05 0 -0.0070954302155900248 0.00023767545282180513 0 -0.0070776701450029336 6.5955062224985176e-05 0 -0.0073736359771041128 0.00016594290897949143 0 -0.0070776701450029336 6.5955062224985176e-05 0 -0.0073736359771041128 0.00016594290897949143 0 -0.0073848077578919698 -0.00021716783690087408 0 -0.0076189706759444576 2.5505230690439784e-05 0 -0.0073848077578919698 -0.00021716783690087408 0 -0.0078536292844624163 -0.00010958419385811528 0 -0.0069229424487485093 -8.7285300664984692e-05 0 -0.0073315044967002252 4.8118444453840196e-05 0 -0.0076189706759444576 2.5505230690439784e-05 0 -0.0073736359771041128 0.00016594290897949143 0 -0.0073848077578919698 -0.00021716783690087408 0 -0.0076189706759444576 2.5505230690439784e-05 0 -0.0078536292844624163 -0.00010958419385811528 0 -0.0078266107980139565 8.612140747628802e-05 0 -0.0078536292844624163 -0.00010958419385811528 0 -0.0079268435948534714 -1.5869464871712834e-05 0 -0.0078266107980139565 8.612140747628802e-05 0 -0.0078536292844624163 -0.00010958419385811528 0 -0.0079268435948534714 -1.5869464871712834e-05 0 -0.0077800040445738412 9.3330684427502021e-05 0 -0.0073315044967002252 4.8118444453840196e-05 0 -0.0077367504335301134 9.1544068872293681e-05 0 -0.0079268435948534714 -1.5869464871712834e-05 0 -0.008030976147627945 5.4509666531931444e-05 0 -0.0078266107980139565 8.612140747628802e-05 0 -0.008030976147627945 5.4509666531931444e-05 0 -0.0078266107980139565 8.612140747628802e-05 0 -0.0079497593832063215 0.00022015420407356875 0 -0.0079268435948534714 -1.5869464871712834e-05 0 -0.008030976147627945 5.4509666531931444e-05 0 -0.0080090365501263808 -1.4229658017117842e-05 0 -0.0075683069348259227 0.00027021446977478544 0 -0.0078266107980139565 8.612140747628802e-05 0 -0.0077522032096428092 0.00033867174600471869 0 -0.0078266107980139565 8.612140747628802e-05 0 -0.0077522032096428092 0.00033867174600471869 0 -0.0079497593832063215 0.00022015420407356875 0 -0.0077522032096428092 0.00033867174600471869 0 -0.0079497593832063215 0.00022015420407356875 0 -0.007917853542040186 0.00051549665493451368 0 -0.0079497593832063215 0.00022015420407356875 0 -0.007917853542040186 0.00051549665493451368 0 -0.008242177872532239 0.0002194546837725786 0 -0.008030976147627945 5.4509666531931444e-05 0 -0.0079497593832063215 0.00022015420407356875 0 -0.008242177872532239 0.0002194546837725786 0 -0.007917853542040186 0.00051549665493451368 0 -0.008236987785885266 0.00063121791621713168 0 -0.008242177872532239 0.0002194546837725786 0 -0.0077702530856544041 0.00068027121316377752 0 -0.007917853542040186 0.00051549665493451368 0 -0.0077064297363318756 0.00053311778703213461 0 -0.0077702530856544041 0.00068027121316377752 0 -0.00762304693161897 0.00071388573831856767 0 -0.0077064297363318756 0.00053311778703213461 0 -0.0077522032096428092 0.00033867174600471869 0 -0.007917853542040186 0.00051549665493451368 0 -0.0077064297363318756 0.00053311778703213461 0 -0.0075966592403055345 0.00043713974275177921 0 -0.0077522032096428092 0.00033867174600471869 0 -0.0077064297363318756 0.00053311778703213461 0 -0.0096487636396491057 -1.8310929614480213e-07 0 -0.0089196333272915287 4.1589332518824946e-07 0 -0.0093234346701573205 3.4243444095658838e-05 0 -0.0088456382033497444 0.00016510333875120034 0 -0.0089196333272915287 4.1589332518824946e-07 0 -0.0093234346701573205 3.4243444095658838e-05 0 -0.0089162256106923958 0.00019058590659249124 0 -0.0089375989980462808 0.00035849056850855218 0 -0.0088456382033497444 0.00016510333875120034 0 -0.008236987785885266 0.00063121791621713168 0 -0.008242177872532239 0.0002194546837725786 0 -0.0088456382033497444 0.00016510333875120034 0 -0.0093234346701573205 3.4243444095658838e-05 0 -0.0096807287397495216 0.00012522861197265516 0 -0.008030976147627945 5.4509666531931444e-05 0 -0.008242177872532239 0.0002194546837725786 0 -0.0083685043940254639 1.2887984301212845e-05 0 -0.0088456382033497444 0.00016510333875120034 0 -0.008242177872532239 0.0002194546837725786 0 -0.0083685043940254639 1.2887984301212845e-05 0 -0.0088456382033497444 0.00016510333875120034 0 -0.0089196333272915287 4.1589332518824946e-07 0 -0.0083685043940254639 1.2887984301212845e-05 0 -0.0089196333272915287 4.1589332518824946e-07 0 -0.0083685043940254639 1.2887984301212845e-05 0 -0.0081907301876211029 -2.3202045589691939e-07 0 -0.0083685043940254639 1.2887984301212845e-05 0 -0.0081907301876211029 -2.3202045589691939e-07 0 -0.0079246985538210715 -1.5404248760222392e-05 0 -0.008030976147627945 5.4509666531931444e-05 0 -0.0083685043940254639 1.2887984301212845e-05 0 -0.0080090365501263808 -1.4229658017117842e-05 0 -0.0083685043940254639 1.2887984301212845e-05 0 -0.0080090365501263808 -1.4229658017117842e-05 0 -0.0079246985538210715 -1.5404248760222392e-05 0 -0.0079268435948534714 -1.5869464871712834e-05 0 -0.0080090365501263808 -1.4229658017117842e-05 0 -0.0077800040445738412 9.3330684427502021e-05 0 -0.0080090365501263808 -1.4229658017117842e-05 0 -0.0077800040445738412 9.3330684427502021e-05 0 -0.0079246985538210715 -1.5404248760222392e-05 0 -0.0077800040445738412 9.3330684427502021e-05 0 -0.0079246985538210715 -1.5404248760222392e-05 0 -0.0077371225122128103 2.1666278550122291e-05 0 -0.0081907301876211029 -2.3202045589691939e-07 0 -0.0079246985538210715 -1.5404248760222392e-05 0 -0.007463499240455411 2.8885083334671282e-07 0 -0.0079246985538210715 -1.5404248760222392e-05 0 -0.007463499240455411 2.8885083334671282e-07 0 -0.0077371225122128103 2.1666278550122291e-05 0 -0.007462065448396101 -4.3100927928563385e-08 0 -0.0070774545603390091 -1.4213312008335175e-05 0 -0.007463499240455411 2.8885083334671282e-07 0 -0.0077371225122128103 2.1666278550122291e-05 0 -0.0077165599204700756 -3.1177742631989855e-05 0 -0.0072066060884631656 -4.1399272280889644e-07 0 -0.0074610668191149527 5.1611069341180673e-07 0 -0.0065438263398721538 6.5481959476968259e-05 0 -0.0077800040445738412 9.3330684427502021e-05 0 -0.0077371225122128103 2.1666278550122291e-05 0 -0.0076172078523860523 1.0466614494911194e-05 0 -0.0077800040445738412 9.3330684427502021e-05 0 -0.0076172078523860523 1.0466614494911194e-05 0 -0.0072844933920921022 -2.0871663643212328e-05 0 -0.0076172078523860523 1.0466614494911194e-05 0 -0.0077165599204700756 -3.1177742631989855e-05 0 -0.0073950019393692768 -9.706409879056666e-05 0 -0.0076172078523860523 1.0466614494911194e-05 0 -0.0073950019393692768 -9.706409879056666e-05 0 -0.0072844933920921022 -2.0871663643212328e-05 0 -0.0077371225122128103 2.1666278550122291e-05 0 -0.0076172078523860523 1.0466614494911194e-05 0 -0.0077165599204700756 -3.1177742631989855e-05 0 -0.0077165599204700756 -3.1177742631989855e-05 0 -0.0073950019393692768 -9.706409879056666e-05 0 -0.007152365879864106 -0.00033440210216376446 0 -0.0065438263398721538 6.5481959476968259e-05 0 -0.0064440485119935074 -6.1451855940907797e-05 0 -0.0056902037599415234 -1.4678130511878601e-05 0 -0.006260367931475508 2.7170683395792723e-05 0 -0.0056921873168026558 -7.3030751082915193e-05 0 -0.0070774545603390091 -1.4213312008335175e-05 0 -0.0064404746330903664 -0.00017515444649854287 0 -0.0064440485119935074 -6.1451855940907797e-05 0 -0.0056902037599415234 -1.4678130511878601e-05 0 -0.0056015348849927527 -7.368461958947831e-05 0 -0.0060578980256790335 0.00017846729479606215 0 -0.0062639323822205988 1.6108070900632593e-05 0 -0.0058882166290583106 -5.0318721187459768e-06 0 -0.0072066060884631656 -4.1399272280889644e-07 0 -0.0065438263398721538 6.5481959476968259e-05 0 -0.0064440485119935074 -6.1451855940907797e-05 0 -0.0072051992684135412 7.3611241376139271e-08 0 -0.006260367931475508 2.7170683395792723e-05 0 -0.0072045482077511477 7.7606713432214978e-07 0 -0.0062639323822205988 1.6108070900632593e-05 0 -0.0063605442348219189 -2.7625449869177129e-07 0 -0.0072045482077511477 7.7606713432214978e-07 0 -0.0060578980256790335 0.00017846729479606215 0 -0.0062639323822205988 1.6108070900632593e-05 0 -0.0068104301602356331 0.00022750273446203519 0 -0.0069682372454296553 -0.00012974947744318353 0 -0.0066237110156313287 -0.00015166114590717755 0 -0.0068104301602356331 0.00022750273446203519 0 -0.0072844933920921022 -2.0871663643212328e-05 0 -0.0069682372454296553 -0.00012974947744318353 0 -0.0068104301602356331 0.00022750273446203519 0 -0.0077800040445738412 9.3330684427502021e-05 0 -0.0072844933920921022 -2.0871663643212328e-05 0 -0.0073950019393692768 -9.706409879056666e-05 0 -0.0072844933920921022 -2.0871663643212328e-05 0 -0.0071988212460032683 -0.00013596613765113079 0 -0.0073950019393692768 -9.706409879056666e-05 0 -0.0071988212460032683 -0.00013596613765113079 0 -0.007152365879864106 -0.00033440210216376446 0 -0.0071988212460032683 -0.00013596613765113079 0 -0.0069682372454296553 -0.00012974947744318353 0 -0.007152365879864106 -0.00033440210216376446 0 -0.0069682372454296553 -0.00012974947744318353 0 -0.0068131149486183526 -0.00023385845010594818 0 -0.007152365879864106 -0.00033440210216376446 0 -0.0072844933920921022 -2.0871663643212328e-05 0 -0.0071988212460032683 -0.00013596613765113079 0 -0.0069682372454296553 -0.00012974947744318353 0 -0.0069682372454296553 -0.00012974947744318353 0 -0.0066237110156313287 -0.00015166114590717755 0 -0.0068131149486183526 -0.00023385845010594818 0 -0.0066237110156313287 -0.00015166114590717755 0 -0.0068131149486183526 -0.00023385845010594818 0 -0.0065448734324514016 -0.0002933164300853057 0 -0.0064404746330903664 -0.00017515444649854287 0 -0.0060460635280466697 -0.00023064692672806336 0 -0.0056902037599415234 -1.4678130511878601e-05 0 -0.0056015348849927527 -7.368461958947831e-05 0 -0.0054671880239401506 -0.00023548825107432591 0 -0.0068131149486183526 -0.00023385845010594818 0 -0.007152365879864106 -0.00033440210216376446 0 -0.0065448734324514016 -0.0002933164300853057 0 -0.0056015348849927527 -7.368461958947831e-05 0 -0.0054966708701325974 -0.00016861741307891865 0 -0.0054671880239401506 -0.00023548825107432591 0 -0.0056015348849927527 -7.368461958947831e-05 0 -0.0055801939346229136 -0.00012289002276146232 0 -0.0056951773318467238 -9.0095017666688923e-05 0 -0.0056015348849927527 -7.368461958947831e-05 0 -0.0055801939346229136 -0.00012289002276146232 0 -0.0054966708701325974 -0.00016861741307891865 0 -0.0055801939346229136 -0.00012289002276146232 0 -0.0055332096542359847 -0.00012884340661402136 0 -0.0056951773318467238 -9.0095017666688923e-05 0 -0.0053996556087192744 -0.00010377291732907964 0 -0.0054966708701325974 -0.00016861741307891865 0 -0.0053817905457706804 -3.2036559156957758e-05 0 -0.0055801939346229136 -0.00012289002276146232 0 -0.0055332096542359847 -0.00012884340661402136 0 -0.0054966708701325974 -0.00016861741307891865 0 -0.0055332096542359847 -0.00012884340661402136 0 -0.0053996556087192744 -0.00010377291732907964 0 -0.0054966708701325974 -0.00016861741307891865 0 -0.0055332096542359847 -0.00012884340661402136 0 -0.0053996556087192744 -0.00010377291732907964 0 -0.0053813691232836632 -0.00010329300909435233 0 -0.0054671880239401506 -0.00023548825107432591 0 -0.0053817905457706804 -3.2036559156957758e-05 0 -0.0056206390297344616 0.00010872655528829975 0 -0.0054966708701325974 -0.00016861741307891865 0 -0.0054671880239401506 -0.00023548825107432591 0 -0.0053817905457706804 -3.2036559156957758e-05 0 -0.0054671880239401506 -0.00023548825107432591 0 -0.0056206390297344616 0.00010872655528829975 0 -0.0060038923013005932 -5.764377303353757e-05 0 -0.0062639323822205988 1.6108070900632593e-05 0 -0.0063605442348219189 -2.7625449869177129e-07 0 -0.0059556596783359615 -4.2924889343875972e-05 0 -0.0063605442348219189 -2.7625449869177129e-07 0 -0.0059556596783359615 -4.2924889343875972e-05 0 -0.0056468784336382782 -0.0001084087404313561 0 -0.0058882166290583106 -5.0318721187459768e-06 0 -0.0056951773318467238 -9.0095017666688923e-05 0 -0.0059556596783359615 -4.2924889343875972e-05 0 -0.0062639323822205988 1.6108070900632593e-05 0 -0.0058882166290583106 -5.0318721187459768e-06 0 -0.0059556596783359615 -4.2924889343875972e-05 0 -0.0060578980256790335 0.00017846729479606215 0 -0.0056015348849927527 -7.368461958947831e-05 0 -0.0058882166290583106 -5.0318721187459768e-06 0 -0.0056015348849927527 -7.368461958947831e-05 0 -0.0058882166290583106 -5.0318721187459768e-06 0 -0.0056951773318467238 -9.0095017666688923e-05 0 -0.0056951773318467238 -9.0095017666688923e-05 0 -0.0059556596783359615 -4.2924889343875972e-05 0 -0.0056468784336382782 -0.0001084087404313561 0 -0.0055332096542359847 -0.00012884340661402136 0 -0.0056951773318467238 -9.0095017666688923e-05 0 -0.0056468784336382782 -0.0001084087404313561 0 -0.0055332096542359847 -0.00012884340661402136 0 -0.0056468784336382782 -0.0001084087404313561 0 -0.0053813691232836632 -0.00010329300909435233 0 -0.0056468784336382782 -0.0001084087404313561 0 -0.0055158502827604549 -2.1859335751794371e-07 0 -0.0053813691232836632 -0.00010329300909435233 0 -0.0063605442348219189 -2.7625449869177129e-07 0 -0.0056468784336382782 -0.0001084087404313561 0 -0.0055158502827604549 -2.1859335751794371e-07 0 -0.0055158502827604549 -2.1859335751794371e-07 0 -0.0048776365518442841 -7.5855654812110863e-05 0 -0.0051645413050512411 -9.4494251863754523e-05 0 -0.0055158502827604549 -2.1859335751794371e-07 0 -0.0048776365518442841 -7.5855654812110863e-05 0 -0.0046713364201389513 -1.1239009680243762e-07 0 -0.0048776365518442841 -7.5855654812110863e-05 0 -0.0050105928168537421 -9.934339532197096e-05 0 -0.0047206184644528514 -8.6550341462601294e-05 0 -0.0048776365518442841 -7.5855654812110863e-05 0 -0.0050105928168537421 -9.934339532197096e-05 0 -0.0051645413050512411 -9.4494251863754523e-05 0 -0.0050105928168537421 -9.934339532197096e-05 0 -0.0051645413050512411 -9.4494251863754523e-05 0 -0.0052501851311483935 -9.4154098025502381e-05 0 -0.0051645413050512411 -9.4494251863754523e-05 0 -0.0053813691232836632 -0.00010329300909435233 0 -0.0052501851311483935 -9.4154098025502381e-05 0 -0.0055158502827604549 -2.1859335751794371e-07 0 -0.0051645413050512411 -9.4494251863754523e-05 0 -0.0053813691232836632 -0.00010329300909435233 0 -0.0053996556087192744 -0.00010377291732907964 0 -0.0053813691232836632 -0.00010329300909435233 0 -0.0052501851311483935 -9.4154098025502381e-05 0 -0.0053817905457706804 -3.2036559156957758e-05 0 -0.0051724447574616394 -9.4183807465465411e-05 0 -0.0051227720368425527 -9.9948875423332999e-05 0 -0.0053996556087192744 -0.00010377291732907964 0 -0.0052501851311483935 -9.4154098025502381e-05 0 -0.0053817905457706804 -3.2036559156957758e-05 0 -0.0052501851311483935 -9.4154098025502381e-05 0 -0.0053817905457706804 -3.2036559156957758e-05 0 -0.0051724447574616394 -9.4183807465465411e-05 0 -0.0053817905457706804 -3.2036559156957758e-05 0 -0.0056206390297344616 0.00010872655528829975 0 -0.0054113409878635008 0.00029673008282294803 0 -0.0056206390297344616 0.00010872655528829975 0 -0.0054113409878635008 0.00029673008282294803 0 -0.0056348807346740942 0.00035350660771442025 0 -0.0053817905457706804 -3.2036559156957758e-05 0 -0.0054113409878635008 0.00029673008282294803 0 -0.005186308900432173 0.00052745105384853757 0 -0.0054113409878635008 0.00029673008282294803 0 -0.0053727865483534096 0.00047094007607299809 0 -0.0056348807346740942 0.00035350660771442025 0 -0.0053727865483534096 0.00047094007607299809 0 -0.005186308900432173 0.00052745105384853757 0 -0.0053255355573440469 0.00060662866181708497 0 -0.0054113409878635008 0.00029673008282294803 0 -0.0053727865483534096 0.00047094007607299809 0 -0.005186308900432173 0.00052745105384853757 0 -0.0053727865483534096 0.00047094007607299809 0 -0.0054556328442578253 0.00058427493971606741 0 -0.0053255355573440469 0.00060662866181708497 0 -0.0053727865483534096 0.00047094007607299809 0 -0.0054556328442578253 0.00058427493971606741 0 -0.0056348807346740942 0.00035350660771442025 0 -0.0053672689340266925 -8.3294050234595962e-06 0 -0.0049768371641211511 0.00010661626208523616 0 -0.0053817905457706804 -3.2036559156957758e-05 0 -0.0051227720368425527 -9.9948875423332999e-05 0 -0.0050502385987050312 -0.00011882348918624808 0 -0.0050105928168537421 -9.934339532197096e-05 0 -0.0051724447574616394 -9.4183807465465411e-05 0 -0.0050541026337584958 -0.00010035694032081604 0 -0.0050105928168537421 -9.934339532197096e-05 0 -0.0052501851311483935 -9.4154098025502381e-05 0 -0.0051724447574616394 -9.4183807465465411e-05 0 -0.0051724447574616394 -9.4183807465465411e-05 0 -0.0051227720368425527 -9.9948875423332999e-05 0 -0.0050541026337584958 -0.00010035694032081604 0 -0.0051227720368425527 -9.9948875423332999e-05 0 -0.005042356420765933 -0.00010671877334598423 0 -0.0050541026337584958 -0.00010035694032081604 0 -0.005042356420765933 -0.00010671877334598423 0 -0.0049626089384288488 -9.8796458549423564e-05 0 -0.0050541026337584958 -0.00010035694032081604 0 -0.0050084573652821943 -3.7642435803670559e-05 0 -0.0049768371641211511 0.00010661626208523616 0 -0.0050105928168537421 -9.934339532197096e-05 0 -0.0049626089384288488 -9.8796458549423564e-05 0 -0.0050541026337584958 -0.00010035694032081604 0 -0.0050105928168537421 -9.934339532197096e-05 0 -0.0049626089384288488 -9.8796458549423564e-05 0 -0.0048643706433838729 -9.2601318270378249e-05 0 -0.0049768371641211511 0.00010661626208523616 0 -0.0046226644097077116 9.9169771930026761e-05 0 -0.0046513656982622945 2.21299143721404e-05 0 -0.00463363926047357 0.00026184608670542841 0 -0.0045803683175624299 0.00027902744536743943 0 -0.005042356420765933 -0.00010671877334598423 0 -0.0049626089384288488 -9.8796458549423564e-05 0 -0.0048670671498296687 -8.397604699821669e-05 0 -0.005186308900432173 0.00052745105384853757 0 -0.0052691463008666039 0.00075014270412540802 0 -0.0051483663508984888 0.0010166364436694851 0 -0.0049768371641211511 0.00010661626208523616 0 -0.0048690178816721648 0.00065870513957716839 0 -0.005042356420765933 -0.00010671877334598423 0 -0.0047828511671438095 -6.1880854527545889e-05 0 -0.0046796832815622982 -1.5690258949076595e-05 0 -0.005042356420765933 -0.00010671877334598423 0 -0.0048670671498296687 -8.397604699821669e-05 0 -0.0047828511671438095 -6.1880854527545889e-05 0 -0.0049626089384288488 -9.8796458549423564e-05 0 -0.0048643706433838729 -9.2601318270378249e-05 0 -0.0048670671498296687 -8.397604699821669e-05 0 -0.0048643706433838729 -9.2601318270378249e-05 0 -0.0048670671498296687 -8.397604699821669e-05 0 -0.0047624170803002028 -7.6060268191182004e-05 0 -0.0047828511671438095 -6.1880854527545889e-05 0 -0.0047624170803002028 -7.6060268191182004e-05 0 -0.0045982711657123025 -4.6018603015419383e-05 0 -0.0048670671498296687 -8.397604699821669e-05 0 -0.0047828511671438095 -6.1880854527545889e-05 0 -0.0047624170803002028 -7.6060268191182004e-05 0 -0.0054556328442578253 0.00058427493971606741 0 -0.0054463772169327076 0.00076306017509812586 0 -0.0056402952738169587 0.00061074970539619431 0 -0.0054556328442578253 0.00058427493971606741 0 -0.0053676225033572438 0.00072185734678422884 0 -0.0054463772169327076 0.00076306017509812586 0 -0.005186308900432173 0.00052745105384853757 0 -0.0053255355573440469 0.00060662866181708497 0 -0.0052691463008666039 0.00075014270412540802 0 -0.0053676225033572438 0.00072185734678422884 0 -0.0053255355573440469 0.00060662866181708497 0 -0.0052691463008666039 0.00075014270412540802 0 -0.0054556328442578253 0.00058427493971606741 0 -0.0053676225033572438 0.00072185734678422884 0 -0.0053255355573440469 0.00060662866181708497 0 -0.0053676225033572438 0.00072185734678422884 0 -0.0052691463008666039 0.00075014270412540802 0 -0.005342596327886388 0.00089389391488179574 0 -0.0054463772169327076 0.00076306017509812586 0 -0.005342596327886388 0.00089389391488179574 0 -0.0055619648742824381 0.00090218008881596092 0 -0.0053676225033572438 0.00072185734678422884 0 -0.0054463772169327076 0.00076306017509812586 0 -0.005342596327886388 0.00089389391488179574 0 -0.005342596327886388 0.00089389391488179574 0 -0.0053602444240445427 0.0010641171347549121 0 -0.0055619648742824381 0.00090218008881596092 0 -0.005342596327886388 0.00089389391488179574 0 -0.0052720272037829526 0.0010347236086158491 0 -0.0051483663508984888 0.0010166364436694851 0 -0.0052691463008666039 0.00075014270412540802 0 -0.005342596327886388 0.00089389391488179574 0 -0.0051483663508984888 0.0010166364436694851 0 -0.0052720272037829526 0.0010347236086158491 0 -0.0051483663508984888 0.0010166364436694851 0 -0.0052362501943615473 0.001150413465456211 0 -0.0052720272037829526 0.0010347236086158491 0 -0.0053602444240445427 0.0010641171347549121 0 -0.0052362501943615473 0.001150413465456211 0 -0.005342596327886388 0.00089389391488179574 0 -0.0052720272037829526 0.0010347236086158491 0 -0.0053602444240445427 0.0010641171347549121 0 -0.0047828511671438095 -6.1880854527545889e-05 0 -0.0046796832815622982 -1.5690258949076595e-05 0 -0.0045982711657123025 -4.6018603015419383e-05 0 -0.0046796832815622982 -1.5690258949076595e-05 0 -0.0043720919709537001 4.0853141794397184e-05 0 -0.0045982711657123025 -4.6018603015419383e-05 0 -0.0043720919709537001 4.0853141794397184e-05 0 -0.0045982711657123025 -4.6018603015419383e-05 0 -0.0043796868238089983 -5.5338127320208932e-05 0 -0.0043720919709537001 4.0853141794397184e-05 0 -0.0041147785196990246 1.0983043085122931e-05 0 -0.0043796868238089983 -5.5338127320208932e-05 0 -0.0041147785196990246 1.0983043085122931e-05 0 -0.0038265009465168107 -3.5958511055327462e-07 0 -0.0043796868238089983 -5.5338127320208932e-05 0 -0.0048776365518442841 -7.5855654812110863e-05 0 -0.0043796868238089983 -5.5338127320208932e-05 0 -0.0046713364201389513 -1.1239009680243762e-07 0 -0.0038265009465168107 -3.5958511055327462e-07 0 -0.0043796868238089983 -5.5338127320208932e-05 0 -0.0046713364201389513 -1.1239009680243762e-07 0 -0.0048776365518442841 -7.5855654812110863e-05 0 -0.0043796868238089983 -5.5338127320208932e-05 0 -0.0047206184644528514 -8.6550341462601294e-05 0 -0.0050105928168537421 -9.934339532197096e-05 0 -0.0048643706433838729 -9.2601318270378249e-05 0 -0.0047206184644528514 -8.6550341462601294e-05 0 -0.0048643706433838729 -9.2601318270378249e-05 0 -0.0047624170803002028 -7.6060268191182004e-05 0 -0.0047206184644528514 -8.6550341462601294e-05 0 -0.0047624170803002028 -7.6060268191182004e-05 0 -0.0045982711657123025 -4.6018603015419383e-05 0 -0.0047206184644528514 -8.6550341462601294e-05 0 -0.0045982711657123025 -4.6018603015419383e-05 0 -0.0043796868238089983 -5.5338127320208932e-05 0 -0.0047206184644528514 -8.6550341462601294e-05 0 -0.0060009017414698529 0.00064132433831578226 0 -0.0061165741335679376 0.00080319474179257227 0 -0.0058439824015381813 0.00093169961619035257 0 -0.0060009017414698529 0.00064132433831578226 0 -0.0061165741335679376 0.00080319474179257227 0 -0.0062113365264319853 0.00046264914693401436 0 -0.0061165741335679376 0.00080319474179257227 0 -0.0061984423560116197 0.00098073234030273066 0 -0.006351348336668121 0.00073477156499299331 0 -0.0061165741335679376 0.00080319474179257227 0 -0.0062113365264319853 0.00046264914693401436 0 -0.006351348336668121 0.00073477156499299331 0 -0.0061165741335679376 0.00080319474179257227 0 -0.0061984423560116197 0.00098073234030273066 0 -0.0060130590522136634 0.0010230726601621275 0 -0.0061984423560116197 0.00098073234030273066 0 -0.0060130590522136634 0.0010230726601621275 0 -0.0060419165375829448 0.001229506547775175 0 -0.0060130590522136634 0.0010230726601621275 0 -0.0058439824015381813 0.00093169961619035257 0 -0.0058280625743995429 0.0012022635635487392 0 -0.0061165741335679376 0.00080319474179257227 0 -0.0060130590522136634 0.0010230726601621275 0 -0.0058439824015381813 0.00093169961619035257 0 -0.0058439824015381813 0.00093169961619035257 0 -0.0055619648742824381 0.00090218008881596092 0 -0.0057779513596242773 0.00074742541563221584 0 -0.0058439824015381813 0.00093169961619035257 0 -0.0055619648742824381 0.00090218008881596092 0 -0.0055511836862286697 0.0011900600746869614 0 -0.0053602444240445427 0.0010641171347549121 0 -0.0055619648742824381 0.00090218008881596092 0 -0.0055511836862286697 0.0011900600746869614 0 -0.0056402952738169587 0.00061074970539619431 0 -0.0057779513596242773 0.00074742541563221584 0 -0.0059481491663581996 0.00039439313981040169 0 -0.0054463772169327076 0.00076306017509812586 0 -0.0055619648742824381 0.00090218008881596092 0 -0.0056402952738169587 0.00061074970539619431 0 -0.0055619648742824381 0.00090218008881596092 0 -0.0056402952738169587 0.00061074970539619431 0 -0.0057779513596242773 0.00074742541563221584 0 -0.0060009017414698529 0.00064132433831578226 0 -0.0057779513596242773 0.00074742541563221584 0 -0.0059481491663581996 0.00039439313981040169 0 -0.0060009017414698529 0.00064132433831578226 0 -0.0058439824015381813 0.00093169961619035257 0 -0.0057779513596242773 0.00074742541563221584 0 -0.0056402952738169587 0.00061074970539619431 0 -0.0059481491663581996 0.00039439313981040169 0 -0.0056348807346740942 0.00035350660771442025 0 -0.0054556328442578253 0.00058427493971606741 0 -0.0056402952738169587 0.00061074970539619431 0 -0.0056348807346740942 0.00035350660771442025 0 -0.0056206390297344616 0.00010872655528829975 0 -0.0056348807346740942 0.00035350660771442025 0 -0.0060038923013005932 -5.764377303353757e-05 0 -0.0059481491663581996 0.00039439313981040169 0 -0.0056348807346740942 0.00035350660771442025 0 -0.0060038923013005932 -5.764377303353757e-05 0 -0.0059481491663581996 0.00039439313981040169 0 -0.0061639611981212641 0.00015404861071970994 0 -0.0060038923013005932 -5.764377303353757e-05 0 -0.0061639611981212641 0.00015404861071970994 0 -0.0062113365264319853 0.00046264914693401436 0 -0.006338658729799506 0.00012929640618443363 0 -0.0059481491663581996 0.00039439313981040169 0 -0.0061639611981212641 0.00015404861071970994 0 -0.0062113365264319853 0.00046264914693401436 0 -0.0060009017414698529 0.00064132433831578226 0 -0.0059481491663581996 0.00039439313981040169 0 -0.0062113365264319853 0.00046264914693401436 0 -0.0062113365264319853 0.00046264914693401436 0 -0.0065192545420693498 0.00050907112822388295 0 -0.006351348336668121 0.00073477156499299331 0 -0.0062113365264319853 0.00046264914693401436 0 -0.006338658729799506 0.00012929640618443363 0 -0.0065192545420693498 0.00050907112822388295 0 -0.006338658729799506 0.00012929640618443363 0 -0.0062965185091184931 -4.764258732939639e-05 0 -0.0064938602050007522 -9.0263956527216808e-05 0 -0.006338658729799506 0.00012929640618443363 0 -0.0064938602050007522 -9.0263956527216808e-05 0 -0.0065099654018984333 9.9638474490996811e-05 0 -0.0061639611981212641 0.00015404861071970994 0 -0.006338658729799506 0.00012929640618443363 0 -0.0062965185091184931 -4.764258732939639e-05 0 -0.0062965185091184931 -4.764258732939639e-05 0 -0.0064938602050007522 -9.0263956527216808e-05 0 -0.006445253466492832 -9.7653489205244817e-05 0 -0.0060460635280466697 -0.00023064692672806336 0 -0.0060454154550121731 -6.6720975542101186e-05 0 -0.0065448734324514016 -0.0002933164300853057 0 -0.0060038923013005932 -5.764377303353757e-05 0 -0.0062996141297827568 -0.00013868033012134472 0 -0.0061639611981212641 0.00015404861071970994 0 -0.0062965185091184931 -4.764258732939639e-05 0 -0.0060038923013005932 -5.764377303353757e-05 0 -0.0062965185091184931 -4.764258732939639e-05 0 -0.0060038923013005932 -5.764377303353757e-05 0 -0.0062996141297827568 -0.00013868033012134472 0 -0.0062965185091184931 -4.764258732939639e-05 0 -0.0062996141297827568 -0.00013868033012134472 0 -0.006445253466492832 -9.7653489205244817e-05 0 -0.0066237110156313287 -0.00015166114590717755 0 -0.0065448734324514016 -0.0002933164300853057 0 -0.0062996141297827568 -0.00013868033012134472 0 -0.0066237110156313287 -0.00015166114590717755 0 -0.0062996141297827568 -0.00013868033012134472 0 -0.0064150276742712554 -8.1320285495015799e-05 0 -0.0062996141297827568 -0.00013868033012134472 0 -0.0064150276742712554 -8.1320285495015799e-05 0 -0.006445253466492832 -9.7653489205244817e-05 0 -0.0064411078928565298 2.3875949881404061e-05 0 -0.0064150276742712554 -8.1320285495015799e-05 0 -0.006445253466492832 -9.7653489205244817e-05 0 -0.0068104301602356331 0.00022750273446203519 0 -0.0066237110156313287 -0.00015166114590717755 0 -0.0064150276742712554 -8.1320285495015799e-05 0 -0.0064411078928565298 2.3875949881404061e-05 0 -0.0068104301602356331 0.00022750273446203519 0 -0.0064150276742712554 -8.1320285495015799e-05 0 -0.0066146522586220452 0.00018784113164393307 0 -0.0067114318184118404 0.0001193559078924696 0 -0.0066725738143600093 0.00014476008570635861 0 -0.0064938602050007522 -9.0263956527216808e-05 0 -0.006445253466492832 -9.7653489205244817e-05 0 -0.0065650487415357664 -0.00017551366242630443 0 -0.0065575616345712462 4.9242237186973228e-05 0 -0.0066493441029424616 -2.0122483566462299e-05 0 -0.0066530584789031505 -0.00014465324232719164 0 -0.0064411078928565298 2.3875949881404061e-05 0 -0.006445253466492832 -9.7653489205244817e-05 0 -0.0066530584789031505 -0.00014465324232719164 0 -0.006445253466492832 -9.7653489205244817e-05 0 -0.0065650487415357664 -0.00017551366242630443 0 -0.0067158038787067595 0.00013407696252083147 0 -0.0067114318184118404 0.0001193559078924696 0 -0.006695824219771369 0.00013096083212600629 0 -0.0067114318184118404 0.0001193559078924696 0 -0.006695824219771369 0.00013096083212600629 0 -0.0066725738143600093 0.00014476008570635861 0 -0.0066907332702639813 0.00013334555373318584 0 -0.0066725738143600093 0.00014476008570635861 0 -0.006701358370303492 0.0001489620579409428 0 -0.0066983051839735238 0.00013575916064923003 0 -0.006695824219771369 0.00013096083212600629 0 -0.0066907332702639813 0.00013334555373318584 0 -0.006695824219771369 0.00013096083212600629 0 -0.0066907332702639813 0.00013334555373318584 0 -0.0066725738143600093 0.00014476008570635861 0 -0.0066725738143600093 0.00014476008570635861 0 -0.0066788672300106778 0.00018539510452131024 0 -0.006701358370303492 0.0001489620579409428 0 -0.0066146522586220452 0.00018784113164393307 0 -0.0066725738143600093 0.00014476008570635861 0 -0.0066788672300106778 0.00018539510452131024 0 -0.0067315511691128007 0.00018000372687399012 0 -0.0066788672300106778 0.00018539510452131024 0 -0.006732320290454911 0.00022454409534010511 0 -0.0067315511691128007 0.00018000372687399012 0 -0.0066788672300106778 0.00018539510452131024 0 -0.006701358370303492 0.0001489620579409428 0 -0.006701358370303492 0.0001489620579409428 0 -0.0066941755446209396 0.00012480514152878183 0 -0.0067688256404328552 0.00016908367523238543 0 -0.0066983051839735238 0.00013575916064923003 0 -0.0066907332702639813 0.00013334555373318584 0 -0.0066941755446209396 0.00012480514152878183 0 -0.0066907332702639813 0.00013334555373318584 0 -0.006701358370303492 0.0001489620579409428 0 -0.0066941755446209396 0.00012480514152878183 0 -0.0070390219964173596 0.00088906640685990611 0 -0.0068217053103127191 0.00056614513435308432 0 -0.006910598090751713 0.00048181082591628387 0 -0.0068828992172426592 0.00048491782671000988 0 -0.0069146715574477206 0.00053336907919760367 0 -0.0067825025961140003 0.0002678495572452331 0 -0.0068217053103127191 0.00056614513435308432 0 -0.0067940001046079236 0.00093906919310432447 0 -0.0069243647577036513 0.0011070680255361408 0 -0.0068059371342971678 0.0011137437228025912 0 -0.0074868481135366462 0.0013115825192667649 0 -0.0075493015480860345 0.0013231193165942664 0 -0.007537581077139182 0.0013490520750616497 0 -0.0070390219964173596 0.00088906640685990611 0 -0.0072698929418036082 0.0012916531799642976 0 -0.0069243647577036513 0.0011070680255361408 0 -0.0068059371342971678 0.0011137437228025912 0 -0.0068811403590464592 0.0012084594749367391 0 -0.0067315511691128007 0.00018000372687399012 0 -0.006701358370303492 0.0001489620579409428 0 -0.0067688256404328552 0.00016908367523238543 0 -0.0067704781618286693 0.00016582835418977134 0 -0.0067731879053312309 0.00017543066586716614 0 -0.0068786452347903522 0.00026161006089457428 0 -0.0068217053103127191 0.00056614513435308432 0 -0.0068165496967772183 0.00051421410958359625 0 -0.0067315511691128007 0.00018000372687399012 0 -0.0067731879053312309 0.00017543066586716614 0 -0.006732320290454911 0.00022454409534010511 0 -0.0067315511691128007 0.00018000372687399012 0 -0.0067688256404328552 0.00016908367523238543 0 -0.0067731879053312309 0.00017543066586716614 0 -0.0067731879053312309 0.00017543066586716614 0 -0.006732320290454911 0.00022454409534010511 0 -0.0068786452347903522 0.00026161006089457428 0 -0.006732320290454911 0.00022454409534010511 0 -0.0068786452347903522 0.00026161006089457428 0 -0.0067468541238025932 0.00030705952573238524 0 -0.0068811403590464592 0.0012084594749367391 0 -0.0068948475888202356 0.0012603927676886277 0 -0.0070013812632193067 0.0012884489688588059 0 -0.0069243647577036513 0.0011070680255361408 0 -0.0068811403590464592 0.0012084594749367391 0 -0.0070767565512963159 0.0012893840293350665 0 -0.0068059371342971678 0.0011137437228025912 0 -0.0068811403590464592 0.0012084594749367391 0 -0.0068948475888202356 0.0012603927676886277 0 -0.0068217053103127191 0.00056614513435308432 0 -0.0068882002305607898 0.00077359129781550458 0 -0.0068786452347903522 0.00026161006089457428 0 -0.0070263531807511362 0.00041267227379421413 0 -0.0068345532762669773 0.00040834693947704295 0 -0.0068882002305607898 0.00077359129781550458 0 -0.0069940635300309757 0.00089543663328794096 0 -0.0068786452347903522 0.00026161006089457428 0 -0.0067468541238025932 0.00030705952573238524 0 -0.0068345532762669773 0.00040834693947704295 0 -0.0067468541238025932 0.00030705952573238524 0 -0.0066516838900156092 0.00040197504588414761 0 -0.0068345532762669773 0.00040834693947704295 0 -0.0067468541238025932 0.00030705952573238524 0 -0.0066581221851947196 0.00026710499370176041 0 -0.0066516838900156092 0.00040197504588414761 0 -0.006563914541356599 0.00033892698318943652 0 -0.0066581221851947196 0.00026710499370176041 0 -0.0066516838900156092 0.00040197504588414761 0 -0.0066146522586220452 0.00018784113164393307 0 -0.006563914541356599 0.00033892698318943652 0 -0.0066581221851947196 0.00026710499370176041 0 -0.0065575616345712462 4.9242237186973228e-05 0 -0.0065342789715149997 0.00022805066189850629 0 -0.0066146522586220452 0.00018784113164393307 0 -0.0066788672300106778 0.00018539510452131024 0 -0.0066581221851947196 0.00026710499370176041 0 -0.006732320290454911 0.00022454409534010511 0 -0.0067468541238025932 0.00030705952573238524 0 -0.0066581221851947196 0.00026710499370176041 0 -0.0066788672300106778 0.00018539510452131024 0 -0.006732320290454911 0.00022454409534010511 0 -0.0066581221851947196 0.00026710499370176041 0 -0.0071302191427689357 0.0022477716868666529 0 -0.0070994855803813445 0.0024224154947709892 0 -0.0072599102326455648 0.0024026977822141681 0 -0.007563114434613361 0.0013236836426467656 0 -0.0075759931825533202 0.0013509366816113822 0 -0.0075683921004779317 0.0013372465325039286 0 -0.007334035468809859 0.0017985095094565423 0 -0.0074147574632574161 0.0018439383468399459 0 -0.0075907496753931736 0.0013096955919679855 0 -0.007563114434613361 0.0013236836426467656 0 -0.0075683921004779317 0.0013372465325039286 0 -0.0075759931825533202 0.0013509366816113822 0 -0.0075683921004779317 0.0013372465325039286 0 -0.0075513919308684823 0.0013685326972436801 0 -0.0075493015480860345 0.0013231193165942664 0 -0.007537581077139182 0.0013490520750616497 0 -0.0075683921004779317 0.0013372465325039286 0 -0.0075907496753931736 0.0013096955919679855 0 -0.0075493015480860345 0.0013231193165942664 0 -0.0075683921004779317 0.0013372465325039286 0 -0.007537581077139182 0.0013490520750616497 0 -0.0075683921004779317 0.0013372465325039286 0 -0.0075513919308684823 0.0013685326972436801 0 -0.0072698929418036082 0.0012916531799642976 0 -0.0072533718821210808 0.001260882710782183 0 -0.0068050271964635572 0.0012058249257519717 0 -0.0072533718821210808 0.001260882710782183 0 -0.0068948475888202356 0.0012603927676886277 0 -0.0070013812632193067 0.0012884489688588059 0 -0.0069738857023644444 0.0013191681144770085 0 -0.0068948475888202356 0.0012603927676886277 0 -0.0069738857023644444 0.0013191681144770085 0 -0.0069639017361975315 0.0013686634596621777 0 -0.0069738857023644444 0.0013191681144770085 0 -0.0070055243800743808 0.0013530910806967074 0 -0.0069639017361975315 0.0013686634596621777 0 -0.0069738857023644444 0.0013191681144770085 0 -0.0070055243800743808 0.0013530910806967074 0 -0.0070106589298468041 0.0013079554498746033 0 -0.0070013812632193067 0.0012884489688588059 0 -0.0069738857023644444 0.0013191681144770085 0 -0.0070106589298468041 0.0013079554498746033 0 -0.0072533718821210808 0.001260882710782183 0 -0.0071877304922905103 0.0012359909235657774 0 -0.0070006780952825368 0.0012927824878356533 0 -0.0070106589298468041 0.0013079554498746033 0 -0.0071040614064879076 0.0013549764153323628 0 -0.0070106589298468041 0.0013079554498746033 0 -0.0071040614064879076 0.0013549764153323628 0 -0.0070376187108775745 0.0013817003699146786 0 -0.0070055243800743808 0.0013530910806967074 0 -0.0070106589298468041 0.0013079554498746033 0 -0.0070376187108775745 0.0013817003699146786 0 -0.0072533718821210808 0.001260882710782183 0 -0.0068073461498932165 0.0021346978505771721 0 -0.0075759931825533202 0.0013509366816113822 0 -0.0075513919308684823 0.0013685326972436801 0 -0.0075679853183597762 0.0013855159146852767 0 -0.0074147574632574161 0.0018439383468399459 0 -0.0068073461498932165 0.0021346978505771721 0 -0.0070763007120637289 0.00256697229171691 0 -0.007197887702383156 0.0026189195614479081 0 -0.0072270392036092555 0.0025123129859386055 0 -0.0070994855803813445 0.0024224154947709892 0 -0.0070763007120637289 0.00256697229171691 0 -0.0072270392036092555 0.0025123129859386055 0 -0.0057355071600344986 0.003315033646474739 0 -0.0053464972127402711 0.0026684417662650433 0 -0.0050711804324519291 0.0030554144187404314 0 -0.0068073461498932165 0.0021346978505771721 0 -0.0063805040896927137 0.0029171475452508737 0 -0.0071040614064879076 0.0013549764153323628 0 -0.0070884813500985584 0.0014455883893062607 0 -0.0070376187108775745 0.0013817003699146786 0 -0.0068073461498932165 0.0021346978505771721 0 -0.0063641673615012651 0.0022466338417854162 0 -0.0057355071600344986 0.003315033646474739 0 -0.0053464972127402711 0.0026684417662650433 0 -0.0058030627913191867 0.0027766890217449914 0 -0.0058030627913191867 0.0027766890217449914 0 -0.0055778111806101443 0.0023591386577776702 0 -0.0058761955957435542 0.0022336055339172746 0 -0.0053464972127402711 0.0026684417662650433 0 -0.0058030627913191867 0.0027766890217449914 0 -0.0055778111806101443 0.0023591386577776702 0 -0.0063641673615012651 0.0022466338417854162 0 -0.0069475893369794171 0.0014681254747755355 0 -0.0070884813500985584 0.0014455883893062607 0 -0.0070215449024853948 0.0014531783462523376 0 -0.0070742854336060196 0.0015321006495811948 0 -0.0071235509756714934 0.0010016810848506225 0 -0.0069475893369794171 0.0014681254747755355 0 -0.0070884813500985584 0.0014455883893062607 0 -0.0070215449024853948 0.0014531783462523376 0 -0.0070376187108775745 0.0013817003699146786 0 -0.0070215449024853948 0.0014531783462523376 0 -0.0070376187108775745 0.0013817003699146786 0 -0.0069639017361975315 0.0013686634596621777 0 -0.0070055243800743808 0.0013530910806967074 0 -0.0070376187108775745 0.0013817003699146786 0 -0.0069639017361975315 0.0013686634596621777 0 -0.0071865095116733406 0.00061656602433371379 0 -0.0070263531807511362 0.00041267227379421413 0 -0.0069458264645970349 0.00060380258425070106 0 -0.0071235509756714934 0.0010016810848506225 0 -0.0069940635300309757 0.00089543663328794096 0 -0.0071865095116733406 0.00061656602433371379 0 -0.0070615512869845768 0.00085339466431911734 0 -0.0069458264645970349 0.00060380258425070106 0 -0.0070615512869845768 0.00085339466431911734 0 -0.0071638748761635876 0.00099269419061431699 0 -0.00721124696182003 0.00089141594266210615 0 -0.0070080477707868119 0.0010682440679678105 0 -0.0071638748761635876 0.00099269419061431699 0 -0.0072159169079140158 0.0011639741951322109 0 -0.0070615512869845768 0.00085339466431911734 0 -0.0070080477707868119 0.0010682440679678105 0 -0.0071638748761635876 0.00099269419061431699 0 -0.0071638748761635876 0.00099269419061431699 0 -0.0073090114341858867 0.0009827600924299921 0 -0.0072159169079140158 0.0011639741951322109 0 -0.0071638748761635876 0.00099269419061431699 0 -0.00721124696182003 0.00089141594266210615 0 -0.0073090114341858867 0.0009827600924299921 0 -0.0071865095116733406 0.00061656602433371379 0 -0.0070615512869845768 0.00085339466431911734 0 -0.00721124696182003 0.00089141594266210615 0 -0.0071865095116733406 0.00061656602433371379 0 -0.00721124696182003 0.00089141594266210615 0 -0.0073391512399496855 0.00085017936545740615 0 -0.00721124696182003 0.00089141594266210615 0 -0.0073391512399496855 0.00085017936545740615 0 -0.0073090114341858867 0.0009827600924299921 0 -0.0055778111806101443 0.0023591386577776702 0 -0.0058761955957435542 0.0022336055339172746 0 -0.0056377439700757443 0.0019100876868303621 0 -0.0069475893369794171 0.0014681254747755355 0 -0.0048609056658861383 0.0020191755746989393 0 -0.0069475893369794171 0.0014681254747755355 0 -0.0072377766646013388 0.00084456494316045513 0 -0.0073090114341858867 0.0009827600924299921 0 -0.0073947630096020565 0.0010041200118571939 0 -0.0072159169079140158 0.0011639741951322109 0 -0.0048609056658861383 0.0020191755746989393 0 -0.0057786608600203272 0.0015880043317528731 0 -0.0073161931771937435 0.00090332284670969305 0 -0.0073090114341858867 0.0009827600924299921 0 -0.0073947630096020565 0.0010041200118571939 0 -0.0028291323561642078 0.0028098876374264268 0 -0.0026896466032382527 0.0034097900459633432 0 -0.0022365867669947932 0.0026853774025232609 0 -0.0048609056658861383 0.0020191755746989393 0 -0.0039303788148510477 0.0028357792384695224 0 -0.0034509098378201239 0.0028748962518777002 0 -0.0028291323561642078 0.0028098876374264268 0 -0.0026896466032382527 0.0034097900459633432 0 -0.0028291323561642078 0.0028098876374264268 0 -0.0029588226772324167 0.0022098721432672131 0 -0.0022365867669947932 0.0026853774025232609 0 -0.0048609056658861383 0.0020191755746989393 0 -0.0028776916631224002 0.0021370575637641711 0 -0.0034509098378201239 0.0028748962518777002 0 -0.0028291323561642078 0.0028098876374264268 0 -0.0029588226772324167 0.0022098721432672131 0 -0.0053464972127402711 0.0026684417662650433 0 -0.0055778111806101443 0.0023591386577776702 0 -0.0052242190431112919 0.0022034082405794756 0 -0.0055778111806101443 0.0023591386577776702 0 -0.0056377439700757443 0.0019100876868303621 0 -0.0052242190431112919 0.0022034082405794756 0 -0.0065192545420693498 0.00050907112822388295 0 -0.0067493892837028171 0.00054836072189099632 0 -0.0065908129186936044 0.00075317177405735821 0 -0.0065342789715149997 0.00022805066189850629 0 -0.0065301849209593319 0.00048910101794208177 0 -0.006563914541356599 0.00033892698318943652 0 -0.0065192545420693498 0.00050907112822388295 0 -0.0066516838900156092 0.00040197504588414761 0 -0.006338658729799506 0.00012929640618443363 0 -0.0065099654018984333 9.9638474490996811e-05 0 -0.0065192545420693498 0.00050907112822388295 0 -0.0065192545420693498 0.00050907112822388295 0 -0.0066516838900156092 0.00040197504588414761 0 -0.0067493892837028171 0.00054836072189099632 0 -0.0066516838900156092 0.00040197504588414761 0 -0.0068345532762669773 0.00040834693947704295 0 -0.0067493892837028171 0.00054836072189099632 0 -0.0068345532762669773 0.00040834693947704295 0 -0.0069458264645970349 0.00060380258425070106 0 -0.0067493892837028171 0.00054836072189099632 0 -0.0070263531807511362 0.00041267227379421413 0 -0.0068345532762669773 0.00040834693947704295 0 -0.0069458264645970349 0.00060380258425070106 0 -0.0069458264645970349 0.00060380258425070106 0 -0.0067493892837028171 0.00054836072189099632 0 -0.0068098188530455184 0.00085772478874489321 0 -0.0067493892837028171 0.00054836072189099632 0 -0.0068098188530455184 0.00085772478874489321 0 -0.0065908129186936044 0.00075317177405735821 0 -0.0070615512869845768 0.00085339466431911734 0 -0.0069458264645970349 0.00060380258425070106 0 -0.0068098188530455184 0.00085772478874489321 0 -0.0070615512869845768 0.00085339466431911734 0 -0.0070080477707868119 0.0010682440679678105 0 -0.0068098188530455184 0.00085772478874489321 0 -0.0070080477707868119 0.0010682440679678105 0 -0.0068098188530455184 0.00085772478874489321 0 -0.0067371353364394865 0.0011477333805204651 0 -0.0068098188530455184 0.00085772478874489321 0 -0.006515927569131808 0.0010968881843326887 0 -0.0067371353364394865 0.0011477333805204651 0 -0.006515927569131808 0.0010968881843326887 0 -0.0065908129186936044 0.00075317177405735821 0 -0.0064052220029949865 0.00094076502758299251 0 -0.0068098188530455184 0.00085772478874489321 0 -0.006515927569131808 0.0010968881843326887 0 -0.0065908129186936044 0.00075317177405735821 0 -0.0065908129186936044 0.00075317177405735821 0 -0.006351348336668121 0.00073477156499299331 0 -0.0064052220029949865 0.00094076502758299251 0 -0.0065192545420693498 0.00050907112822388295 0 -0.0065908129186936044 0.00075317177405735821 0 -0.006351348336668121 0.00073477156499299331 0 -0.0061984423560116197 0.00098073234030273066 0 -0.006351348336668121 0.00073477156499299331 0 -0.0064052220029949865 0.00094076502758299251 0 -0.006515927569131808 0.0010968881843326887 0 -0.0064052220029949865 0.00094076502758299251 0 -0.00624731541227501 0.0011671727094769138 0 -0.0061984423560116197 0.00098073234030273066 0 -0.0064052220029949865 0.00094076502758299251 0 -0.00624731541227501 0.0011671727094769138 0 -0.006515927569131808 0.0010968881843326887 0 -0.00624731541227501 0.0011671727094769138 0 -0.0062627035340157748 0.0014217607125606966 0 -0.0062627035340157748 0.0014217607125606966 0 -0.0061647969827377178 0.0016326696446970061 0 -0.0060767900684976306 0.0014702405061068813 0 -0.0062627035340157748 0.0014217607125606966 0 -0.0061647969827377178 0.0016326696446970061 0 -0.0062706247513519397 0.0016542639884026824 0 -0.00624731541227501 0.0011671727094769138 0 -0.0062627035340157748 0.0014217607125606966 0 -0.0060767900684976306 0.0014702405061068813 0 -0.006473019768989609 0.001402235917422028 0 -0.0065781998483743246 0.0016921296803332714 0 -0.0062706247513519397 0.0016542639884026824 0 -0.0062627035340157748 0.0014217607125606966 0 -0.006473019768989609 0.001402235917422028 0 -0.0062706247513519397 0.0016542639884026824 0 -0.006515927569131808 0.0010968881843326887 0 -0.0062627035340157748 0.0014217607125606966 0 -0.006473019768989609 0.001402235917422028 0 -0.006515927569131808 0.0010968881843326887 0 -0.006473019768989609 0.001402235917422028 0 -0.0067371353364394865 0.0011477333805204651 0 -0.006473019768989609 0.001402235917422028 0 -0.0067371353364394865 0.0011477333805204651 0 -0.0067328617659365934 0.0013837008441776736 0 -0.0067371353364394865 0.0011477333805204651 0 -0.0067328617659365934 0.0013837008441776736 0 -0.0069865097558697263 0.001374138024894128 0 -0.0070080477707868119 0.0010682440679678105 0 -0.0067371353364394865 0.0011477333805204651 0 -0.0069865097558697263 0.001374138024894128 0 -0.0067328617659365934 0.0013837008441776736 0 -0.0067080329186483224 0.0016062324017890159 0 -0.0069865097558697263 0.001374138024894128 0 -0.0061127737009916278 0.0015576066787904227 0 -0.0059553493447375219 0.00142722453987931 0 -0.006473019768989609 0.001402235917422028 0 -0.0067328617659365934 0.0013837008441776736 0 -0.0067080329186483224 0.0016062324017890159 0 -0.0066266623693315959 0.0015046466558100388 0 -0.0061127737009916278 0.0015576066787904227 0 -0.0061127737009916278 0.0015576066787904227 0 -0.0060968599382303567 0.0020210693820413091 0 -0.0056731924428019718 0.0010053644857626299 0 -0.0049169081735788685 0.0015347898329706774 0 -0.0047597939656361917 0.00090896563086750458 0 -0.0056731924428019718 0.0010053644857626299 0 -0.0050272214407048182 0.00034096612540269978 0 -0.0047597939656361917 0.00090896563086750458 0 -0.0061127737009916278 0.0015576066787904227 0 -0.0048315436512893929 0.0011006908950599308 0 -0.0055259275143371154 0.0024355955536248769 0 -0.0047999872142397487 0.0018694510454678745 0 -0.0055449212783763675 0.0015962054851632022 0 -0.0055259275143371154 0.0024355955536248769 0 -0.0055449212783763675 0.0015962054851632022 0 -0.0061864920087478662 0.0018978157290669316 0 -0.0055449212783763675 0.0015962054851632022 0 -0.0061864920087478662 0.0018978157290669316 0 -0.006021484818212023 0.0015462946659224189 0 -0.0061864920087478662 0.0018978157290669316 0 -0.0062081986854787396 0.0017269900982685876 0 -0.006021484818212023 0.0015462946659224189 0 -0.0062000315612240481 0.0017790260891600753 0 -0.0062726732604970747 0.0015005223166439574 0 -0.0061058154426866578 0.0019252825121286034 0 -0.0061864920087478662 0.0018978157290669316 0 -0.0062081986854787396 0.0017269900982685876 0 -0.0062083218205793867 0.0017649284270000861 0 -0.0062081986854787396 0.0017269900982685876 0 -0.0062000315612240481 0.0017790260891600753 0 -0.0062726732604970747 0.0015005223166439574 0 -0.0062081986854787396 0.0017269900982685876 0 -0.0062000315612240481 0.0017790260891600753 0 -0.0062083218205793867 0.0017649284270000861 0 -0.0062000315612240481 0.0017790260891600753 0 -0.0062083218205793867 0.0017649284270000861 0 -0.0060992082320308165 0.0017837256938472779 0 -0.0062083218205793867 0.0017649284270000861 0 -0.0061647969827377178 0.0016326696446970061 0 -0.0062706247513519397 0.0016542639884026824 0 -0.0061864920087478662 0.0018978157290669316 0 -0.0062083218205793867 0.0017649284270000861 0 -0.0062706247513519397 0.0016542639884026824 0 -0.0065781998483743246 0.0016921296803332714 0 -0.0061864920087478662 0.0018978157290669316 0 -0.0062706247513519397 0.0016542639884026824 0 -0.0030596470696035907 0.0013145492351012535 0 -0.0029213948215422673 0.0021196148713264326 0 -0.0024674295584375234 0.0015499078098910846 0 -0.0030596470696035907 0.0013145492351012535 0 -0.0029213948215422673 0.0021196148713264326 0 -0.0035548591006123839 0.001668302302852407 0 -0.0030596470696035907 0.0013145492351012535 0 -0.0027076483103368543 0.000802097385578191 0 -0.0024674295584375234 0.0015499078098910846 0 -0.0028776916631224002 0.0021370575637641711 0 -0.0025311925751370563 0.0016218462264281908 0 -0.0029213948215422673 0.0021196148713264326 0 -0.003498185612532343 0.0021413909771573775 0 -0.0035548591006123839 0.001668302302852407 0 -0.003498185612532343 0.0021413909771573775 0 -0.0035548591006123839 0.001668302302852407 0 -0.0041537597632298846 0.0020955015124896666 0 -0.0033511337913571795 0.0026795099889430031 0 -0.003498185612532343 0.0021413909771573775 0 -0.0041537597632298846 0.0020955015124896666 0 -0.0033511337913571795 0.0026795099889430031 0 -0.0029213948215422673 0.0021196148713264326 0 -0.003498185612532343 0.0021413909771573775 0 -0.0030596470696035907 0.0013145492351012535 0 -0.0035548591006123839 0.001668302302852407 0 -0.0035469895321553701 0.00093312642315843998 0 -0.0035548591006123839 0.001668302302852407 0 -0.0041712175752084968 0.0012535616342865552 0 -0.0035469895321553701 0.00093312642315843998 0 -0.0035548591006123839 0.001668302302852407 0 -0.0041712175752084968 0.0012535616342865552 0 -0.0041537597632298846 0.0020955015124896666 0 -0.0057786608600203272 0.0015880043317528731 0 -0.0059553493447375219 0.00142722453987931 0 -0.0070080477707868119 0.0010682440679678105 0 -0.0072159169079140158 0.0011639741951322109 0 -0.0069865097558697263 0.001374138024894128 0 -0.0041712175752084968 0.0012535616342865552 0 -0.0049169081735788685 0.0015347898329706774 0 -0.0047597939656361917 0.00090896563086750458 0 -0.0041712175752084968 0.0012535616342865552 0 -0.0041537597632298846 0.0020955015124896666 0 -0.0049169081735788685 0.0015347898329706774 0 -0.0050272214407048182 0.00034096612540269978 0 -0.0047597939656361917 0.00090896563086750458 0 -0.0041205093812353875 0.00044536711250110349 0 -0.0050272214407048182 0.00034096612540269978 0 -0.0041205093812353875 0.00044536711250110349 0 -0.0043783941305476871 -0.00030237700099245291 0 -0.0041712175752084968 0.0012535616342865552 0 -0.0041205093812353875 0.00044536711250110349 0 -0.0035469895321553701 0.00093312642315843998 0 -0.0041712175752084968 0.0012535616342865552 0 -0.0047597939656361917 0.00090896563086750458 0 -0.0041205093812353875 0.00044536711250110349 0 -0.0035244232617769353 0.00087975544195576134 0 -0.0032538133238031392 0.00015873123912693262 0 -0.0041205093812353875 0.00044536711250110349 0 -0.0032744046677047568 0.00027521794779912143 0 -0.0037502767249365308 -0.00027941841608188084 0 -0.0041205093812353875 0.00044536711250110349 0 -0.0035469895321553701 0.00093312642315843998 0 -0.0032744046677047568 0.00027521794779912143 0 -0.003210423017354204 8.755681503475762e-05 0 -0.0027076483103368543 0.000802097385578191 0 -0.0020577452661930296 -0.00013076504855032481 0 -0.0030596470696035907 0.0013145492351012535 0 -0.0035469895321553701 0.00093312642315843998 0 -0.0027076483103368543 0.000802097385578191 0 -0.0035469895321553701 0.00093312642315843998 0 -0.003210423017354204 8.755681503475762e-05 0 -0.0027076483103368543 0.000802097385578191 0 -0.0031526296394117953 -0.00099780345263839401 0 -0.0028989264414032764 -0.00031169269248859297 0 -0.0025880290489942392 -0.0010531785163846279 0 -0.0031526296394117953 -0.00099780345263839401 0 -0.0028989264414032764 -0.00031169269248859297 0 -0.003509922198200878 -0.00077913606741717594 0 -0.002673965638885278 -0.00029331657111983747 0 -0.0010789961052361926 -0.00058791453444750983 0 -0.0032744046677047568 0.00027521794779912143 0 -0.0029992459142508853 -0.0003835600601391671 0 -0.0033932260757198554 -0.00040551465970719815 0 -0.003210423017354204 8.755681503475762e-05 0 -0.0028645854765994745 -0.00073066499006270522 0 -0.0020577452661930296 -0.00013076504855032481 0 -0.0032538133238031392 0.00015873123912693262 0 -0.002673965638885278 -0.00029331657111983747 0 -0.0032744046677047568 0.00027521794779912143 0 -0.0033932260757198554 -0.00040551465970719815 0 -0.0037502767249365308 -0.00027941841608188084 0 -0.0033932260757198554 -0.00040551465970719815 0 -0.0037502767249365308 -0.00027941841608188084 0 -0.003509922198200878 -0.00077913606741717594 0 -0.0037502767249365308 -0.00027941841608188084 0 -0.003509922198200878 -0.00077913606741717594 0 -0.0037515996263179671 -0.00093186857713199419 0 -0.0031526296394117953 -0.00099780345263839401 0 -0.003509922198200878 -0.00077913606741717594 0 -0.0037515996263179671 -0.00093186857713199419 0 -0.0029992459142508853 -0.0003835600601391671 0 -0.0033932260757198554 -0.00040551465970719815 0 -0.003509922198200878 -0.00077913606741717594 0 -0.002673965638885278 -0.00029331657111983747 0 -0.0035390679540781198 -0.00078795000394500767 0 -0.0033803938707208168 -0.00027896848211062105 0 -0.004159636624409907 0.00045398359512531592 0 -0.0029297710181962035 0.00040490020402923109 0 -0.003699144259774227 0.00041778109754372363 0 -0.0039431331176158907 0.0012189133136164046 0 -0.0037502767249365308 -0.00027941841608188084 0 -0.0037515996263179671 -0.00093186857713199419 0 -0.0043783941305476871 -0.00030237700099245291 0 -0.0029297710181962035 0.00040490020402923109 0 -0.003699144259774227 0.00041778109754372363 0 -0.0032894618161404252 0.00013377856395497908 0 -0.0041205093812353875 0.00044536711250110349 0 -0.0037502767249365308 -0.00027941841608188084 0 -0.0043783941305476871 -0.00030237700099245291 0 -0.0047999872142397487 0.0018694510454678745 0 -0.0039431331176158907 0.0012189133136164046 0 -0.00487909477619255 0.0010151440025880235 0 -0.0048315436512893929 0.0011006908950599308 0 -0.004159636624409907 0.00045398359512531592 0 -0.003699144259774227 0.00041778109754372363 0 -0.0039431331176158907 0.0012189133136164046 0 -0.0042702160242894952 0.00052857911704228759 0 -0.0039431331176158907 0.0012189133136164046 0 -0.0042702160242894952 0.00052857911704228759 0 -0.00487909477619255 0.0010151440025880235 0 0.00048066990169957295 0.00028012449078503748 0 0.00065939602465778431 0.0002938532692004137 0 0.0003806655335683653 0.00052701858973841953 0 -0.0040061879835705553 -0.00021171087103633563 0 -0.0036639531361608735 -0.00056808414974193939 0 -0.0047878628869782646 0.0001368627103261278 0 -0.0015206497610521666 5.1278616021540886e-05 0 -0.0021921270326849193 0.00030501285984989459 0 -0.0042702160242894952 0.00052857911704228759 0 -0.0040061879835705553 -0.00021171087103633563 0 -0.0047878628869782646 0.0001368627103261278 0 -0.003699144259774227 0.00041778109754372363 0 -0.0042702160242894952 0.00052857911704228759 0 -0.0040061879835705553 -0.00021171087103633563 0 -0.0034145571235858377 0.00031603082690848653 0 -0.0015206497610521666 5.1278616021540886e-05 0 0.00048066990169957295 0.00028012449078503748 0 0.00058814335890259987 0.00016080107919600215 0 0.00065939602465778431 0.0002938532692004137 0 0.00048066990169957295 0.00028012449078503748 0 0.00058814335890259987 0.00016080107919600215 0 0.00043589569800259832 0.0001826648751845643 0 0.00058814335890259987 0.00016080107919600215 0 0.00043589569800259832 0.0001826648751845643 0 0.00045884915955482768 6.1200359429030887e-05 0 0.00065939602465778431 0.0002938532692004137 0 0.00070651806714598013 0.00017022383973290165 0 0.00083152376883211486 0.00014533196116298677 0 -0.0036514883608530003 -0.00060201584746089488 0 -0.0029750571235769283 -0.00072331082783509974 0 -0.0024517720783644005 -0.0013351880417553509 0 -0.0015206497610521666 5.1278616021540886e-05 0 -0.0011085496421545749 -0.0002902346872347042 0 -0.0015206497610521666 5.1278616021540886e-05 0 0.00084869215195417598 0.0003268671160552205 0 0.00058814335890259987 0.00016080107919600215 0 0.00065939602465778431 0.0002938532692004137 0 0.00070651806714598013 0.00017022383973290165 0 -0.0036514883608530003 -0.00060201584746089488 0 -0.0029750571235769283 -0.00072331082783509974 0 -0.0032004734257776012 -0.00020643540759357056 0 -0.0029750571235769283 -0.00072331082783509974 0 -0.0032004734257776012 -0.00020643540759357056 0 -0.0027723434242453416 -0.00045787776774168417 0 -0.0032004734257776012 -0.00020643540759357056 0 -0.0028818516481328577 -0.00020203047017711945 0 -0.0027723434242453416 -0.00045787776774168417 0 -0.0040061879835705553 -0.00021171087103633563 0 -0.0036514883608530003 -0.00060201584746089488 0 -0.0035799437056570124 -6.3749984581878405e-05 0 -0.0036514883608530003 -0.00060201584746089488 0 -0.0032004734257776012 -0.00020643540759357056 0 -0.0035799437056570124 -6.3749984581878405e-05 0 -0.003699144259774227 0.00041778109754372363 0 -0.0035799437056570124 -6.3749984581878405e-05 0 -0.0032894618161404252 0.00013377856395497908 0 -0.003699144259774227 0.00041778109754372363 0 -0.0040061879835705553 -0.00021171087103633563 0 -0.0035799437056570124 -6.3749984581878405e-05 0 -0.0029297710181962035 0.00040490020402923109 0 -0.0032894618161404252 0.00013377856395497908 0 -0.0030049784691086414 5.8797436945921e-05 0 -0.0032004734257776012 -0.00020643540759357056 0 -0.0030049784691086414 5.8797436945921e-05 0 -0.0028818516481328577 -0.00020203047017711945 0 -0.0032004734257776012 -0.00020643540759357056 0 -0.0032894618161404252 0.00013377856395497908 0 -0.0030049784691086414 5.8797436945921e-05 0 -0.0032004734257776012 -0.00020643540759357056 0 -0.0035799437056570124 -6.3749984581878405e-05 0 -0.0032894618161404252 0.00013377856395497908 0 -0.0033803938707208168 -0.00027896848211062105 0 -0.0020853292462792153 -0.00098998978438295847 0 -0.0029297710181962035 0.00040490020402923109 0 -0.0025215729551129936 -0.0002503076182302559 0 -0.0017842559817259505 -0.00060189308285184045 0 -0.0031526296394117953 -0.00099780345263839401 0 -0.0037515996263179671 -0.00093186857713199419 0 -0.0030687653601557991 -0.0016391256662872868 0 -0.0029297710181962035 0.00040490020402923109 0 -0.0030049784691086414 5.8797436945921e-05 0 -0.0025215729551129936 -0.0002503076182302559 0 -0.0030049784691086414 5.8797436945921e-05 0 -0.0025215729551129936 -0.0002503076182302559 0 -0.0028818516481328577 -0.00020203047017711945 0 -0.0021909479245265941 -0.00051135670121362441 0 -0.0025215729551129936 -0.0002503076182302559 0 -0.0017842559817259505 -0.00060189308285184045 0 -0.0021909479245265941 -0.00051135670121362441 0 -0.002467942419783398 -0.00050473428949484765 0 -0.0025215729551129936 -0.0002503076182302559 0 -0.002467942419783398 -0.00050473428949484765 0 -0.0027723434242453416 -0.00045787776774168417 0 -0.0025585137920703664 -0.00075914020695965628 0 -0.002467942419783398 -0.00050473428949484765 0 -0.0025215729551129936 -0.0002503076182302559 0 -0.0027723434242453416 -0.00045787776774168417 0 -0.0025215729551129936 -0.0002503076182302559 0 -0.0028818516481328577 -0.00020203047017711945 0 -0.0027723434242453416 -0.00045787776774168417 0 -0.00025224330538151687 0.00097743493940911788 0 0.00039299417637655184 0.00067159666369860605 0 0.00034397145477873257 0.00048976387573298661 0 -0.0029750571235769283 -0.00072331082783509974 0 -0.0025585137920703664 -0.00075914020695965628 0 -0.0025630471149924654 -0.00095355579222063049 0 -0.0029750571235769283 -0.00072331082783509974 0 -0.0027723434242453416 -0.00045787776774168417 0 -0.0025585137920703664 -0.00075914020695965628 0 -0.0029750571235769283 -0.00072331082783509974 0 -0.0025630471149924654 -0.00095355579222063049 0 -0.0024517720783644005 -0.0013351880417553509 0 -0.0025585137920703664 -0.00075914020695965628 0 -0.0025630471149924654 -0.00095355579222063049 0 -0.0022523697618082711 -0.00099537868728131074 0 -0.0024517720783644005 -0.0013351880417553509 0 -0.0022523697618082711 -0.00099537868728131074 0 -0.0017816657113167351 -0.0013166418356101695 0 -0.0025630471149924654 -0.00095355579222063049 0 -0.0024517720783644005 -0.0013351880417553509 0 -0.0022523697618082711 -0.00099537868728131074 0 -0.0022523697618082711 -0.00099537868728131074 0 -0.0019255726338287247 -0.00080347687078729385 0 -0.0017816657113167351 -0.0013166418356101695 0 -0.0022523697618082711 -0.00099537868728131074 0 -0.0022275456501737257 -0.0007266571451399051 0 -0.0019255726338287247 -0.00080347687078729385 0 -0.0025585137920703664 -0.00075914020695965628 0 -0.0022523697618082711 -0.00099537868728131074 0 -0.0022275456501737257 -0.0007266571451399051 0 -0.002467942419783398 -0.00050473428949484765 0 -0.0025585137920703664 -0.00075914020695965628 0 -0.0022275456501737257 -0.0007266571451399051 0 -0.0021909479245265941 -0.00051135670121362441 0 -0.002467942419783398 -0.00050473428949484765 0 -0.0022275456501737257 -0.0007266571451399051 0 -0.0021909479245265941 -0.00051135670121362441 0 -0.0020298169862957563 -0.00065911844063467056 0 -0.0017842559817259505 -0.00060189308285184045 0 -0.0022275456501737257 -0.0007266571451399051 0 -0.0020298169862957563 -0.00065911844063467056 0 -0.0019255726338287247 -0.00080347687078729385 0 -0.0021909479245265941 -0.00051135670121362441 0 -0.0022275456501737257 -0.0007266571451399051 0 -0.0020298169862957563 -0.00065911844063467056 0 -0.0020853292462792153 -0.00098998978438295847 0 -0.0002502020856741011 -0.0017931573538452288 0 -0.0017188445056447027 -0.00054532549930404325 0 -0.0019255726338287247 -0.00080347687078729385 0 -0.0014456645743130454 -0.0011738776719864784 0 -0.001040117622252203 -0.00094442297069874804 0 5.4466431382753232e-05 -0.00092854603972652387 0 -0.00015251537205948003 -0.0018609866773113444 0 -0.0017188445056447027 -0.00054532549930404325 0 -0.0014456645743130454 -0.0011738776719864784 0 -0.00055172966193162913 -0.0016537200465792114 0 -0.0020298169862957563 -0.00065911844063467056 0 -0.0017842559817259505 -0.00060189308285184045 0 -0.0019255726338287247 -0.00080347687078729385 0 -0.0020853292462792153 -0.00098998978438295847 0 -0.0019771309427757105 -0.0008571707255807026 0 -0.0019255726338287247 -0.00080347687078729385 0 -0.0017816657113167351 -0.0013166418356101695 0 -0.0014456645743130454 -0.0011738776719864784 0 -0.0017816657113167351 -0.0013166418356101695 0 -0.0014456645743130454 -0.0011738776719864784 0 -0.001246140581150046 -0.0015517070870259017 0 -0.0014456645743130454 -0.0011738776719864784 0 -0.001246140581150046 -0.0015517070870259017 0 -0.00055172966193162913 -0.0016537200465792114 0 -0.0020853292462792153 -0.00098998978438295847 0 -0.0010789961052361926 -0.00058791453444750983 0 -0.0031526296394117953 -0.00099780345263839401 0 -0.0030687653601557991 -0.0016391256662872868 0 -0.0025880290489942392 -0.0010531785163846279 0 -0.001040117622252203 -0.00094442297069874804 0 -0.00031948541059501913 -5.548973511459624e-05 0 5.4466431382753232e-05 -0.00092854603972652387 0 -0.0012299684046701773 0.0013839988546483291 0 -0.00022739497802557967 0.0008978952920260172 0 -0.00067458827987973847 0.00054247639952461648 0 -0.0012624360781713045 0.00046941787806715628 0 -0.0012299684046701773 0.0013839988546483291 0 -0.0020923030569783359 0.0010383108249474209 0 -0.0012624360781713045 0.00046941787806715628 0 -0.0012299684046701773 0.0013839988546483291 0 -0.00067458827987973847 0.00054247639952461648 0 -0.0062081986854787396 0.0017269900982685876 0 -0.0062726732604970747 0.0015005223166439574 0 -0.006021484818212023 0.0015462946659224189 0 -0.0062726732604970747 0.0015005223166439574 0 -0.006021484818212023 0.0015462946659224189 0 -0.0057310820734774778 0.0008225980882774393 0 -0.0037301346460205296 0.0014295634237228919 0 -0.0029707378422465847 0.0008629764311897612 0 -0.0055449212783763675 0.0015962054851632022 0 -0.006021484818212023 0.0015462946659224189 0 -0.0057310820734774778 0.0008225980882774393 0 -0.0055449212783763675 0.0015962054851632022 0 -0.00487909477619255 0.0010151440025880235 0 -0.0057310820734774778 0.0008225980882774393 0 -0.0047999872142397487 0.0018694510454678745 0 -0.0055449212783763675 0.0015962054851632022 0 -0.00487909477619255 0.0010151440025880235 0 -0.00487909477619255 0.0010151440025880235 0 -0.0057310820734774778 0.0008225980882774393 0 -0.0047878628869782646 0.0001368627103261278 0 -0.0042702160242894952 0.00052857911704228759 0 -0.00487909477619255 0.0010151440025880235 0 -0.0047878628869782646 0.0001368627103261278 0 -0.0029707378422465847 0.0008629764311897612 0 -0.0021921270326849193 0.00030501285984989459 0 -0.00022739497802557967 0.0008978952920260172 0 -8.5468693740929776e-05 0.0003561957770617561 0 -0.00067458827987973847 0.00054247639952461648 0 -0.00022739497802557967 0.0008978952920260172 0 -8.5468693740929776e-05 0.0003561957770617561 0 0.0003806655335683653 0.00052701858973841953 0 -8.5468693740929776e-05 0.0003561957770617561 0 0.0003806655335683653 0.00052701858973841953 0 0.00027971464101176816 0.00028170501364836959 0 0.00048066990169957295 0.00028012449078503748 0 0.0003806655335683653 0.00052701858973841953 0 0.00027971464101176816 0.00028170501364836959 0 0.00027971464101176816 0.00028170501364836959 0 0.00043589569800259832 0.0001826648751845643 0 0.00014418246953918425 1.3564975654076907e-05 0 0.00043589569800259832 0.0001826648751845643 0 0.00014418246953918425 1.3564975654076907e-05 0 0.00045884915955482768 6.1200359429030887e-05 0 0.00048066990169957295 0.00028012449078503748 0 0.00027971464101176816 0.00028170501364836959 0 0.00043589569800259832 0.0001826648751845643 0 -8.5468693740929776e-05 0.0003561957770617561 0 0.00027971464101176816 0.00028170501364836959 0 0.00014418246953918425 1.3564975654076907e-05 0 -8.5468693740929776e-05 0.0003561957770617561 0 0.00014418246953918425 1.3564975654076907e-05 0 -0.00035833007020987586 1.6769955814795076e-06 0 -8.5468693740929776e-05 0.0003561957770617561 0 -0.00052510384654737828 0.00021129106240577096 0 -0.00035833007020987586 1.6769955814795076e-06 0 -0.00052510384654737828 0.00021129106240577096 0 -0.00087858304322702076 0.00026587518584968384 0 -0.00062918558017949862 -0.00019342654521827297 0 -0.00052510384654737828 0.00021129106240577096 0 -0.00035833007020987586 1.6769955814795076e-06 0 -0.00062918558017949862 -0.00019342654521827297 0 -8.5468693740929776e-05 0.0003561957770617561 0 -0.00052510384654737828 0.00021129106240577096 0 -0.00067458827987973847 0.00054247639952461648 0 -0.00052510384654737828 0.00021129106240577096 0 -0.00067458827987973847 0.00054247639952461648 0 -0.00087858304322702076 0.00026587518584968384 0 -0.0012624360781713045 0.00046941787806715628 0 -0.00087858304322702076 0.00026587518584968384 0 -0.0012780951523774834 0.00027907120327345469 0 -0.0012624360781713045 0.00046941787806715628 0 -0.00067458827987973847 0.00054247639952461648 0 -0.00087858304322702076 0.00026587518584968384 0 -0.00061287928647422161 -4.6465071949840213e-05 0 -0.00064037562472296281 -0.00013067017679597922 0 -0.00062918558017949862 -0.00019342654521827297 0 -0.00087858304322702076 0.00026587518584968384 0 -0.0012780951523774834 0.00027907120327345469 0 -0.00062918558017949862 -0.00019342654521827297 0 -0.0007094290365793508 2.9283701458458163e-05 0 -0.00074693301396337524 -0.00011583360544191019 0 -0.00061287928647422161 -4.6465071949840213e-05 0 -0.00064037562472296281 -0.00013067017679597922 0 -0.00071096694148218122 -8.403728468525933e-05 0 -0.00064037562472296281 -0.00013067017679597922 0 -0.00071096694148218122 -8.403728468525933e-05 0 -0.00065949978232850669 -0.0001704638941021704 0 -0.00071096694148218122 -8.403728468525933e-05 0 -0.00065949978232850669 -0.0001704638941021704 0 -0.00069075228465058131 -0.00014647576169690788 0 -0.00071096694148218122 -8.403728468525933e-05 0 -0.00087656245616131239 -4.1112975105665913e-05 0 -0.00075668816357413638 -0.00014394177441142699 0 -0.00071096694148218122 -8.403728468525933e-05 0 -0.00069075228465058131 -0.00014647576169690788 0 -0.00075668816357413638 -0.00014394177441142699 0 -0.00071096694148218122 -8.403728468525933e-05 0 -0.00081756433519129779 7.6456302838319825e-05 0 -0.00087656245616131239 -4.1112975105665913e-05 0 -0.00071096694148218122 -8.403728468525933e-05 0 -0.00071294839506463403 3.3759042608777224e-05 0 -0.00081756433519129779 7.6456302838319825e-05 0 -0.00061287928647422161 -4.6465071949840213e-05 0 -0.00071096694148218122 -8.403728468525933e-05 0 -0.00071294839506463403 3.3759042608777224e-05 0 -0.00061287928647422161 -4.6465071949840213e-05 0 -0.00071294839506463403 3.3759042608777224e-05 0 -0.00071301613115023902 0.00020881699048524736 0 -0.0012624360781713045 0.00046941787806715628 0 -0.0030901557243614135 0.0006735228409712955 0 -0.0020923030569783359 0.0010383108249474209 0 -0.0012624360781713045 0.00046941787806715628 0 -0.0012780951523774834 0.00027907120327345469 0 -0.0015567727761454145 0.000616192225042448 0 -0.0013518640138303795 0.00046554453806730661 0 -0.0024042734553702838 0.00060282896706765428 0 -0.0007094290365793508 2.9283701458458163e-05 0 -0.0024042734553702838 0.00060282896706765428 0 -0.00071301613115023902 0.00020881699048524736 0 -0.00089320496239944994 0.0003338690710063431 0 -0.00088846718977706992 0.00019179827548460046 0 -0.00071294839506463403 3.3759042608777224e-05 0 -0.00071301613115023902 0.00020881699048524736 0 -0.00081756433519129779 7.6456302838319825e-05 0 -0.00071301613115023902 0.00020881699048524736 0 -0.00081756433519129779 7.6456302838319825e-05 0 -0.00088846718977706992 0.00019179827548460046 0 -0.0024042734553702838 0.00060282896706765428 0 -0.0047827731291445802 0.0017914202973238903 0 -0.0024042734553702838 0.00060282896706765428 0 -0.0030080813710724047 0.00090740261037364548 0 -0.0030901557243614135 0.0006735228409712955 0 -0.0041441034427995484 0.0015501628600723709 0 -0.0030348751970855864 0.0020371253949716768 0 -0.0046249892812187474 0.0011999331032074428 0 -0.0050012390748026981 0.0017098039907315825 0 -0.0051624707418397022 0.0014854087395295757 0 -0.0012299684046701773 0.0013839988546483291 0 -0.0020923030569783359 0.0010383108249474209 0 -0.0030348751970855864 0.0020371253949716768 0 -0.0037301346460205296 0.0014295634237228919 0 -0.0045430211764068739 0.0019167580700569498 0 -0.0030901557243614135 0.0006735228409712955 0 -0.0020923030569783359 0.0010383108249474209 0 -0.0030348751970855864 0.0020371253949716768 0 -0.0020244444524962009 -0.0001386332889168521 0 -0.0021003224621053292 -0.00021072608628003845 0 -0.0020804924026868324 1.0018752142250656e-05 0 -0.0020591308520906642 0.00022835107698218919 0 -0.0014726753884498221 6.0173190690283111e-05 0 -0.0020244444524962009 -0.0001386332889168521 0 -0.0019771257335702646 -0.00022604204682525141 0 -0.001942355111486596 -0.00012331316371013933 0 -0.0020244444524962009 -0.0001386332889168521 0 -0.0019771257335702646 -0.00022604204682525141 0 -0.0021003224621053292 -0.00021072608628003845 0 -0.0019771257335702646 -0.00022604204682525141 0 -0.0021003224621053292 -0.00021072608628003845 0 -0.0020902366073103844 -0.00024521556486631644 0 -0.0020591308520906642 0.00022835107698218919 0 -0.003643287150053649 0.0011778345366938601 0 -0.0011347504270781354 0.00041941240283130496 0 -0.00089320496239944994 0.0003338690710063431 0 -0.00097901432523823787 0.00027097820867729198 0 -0.0030080813710724047 0.00090740261037364548 0 -0.003643287150053649 0.0011778345366938601 0 -0.0020591308520906642 0.00022835107698218919 0 -0.00086608141999827346 0.0001583096329615601 0 -0.0011347504270781354 0.00041941240283130496 0 -0.00097901432523823787 0.00027097820867729198 0 -0.001007429276129406 0.0001467423412987632 0 -0.0052479018815595139 0.0016733272649859892 0 -0.0051624707418397022 0.0014854087395295757 0 -0.0054946823890863576 0.0017501843689958568 0 -0.0011347504270781354 0.00041941240283130496 0 -0.00089320496239944994 0.0003338690710063431 0 -0.0011529049225769486 0.00047298014018749206 0 -0.0050012390748026981 0.0017098039907315825 0 -0.0052479018815595139 0.0016733272649859892 0 -0.0051624707418397022 0.0014854087395295757 0 -0.00089320496239944994 0.0003338690710063431 0 -0.00097901432523823787 0.00027097820867729198 0 -0.00088846718977706992 0.00019179827548460046 0 -0.00081756433519129779 7.6456302838319825e-05 0 -0.00088846718977706992 0.00019179827548460046 0 -0.001007429276129406 0.0001467423412987632 0 -0.00097901432523823787 0.00027097820867729198 0 -0.00088846718977706992 0.00019179827548460046 0 -0.001007429276129406 0.0001467423412987632 0 -0.00094124176528948434 0.0003335485017319325 0 -0.00087462984420815751 0.00017852906216090259 0 -0.00093775466036496698 0.00017324338769079267 0 -0.00087462984420815751 0.00017852906216090259 0 -0.00093775466036496698 0.00017324338769079267 0 -0.00089167164436958712 8.7504346294983853e-05 0 -0.0020244444524962009 -0.0001386332889168521 0 -0.0020804924026868324 1.0018752142250656e-05 0 -0.001942355111486596 -0.00012331316371013933 0 -0.0020804924026868324 1.0018752142250656e-05 0 -0.0020539663413416953 0.00025397993274015675 0 -0.0018343393960046802 0.00013326610434247183 0 -0.00093775466036496698 0.00017324338769079267 0 -0.00094199483545109864 1.0730996531161507e-05 0 -0.00089167164436958712 8.7504346294983853e-05 0 -0.0014726753884498221 6.0173190690283111e-05 0 -0.0015390182320519244 0.00017468531053234308 0 -0.00094199483545109864 1.0730996531161507e-05 0 -0.00081285710693515696 2.0405925511862771e-05 0 -0.00089167164436958712 8.7504346294983853e-05 0 -0.00081756433519129779 7.6456302838319825e-05 0 -0.001007429276129406 0.0001467423412987632 0 -0.00087656245616131239 -4.1112975105665913e-05 0 -0.00086608141999827346 0.0001583096329615601 0 -0.00085080043282580956 -2.6224291138002874e-06 0 -0.00087462984420815751 0.00017852906216090259 0 -0.00081285710693515696 2.0405925511862771e-05 0 -0.00089167164436958712 8.7504346294983853e-05 0 -0.00081285710693515696 2.0405925511862771e-05 0 -0.00086065881678577816 -8.3267768556293342e-05 0 -0.00075668816357413638 -0.00014394177441142699 0 -0.00085080043282580956 -2.6224291138002874e-06 0 -0.00077111034454712746 -0.00013345713179413235 0 -0.00094199483545109864 1.0730996531161507e-05 0 -0.00081285710693515696 2.0405925511862771e-05 0 -0.00086065881678577816 -8.3267768556293342e-05 0 -0.0015390182320519244 0.00017468531053234308 0 -0.00085832550902831609 -6.5986885329106875e-05 0 -0.00094199483545109864 1.0730996531161507e-05 0 -0.00086065881678577816 -8.3267768556293342e-05 0 -0.00095007680725388624 -0.00015722357509440418 0 -0.0020539663413416953 0.00025397993274015675 0 -0.0017742395569806451 0.00040068620363570203 0 -0.0020187345016704742 0.00048856809490060418 0 -0.0017742395569806451 0.00040068620363570203 0 -0.0016576973524594497 0.00017810852049222276 0 -0.0014587836254574709 0.00033987030157754113 0 -0.00081291203656559067 0.00016525161308478603 0 -0.00064689715136086244 0.000134721056103983 0 -0.0017742395569806451 0.00040068620363570203 0 -0.0016576973524594497 0.00017810852049222276 0 -0.0018343393960046802 0.00013326610434247183 0 -0.0016576973524594497 0.00017810852049222276 0 -0.0018343393960046802 0.00013326610434247183 0 -0.0015712681721798485 -2.8761691234237198e-05 0 -0.0020539663413416953 0.00025397993274015675 0 -0.0017742395569806451 0.00040068620363570203 0 -0.0018343393960046802 0.00013326610434247183 0 0.00015024294520297698 -8.5877850319594543e-06 0 0.00028205556881580758 -7.1166883323119838e-05 0 8.1974854059756617e-05 -4.5130764224016302e-07 0 0.00015024294520297698 -8.5877850319594543e-06 0 -0.00069485340216006604 6.3858035659431168e-07 0 8.1974854059756617e-05 -4.5130764224016302e-07 0 0.00023684109023648504 -0.00014387339346320834 0 0.00015024294520297698 -8.5877850319594543e-06 0 0.00028205556881580758 -7.1166883323119838e-05 0 -0.0016576973524594497 0.00017810852049222276 0 -0.0013028659825365656 -2.9373282727451922e-05 0 -0.0015712681721798485 -2.8761691234237198e-05 0 -0.0016576973524594497 0.00017810852049222276 0 -0.0014587836254574709 0.00033987030157754113 0 -0.0013028659825365656 -2.9373282727451922e-05 0 -0.00064689715136086244 0.000134721056103983 0 -0.00069628466517216694 5.8987721217625262e-08 0 -0.0014587836254574709 0.00033987030157754113 0 -0.00069778449136642163 7.5579969961862448e-07 0 -0.0013028659825365656 -2.9373282727451922e-05 0 -0.00069778449136642163 7.5579969961862448e-07 0 -0.0013028659825365656 -2.9373282727451922e-05 0 -0.0014578544942648118 -4.3136838501001812e-07 0 -0.0013028659825365656 -2.9373282727451922e-05 0 -0.0015745321921989529 -5.8771471954686957e-05 0 -0.0014578544942648118 -4.3136838501001812e-07 0 -0.0013028659825365656 -2.9373282727451922e-05 0 -0.0015712681721798485 -2.8761691234237198e-05 0 -0.0015745321921989529 -5.8771471954686957e-05 0 -0.0015712681721798485 -2.8761691234237198e-05 0 -0.0015745321921989529 -5.8771471954686957e-05 0 -0.0017266492450344173 -9.5813581090063395e-05 0 -0.0016083464124910804 -1.3829695163096748e-05 0 -0.0015906700375113343 -0.0002400554840553499 0 -0.0015745321921989529 -5.8771471954686957e-05 0 -0.0017266492450344173 -9.5813581090063395e-05 0 -0.0018908049259255288 -7.0008966553128873e-05 0 -0.0015745321921989529 -5.8771471954686957e-05 0 -0.0014578544942648118 -4.3136838501001812e-07 0 -0.0018908049259255288 -7.0008966553128873e-05 0 -0.0020804924026868324 1.0018752142250656e-05 0 -0.0018189235701502532 -4.5379455881357086e-05 0 -0.001942355111486596 -0.00012331316371013933 0 -0.0020804924026868324 1.0018752142250656e-05 0 -0.0018343393960046802 0.00013326610434247183 0 -0.0018189235701502532 -4.5379455881357086e-05 0 -0.0015712681721798485 -2.8761691234237198e-05 0 -0.0018189235701502532 -4.5379455881357086e-05 0 -0.001756564698568455 -0.00017231595913022208 0 -0.0018343393960046802 0.00013326610434247183 0 -0.0015712681721798485 -2.8761691234237198e-05 0 -0.0018189235701502532 -4.5379455881357086e-05 0 -0.001756564698568455 -0.00017231595913022208 0 -0.0017059132112748191 -0.00024303138911926356 0 -0.0017547521829462407 -0.00030832080867573629 0 -0.0017838024601336843 -0.00019828333630370816 0 -0.0022630274788729837 -0.00028106627617368311 0 -0.0015712681721798485 -2.8761691234237198e-05 0 -0.001619976528785387 -0.00021706767089231085 0 -0.001756564698568455 -0.00017231595913022208 0 -0.001619976528785387 -0.00021706767089231085 0 -0.001756564698568455 -0.00017231595913022208 0 -0.0017059132112748191 -0.00024303138911926356 0 -0.001756564698568455 -0.00017231595913022208 0 -0.0018665960397581997 -0.00018274974770547372 0 -0.0018660208334350527 -0.00027414377945305589 0 -0.0018189235701502532 -4.5379455881357086e-05 0 -0.0018665960397581997 -0.00018274974770547372 0 -0.001942355111486596 -0.00012331316371013933 0 -0.0018189235701502532 -4.5379455881357086e-05 0 -0.001756564698568455 -0.00017231595913022208 0 -0.0018665960397581997 -0.00018274974770547372 0 -0.0019771257335702646 -0.00022604204682525141 0 -0.0018665960397581997 -0.00018274974770547372 0 -0.0018660208334350527 -0.00027414377945305589 0 -0.0019771257335702646 -0.00022604204682525141 0 -0.0018665960397581997 -0.00018274974770547372 0 -0.001942355111486596 -0.00012331316371013933 0 -0.0019771257335702646 -0.00022604204682525141 0 -0.0019314730497527889 -0.00031293388946022378 0 -0.0018660208334350527 -0.00027414377945305589 0 -0.0034611014923796287 0.00042063503440186768 0 -0.0036926822407342091 0.00073162173615301139 0 -0.0019314730497527889 -0.00031293388946022378 0 -0.0018291512657890312 -0.0003013141125942247 0 -0.0018371461782902955 -0.00034724573313023207 0 -0.0018857950736295651 -0.00038196647720578543 0 -0.0022630274788729837 -0.00028106627617368311 0 -0.0019314730497527889 -0.00031293388946022378 0 -0.0018660208334350527 -0.00027414377945305589 0 -0.0018291512657890312 -0.0003013141125942247 0 -0.0017059132112748191 -0.00024303138911926356 0 -0.0017547521829462407 -0.00030832080867573629 0 -0.0016359628431579488 -0.00038898060145720601 0 -0.001619976528785387 -0.00021706767089231085 0 -0.0017059132112748191 -0.00024303138911926356 0 -0.0016359628431579488 -0.00038898060145720601 0 -0.001756564698568455 -0.00017231595913022208 0 -0.0018660208334350527 -0.00027414377945305589 0 -0.0017830883156139696 -0.00033097129400679954 0 -0.0022630274788729837 -0.00028106627617368311 0 -0.0028889636890542438 0.00017817422337659876 0 -0.0029332804245238149 7.9322195397796925e-05 0 -0.0029329109284710626 0.00034753818311535029 0 -0.0034293260340370409 0.00041425705627385023 0 -0.0022630274788729837 -0.00028106627617368311 0 -0.0036926822407342091 0.00073162173615301139 0 -0.0029329109284710626 0.00034753818311535029 0 -0.0034293260340370409 0.00041425705627385023 0 -0.0034365247660193602 0.0006073728755482176 0 -0.0036926822407342091 0.00073162173615301139 0 -0.0050527488178320713 0.0009790778132694048 0 -0.0046224253551323995 0.00088380920385423335 0 -0.0044150402183311972 0.00078367897530629189 0 -0.0044940573113329361 0.00057338349716615439 0 -0.0036926822407342091 0.00073162173615301139 0 -0.0038987429384067795 0.00077482862120962267 0 -0.0052024604380536367 0.0012721588348399086 0 -0.0051999531372011291 0.0012928552233646101 0 -0.0051811565484725089 0.0012982631175151777 0 -0.00517432600272972 0.0012477614383345022 0 -0.0052024604380536367 0.0012721588348399086 0 -0.0051999531372011291 0.0012928552233646101 0 -0.00517432600272972 0.0012477614383345022 0 -0.0051999531372011291 0.0012928552233646101 0 -0.0051730539515673904 0.0012947619229115559 0 -0.0051999531372011291 0.0012928552233646101 0 -0.005214808241194367 0.0012935951680801906 0 -0.0051730539515673904 0.0012947619229115559 0 -0.0014578544942648118 -4.3136838501001812e-07 0 -0.0022199064910887116 -2.2972251948242187e-07 0 -0.0018908049259255288 -7.0008966553128873e-05 0 -0.0022199064910887116 -2.2972251948242187e-07 0 -0.0018908049259255288 -7.0008966553128873e-05 0 -0.0022391785014725407 7.8927815883036694e-05 0 -0.0017266492450344173 -9.5813581090063395e-05 0 -0.0018908049259255288 -7.0008966553128873e-05 0 -0.0018970941407046647 2.4662649785015954e-05 0 -0.0015906700375113343 -0.0002400554840553499 0 -0.0028889636890542438 0.00017817422337659876 0 -0.0041323167319342732 0.00061228716409716618 0 -0.0036214772087885339 0.00038534328411670842 0 -0.0039685188211156545 0.0003565723216367952 0 -0.0045940494671777559 0.00093735917522631232 0 -0.003793841508048095 0.00073103089704633448 0 -0.0036214772087885339 0.00038534328411670842 0 -0.0038987429384067795 0.00077482862120962267 0 -0.0038217033352981361 0.00047788606342938063 0 -0.0018908049259255288 -7.0008966553128873e-05 0 -0.0018970941407046647 2.4662649785015954e-05 0 -0.0022391785014725407 7.8927815883036694e-05 0 -0.0028889636890542438 0.00017817422337659876 0 -0.0038987429384067795 0.00077482862120962267 0 -0.004600870398425265 0.0012868394277519783 0 -0.0045940494671777559 0.00093735917522631232 0 -0.003793841508048095 0.00073103089704633448 0 -0.0028889636890542438 0.00017817422337659876 0 -0.0031016271431249872 0.00040960303185837708 0 -0.0022199064910887116 -2.2972251948242187e-07 0 -0.0022391785014725407 7.8927815883036694e-05 0 -0.0029805242920640136 5.986924298989558e-07 0 -0.0029828807454560556 1.0980897896149743e-06 0 -0.0035699194888513001 0.00012577788542627425 0 -0.0037693449202895221 2.4894860093913347e-05 0 -0.0031016271431249872 0.00040960303185837708 0 -0.0029814219120642767 1.1993882409243596e-07 0 -0.0029828807454560556 1.0980897896149743e-06 0 -0.0036214772087885339 0.00038534328411670842 0 -0.0035699194888513001 0.00012577788542627425 0 -0.003793841508048095 0.00073103089704633448 0 -0.0029828807454560556 1.0980897896149743e-06 0 -0.0036214772087885339 0.00038534328411670842 0 -0.0036214772087885339 0.00038534328411670842 0 -0.0035699194888513001 0.00012577788542627425 0 -0.0037967478698899553 0.00024012118788260386 0 -0.0038150603694662912 0.00013618483473805003 0 -0.0035699194888513001 0.00012577788542627425 0 -0.0037693449202895221 2.4894860093913347e-05 0 -0.0038150603694662912 0.00013618483473805003 0 -0.0035699194888513001 0.00012577788542627425 0 -0.0037967478698899553 0.00024012118788260386 0 -0.0038150603694662912 0.00013618483473805003 0 -0.0039853322476286583 0.00010324618746414471 0 -0.0037693449202895221 2.4894860093913347e-05 0 -0.0041323167319342732 0.00061228716409716618 0 -0.0039685188211156545 0.0003565723216367952 0 -0.0040737111646403134 0.00012072463515079999 0 -0.0044150402183311972 0.00078367897530629189 0 -0.00439010114841958 0.00048765067383208015 0 -0.0044940573113329361 0.00057338349716615439 0 -0.0038987429384067795 0.00077482862120962267 0 -0.0042724061830779394 0.00028437546590282236 0 -0.0039415125543755475 0.00019065179733697714 0 -0.0039685188211156545 0.0003565723216367952 0 -0.0040737111646403134 0.00012072463515079999 0 -0.0039853322476286583 0.00010324618746414471 0 -0.0039415125543755475 0.00019065179733697714 0 -0.0040737111646403134 0.00012072463515079999 0 -0.0038150603694662912 0.00013618483473805003 0 -0.0039853322476286583 0.00010324618746414471 0 -0.0039415125543755475 0.00019065179733697714 0 -0.0038150603694662912 0.00013618483473805003 0 -0.0039415125543755475 0.00019065179733697714 0 -0.0037967478698899553 0.00024012118788260386 0 -0.0036214772087885339 0.00038534328411670842 0 -0.0037967478698899553 0.00024012118788260386 0 -0.0039685188211156545 0.0003565723216367952 0 -0.0039415125543755475 0.00019065179733697714 0 -0.0037967478698899553 0.00024012118788260386 0 -0.0039685188211156545 0.0003565723216367952 0 -0.0043271557751837072 4.5579290205791329e-05 0 -0.0042724061830779394 0.00028437546590282236 0 -0.0043720919709537001 4.0853141794397184e-05 0 -0.0040737111646403134 0.00012072463515079999 0 -0.0040965116409314465 6.0275198757645956e-05 0 -0.0046796832815622982 -1.5690258949076595e-05 0 -0.0043720919709537001 4.0853141794397184e-05 0 -0.00439010114841958 0.00048765067383208015 0 -0.0043720919709537001 4.0853141794397184e-05 0 -0.0041147785196990246 1.0983043085122931e-05 0 -0.0040965116409314465 6.0275198757645956e-05 0 -0.0039853322476286583 0.00010324618746414471 0 -0.0040737111646403134 0.00012072463515079999 0 -0.0040965116409314465 6.0275198757645956e-05 0 -0.0039853322476286583 0.00010324618746414471 0 -0.0040965116409314465 6.0275198757645956e-05 0 -0.0037693449202895221 2.4894860093913347e-05 0 -0.0038265009465168107 -3.5958511055327462e-07 0 -0.0029828807454560556 1.0980897896149743e-06 0 -0.0037693449202895221 2.4894860093913347e-05 0 -0.0041147785196990246 1.0983043085122931e-05 0 -0.0038265009465168107 -3.5958511055327462e-07 0 -0.0037693449202895221 2.4894860093913347e-05 0 -0.0041147785196990246 1.0983043085122931e-05 0 -0.0040965116409314465 6.0275198757645956e-05 0 -0.0037693449202895221 2.4894860093913347e-05 0 -0.005214808241194367 0.0012935951680801906 0 -0.0051811565484725089 0.0012982631175151777 0 -0.0052734694538893734 0.0012730109735289042 0 -0.005214808241194367 0.0012935951680801906 0 -0.0052734694538893734 0.0012730109735289042 0 -0.0051730539515673904 0.0012947619229115559 0 -0.0051999531372011291 0.0012928552233646101 0 -0.005214808241194367 0.0012935951680801906 0 -0.0051811565484725089 0.0012982631175151777 0 -0.0046224253551323995 0.00088380920385423335 0 -0.0044940573113329361 0.00057338349716615439 0 -0.0046241173956923258 0.00053242283169862865 0 -0.0046226644097077116 9.9169771930026761e-05 0 -0.0045062391908305211 0.00056739349168711346 0 -0.0045803683175624299 0.00027902744536743943 0 -0.0044940573113329361 0.00057338349716615439 0 -0.0046241173956923258 0.00053242283169862865 0 -0.0046796832815622982 -1.5690258949076595e-05 0 -0.00439010114841958 0.00048765067383208015 0 -0.0044940573113329361 0.00057338349716615439 0 -0.00463363926047357 0.00026184608670542841 0 -0.0045803683175624299 0.00027902744536743943 0 -0.0046241173956923258 0.00053242283169862865 0 -0.0048690178816721648 0.00065870513957716839 0 -0.0050527488178320713 0.0009790778132694048 0 -0.0051483663508984888 0.0010166364436694851 0 -0.0051811565484725089 0.0012982631175151777 0 -0.0052362501943615473 0.001150413465456211 0 -0.0051811565484725089 0.0012982631175151777 0 -0.0052362501943615473 0.001150413465456211 0 -0.0052734694538893734 0.0012730109735289042 0 -0.0053602444240445427 0.0010641171347549121 0 -0.0052362501943615473 0.001150413465456211 0 -0.0052734694538893734 0.0012730109735289042 0 -0.0052734694538893734 0.0012730109735289042 0 -0.0055511836862286697 0.0011900600746869614 0 -0.0054408830635407886 0.0014695714261600504 0 -0.0053602444240445427 0.0010641171347549121 0 -0.0052734694538893734 0.0012730109735289042 0 -0.0055511836862286697 0.0011900600746869614 0 -0.0052734694538893734 0.0012730109735289042 0 -0.0054408830635407886 0.0014695714261600504 0 -0.0052904866624278232 0.0017582768700873336 0 -0.0051961369419804082 0.0012287444558929711 0 -0.0054581448400522871 0.0016519610987229187 0 -0.0054408830635407886 0.0014695714261600504 0 -0.0052904866624278232 0.0017582768700873336 0 -0.0054563673838021092 0.0016958528251940282 0 -0.0055511836862286697 0.0011900600746869614 0 -0.0054408830635407886 0.0014695714261600504 0 -0.0056200159422463251 0.0014248712411052758 0 -0.0056200159422463251 0.0014248712411052758 0 -0.0056783782788466372 0.001623665200842593 0 -0.0054563673838021092 0.0016958528251940282 0 -0.0054408830635407886 0.0014695714261600504 0 -0.0056200159422463251 0.0014248712411052758 0 -0.0054563673838021092 0.0016958528251940282 0 -0.0058439824015381813 0.00093169961619035257 0 -0.0055511836862286697 0.0011900600746869614 0 -0.0058280625743995429 0.0012022635635487392 0 -0.0055511836862286697 0.0011900600746869614 0 -0.0056200159422463251 0.0014248712411052758 0 -0.0058280625743995429 0.0012022635635487392 0 -0.0060130590522136634 0.0010230726601621275 0 -0.0058280625743995429 0.0012022635635487392 0 -0.0060419165375829448 0.001229506547775175 0 -0.0058280625743995429 0.0012022635635487392 0 -0.0060419165375829448 0.001229506547775175 0 -0.0058669550613546602 0.0014382559751996832 0 -0.00624731541227501 0.0011671727094769138 0 -0.0060419165375829448 0.001229506547775175 0 -0.0060767900684976306 0.0014702405061068813 0 -0.0061984423560116197 0.00098073234030273066 0 -0.00624731541227501 0.0011671727094769138 0 -0.0060419165375829448 0.001229506547775175 0 -0.0061647969827377178 0.0016326696446970061 0 -0.0060767900684976306 0.0014702405061068813 0 -0.0059417528922528053 0.0016493478375339103 0 -0.0060419165375829448 0.001229506547775175 0 -0.0060767900684976306 0.0014702405061068813 0 -0.0058669550613546602 0.0014382559751996832 0 -0.0056200159422463251 0.0014248712411052758 0 -0.0058669550613546602 0.0014382559751996832 0 -0.0056783782788466372 0.001623665200842593 0 -0.0056200159422463251 0.0014248712411052758 0 -0.0058280625743995429 0.0012022635635487392 0 -0.0058669550613546602 0.0014382559751996832 0 -0.0058669550613546602 0.0014382559751996832 0 -0.0056783782788466372 0.001623665200842593 0 -0.0059417528922528053 0.0016493478375339103 0 -0.0060767900684976306 0.0014702405061068813 0 -0.0058669550613546602 0.0014382559751996832 0 -0.0059417528922528053 0.0016493478375339103 0 -0.0056783782788466372 0.001623665200842593 0 -0.0056899866392133847 0.0017580184601675289 0 -0.0054988915623569402 0.0017867910594043578 0 -0.0056783782788466372 0.001623665200842593 0 -0.0059417528922528053 0.0016493478375339103 0 -0.0056899866392133847 0.0017580184601675289 0 -0.0059417528922528053 0.0016493478375339103 0 -0.0058626415341857278 0.0018274259019508252 0 -0.0056899866392133847 0.0017580184601675289 0 -0.0058626415341857278 0.0018274259019508252 0 -0.0056899866392133847 0.0017580184601675289 0 -0.0053343826967677949 0.0020273170739587803 0 -0.0061647969827377178 0.0016326696446970061 0 -0.0059417528922528053 0.0016493478375339103 0 -0.0060992082320308165 0.0017837256938472779 0 -0.0059417528922528053 0.0016493478375339103 0 -0.0058626415341857278 0.0018274259019508252 0 -0.0060992082320308165 0.0017837256938472779 0 -0.0062083218205793867 0.0017649284270000861 0 -0.0061647969827377178 0.0016326696446970061 0 -0.0060992082320308165 0.0017837256938472779 0 -0.0062000315612240481 0.0017790260891600753 0 -0.0060992082320308165 0.0017837256938472779 0 -0.0061058154426866578 0.0019252825121286034 0 -0.0058626415341857278 0.0018274259019508252 0 -0.0060992082320308165 0.0017837256938472779 0 -0.0061058154426866578 0.0019252825121286034 0 -0.0058626415341857278 0.0018274259019508252 0 -0.0061058154426866578 0.0019252825121286034 0 -0.0053343826967677949 0.0020273170739587803 0 -0.0041441034427995484 0.0015501628600723709 0 -0.0030348751970855864 0.0020371253949716768 0 -0.0053343826967677949 0.0020273170739587803 0 -0.0045430211764068739 0.0019167580700569498 0 -0.0051994186028996902 0.0020299964041380811 0 -0.0050012390748026981 0.0017098039907315825 0 -0.0052479018815595139 0.0016733272649859892 0 -0.0052945466506379877 0.0017939805869485483 0 -0.0047827731291445802 0.0017914202973238903 0 -0.0052036283641339314 0.001968556677622268 0 -0.0050012390748026981 0.0017098039907315825 0 -0.0052945466506379877 0.0017939805869485483 0 -0.0053771740291447398 0.0019764951183716133 0 -0.0041441034427995484 0.0015501628600723709 0 -0.0053771740291447398 0.0019764951183716133 0 -0.0053343826967677949 0.0020273170739587803 0 -0.0052945466506379877 0.0017939805869485483 0 -0.0053673641798791761 0.0018934623926153585 0 -0.0053771740291447398 0.0019764951183716133 0 -0.0053909562077879072 0.0019033656518992294 0 -0.0054120075967248648 0.0018864258689366177 0 -0.0053847147478384297 0.001850136104612107 0 -0.0053909562077879072 0.0019033656518992294 0 -0.0053673641798791761 0.0018934623926153585 0 -0.0053771740291447398 0.0019764951183716133 0 -0.0053909562077879072 0.0019033656518992294 0 -0.0053673641798791761 0.0018934623926153585 0 -0.0053788803539735232 0.0018735594142498906 0 -0.0053909562077879072 0.0019033656518992294 0 -0.0053788803539735232 0.0018735594142498906 0 -0.0054120075967248648 0.0018864258689366177 0 -0.0052479018815595139 0.0016733272649859892 0 -0.0052945466506379877 0.0017939805869485483 0 -0.0054946823890863576 0.0017501843689958568 0 -0.0053788803539735232 0.0018735594142498906 0 -0.0053924051326382921 0.0018286472516827416 0 -0.0054120075967248648 0.0018864258689366177 0 -0.0052945466506379877 0.0017939805869485483 0 -0.0053924051326382921 0.0018286472516827416 0 -0.0054946823890863576 0.0017501843689958568 0 -0.0052945466506379877 0.0017939805869485483 0 -0.0053673641798791761 0.0018934623926153585 0 -0.0053788803539735232 0.0018735594142498906 0 -0.0052945466506379877 0.0017939805869485483 0 -0.0053788803539735232 0.0018735594142498906 0 -0.0053924051326382921 0.0018286472516827416 0 -0.003643287150053649 0.0011778345366938601 0 -0.0054581448400522871 0.0016519610987229187 0 -0.0054005006928540119 0.0019438003250020445 0 -0.0054120075967248648 0.0018864258689366177 0 -0.0052904866624278232 0.0017582768700873336 0 -0.00517432600272972 0.0012477614383345022 0 -0.0051140638523195685 0.0012196091560494817 0 -0.0051730539515673904 0.0012947619229115559 0 -0.003643287150053649 0.0011778345366938601 0 -0.0044011230102280682 0.0015619554545915398 0 -0.0053924051326382921 0.0018286472516827416 0 -0.0054946823890863576 0.0017501843689958568 0 -0.0054120075967248648 0.0018864258689366177 0 -0.0019771257335702646 -0.00022604204682525141 0 -0.0019314730497527889 -0.00031293388946022378 0 -0.0020902366073103844 -0.00024521556486631644 0 -0.0034611014923796287 0.00042063503440186768 0 -0.003643287150053649 0.0011778345366938601 0 -0.0054120075967248648 0.0018864258689366177 0 -0.0053847147478384297 0.001850136104612107 0 -0.0052904866624278232 0.0017582768700873336 0 -0.0053847147478384297 0.001850136104612107 0 -0.0052904866624278232 0.0017582768700873336 0 -0.0054563673838021092 0.0016958528251940282 0 -0.0054563673838021092 0.0016958528251940282 0 -0.0054988915623569402 0.0017867910594043578 0 -0.0054020101488268515 0.0018902720536626237 0 -0.0056783782788466372 0.001623665200842593 0 -0.0054563673838021092 0.0016958528251940282 0 -0.0054988915623569402 0.0017867910594043578 0 -0.0056899866392133847 0.0017580184601675289 0 -0.0054988915623569402 0.0017867910594043578 0 -0.0053343826967677949 0.0020273170739587803 0 -0.0054988915623569402 0.0017867910594043578 0 -0.0053343826967677949 0.0020273170739587803 0 -0.0054020101488268515 0.0018902720536626237 0 -0.0053771740291447398 0.0019764951183716133 0 -0.0053343826967677949 0.0020273170739587803 0 -0.0054020101488268515 0.0018902720536626237 0 -0.0053909562077879072 0.0019033656518992294 0 -0.0053771740291447398 0.0019764951183716133 0 -0.0054020101488268515 0.0018902720536626237 0 -0.0053847147478384297 0.001850136104612107 0 -0.0054563673838021092 0.0016958528251940282 0 -0.0054020101488268515 0.0018902720536626237 0 -0.0053909562077879072 0.0019033656518992294 0 -0.0053847147478384297 0.001850136104612107 0 -0.0054020101488268515 0.0018902720536626237 0 0.005572002788624613 0.0016481272286736292 0 0.0055517447737889504 0.0016764855899081242 0 0.0055585554678799316 0.0016759400512505495 0 0.0054290005093306868 0.0015439902628829793 0 0.005525575261841646 0.0015895838044465537 0 0.0053356318005627242 0.0014725787839874021 0 0.0053609292847119818 0.0014683661249167933 0 0.0053404282096339165 0.0014155396190529443 0 0.0051965857338420332 0.001332713430919509 0 0.0052889301521962069 0.0013971906972766279 0 0.0053356318005627242 0.0014725787839874021 0 0.0053404282096339165 0.0014155396190529443 0 0.0053174270290138118 0.0014145064318428272 0 0.0052008612137977714 0.0012960702503928263 0 0.0051744739554290707 0.001251836543762985 0 0.0051553059305841989 0.0013396218959389457 0 0.0052008612137977714 0.0012960702503928263 0 0.0051553059305841989 0.0013396218959389457 0 0.0052114607684900106 0.0013234863148654174 0 0.0052008612137977714 0.0012960702503928263 0 0.0051744739554290707 0.001251836543762985 0 0.0052043429685387959 0.0012550710605463834 0 0.0052043429685387959 0.0012550710605463834 0 0.0052120347835248266 0.001208531806601489 0 0.0052695117860030241 0.0011837718551626286 0 0.0051744739554290707 0.001251836543762985 0 0.0052120347835248266 0.001208531806601489 0 0.0052072831765674638 0.0011387196684398725 0 0.0051744739554290707 0.001251836543762985 0 0.0052043429685387959 0.0012550710605463834 0 0.0052120347835248266 0.001208531806601489 0 0.005572002788624613 0.0016481272286736292 0 0.0055714403184242501 0.0016411807472641383 0 0.0055719962819791814 0.001643305774770516 0 0.0053356318005627242 0.0014725787839874021 0 0.0053609292847119818 0.0014683661249167933 0 0.0053560767478706061 0.001496195625356377 0 0.005572002788624613 0.0016481272286736292 0 0.0055714403184242501 0.0016411807472641383 0 0.0055504419515663627 0.0016693667688615309 0 0.0055714403184242501 0.0016411807472641383 0 0.0055321978573755794 0.0016646569659610551 0 0.0055504419515663627 0.0016693667688615309 0 0.0055321978573755794 0.0016646569659610551 0 0.0055967957064508127 0.0016236659045022655 0 0.0054817958033667449 0.0016533296454352418 0 0.0055714403184242501 0.0016411807472641383 0 0.0055321978573755794 0.0016646569659610551 0 0.0055967957064508127 0.0016236659045022655 0 0.0055321978573755794 0.0016646569659610551 0 0.0054963616074750849 0.0017073311021164053 0 0.0054746732449228609 0.0016878752145214745 0 0.0055321978573755794 0.0016646569659610551 0 0.0055504419515663627 0.0016693667688615309 0 0.0054963616074750849 0.0017073311021164053 0 0.005572002788624613 0.0016481272286736292 0 0.0055504419515663627 0.0016693667688615309 0 0.0055517447737889504 0.0016764855899081242 0 0.0055504419515663627 0.0016693667688615309 0 0.0055422773169091291 0.0016882947878045246 0 0.0055517447737889504 0.0016764855899081242 0 0.0055504419515663627 0.0016693667688615309 0 0.0055422773169091291 0.0016882947878045246 0 0.0054963616074750849 0.0017073311021164053 0 0.003090767342609282 0.00090177574963707621 0 0.0022681671310555637 0.00066390739025894098 0 0.0022941197601723195 0.0011731960205244717 0 0.0043603576311404876 0.0013329442788776093 0 0.003762318746116977 0.0010464293256254376 0 0.003090767342609282 0.00090177574963707621 0 0.0022941197601723195 0.0011731960205244717 0 0.0027732858768185599 0.0012972202851287604 0 0.0022941197601723195 0.0011731960205244717 0 0.0027732858768185599 0.0012972202851287604 0 0.0025403053786079801 0.0016108609302610455 0 0.003090767342609282 0.00090177574963707621 0 0.0027732858768185599 0.0012972202851287604 0 0.0034267554478116017 0.001335888660104345 0 0.003090767342609282 0.00090177574963707621 0 0.0034267554478116017 0.001335888660104345 0 0.0040317569710297879 0.0012289133864243661 0 0.0043603576311404876 0.0013329442788776093 0 0.0047390317326296075 0.0013913660075093881 0 0.0034267554478116017 0.001335888660104345 0 0.0040317569710297879 0.0012289133864243661 0 0.0037142334322422857 0.0014953693364418573 0 0.0055422773169091291 0.0016882947878045246 0 0.0055585554678799316 0.0016759400512505495 0 0.0055451992224372247 0.0016796500801029395 0 0.0055422773169091291 0.0016882947878045246 0 0.0055517447737889504 0.0016764855899081242 0 0.0055585554678799316 0.0016759400512505495 0 0.0053404282096339165 0.0014155396190529443 0 0.0053174270290138118 0.0014145064318428272 0 0.0053167219379111272 0.0013523359206480204 0 0.005525575261841646 0.0015895838044465537 0 0.0047390317326296075 0.0013913660075093881 0 0.0051553059305841989 0.0013396218959389457 0 0.0051263934708078085 0.0015138009920092992 0 0.0051983618705116492 0.0014311645117700514 0 0.0053174270290138118 0.0014145064318428272 0 0.0053167219379111272 0.0013523359206480204 0 0.005297517914895908 0.0013451514891387112 0 0.0052889301521962069 0.0013971906972766279 0 0.0048080448099471866 0.0014022198369781783 0 0.0047390317326296075 0.0013913660075093881 0 0.0048080448099471866 0.0014022198369781783 0 0.0051263934708078085 0.0015138009920092992 0 0.0051983618705116492 0.0014311645117700514 0 0.0052155123085310404 0.0014986142492449822 0 0.0051263934708078085 0.0015138009920092992 0 0.0052155123085310404 0.0014986142492449822 0 0.0052115831078055315 0.0015878070907659745 0 0.0051983618705116492 0.0014311645117700514 0 0.0052505554080388228 0.0014230058090938834 0 0.0052155123085310404 0.0014986142492449822 0 0.0052505554080388228 0.0014230058090938834 0 0.0052155123085310404 0.0014986142492449822 0 0.0052794328970005326 0.0014845677418581882 0 0.0052505554080388228 0.0014230058090938834 0 0.0052794328970005326 0.0014845677418581882 0 0.0053052982676137098 0.0014252185597497236 0 0.0052155123085310404 0.0014986142492449822 0 0.0052794328970005326 0.0014845677418581882 0 0.0052115831078055315 0.0015878070907659745 0 0.0053151108139590005 0.0015596092688758881 0 0.0052794328970005326 0.0014845677418581882 0 0.0052115831078055315 0.0015878070907659745 0 0.0053151108139590005 0.0015596092688758881 0 0.0052794328970005326 0.0014845677418581882 0 0.0053477082151303064 0.0014568832402887082 0 0.0053151108139590005 0.0015596092688758881 0 0.0053974474359440149 0.0014872454071009416 0 0.0053477082151303064 0.0014568832402887082 0 0.0053151108139590005 0.0015596092688758881 0 0.0053974474359440149 0.0014872454071009416 0 0.0054578894615688583 0.0015840915385521789 0 0.0053974474359440149 0.0014872454071009416 0 0.0054554474765347487 0.0014051414314398905 0 0.0054578894615688583 0.0015840915385521789 0 0.0054051092038714865 0.0014237868104462472 0 0.0054320999015331425 0.001402941373636358 0 0.0053376200904745085 0.0013954980445120575 0 0.0053974474359440149 0.0014872454071009416 0 0.0054554474765347487 0.0014051414314398905 0 0.0054051092038714865 0.0014237868104462472 0 0.0057341771032666531 0.0016033971224446882 0 0.0057550938234702288 0.0016442935808832894 0 0.0054554474765347487 0.0014051414314398905 0 0.0054051092038714865 0.0014237868104462472 0 0.0054320999015331425 0.001402941373636358 0 0.0053974474359440149 0.0014872454071009416 0 0.0054051092038714865 0.0014237868104462472 0 0.0053477082151303064 0.0014568832402887082 0 0.0052794328970005326 0.0014845677418581882 0 0.0053477082151303064 0.0014568832402887082 0 0.0053052982676137098 0.0014252185597497236 0 0.0054051092038714865 0.0014237868104462472 0 0.0053477082151303064 0.0014568832402887082 0 0.0053376200904745085 0.0013954980445120575 0 0.0053477082151303064 0.0014568832402887082 0 0.0053052982676137098 0.0014252185597497236 0 0.0053376200904745085 0.0013954980445120575 0 0.0064050122403349749 0.0018268828229613366 0 0.0064353860500082835 0.0017544134924651748 0 0.0064222140144311064 0.0016589704168280292 0 0.0053052982676137098 0.0014252185597497236 0 0.0053376200904745085 0.0013954980445120575 0 0.0052812537501040167 0.0013787628729692181 0 0.0055874165089419376 0.0017139444277411624 0 0.0053887272744922764 0.0014843304767307665 0 0.0055017646754793583 0.0014359650722239983 0 0.0054320999015331425 0.001402941373636358 0 0.0053376200904745085 0.0013954980445120575 0 0.0052477322520433859 0.0013117068558245978 0 0.0057550938234702288 0.0016442935808832894 0 0.0052771343764695718 0.0013676376044422448 0 0.0053376200904745085 0.0013954980445120575 0 0.0052812537501040167 0.0013787628729692181 0 0.0052477322520433859 0.0013117068558245978 0 0.0057550938234702288 0.0016442935808832894 0 0.0059995505153254735 0.0015909442291017813 0 0.0064353860500082835 0.0017544134924651748 0 0.0064562674139274226 0.0017189335986824248 0 0.0064222140144311064 0.0016589704168280292 0 0.0052262152737703044 0.0013609952498715391 0 0.0052114607684900106 0.0013234863148654174 0 0.0052477322520433859 0.0013117068558245978 0 0.0052262152737703044 0.0013609952498715391 0 0.0052812537501040167 0.0013787628729692181 0 0.0052477322520433859 0.0013117068558245978 0 0.0051553059305841989 0.0013396218959389457 0 0.0052262152737703044 0.0013609952498715391 0 0.0052114607684900106 0.0013234863148654174 0 0.0051983618705116492 0.0014311645117700514 0 0.0052505554080388228 0.0014230058090938834 0 0.0052262152737703044 0.0013609952498715391 0 0.0051553059305841989 0.0013396218959389457 0 0.0051983618705116492 0.0014311645117700514 0 0.0052262152737703044 0.0013609952498715391 0 0.0052505554080388228 0.0014230058090938834 0 0.0052262152737703044 0.0013609952498715391 0 0.0052812537501040167 0.0013787628729692181 0 0.0052505554080388228 0.0014230058090938834 0 0.0053052982676137098 0.0014252185597497236 0 0.0052812537501040167 0.0013787628729692181 0 0.006463675402373267 0.0018710030646620587 0 0.0065786607500083923 0.0018091083396519162 0 0.0064460804386055909 0.001945406095278557 0 0.006463675402373267 0.0018710030646620587 0 0.0064460804386055909 0.001945406095278557 0 0.0063844285014121923 0.0019248963133981537 0 0.006463675402373267 0.0018710030646620587 0 0.0064662313062883378 0.0018213343356571787 0 0.0065310651408143306 0.0017826786154176181 0 0.006463675402373267 0.0018710030646620587 0 0.0065310651408143306 0.0017826786154176181 0 0.0065786607500083923 0.0018091083396519162 0 0.006463675402373267 0.0018710030646620587 0 0.0064662313062883378 0.0018213343356571787 0 0.0064272561630362634 0.0018578774254193026 0 0.0064662313062883378 0.0018213343356571787 0 0.0064272561630362634 0.0018578774254193026 0 0.0064368305468277473 0.0018182921500579134 0 0.006463675402373267 0.0018710030646620587 0 0.0064272561630362634 0.0018578774254193026 0 0.0063844285014121923 0.0019248963133981537 0 0.0054554474765347487 0.0014051414314398905 0 0.0054346736880152135 0.0013725122970607883 0 0.0057852267476172026 0.0015903541629920964 0 0.0054554474765347487 0.0014051414314398905 0 0.0057852267476172026 0.0015903541629920964 0 0.0054578894615688583 0.0015840915385521789 0 0.0064050122403349749 0.0018268828229613366 0 0.0064272561630362634 0.0018578774254193026 0 0.0063844285014121923 0.0019248963133981537 0 0.0057550938234702288 0.0016442935808832894 0 0.0061024609953483624 0.0017981504135804335 0 0.0064050122403349749 0.0018268828229613366 0 0.0064272561630362634 0.0018578774254193026 0 0.0064368305468277473 0.0018182921500579134 0 0.0064050122403349749 0.0018268828229613366 0 0.0064368305468277473 0.0018182921500579134 0 0.0064345755849303148 0.0017963111973154295 0 0.0064050122403349749 0.0018268828229613366 0 0.0064353860500082835 0.0017544134924651748 0 0.0064345755849303148 0.0017963111973154295 0 0.0064368305468277473 0.0018182921500579134 0 0.0064345755849303148 0.0017963111973154295 0 0.0064471044674556987 0.0017944138439512632 0 0.0064345755849303148 0.0017963111973154295 0 0.0064471044674556987 0.0017944138439512632 0 0.0064545228363461693 0.0017697367825750079 0 0.0064368305468277473 0.0018182921500579134 0 0.0064471044674556987 0.0017944138439512632 0 0.0064627882007666738 0.0017930111450561062 0 0.0064471044674556987 0.0017944138439512632 0 0.0064545228363461693 0.0017697367825750079 0 0.0064627882007666738 0.0017930111450561062 0 0.0064353860500082835 0.0017544134924651748 0 0.0064345755849303148 0.0017963111973154295 0 0.0064545228363461693 0.0017697367825750079 0 0.0064353860500082835 0.0017544134924651748 0 0.0064545228363461693 0.0017697367825750079 0 0.0064562674139274226 0.0017189335986824248 0 0.0064562674139274226 0.0017189335986824248 0 0.0064857414835287697 0.0017231956985253479 0 0.0064809810140781824 0.0016734680206505149 0 0.0064545228363461693 0.0017697367825750079 0 0.0064562674139274226 0.0017189335986824248 0 0.0064857414835287697 0.0017231956985253479 0 0.0064545228363461693 0.0017697367825750079 0 0.0064857414835287697 0.0017231956985253479 0 0.0064970393518566528 0.0017657790582364305 0 0.0064857414835287697 0.0017231956985253479 0 0.0065283753688459038 0.0017056824521736078 0 0.0064970393518566528 0.0017657790582364305 0 0.0065283753688459038 0.0017056824521736078 0 0.0064970393518566528 0.0017657790582364305 0 0.0065505582103276587 0.0017334517812442 0 0.0064857414835287697 0.0017231956985253479 0 0.0065283753688459038 0.0017056824521736078 0 0.0065104619729025853 0.0016828723110198509 0 0.0064545228363461693 0.0017697367825750079 0 0.0064970393518566528 0.0017657790582364305 0 0.0064627882007666738 0.0017930111450561062 0 0.0064662313062883378 0.0018213343356571787 0 0.0064368305468277473 0.0018182921500579134 0 0.0064627882007666738 0.0017930111450561062 0 0.0064662313062883378 0.0018213343356571787 0 0.0064970393518566528 0.0017657790582364305 0 0.0064627882007666738 0.0017930111450561062 0 0.0064662313062883378 0.0018213343356571787 0 0.0064970393518566528 0.0017657790582364305 0 0.0065310651408143306 0.0017826786154176181 0 0.0064970393518566528 0.0017657790582364305 0 0.0065310651408143306 0.0017826786154176181 0 0.0065505582103276587 0.0017334517812442 0 0.0065505582103276587 0.0017334517812442 0 0.0065976268780190001 0.0017361220027338109 0 0.0066015736849366173 0.0016755244530185507 0 0.0065283753688459038 0.0017056824521736078 0 0.0065505582103276587 0.0017334517812442 0 0.0066015736849366173 0.0016755244530185507 0 0.0065310651408143306 0.0017826786154176181 0 0.0065505582103276587 0.0017334517812442 0 0.0065976268780190001 0.0017361220027338109 0 0.0065976268780190001 0.0017361220027338109 0 0.0066706970112645082 0.001723886422065573 0 0.0067074742493543858 0.0016626460102529285 0 0.0065976268780190001 0.0017361220027338109 0 0.0065786607500083923 0.0018091083396519162 0 0.0066706970112645082 0.001723886422065573 0 0.0065310651408143306 0.0017826786154176181 0 0.0065976268780190001 0.0017361220027338109 0 0.0065786607500083923 0.0018091083396519162 0 0.0065976268780190001 0.0017361220027338109 0 0.0066015736849366173 0.0016755244530185507 0 0.0067074742493543858 0.0016626460102529285 0 0.0066977570569687426 0.0015999745356921565 0 0.0066015736849366173 0.0016755244530185507 0 0.0067074742493543858 0.0016626460102529285 0 0.0066015736849366173 0.0016755244530185507 0 0.0066197061714010751 0.0016073626115879834 0 0.0065427189159931644 0.0016438628569995504 0 0.0066977570569687426 0.0015999745356921565 0 0.0066015736849366173 0.0016755244530185507 0 0.0066197061714010751 0.0016073626115879834 0 0.0066197061714010751 0.0016073626115879834 0 0.0065427189159931644 0.0016438628569995504 0 0.0065755110033651597 0.00155501824137023 0 0.0065283753688459038 0.0017056824521736078 0 0.0065427189159931644 0.0016438628569995504 0 0.0065104619729025853 0.0016828723110198509 0 0.0065283753688459038 0.0017056824521736078 0 0.0066015736849366173 0.0016755244530185507 0 0.0065427189159931644 0.0016438628569995504 0 0.0065427189159931644 0.0016438628569995504 0 0.0065104619729025853 0.0016828723110198509 0 0.0064809810140781824 0.0016734680206505149 0 0.0064857414835287697 0.0017231956985253479 0 0.0065104619729025853 0.0016828723110198509 0 0.0064809810140781824 0.0016734680206505149 0 0.0065427189159931644 0.0016438628569995504 0 0.0065755110033651597 0.00155501824137023 0 0.0064952356126797509 0.0015838003829294919 0 0.0065427189159931644 0.0016438628569995504 0 0.0064809810140781824 0.0016734680206505149 0 0.0064952356126797509 0.0015838003829294919 0 0.0065320785488352665 0.0014876648519670684 0 0.0065755110033651597 0.00155501824137023 0 0.0064952356126797509 0.0015838003829294919 0 0.0065320785488352665 0.0014876648519670684 0 0.0065755110033651597 0.00155501824137023 0 0.0066078302155816665 0.0014658263104206464 0 0.0065755110033651597 0.00155501824137023 0 0.0066668751879818064 0.0015255921101178464 0 0.0066078302155816665 0.0014658263104206464 0 0.0066668751879818064 0.0015255921101178464 0 0.0067080399797771143 0.001408248870677568 0 0.0067887826686950578 0.0015141969370902634 0 0.0066197061714010751 0.0016073626115879834 0 0.0065755110033651597 0.00155501824137023 0 0.0066668751879818064 0.0015255921101178464 0 0.0066977570569687426 0.0015999745356921565 0 0.0066197061714010751 0.0016073626115879834 0 0.0066668751879818064 0.0015255921101178464 0 0.0066977570569687426 0.0015999745356921565 0 0.0066668751879818064 0.0015255921101178464 0 0.0067887826686950578 0.0015141969370902634 0 0.0052254865537926035 0.0012770819410736791 0 0.0052771343764695718 0.0013676376044422448 0 0.0052043429685387959 0.0012550710605463834 0 0.0053887272744922764 0.0014843304767307665 0 0.0053538884607935806 0.0013190739722555907 0 0.0052008612137977714 0.0012960702503928263 0 0.0052043429685387959 0.0012550710605463834 0 0.0052477322520433859 0.0013117068558245978 0 0.0054154258651731022 0.001353015515814219 0 0.0053887272744922764 0.0014843304767307665 0 0.0053538884607935806 0.0013190739722555907 0 0.0052008612137977714 0.0012960702503928263 0 0.0052114607684900106 0.0013234863148654174 0 0.0052477322520433859 0.0013117068558245978 0 0.0054154258651731022 0.001353015515814219 0 0.0053887272744922764 0.0014843304767307665 0 0.0055017646754793583 0.0014359650722239983 0 0.0064562674139274226 0.0017189335986824248 0 0.0064809810140781824 0.0016734680206505149 0 0.0064222140144311064 0.0016589704168280292 0 0.0064809810140781824 0.0016734680206505149 0 0.0064222140144311064 0.0016589704168280292 0 0.0064952356126797509 0.0015838003829294919 0 0.0059995505153254735 0.0015909442291017813 0 0.0058885781646121861 0.0012962020051952485 0 0.0054154258651731022 0.001353015515814219 0 0.0055017646754793583 0.0014359650722239983 0 0.0054120278752614933 0.001180634991234032 0 0.0064222140144311064 0.0016589704168280292 0 0.0064952356126797509 0.0015838003829294919 0 0.0064318220832643696 0.0014696040396410097 0 0.0065320785488352665 0.0014876648519670684 0 0.0064952356126797509 0.0015838003829294919 0 0.0064318220832643696 0.0014696040396410097 0 0.0054120278752614933 0.001180634991234032 0 0.0053538884607935806 0.0013190739722555907 0 0.0053025681164029694 0.0012465675698659494 0 0.0054154258651731022 0.001353015515814219 0 0.0054120278752614933 0.001180634991234032 0 0.0053538884607935806 0.0013190739722555907 0 0.0052043429685387959 0.0012550710605463834 0 0.0053538884607935806 0.0013190739722555907 0 0.0053025681164029694 0.0012465675698659494 0 0.0054120278752614933 0.001180634991234032 0 0.0053025681164029694 0.0012465675698659494 0 0.0052695117860030241 0.0011837718551626286 0 0.0052043429685387959 0.0012550710605463834 0 0.0053025681164029694 0.0012465675698659494 0 0.0052695117860030241 0.0011837718551626286 0 0.0054120278752614933 0.001180634991234032 0 0.0052695117860030241 0.0011837718551626286 0 0.0052911226223182253 0.0011059553062464928 0 0.0054120278752614933 0.001180634991234032 0 0.0052911226223182253 0.0011059553062464928 0 0.0053467030962161387 0.00096958888128656376 0 0.0058885781646121861 0.0012962020051952485 0 0.0061147390116348356 0.0012190508761944802 0 0.0052911226223182253 0.0011059553062464928 0 0.0053467030962161387 0.00096958888128656376 0 0.0052491501092834089 0.0010622726751101717 0 0.0064318220832643696 0.0014696040396410097 0 0.0065482815374136574 0.0013731712413337588 0 0.0064316721104736374 0.0012873872137807219 0 0.0065320785488352665 0.0014876648519670684 0 0.0064318220832643696 0.0014696040396410097 0 0.0065482815374136574 0.0013731712413337588 0 0.0065482815374136574 0.0013731712413337588 0 0.0065368055143257857 0.0012571178282005818 0 0.0064316721104736374 0.0012873872137807219 0 0.0065482815374136574 0.0013731712413337588 0 0.0065368055143257857 0.0012571178282005818 0 0.0066366988979064973 0.0012843434307758803 0 0.0065707262887550093 0.0012080488869259999 0 0.0061147390116348356 0.0012190508761944802 0 0.0065368055143257857 0.0012571178282005818 0 0.0065197062975629562 0.0012996984398381507 0 0.0065578225700853024 0.0012305479930805193 0 0.0066668751879818064 0.0015255921101178464 0 0.0067080399797771143 0.001408248870677568 0 0.0066078302155816665 0.0014658263104206464 0 0.0067080399797771143 0.001408248870677568 0 0.0068190454696438127 0.0012590397129584627 0 0.0068440717876315687 0.0014204470867076051 0 0.0067080399797771143 0.001408248870677568 0 0.0067887826686950578 0.0015141969370902634 0 0.0068440717876315687 0.0014204470867076051 0 0.0065482815374136574 0.0013731712413337588 0 0.0067080399797771143 0.001408248870677568 0 0.0066366988979064973 0.0012843434307758803 0 0.0065482815374136574 0.0013731712413337588 0 0.0067080399797771143 0.001408248870677568 0 0.0066078302155816665 0.0014658263104206464 0 0.0065320785488352665 0.0014876648519670684 0 0.0065482815374136574 0.0013731712413337588 0 0.0066078302155816665 0.0014658263104206464 0 0.0067080399797771143 0.001408248870677568 0 0.0066366988979064973 0.0012843434307758803 0 0.0068190454696438127 0.0012590397129584627 0 0.0068190454696438127 0.0012590397129584627 0 0.006628404552259581 0.0011226663541766672 0 0.0069044446217220775 0.00099095150485035586 0 0.0065368055143257857 0.0012571178282005818 0 0.0066366988979064973 0.0012843434307758803 0 0.006628404552259581 0.0011226663541766672 0 0.0066366988979064973 0.0012843434307758803 0 0.0068190454696438127 0.0012590397129584627 0 0.006628404552259581 0.0011226663541766672 0 0.006968411046851814 0.0011717847225331437 0 0.0069489257363640512 0.00095913446670543661 0 0.0072863829447642053 0.0010300164337621006 0 0.006968411046851814 0.0011717847225331437 0 0.0069489257363640512 0.00095913446670543661 0 0.0067355833808468504 0.001039382533900836 0 0.0067993212332098226 0.0011432707797082592 0 0.0070968012732804727 0.0010145361029965845 0 0.0065197062975629562 0.0012996984398381507 0 0.0065578225700853024 0.0012305479930805193 0 0.0064714670666024586 0.0011182849432731126 0 0.0065040310474474596 0.001424148620069199 0 0.0064170668716410865 0.0010972317646820227 0 0.006330284317884574 0.0012752143027739905 0 0.0061147390116348356 0.0012190508761944802 0 0.0064994597675700613 0.001144946960661969 0 0.0065578225700853024 0.0012305479930805193 0 0.0065825345260428101 0.0010838767868423583 0 0.0064714670666024586 0.0011182849432731126 0 0.0067993212332098226 0.0011432707797082592 0 0.0065786571904461275 0.0012227397158642149 0 0.006968411046851814 0.0011717847225331437 0 0.0065578225700853024 0.0012305479930805193 0 0.0067355833808468504 0.001039382533900836 0 0.0065368055143257857 0.0012571178282005818 0 0.006628404552259581 0.0011226663541766672 0 0.0065578225700853024 0.0012305479930805193 0 0.0065578225700853024 0.0012305479930805193 0 0.0067355833808468504 0.001039382533900836 0 0.0065825345260428101 0.0010838767868423583 0 0.0067355833808468504 0.001039382533900836 0 0.0065825345260428101 0.0010838767868423583 0 0.0065643934044030145 0.00092318124057309651 0 0.0065825345260428101 0.0010838767868423583 0 0.0064714670666024586 0.0011182849432731126 0 0.0065643934044030145 0.00092318124057309651 0 0.0064170668716410865 0.0010972317646820227 0 0.0062589200514764813 0.000990030544651457 0 0.0061940113922341897 0.0011704908520973232 0 0.0064170668716410865 0.0010972317646820227 0 0.0062589200514764813 0.000990030544651457 0 0.0063645010113557027 0.00079043169829268471 0 0.0061940113922341897 0.0011704908520973232 0 0.0059093227826053606 0.0010869299271520348 0 0.0060529256965138022 0.0009002270676213731 0 0.0062589200514764813 0.000990030544651457 0 0.0061940113922341897 0.0011704908520973232 0 0.0060529256965138022 0.0009002270676213731 0 0.0061940113922341897 0.0011704908520973232 0 0.0062043369513916941 0.0014103702585909299 0 0.0061004796644375126 0.001341529944387302 0 0.0061940113922341897 0.0011704908520973232 0 0.0059603071681349224 0.0012851045141931343 0 0.0059093227826053606 0.0010869299271520348 0 0.0061940113922341897 0.0011704908520973232 0 0.0061004796644375126 0.001341529944387302 0 0.0059603071681349224 0.0012851045141931343 0 0.0064170668716410865 0.0010972317646820227 0 0.0061940113922341897 0.0011704908520973232 0 0.006330284317884574 0.0012752143027739905 0 0.0061940113922341897 0.0011704908520973232 0 0.006330284317884574 0.0012752143027739905 0 0.0062043369513916941 0.0014103702585909299 0 0.0065040310474474596 0.001424148620069199 0 0.0062155829028132806 0.0015197005421300875 0 0.0062043369513916941 0.0014103702585909299 0 0.0053467030962161387 0.00096958888128656376 0 0.0051509232596563008 0.0010359827147633912 0 0.0052491501092834089 0.0010622726751101717 0 0.0065040310474474596 0.001424148620069199 0 0.006330284317884574 0.0012752143027739905 0 0.0062043369513916941 0.0014103702585909299 0 0.0061147390116348356 0.0012190508761944802 0 0.0056877184325081929 0.0013699283195959821 0 0.0056877184325081929 0.0013699283195959821 0 0.0059551079424497678 0.0014786238434992642 0 0.0062043369513916941 0.0014103702585909299 0 0.0061004796644375126 0.001341529944387302 0 0.0061006327977063323 0.001467227783584384 0 0.0057562978552673011 0.0015669241252058764 0 0.006004575929609032 0.0013194038663892 0 0.0061006327977063323 0.001467227783584384 0 0.0060314307249205446 0.0015935025901996243 0 0.0059603071681349224 0.0012851045141931343 0 0.0061004796644375126 0.001341529944387302 0 0.0061006327977063323 0.001467227783584384 0 0.0059603071681349224 0.0012851045141931343 0 0.0062172979436990045 0.0015317560349793356 0 0.0062043369513916941 0.0014103702585909299 0 0.0061006327977063323 0.001467227783584384 0 0.0062172979436990045 0.0015317560349793356 0 0.0061006327977063323 0.001467227783584384 0 0.0060314307249205446 0.0015935025901996243 0 0.0053609292847119818 0.0014683661249167933 0 0.0053777297870970442 0.0015183280688467026 0 0.0053560767478706061 0.001496195625356377 0 0.0053495134427814931 0.0015267749262091609 0 0.0053777297870970442 0.0015183280688467026 0 0.0053560767478706061 0.001496195625356377 0 0.0054290005093306868 0.0015439902628829793 0 0.0057562978552673011 0.0015669241252058764 0 0.0056877184325081929 0.0013699283195959821 0 0.0057562978552673011 0.0015669241252058764 0 0.0053356318005627242 0.0014725787839874021 0 0.0053495134427814931 0.0015267749262091609 0 0.0053560767478706061 0.001496195625356377 0 0.0051965857338420332 0.001332713430919509 0 0.0056877184325081929 0.0013699283195959821 0 0.0051744739554290707 0.001251836543762985 0 0.0051509232596563008 0.0010359827147633912 0 0.0052072831765674638 0.0011387196684398725 0 0.0052695117860030241 0.0011837718551626286 0 0.0052911226223182253 0.0011059553062464928 0 0.0052072831765674638 0.0011387196684398725 0 0.0052120347835248266 0.001208531806601489 0 0.0052695117860030241 0.0011837718551626286 0 0.0052072831765674638 0.0011387196684398725 0 0.0052911226223182253 0.0011059553062464928 0 0.0052072831765674638 0.0011387196684398725 0 0.0052491501092834089 0.0010622726751101717 0 0.0051509232596563008 0.0010359827147633912 0 0.0052072831765674638 0.0011387196684398725 0 0.0052491501092834089 0.0010622726751101717 0 0.0055967957064508127 0.0016236659045022655 0 0.0057283252419194526 0.0014318710533426024 0 0.0054877845494455402 0.0014634594700857954 0 0.0057562978552673011 0.0015669241252058764 0 0.0056184936985343888 0.0016326364363585491 0 0.0059928089621148475 0.0015539480599237507 0 0.0055967957064508127 0.0016236659045022655 0 0.0057283252419194526 0.0014318710533426024 0 0.0055714403184242501 0.0016411807472641383 0 0.0055719962819791814 0.001643305774770516 0 0.0055967957064508127 0.0016236659045022655 0 0.0059928089621148475 0.0015539480599237507 0 0.0057283252419194526 0.0014318710533426024 0 0.0059603071681349224 0.0012851045141931343 0 0.0057283252419194526 0.0014318710533426024 0 0.0056599460559956178 0.0012321715370997974 0 0.0054877845494455402 0.0014634594700857954 0 0.0056599460559956178 0.0012321715370997974 0 0.0059603071681349224 0.0012851045141931343 0 0.0059093227826053606 0.0010869299271520348 0 0.0057283252419194526 0.0014318710533426024 0 0.0056599460559956178 0.0012321715370997974 0 0.0059603071681349224 0.0012851045141931343 0 0.0059093227826053606 0.0010869299271520348 0 0.0057372317593740929 0.00094650247685306474 0 0.0060529256965138022 0.0009002270676213731 0 0.0056599460559956178 0.0012321715370997974 0 0.0057372317593740929 0.00094650247685306474 0 0.0055031067616510398 0.0010439317888254818 0 0.0056599460559956178 0.0012321715370997974 0 0.0059093227826053606 0.0010869299271520348 0 0.0057372317593740929 0.00094650247685306474 0 0.0056599460559956178 0.0012321715370997974 0 0.0055031067616510398 0.0010439317888254818 0 0.0053009509638675522 0.0013134599001544424 0 0.0049633743255098079 0.00096444019995981715 0 0.00494137286586373 0.00096788216231081159 0 0.0052206415883553087 0.00088988891728666419 0 0.0055031067616510398 0.0010439317888254818 0 0.0053009509638675522 0.0013134599001544424 0 0.0052206415883553087 0.00088988891728666419 0 0.0051154037384822859 0.0011078751605065999 0 0.0052109470548180447 0.00089410635701165698 0 0.00494137286586373 0.00096788216231081159 0 0.0050564091967800519 0.0007983044708543786 0 0.0052206415883553087 0.00088988891728666419 0 0.0048923268000730597 0.00088087963530627091 0 0.00494137286586373 0.00096788216231081159 0 0.0050564091967800519 0.0007983044708543786 0 0.0049634412833540779 0.00097586354828476285 0 0.004112222753643347 0.00048526329036421227 0 0.0048287323284122883 0.00099767641871467195 0 0.00494137286586373 0.00096788216231081159 0 0.0048203707816494553 0.0010267923606127431 0 0.0048923268000730597 0.00088087963530627091 0 0.0048287323284122883 0.00099767641871467195 0 0.00494137286586373 0.00096788216231081159 0 0.0048803202910609033 0.00086159247747450069 0 0.0048264947248096235 0.0010527006287075077 0 0.0047479827207077812 0.00097574958414809018 0 0.0049633743255098079 0.00096444019995981715 0 0.00494137286586373 0.00096788216231081159 0 0.0048114915777344915 0.0010227748499033577 0 0.00494137286586373 0.00096788216231081159 0 0.0048203707816494553 0.0010267923606127431 0 0.0048114915777344915 0.0010227748499033577 0 0.0044023222587864699 0.00077947082692436144 0 0.0046389840683311026 0.0010694434962441432 0 0.0048203707816494553 0.0010267923606127431 0 0.0048114915777344915 0.0010227748499033577 0 0.004645070280579003 0.0011113897545901861 0 0.004112222753643347 0.00048526329036421227 0 0.0030857493378320467 0.00082110600285604911 0 0.0034239124596141431 -5.2294349236619202e-05 0 0.0039714799863329805 0.0004897282328709153 0 0.0032079397556598814 0.0011200822929029321 0 0.004112222753643347 0.00048526329036421227 0 0.0044023222587864699 0.00077947082692436144 0 0.0039714799863329805 0.0004897282328709153 0 0.0039233260982864593 0.0014801980089734846 0 0.0032079397556598814 0.0011200822929029321 0 0.0039714799863329805 0.0004897282328709153 0 0.004645070280579003 0.0011113897545901861 0 0.0039233260982864593 0.0014801980089734846 0 0.004645070280579003 0.0011113897545901861 0 0.0039233260982864593 0.0014801980089734846 0 0.0045920933451464785 0.0014333749514380705 0 0.004645070280579003 0.0011113897545901861 0 0.0045920933451464785 0.0014333749514380705 0 0.00494905277953384 0.0012620754910836816 0 0.0048114915777344915 0.0010227748499033577 0 0.004645070280579003 0.0011113897545901861 0 0.00494905277953384 0.0012620754910836816 0 0.0053719420595682741 0.001594742570913614 0 0.0054836069659894033 0.0015877228803548068 0 0.0054390017627659821 0.0016246236781457246 0 0.0053719420595682741 0.001594742570913614 0 0.0054836069659894033 0.0015877228803548068 0 0.0054877845494455402 0.0014634594700857954 0 0.0055967957064508127 0.0016236659045022655 0 0.0054836069659894033 0.0015877228803548068 0 0.0054877845494455402 0.0014634594700857954 0 0.0056599460559956178 0.0012321715370997974 0 0.0053009509638675522 0.0013134599001544424 0 0.0054877845494455402 0.0014634594700857954 0 0.0053009509638675522 0.0013134599001544424 0 0.0053719420595682741 0.001594742570913614 0 0.0054877845494455402 0.0014634594700857954 0 0.0049633743255098079 0.00096444019995981715 0 0.0048114915777344915 0.0010227748499033577 0 0.00494905277953384 0.0012620754910836816 0 0.0051154037384822859 0.0011078751605065999 0 0.0053587658141724366 0.0015091211783329541 0 -0.00014538699196045438 -0.00021888037721684345 0 0.00015049176285731336 -0.00098464593723045246 0 0.00082180373139600536 -0.00050005327848740488 0 -0.0010789961052361926 -0.00058791453444750983 0 8.8387153567303533e-05 -0.00097259867014499503 0 5.4466431382753232e-05 -0.00092854603972652387 0 -0.00015251537205948003 -0.0018609866773113444 0 0.00043723423241717328 -0.0018064469247288154 0 0.00015049176285731336 -0.00098464593723045246 0 0.00095459612760567109 -0.0015203991482517208 0 0.00082180373139600536 -0.00050005327848740488 0 8.8387153567303533e-05 -0.00097259867014499503 0 0.00040108913697758052 -0.0017048630964086285 0 0.00015049176285731336 -0.00098464593723045246 0 0.00095459612760567109 -0.0015203991482517208 0 0.00043723423241717328 -0.0018064469247288154 0 0.00095459612760567109 -0.0015203991482517208 0 0.00082180373139600536 -0.00050005327848740488 0 0.001535630442350093 -0.0012568161495753786 0 0.00095459612760567109 -0.0015203991482517208 0 0.00043723423241717328 -0.0018064469247288154 0 0.00074342462989034086 -0.0020015066553831762 0 0.00095459612760567109 -0.0015203991482517208 0 0.0013115057554657274 -0.0016992690051077437 0 0.0010726656970526183 -0.0020231635362644332 0 0.00095459612760567109 -0.0015203991482517208 0 0.0013115057554657274 -0.0016992690051077437 0 0.001535630442350093 -0.0012568161495753786 0 0.0013115057554657274 -0.0016992690051077437 0 0.001535630442350093 -0.0012568161495753786 0 0.0016840081918101297 -0.0020026206683846164 0 0.00082180373139600536 -0.00050005327848740488 0 0.001535630442350093 -0.0012568161495753786 0 0.0017248108339522328 0.0001056341878011797 0 0.001535630442350093 -0.0012568161495753786 0 0.0026128277836244538 -0.001096078540013995 0 0.0026498777996893695 -0.00021389001563866232 0 0.001535630442350093 -0.0012568161495753786 0 0.0026498777996893695 -0.00021389001563866232 0 0.001965637421185093 0.00025869444720713077 0 0.0015567953470795521 -0.0011793682699126153 0 0.0018204071088298451 0.00012859586599170417 0 0.0028920692433639988 -0.00042415106944168439 0 0.0021790945573956083 -0.0012129521146104958 0 0.001535630442350093 -0.0012568161495753786 0 0.0026128277836244538 -0.001096078540013995 0 0.0016840081918101297 -0.0020026206683846164 0 0.0030952758665550831 0.00017514650938567938 0 0.0029562152912278525 -0.00021830427396868254 0 0.0027176191543777793 -0.00018304388598809892 0 0.0047503094762243866 0.00085392970827184278 0 0.0047479827207077812 0.00097574958414809018 0 0.0046425130051945271 0.00079369936133425541 0 0.0030952758665550831 0.00017514650938567938 0 0.0032221064704548406 0.00029513740166771098 0 0.0029562152912278525 -0.00021830427396868254 0 0.0036790630426720627 0.00031830156138331776 0 0.0038757743700838006 0.00031784427637952437 0 0.0028920692433639988 -0.00042415106944168439 0 0.0036790630426720627 0.00031830156138331776 0 0.0048803202910609033 0.00086159247747450069 0 0.0047503094762243866 0.00085392970827184278 0 0.0047479827207077812 0.00097574958414809018 0 0.0026128277836244538 -0.001096078540013995 0 0.0029209349009487375 -0.00078581411334043699 0 0.0026498777996893695 -0.00021389001563866232 0 0.0034755409497490178 -0.00019574490862535765 0 0.0029209349009487375 -0.00078581411334043699 0 0.0026498777996893695 -0.00021389001563866232 0 0.004112222753643347 0.00048526329036421227 0 0.0036790630426720627 0.00031830156138331776 0 0.0034755409497490178 -0.00019574490862535765 0 0.0027238896804784498 0.00052796256047420815 0 0.0032079397556598814 0.0011200822929029321 0 0.0034755409497490178 -0.00019574490862535765 0 0.0026498777996893695 -0.00021389001563866232 0 0.0027238896804784498 0.00052796256047420815 0 0.0027238896804784498 0.00052796256047420815 0 0.0032079397556598814 0.0011200822929029321 0 0.0023820445513614433 0.0015619106854164043 0 0.0018204071088298451 0.00012859586599170417 0 0.0023005447061072303 0.0015477986293390466 0 0.0017248108339522328 0.0001056341878011797 0 0.0013854086139859839 0.00099123541423374911 0 0.0019338755452743758 0.0013666878580750638 0 0.0027238896804784498 0.00052796256047420815 0 0.001965637421185093 0.00025869444720713077 0 0.0023820445513614433 0.0015619106854164043 0 0.0026498777996893695 -0.00021389001563866232 0 0.0027238896804784498 0.00052796256047420815 0 0.001965637421185093 0.00025869444720713077 0 0.00082180373139600536 -0.00050005327848740488 0 0.0017248108339522328 0.0001056341878011797 0 0.00068799731633587436 0.00076245642517591683 0 0.0017248108339522328 0.0001056341878011797 0 0.00068799731633587436 0.00076245642517591683 0 0.0013854086139859839 0.00099123541423374911 0 5.1733211162056591e-05 0.00045221138695878505 0 0.00076692131336042154 0.0013381752849170065 0 0.00068799731633587436 0.00076245642517591683 0 0.0013854086139859839 0.00099123541423374911 0 0.001464815035562897 0.0016659990125100534 0 -0.00067836218243519581 9.4977697010564522e-05 0 -0.00091440289923981513 0.00069989509267901287 0 6.6308669438119267e-05 0.0010059169562219542 0 -0.002673965638885278 -0.00029331657111983747 0 -0.0014068212997086806 0.00031009468776795366 0 -0.0017778467370054226 4.5982009111119446e-05 0 -0.00067836218243519581 9.4977697010564522e-05 0 -0.00091440289923981513 0.00069989509267901287 0 -0.0010789961052361926 -0.00058791453444750983 0 5.1733211162056591e-05 0.00045221138695878505 0 -0.00014538699196045438 -0.00021888037721684345 0 0.00082180373139600536 -0.00050005327848740488 0 0.00068799731633587436 0.00076245642517591683 0 -0.0017778467370054226 4.5982009111119446e-05 0 -0.0014143342054473648 -0.00081193388622401597 0 -0.00067836218243519581 9.4977697010564522e-05 0 -0.0027076483103368543 0.000802097385578191 0 -0.0019429554110807453 0.0010166471979142523 0 -0.0020577452661930296 -0.00013076504855032481 0 -0.0014068212997086806 0.00031009468776795366 0 -0.00075269716030764398 0.0008549432121171004 0 -0.00091440289923981513 0.00069989509267901287 0 -4.268896549039695e-05 0.0013584373305682549 0 6.6308669438119267e-05 0.0010059169562219542 0 -0.0019429554110807453 0.0010166471979142523 0 -0.0020577452661930296 -0.00013076504855032481 0 -0.0012308657306287203 0.00046117006171260828 0 -0.0019429554110807453 0.0010166471979142523 0 -0.0012308657306287203 0.00046117006171260828 0 -0.0013778492355924819 0.0013697398079408867 0 -0.0012308657306287203 0.00046117006171260828 0 -0.00038391316347924544 0.0010672777588898407 0 -0.0008198069615288012 0.001354385794276617 0 -0.0012308657306287203 0.00046117006171260828 0 -0.0008198069615288012 0.001354385794276617 0 -0.0013778492355924819 0.0013697398079408867 0 -4.268896549039695e-05 0.0013584373305682549 0 0.00082494876354642795 0.0019264205865140865 0 0.00084510266227046831 0.0020204511205140024 0 -0.00075269716030764398 0.0008549432121171004 0 0.00081956280161943015 0.0016727951167860148 0 -4.268896549039695e-05 0.0013584373305682549 0 6.6308669438119267e-05 0.0010059169562219542 0 0.00082494876354642795 0.0019264205865140865 0 0.00076692131336042154 0.0013381752849170065 0 0.0014214234658176585 0.0021898850798097126 0 0.0023005447061072303 0.0015477986293390466 0 0.0014214234658176585 0.0021898850798097126 0 0.001464815035562897 0.0016659990125100534 0 0.0019338755452743758 0.0013666878580750638 0 0.0021524777986010944 0.0025187549604619762 0 0.0013854086139859839 0.00099123541423374911 0 0.001464815035562897 0.0016659990125100534 0 0.0019338755452743758 0.0013666878580750638 0 0.0023820445513614433 0.0015619106854164043 0 0.0029825403321410162 0.001995045859715851 0 0.0027406165640712953 0.002531170517178116 0 0.0032079397556598814 0.0011200822929029321 0 0.0023820445513614433 0.0015619106854164043 0 0.0029825403321410162 0.001995045859715851 0 0.0029825403321410162 0.001995045859715851 0 0.0029835697572895897 0.0023387622177046307 0 0.0027406165640712953 0.002531170517178116 0 0.0029835697572895897 0.0023387622177046307 0 0.0027406165640712953 0.002531170517178116 0 0.0029999771272287271 0.0025508500180703112 0 0.0027406165640712953 0.002531170517178116 0 0.0027669518474017535 0.0025848221012923652 0 0.0029999771272287271 0.0025508500180703112 0 0.0014214234658176585 0.0021898850798097126 0 0.00081956280161943015 0.0016727951167860148 0 0.0029835697572895897 0.0023387622177046307 0 0.0029999771272287271 0.0025508500180703112 0 0.003308695498003186 0.0024378927155681903 0 0.0027669518474017535 0.0025848221012923652 0 0.0029999771272287271 0.0025508500180703112 0 0.0032939462031269661 0.0027869579958726305 0 0.00081956280161943015 0.0016727951167860148 0 0.0022123768301305817 0.002274378587825122 0 -0.00054333405627512543 0.00063763560333353786 0 0.00038546760982611253 0.0017368404976058035 0 0.0010094689640296481 0.0016613105013836853 0 0.00081956280161943015 0.0016727951167860148 0 1.3347362696053159e-05 0.001111944192987914 0 -0.00054333405627512543 0.00063763560333353786 0 -0.00028689942287186049 0.0014840734723133647 0 0.00038546760982611253 0.0017368404976058035 0 -0.00028689942287186049 0.0014840734723133647 0 -0.0001258447829857293 0.0020257162644426842 0 -0.00059807324399683529 0.0018144433255036648 0 -0.00028689942287186049 0.0014840734723133647 0 0.00038546760982611253 0.0017368404976058035 0 -0.0001258447829857293 0.0020257162644426842 0 0.00025056936413250292 0.0020353377257203158 0 0.00025719146765709007 0.0022654267985425156 0 -0.0001258447829857293 0.0020257162644426842 0 0.00038546760982611253 0.0017368404976058035 0 0.00025056936413250292 0.0020353377257203158 0 -0.0001258447829857293 0.0020257162644426842 0 0.00025719146765709007 0.0022654267985425156 0 -0.0001258447829857293 0.0020257162644426842 0 -0.00027656286096757376 0.0025206767308354945 0 -0.0001258447829857293 0.0020257162644426842 0 -0.00068144241785571681 0.0023005234094983437 0 -0.00027656286096757376 0.0025206767308354945 0 -0.00059807324399683529 0.0018144433255036648 0 -0.00068144241785571681 0.0023005234094983437 0 -0.0010960715752526464 0.0019411897128109327 0 -0.0001258447829857293 0.0020257162644426842 0 -0.00059807324399683529 0.0018144433255036648 0 -0.00068144241785571681 0.0023005234094983437 0 -0.00068144241785571681 0.0023005234094983437 0 -0.0010960715752526464 0.0019411897128109327 0 -0.0013552128364746013 0.002507226185950266 0 -0.00059807324399683529 0.0018144433255036648 0 -0.0010960715752526464 0.0019411897128109327 0 -0.0008198069615288012 0.001354385794276617 0 -0.0010960715752526464 0.0019411897128109327 0 -0.0008198069615288012 0.001354385794276617 0 -0.0013778492355924819 0.0013697398079408867 0 -0.00028689942287186049 0.0014840734723133647 0 -0.00059807324399683529 0.0018144433255036648 0 -0.0008198069615288012 0.001354385794276617 0 -0.00038391316347924544 0.0010672777588898407 0 -0.00028689942287186049 0.0014840734723133647 0 -0.0008198069615288012 0.001354385794276617 0 -0.0019429554110807453 0.0010166471979142523 0 -0.0013778492355924819 0.0013697398079408867 0 -0.0019226136070068663 0.0019808241432736997 0 -0.0010960715752526464 0.0019411897128109327 0 -0.0013778492355924819 0.0013697398079408867 0 -0.0019226136070068663 0.0019808241432736997 0 -0.0010960715752526464 0.0019411897128109327 0 -0.0019226136070068663 0.0019808241432736997 0 -0.0013552128364746013 0.002507226185950266 0 -0.0019226136070068663 0.0019808241432736997 0 -0.0022365867669947932 0.0026853774025232609 0 -0.0013552128364746013 0.002507226185950266 0 -0.0029588226772324167 0.0022098721432672131 0 -0.0019226136070068663 0.0019808241432736997 0 -0.0024674295584375234 0.0015499078098910846 0 -0.0029588226772324167 0.0022098721432672131 0 -0.0019226136070068663 0.0019808241432736997 0 -0.0022365867669947932 0.0026853774025232609 0 -0.0027076483103368543 0.000802097385578191 0 -0.0019429554110807453 0.0010166471979142523 0 -0.0024674295584375234 0.0015499078098910846 0 -0.0019429554110807453 0.0010166471979142523 0 -0.0019226136070068663 0.0019808241432736997 0 -0.0024674295584375234 0.0015499078098910846 0 0.0054178443312524064 0.0017024652091998816 0 0.0054467866568466338 0.0016814744220806253 0 0.005432485938029568 0.0016528977576382835 0 0.0054963616074750849 0.0017073311021164053 0 0.0054178443312524064 0.0017024652091998816 0 0.0054746732449228609 0.0016878752145214745 0 0.0054963616074750849 0.0017073311021164053 0 0.0053941116394692927 0.001707583848571993 0 0.0054178443312524064 0.0017024652091998816 0 0.003762318746116977 0.0010464293256254376 0 0.0039244328653125103 0.0019065651905677877 0 0.0055321978573755794 0.0016646569659610551 0 0.0054746732449228609 0.0016878752145214745 0 0.0054817958033667449 0.0016533296454352418 0 0.0054746732449228609 0.0016878752145214745 0 0.0054467866568466338 0.0016814744220806253 0 0.0054817958033667449 0.0016533296454352418 0 0.0054178443312524064 0.0017024652091998816 0 0.0054746732449228609 0.0016878752145214745 0 0.0054467866568466338 0.0016814744220806253 0 0.005432485938029568 0.0016528977576382835 0 0.0054817958033667449 0.0016533296454352418 0 0.0054390017627659821 0.0016246236781457246 0 0.0054467866568466338 0.0016814744220806253 0 0.005432485938029568 0.0016528977576382835 0 0.0054817958033667449 0.0016533296454352418 0 0.0055967957064508127 0.0016236659045022655 0 0.0054836069659894033 0.0015877228803548068 0 0.0054817958033667449 0.0016533296454352418 0 0.0054836069659894033 0.0015877228803548068 0 0.0054817958033667449 0.0016533296454352418 0 0.0054390017627659821 0.0016246236781457246 0 0.0053587658141724366 0.0015091211783329541 0 0.0039244328653125103 0.0019065651905677877 0 0.0053719420595682741 0.001594742570913614 0 0.005432485938029568 0.0016528977576382835 0 0.0054390017627659821 0.0016246236781457246 0 0.0053719420595682741 0.001594742570913614 0 0.0054178443312524064 0.0017024652091998816 0 0.005432485938029568 0.0016528977576382835 0 0.00494905277953384 0.0012620754910836816 0 0.0048636149175719382 0.0025916973970676036 0 0.0045288733733230844 0.0018646864321237729 0 0.005396001869987818 0.0015810538281423481 0 0.0053941116394692927 0.001707583848571993 0 0.0054178443312524064 0.0017024652091998816 0 0.0053587658141724366 0.0015091211783329541 0 0.0054208941566417134 0.0017306369983873537 0 0.0045920933451464785 0.0014333749514380705 0 0.00494905277953384 0.0012620754910836816 0 0.0045288733733230844 0.0018646864321237729 0 0.0039233260982864593 0.0014801980089734846 0 0.0045920933451464785 0.0014333749514380705 0 0.0045288733733230844 0.0018646864321237729 0 0.0039233260982864593 0.0014801980089734846 0 0.0045288733733230844 0.0018646864321237729 0 0.0036957946029101815 0.0021477761540798341 0 0.0039233260982864593 0.0014801980089734846 0 0.0029825403321410162 0.001995045859715851 0 0.0036957946029101815 0.0021477761540798341 0 0.0039233260982864593 0.0014801980089734846 0 0.0032079397556598814 0.0011200822929029321 0 0.0029825403321410162 0.001995045859715851 0 0.0029825403321410162 0.001995045859715851 0 0.0029835697572895897 0.0023387622177046307 0 0.0036957946029101815 0.0021477761540798341 0 0.0029835697572895897 0.0023387622177046307 0 0.0036957946029101815 0.0021477761540798341 0 0.003308695498003186 0.0024378927155681903 0 0.0036957946029101815 0.0021477761540798341 0 0.0035530933862318276 0.0024465705840111926 0 0.003308695498003186 0.0024378927155681903 0 0.0029999771272287271 0.0025508500180703112 0 0.003308695498003186 0.0024378927155681903 0 0.0033225577075705749 0.0026038282374633652 0 0.0035530933862318276 0.0024465705840111926 0 0.003308695498003186 0.0024378927155681903 0 0.0033225577075705749 0.0026038282374633652 0 0.0048636149175719382 0.0025916973970676036 0 0.0045288733733230844 0.0018646864321237729 0 0.0036957946029101815 0.0021477761540798341 0 0.0039244328653125103 0.0019065651905677877 0 0.0039707205430686678 0.0023504927249963152 0 0.0040311861414426258 0.002410222433497651 0 0.0036957946029101815 0.0021477761540798341 0 0.0037569081436127165 0.0024746523342930168 0 0.0036957946029101815 0.0021477761540798341 0 0.0035530933862318276 0.0024465705840111926 0 0.0037569081436127165 0.0024746523342930168 0 0.0035530933862318276 0.0024465705840111926 0 0.0037569081436127165 0.0024746523342930168 0 0.0036478040885267 0.0026404436400099848 0 0.0040311861414426258 0.002410222433497651 0 0.0037569081436127165 0.0024746523342930168 0 0.0038250468518455098 0.0026716341145276682 0 0.0036478040885267 0.0026404436400099848 0 0.0036991923777453554 0.0027761289785860634 0 0.0034268227796688329 0.0027208223196600548 0 0.0037569081436127165 0.0024746523342930168 0 0.0038250468518455098 0.0026716341145276682 0 0.0036478040885267 0.0026404436400099848 0 0.0038250468518455098 0.0026716341145276682 0 0.0036478040885267 0.0026404436400099848 0 0.0036991923777453554 0.0027761289785860634 0 0.0036707832274646256 0.0028470820118417892 0 0.0034268227796688329 0.0027208223196600548 0 0.0037130049967984062 0.0029937665744290604 0 0.0036991923777453554 0.0027761289785860634 0 0.0036707832274646256 0.0028470820118417892 0 0.0034268227796688329 0.0027208223196600548 0 0.0033243609816166787 0.0026008186793787039 0 0.0037769548964898519 0.0033013486982983249 0 0.0036991923777453554 0.0027761289785860634 0 0.0036707832274646256 0.0028470820118417892 0 0.0038123283560088815 0.0028972937225432592 0 0.0038250468518455098 0.0026716341145276682 0 0.0036991923777453554 0.0027761289785860634 0 0.0038123283560088815 0.0028972937225432592 0 0.0038250468518455098 0.0026716341145276682 0 0.0038123283560088815 0.0028972937225432592 0 0.0039623375103336822 0.0028502806351587856 0 0.0034268227796688329 0.0027208223196600548 0 0.0032939462031269661 0.0027869579958726305 0 0.0032734942096794856 0.0028584906171086524 0 0.0029999771272287271 0.0025508500180703112 0 0.0033225577075705749 0.0026038282374633652 0 0.0032939462031269661 0.0027869579958726305 0 0.0033225577075705749 0.0026038282374633652 0 0.0034268227796688329 0.0027208223196600548 0 0.0032939462031269661 0.0027869579958726305 0 0.0035530933862318276 0.0024465705840111926 0 0.0033225577075705749 0.0026038282374633652 0 0.0034268227796688329 0.0027208223196600548 0 0.0035530933862318276 0.0024465705840111926 0 0.0036478040885267 0.0026404436400099848 0 0.0034268227796688329 0.0027208223196600548 0 0.0032939462031269661 0.0027869579958726305 0 0.0032734942096794856 0.0028584906171086524 0 0.0032090449997993343 0.0030249192065247375 0 0.0010094689640296481 0.0016613105013836853 0 0.0024671999845055251 0.0029797614104257915 0 0.0032090449997993343 0.0030249192065247375 0 0.0022123768301305817 0.002274378587825122 0 0.0031351028164411151 0.002968562689247238 0 0.00038546760982611253 0.0017368404976058035 0 0.0010094689640296481 0.0016613105013836853 0 0.0024671999845055251 0.0029797614104257915 0 0.00038546760982611253 0.0017368404976058035 0 0.00040975931186530359 0.0021068572811621705 0 0.00056123138847524615 0.0021925122102174972 0 0.0003952986695662098 0.0017610468820874908 0 0.0016503059563980629 0.002678518335916499 0 0.00038546760982611253 0.0017368404976058035 0 0.00025056936413250292 0.0020353377257203158 0 0.00040975931186530359 0.0021068572811621705 0 0.00025056936413250292 0.0020353377257203158 0 0.00025719146765709007 0.0022654267985425156 0 0.00040975931186530359 0.0021068572811621705 0 0.00056123138847524615 0.0021925122102174972 0 0.0004498804076860718 0.0022848483316092291 0 0.00055399478365197841 0.0023723455756770942 0 0.00040975931186530359 0.0021068572811621705 0 0.00056123138847524615 0.0021925122102174972 0 0.0004498804076860718 0.0022848483316092291 0 0.00025719146765709007 0.0022654267985425156 0 0.00040975931186530359 0.0021068572811621705 0 0.0004498804076860718 0.0022848483316092291 0 0.0024671999845055251 0.0029797614104257915 0 0.0032090449997993343 0.0030249192065247375 0 0.0043526187007351608 0.0039368763502075277 0 0.0038123283560088815 0.0028972937225432592 0 0.0039623375103336822 0.0028502806351587856 0 0.0038740602082704915 0.0032502619931626679 0 0.0016503059563980629 0.002678518335916499 0 0.0019531445421317197 0.0020834451400430797 0 0.0038123283560088815 0.0028972937225432592 0 0.0037130049967984062 0.0029937665744290604 0 0.0038740602082704915 0.0032502619931626679 0 0.0036707832274646256 0.0028470820118417892 0 0.0038123283560088815 0.0028972937225432592 0 0.0037130049967984062 0.0029937665744290604 0 0.0032734942096794856 0.0028584906171086524 0 0.0032090449997993343 0.0030249192065247375 0 0.0043526187007351608 0.0039368763502075277 0 0.0037769548964898519 0.0033013486982983249 0 0.0019531445421317197 0.0020834451400430797 0 0.0017994755354690326 0.0012996855911577593 0 0.0014936038354788417 0.00097111305305031014 0 0.001401294106697312 0.0015357067541107465 0 0.0027019647327803978 0.0018841405477429999 0 0.0019531445421317197 0.0020834451400430797 0 0.0017994755354690326 0.0012996855911577593 0 0.0014936038354788417 0.00097111305305031014 0 0.0019955973627766399 0.0010046010601515605 0 0.0039244328653125103 0.0019065651905677877 0 0.0027019647327803978 0.0018841405477429999 0 0.0015907745954989434 0.00043057322435099965 0 0.0014936038354788417 0.00097111305305031014 0 0.0018350971534918472 0.00076732556164625112 0 0.0040311861414426258 0.002410222433497651 0 0.0038250468518455098 0.0026716341145276682 0 0.0039623375103336822 0.0028502806351587856 0 0.0014936038354788417 0.00097111305305031014 0 0.0018350971534918472 0.00076732556164625112 0 0.0019955973627766399 0.0010046010601515605 0 0.0022681671310555637 0.00066390739025894098 0 0.0015907745954989434 0.00043057322435099965 0 0.0018350971534918472 0.00076732556164625112 0 0.0022681671310555637 0.00066390739025894098 0 0.0018350971534918472 0.00076732556164625112 0 0.0019955973627766399 0.0010046010601515605 0 0.0022681671310555637 0.00066390739025894098 0 0.0022941197601723195 0.0011731960205244717 0 0.0019955973627766399 0.0010046010601515605 0 0.0022941197601723195 0.0011731960205244717 0 0.0017994755354690326 0.0012996855911577593 0 0.0019955973627766399 0.0010046010601515605 0 0.0022941197601723195 0.0011731960205244717 0 0.0017994755354690326 0.0012996855911577593 0 0.0019596323432203842 0.0015544057734584353 0 0.0019596323432203842 0.0015544057734584353 0 0.0017942725255196668 0.0018212952100708584 0 0.0022277956059745074 0.0016445190969249482 0 0.0022941197601723195 0.0011731960205244717 0 0.0019596323432203842 0.0015544057734584353 0 0.0022277956059745074 0.0016445190969249482 0 0.0017994755354690326 0.0012996855911577593 0 0.0019596323432203842 0.0015544057734584353 0 0.0017386471668711695 0.0015533871111650839 0 0.0019596323432203842 0.0015544057734584353 0 0.0017942725255196668 0.0018212952100708584 0 0.0017386471668711695 0.0015533871111650839 0 0.0021243521242179943 0.0021155111427678492 0 0.0017942725255196668 0.0018212952100708584 0 0.0022277956059745074 0.0016445190969249482 0 0.0021243521242179943 0.0021155111427678492 0 0.0016194991981852095 0.0021679295303833313 0 0.0021365094458254252 0.0025016927607295551 0 0.0021356833790848102 0.0021165897061624543 0 0.0015854941380499437 0.0017169477603671426 0 0.0021243521242179943 0.0021155111427678492 0 0.0016194991981852095 0.0021679295303833313 0 0.0016273202408908071 0.0017880909582479382 0 0.00062979637720903241 0.0017236192617924475 0 0.00042982310168376473 0.00084306527129814274 0 0.00026368549560250309 0.0019288626348109598 0 0.00062979637720903241 0.0017236192617924475 0 0.0011071094926430845 0.0018281771104637608 0 0.00042982310168376473 0.00084306527129814274 0 0.0011392115134727194 0.0017738582206044868 0 0.0019531445421317197 0.0020834451400430797 0 0.00062979637720903241 0.0017236192617924475 0 0.00026368549560250309 0.0019288626348109598 0 0.0007163803851423918 0.0023242035396911476 0 0.00062979637720903241 0.0017236192617924475 0 0.0011071094926430845 0.0018281771104637608 0 0.0007163803851423918 0.0023242035396911476 0 0.0015854941380499437 0.0017169477603671426 0 0.0019531445421317197 0.0020834451400430797 0 0.0016194991981852095 0.0021679295303833313 0 0.0016273202408908071 0.0017880909582479382 0 0.0011873328793834124 0.0014751409877449683 0 0.0017942725255196668 0.0018212952100708584 0 0.0017386471668711695 0.0015533871111650839 0 0.001401294106697312 0.0015357067541107465 0 0.0017994755354690326 0.0012996855911577593 0 0.0017386471668711695 0.0015533871111650839 0 0.001401294106697312 0.0015357067541107465 0 0.00056123138847524615 0.0021925122102174972 0 0.00080004212763299515 0.0023623448613357876 0 0.00055399478365197841 0.0023723455756770942 0 0.00080004212763299515 0.0023623448613357876 0 0.00055399478365197841 0.0023723455756770942 0 0.00056501137539144322 0.0025514419864966693 0 0.00025719146765709007 0.0022654267985425156 0 0.0004498804076860718 0.0022848483316092291 0 0.00038942617732909564 0.0024584764587046843 0 0.0004498804076860718 0.0022848483316092291 0 0.00055399478365197841 0.0023723455756770942 0 0.00038942617732909564 0.0024584764587046843 0 0.00055399478365197841 0.0023723455756770942 0 0.00056501137539144322 0.0025514419864966693 0 0.00038942617732909564 0.0024584764587046843 0 0.00056501137539144322 0.0025514419864966693 0 0.00038942617732909564 0.0024584764587046843 0 0.00031940326328835938 0.0026510178904283147 0 0.00038942617732909564 0.0024584764587046843 0 0.00031940326328835938 0.0026510178904283147 0 0.00013034042225283247 0.0025987557081540301 0 0.00056501137539144322 0.0025514419864966693 0 0.00031940326328835938 0.0026510178904283147 0 0.00045534135576976733 0.0027304202343757717 0 0.00045534135576976733 0.0027304202343757717 0 0.00023143296454164941 0.0030379282345277181 0 -0.00016357015552040681 0.0028947336686487631 0 0.00031940326328835938 0.0026510178904283147 0 0.00045534135576976733 0.0027304202343757717 0 0.00025582692680398405 0.0028259889115094436 0 0.00036484543513880968 0.0027535882772899041 0 0.00013569666677972232 0.00282552205175244 0 0.00080004212763299515 0.0023623448613357876 0 0.00056501137539144322 0.0025514419864966693 0 0.00076361630742451732 0.0028315325332828913 0 0.0019531445421317197 0.0020834451400430797 0 0.0004024886875150018 0.0023521162729129206 0 0.00056501137539144322 0.0025514419864966693 0 0.00045534135576976733 0.0027304202343757717 0 0.00076361630742451732 0.0028315325332828913 0 0.00076361630742451732 0.0028315325332828913 0 0.00047076396992080927 0.0032002981913036937 0 0.00067612238484158517 0.0036647675658140859 0 0.0004024886875150018 0.0023521162729129206 0 8.7106367805474637e-05 0.0031113880602127919 0 0.00026368549560250309 0.0019288626348109598 0 0.00010312081678613331 0.0030380369119272625 0 0.0007163803851423918 0.0023242035396911476 0 8.7106367805474637e-05 0.0031113880602127919 0 0.00063506726869634893 0.0023928510197179084 0 0.00045534135576976733 0.0027304202343757717 0 0.00076361630742451732 0.0028315325332828913 0 0.00047076396992080927 0.0032002981913036937 0 0.00013261214030618762 0.0034765758918683196 0 -0.00016357015552040681 0.0028947336686487631 0 -0.00041647656810223609 0.0034441489416585183 0 0.00023143296454164941 0.0030379282345277181 0 0.00013261214030618762 0.0034765758918683196 0 -0.00016357015552040681 0.0028947336686487631 0 0.00045534135576976733 0.0027304202343757717 0 0.00047076396992080927 0.0032002981913036937 0 0.00023143296454164941 0.0030379282345277181 0 0.00047076396992080927 0.0032002981913036937 0 0.00013261214030618762 0.0034765758918683196 0 0.00041681933763614367 0.0035040784220134835 0 0.00047076396992080927 0.0032002981913036937 0 0.00023143296454164941 0.0030379282345277181 0 0.00013261214030618762 0.0034765758918683196 0 0.00013261214030618762 0.0034765758918683196 0 -0.000450941526982503 0.0039667809004391682 0 0.00040079410197723313 0.0039872613565237946 0 -0.0037440069824211152 0.0033524790912902603 0 -0.0029397478093269921 0.0034138948041079554 0 0.00013261214030618762 0.0034765758918683196 0 0.00041681933763614367 0.0035040784220134835 0 0.00040692072389771625 0.003658234316204185 0 0.00013261214030618762 0.0034765758918683196 0 0.00040692072389771625 0.003658234316204185 0 0.00040079410197723313 0.0039872613565237946 0 0.00036022505973858462 0.0032470158720332726 0 0.00099197609060367202 0.0037015810656515031 0 -0.00053558544788696145 0.0036643105717968929 0 -0.00011461214448943269 0.003262214778373301 0 0.00036022505973858462 0.0032470158720332726 0 -0.00053558544788696145 0.0036643105717968929 0 -9.809177384151175e-05 0.0031682906747156261 0 0.00036022505973858462 0.0032470158720332726 0 0.00058724149335910494 0.0028820633665543644 0 0.00047076396992080927 0.0032002981913036937 0 0.00067612238484158517 0.0036647675658140859 0 0.00041681933763614367 0.0035040784220134835 0 0.00067612238484158517 0.0036647675658140859 0 0.00041681933763614367 0.0035040784220134835 0 0.00040692072389771625 0.003658234316204185 0 8.7106367805474637e-05 0.0031113880602127919 0 -0.0029397478093269921 0.0034138948041079554 0 0.00067612238484158517 0.0036647675658140859 0 0.00040692072389771625 0.003658234316204185 0 0.00040079410197723313 0.0039872613565237946 0 -0.00010135529088710656 0.0031688863880037646 0 -0.00011461214448943269 0.003262214778373301 0 -0.00053558544788696145 0.0036643105717968929 0 -9.809177384151175e-05 0.0031682906747156261 0 -0.00011461214448943269 0.003262214778373301 0 0.00036022505973858462 0.0032470158720332726 0 8.7106367805474637e-05 0.0031113880602127919 0 8.0285126944378682e-05 0.0031257017705269927 0 -9.809177384151175e-05 0.0031682906747156261 0 0.00058724149335910494 0.0028820633665543644 0 0.0007163803851423918 0.0023242035396911476 0 0.00036022505973858462 0.0032470158720332726 0 0.00058724149335910494 0.0028820633665543644 0 0.0011947721711531674 0.0028882395973378961 0 0.00036022505973858462 0.0032470158720332726 0 0.0011947721711531674 0.0028882395973378961 0 0.00099197609060367202 0.0037015810656515031 0 0.0019681056689994057 0.002985266026891936 0 0.0011947721711531674 0.0028882395973378961 0 0.00099197609060367202 0.0037015810656515031 0 0.0019681056689994057 0.002985266026891936 0 0.00099197609060367202 0.0037015810656515031 0 0.0024085346685273671 0.003696410994701508 0 0.0016194991981852095 0.0021679295303833313 0 0.0019681056689994057 0.002985266026891936 0 0.0021365094458254252 0.0025016927607295551 0 0.0011392115134727194 0.0017738582206044868 0 0.0020394660562445934 0.0030523555866372202 0 0.0011071094926430845 0.0018281771104637608 0 0.0019681056689994057 0.002985266026891936 0 0.0011947721711531674 0.0028882395973378961 0 0.0011071094926430845 0.0018281771104637608 0 0.0011947721711531674 0.0028882395973378961 0 0.0007163803851423918 0.0023242035396911476 0 0.00058724149335910494 0.0028820633665543644 0 0.0011947721711531674 0.0028882395973378961 0 0.0007163803851423918 0.0023242035396911476 0 -0.0026896466032382527 0.0034097900459633432 0 -0.0018272576807504761 0.003210246272643645 0 -0.001934208159385533 0.0039424750287925707 0 -0.0039303788148510477 0.0028357792384695224 0 -0.0031355415990414279 0.0033497668127928488 0 -0.0026896466032382527 0.0034097900459633432 0 -0.0022365867669947932 0.0026853774025232609 0 -0.0018272576807504761 0.003210246272643645 0 -0.0022365867669947932 0.0026853774025232609 0 -0.0013552128364746013 0.002507226185950266 0 -0.0018272576807504761 0.003210246272643645 0 -0.0013552128364746013 0.002507226185950266 0 -0.0018272576807504761 0.003210246272643645 0 -0.0011311538261744888 0.0033452308744868994 0 -0.0018272576807504761 0.003210246272643645 0 -0.0011311538261744888 0.0033452308744868994 0 -0.001934208159385533 0.0039424750287925707 0 -0.0011311538261744888 0.0033452308744868994 0 -0.00096921144165927717 0.0039046916981690643 0 -0.001934208159385533 0.0039424750287925707 0 -0.0011311538261744888 0.0033452308744868994 0 -0.00012319155873871497 0.0032488789432155653 0 -0.00096921144165927717 0.0039046916981690643 0 -0.00012319155873871497 0.0032488789432155653 0 -0.00046599735213985986 0.0041797322914486632 0 -0.00096921144165927717 0.0039046916981690643 0 -0.0011311538261744888 0.0033452308744868994 0 -0.00070260005329751967 0.0028042461073886941 0 -0.00012319155873871497 0.0032488789432155653 0 -0.0013552128364746013 0.002507226185950266 0 -0.0011311538261744888 0.0033452308744868994 0 -0.00070260005329751967 0.0028042461073886941 0 -0.00068144241785571681 0.0023005234094983437 0 -0.0013552128364746013 0.002507226185950266 0 -0.00070260005329751967 0.0028042461073886941 0 -0.00068144241785571681 0.0023005234094983437 0 -0.00070260005329751967 0.0028042461073886941 0 -0.00027656286096757376 0.0025206767308354945 0 0.00022871499036072654 0.0022947667715812253 0 5.6492325458957006e-05 0.0029663791497345181 0 0.00025719146765709007 0.0022654267985425156 0 0.00038942617732909564 0.0024584764587046843 0 0.00013034042225283247 0.0025987557081540301 0 0.00025719146765709007 0.0022654267985425156 0 -0.00027656286096757376 0.0025206767308354945 0 -0.00012319155873871497 0.0032488789432155653 0 -0.00070260005329751967 0.0028042461073886941 0 -0.00027656286096757376 0.0025206767308354945 0 -0.00012319155873871497 0.0032488789432155653 0 0.00031940326328835938 0.0026510178904283147 0 0.00013034042225283247 0.0025987557081540301 0 0.00025582692680398405 0.0028259889115094436 0 0.00013034042225283247 0.0025987557081540301 0 0.00025582692680398405 0.0028259889115094436 0 9.1420222551122851e-06 0.0029308098240386458 0 5.6492325458957006e-05 0.0029663791497345181 0 -0.0009238722126343993 0.0031418271461840864 0 0.00013569666677972232 0.00282552205175244 0 -0.0009238722126343993 0.0031418271461840864 0 -0.00074629541787909429 0.0031100410532037426 0 -0.00041647656810223609 0.0034441489416585183 0 -0.00093576626120054761 0.0036327855579543155 0 -0.00016357015552040681 0.0028947336686487631 0 -0.00074629541787909429 0.0031100410532037426 0 -0.00041647656810223609 0.0034441489416585183 0 0.00013261214030618762 0.0034765758918683196 0 -0.00041647656810223609 0.0034441489416585183 0 -0.000450941526982503 0.0039667809004391682 0 -0.0037440069824211152 0.0033524790912902603 0 -0.0064920039867966579 0.0031025255093118658 0 -0.0037440069824211152 0.0033524790912902603 0 -0.0038791990478519041 0.0031611966208196039 0 -0.00041647656810223609 0.0034441489416585183 0 -0.000450941526982503 0.0039667809004391682 0 -0.00093576626120054761 0.0036327855579543155 0 -0.0040259826645227788 0.0032994858144611127 0 -0.0048385876901017129 0.0027320293859190779 0 -0.0050160222149321183 0.0032592396346999898 0 -0.007297398949149575 0.0026225906080714336 0 -0.0072757265828241472 0.0026584066275166943 0 -0.0072913776337734226 0.0025978561731395088 0 -0.0038791990478519041 0.0031611966208196039 0 -0.0064920039867966579 0.0031025255093118658 0 -0.0073112234794066137 0.0026326950623758718 0 -0.0073165760207153391 0.0026023614005875845 0 -0.007297398949149575 0.0026225906080714336 0 -0.0073165760207153391 0.0026023614005875845 0 -0.007297398949149575 0.0026225906080714336 0 -0.0072913776337734226 0.0025978561731395088 0 -0.0038791990478519041 0.0031611966208196039 0 -0.0042823530067878464 0.003214621960619364 0 -0.0073112234794066137 0.0026326950623758718 0 -0.007297398949149575 0.0026225906080714336 0 -0.0072757265828241472 0.0026584066275166943 0 -0.0024622710753539351 0.0026730415087056069 0 -0.0028359340160422535 0.0037799766954549614 0 -0.0036886004760124883 0.0031833937052395244 0 -0.0009238722126343993 0.0031418271461840864 0 -0.0042823530067878464 0.003214621960619364 0 -0.00046599735213985986 0.0041797322914486632 0 -0.0011838740991285479 0.0044708912867976154 0 -0.00096921144165927717 0.0039046916981690643 0 -0.0009238722126343993 0.0031418271461840864 0 -0.0038791990478519041 0.0031611966208196039 0 -0.0042823530067878464 0.003214621960619364 0 -0.0031355415990414279 0.0033497668127928488 0 -0.0043983104270736055 0.0027886967208255961 0 -0.0050711804324519291 0.0030554144187404314 0 -0.0048117312001900309 0.002495564617862104 0 -0.0011838740991285479 0.0044708912867976154 0 -0.00096921144165927717 0.0039046916981690643 0 -0.001934208159385533 0.0039424750287925707 0 -0.0072757265828241472 0.0026584066275166943 0 -0.0072913776337734226 0.0025978561731395088 0 -0.0072625600094768901 0.0025803080271616977 0 -0.0072757265828241472 0.0026584066275166943 0 -0.007197887702383156 0.0026189195614479081 0 -0.0072625600094768901 0.0025803080271616977 0 -0.0042823530067878464 0.003214621960619364 0 -0.0063805040896927137 0.0029171475452508737 0 -0.0053464972127402711 0.0026684417662650433 0 -0.0050711804324519291 0.0030554144187404314 0 -0.0048117312001900309 0.002495564617862104 0 -0.0053464972127402711 0.0026684417662650433 0 -0.0052242190431112919 0.0022034082405794756 0 -0.0048117312001900309 0.002495564617862104 0 -0.0070994855803813445 0.0024224154947709892 0 -0.0072270392036092555 0.0025123129859386055 0 -0.0072599102326455648 0.0024026977822141681 0 -0.007197887702383156 0.0026189195614479081 0 -0.0072270392036092555 0.0025123129859386055 0 -0.0072625600094768901 0.0025803080271616977 0 -0.0072270392036092555 0.0025123129859386055 0 -0.0072625600094768901 0.0025803080271616977 0 -0.0073321206981793331 0.002523189222812599 0 -0.0072913776337734226 0.0025978561731395088 0 -0.0072625600094768901 0.0025803080271616977 0 -0.0073321206981793331 0.002523189222812599 0 -0.0073744071531966614 0.0024900496701360923 0 -0.0073419676827730478 0.0024578755190984001 0 -0.0072270392036092555 0.0025123129859386055 0 -0.0073321206981793331 0.002523189222812599 0 -0.0073448049788825288 0.0024343780901162678 0 -0.0073725159164045439 0.0025561412638669123 0 -0.0074854517388715826 0.0024499758886740472 0 -0.0073448049788825288 0.0024343780901162678 0 -0.0073725159164045439 0.0025561412638669123 0 -0.0074472687782435121 0.002577057137889447 0 -0.0074854517388715826 0.0024499758886740472 0 -0.0073165760207153391 0.0026023614005875845 0 -0.0072913776337734226 0.0025978561731395088 0 -0.0073321206981793331 0.002523189222812599 0 -0.0073900408052221481 0.0026535006653558612 0 -0.0073725159164045439 0.0025561412638669123 0 -0.0074472687782435121 0.002577057137889447 0 -0.0064920039867966579 0.0031025255093118658 0 -0.0073744071531966614 0.0024900496701360923 0 -0.0074620829609235361 0.002647355144956556 0 -0.0073900408052221481 0.0026535006653558612 0 -0.0074472687782435121 0.002577057137889447 0 -0.0074620829609235361 0.002647355144956556 0 -0.0074472687782435121 0.002577057137889447 0 -0.0074880051691998944 0.0025864780521659102 0 -0.0074620829609235361 0.002647355144956556 0 -0.0074880051691998944 0.0025864780521659102 0 -0.0075376075118555432 0.002592995838608639 0 -0.0074472687782435121 0.002577057137889447 0 -0.0074880051691998944 0.0025864780521659102 0 -0.0075050261475367031 0.0025279026899969279 0 -0.0074472687782435121 0.002577057137889447 0 -0.0075050261475367031 0.0025279026899969279 0 -0.0074854517388715826 0.0024499758886740472 0 -0.0075754882018501399 0.0025833539122105506 0 -0.0074712942091798287 0.00243956206616324 0 -0.0075664219601352068 0.0025209278303273538 0 -0.0074854517388715826 0.0024499758886740472 0 -0.0075846807083376697 0.0024520002445166697 0 -0.0074854517388715826 0.0024499758886740472 0 -0.0075669163314974587 0.0023733362389234429 0 -0.0074667591489354368 0.0023632372169566855 0 -0.0074854517388715826 0.0024499758886740472 0 -0.0075669163314974587 0.0023733362389234429 0 -0.0075846807083376697 0.0024520002445166697 0 -0.0075669163314974587 0.0023733362389234429 0 -0.0074667591489354368 0.0023632372169566855 0 -0.007516848446273418 0.0022655626939514541 0 -0.0075669163314974587 0.0023733362389234429 0 -0.0076609191572554513 0.0022893285428014372 0 -0.007516848446273418 0.0022655626939514541 0 -0.0074667591489354368 0.0023632372169566855 0 -0.0073845229941173502 0.0023220759754999701 0 -0.007516848446273418 0.0022655626939514541 0 -0.0074667591489354368 0.0023632372169566855 0 -0.0073448049788825288 0.0024343780901162678 0 -0.0073845229941173502 0.0023220759754999701 0 -0.0074854517388715826 0.0024499758886740472 0 -0.0074667591489354368 0.0023632372169566855 0 -0.0073448049788825288 0.0024343780901162678 0 -0.0073448049788825288 0.0024343780901162678 0 -0.0073845229941173502 0.0023220759754999701 0 -0.0072599102326455648 0.0024026977822141681 0 -0.0073845229941173502 0.0023220759754999701 0 -0.0072888936451047477 0.0022824283910793967 0 -0.0074119241195920692 0.0021904407818494525 0 -0.0073845229941173502 0.0023220759754999701 0 -0.0072888936451047477 0.0022824283910793967 0 -0.0072599102326455648 0.0024026977822141681 0 -0.0071302191427689357 0.0022477716868666529 0 -0.0072888936451047477 0.0022824283910793967 0 -0.0072599102326455648 0.0024026977822141681 0 -0.0072270392036092555 0.0025123129859386055 0 -0.0073448049788825288 0.0024343780901162678 0 -0.0072599102326455648 0.0024026977822141681 0 -0.0076663815615015665 0.0025376274276089866 0 -0.0077559314260528291 0.0024117867842162401 0 -0.0076485981029197599 0.002550328720530729 0 -0.0076935657882496776 0.0025136713039533016 0 -0.0076866487366446818 0.00241212344264569 0 -0.0076485981029197599 0.002550328720530729 0 -0.0077066131118774641 0.0024829366106834303 0 -0.0078311322022560931 0.0024183238231444515 0 -0.0076485981029197599 0.002550328720530729 0 -0.0076935657882496776 0.0025136713039533016 0 -0.0075942214784767616 0.002589069806299556 0 -0.0076935657882496776 0.0025136713039533016 0 -0.0077534254346597539 0.0024665191192968102 0 -0.0078357981617294872 0.0025479029461786921 0 -0.0076935657882496776 0.0025136713039533016 0 -0.0075942214784767616 0.002589069806299556 0 -0.0078357981617294872 0.0025479029461786921 0 -0.0078306473208855972 0.0025338224795903859 0 -0.0065695988465729396 0.0029647890688246662 0 -0.0069607306371649476 0.0026417105008267943 0 -0.0075942214784767616 0.002589069806299556 0 -0.0065402391010243154 0.0031491307400500911 0 -0.003691063897384082 0.0030348964811495556 0 -0.001181353836226326 0.0026045512997394287 0 -0.0069607306371649476 0.0026417105008267943 0 -0.0075627359685658917 0.0023670774683123737 0 -0.0063953877104062379 0.0022931984566504373 0 -0.0069607306371649476 0.0026417105008267943 0 -0.0075627359685658917 0.0023670774683123737 0 -0.0075942214784767616 0.002589069806299556 0 -0.0075627359685658917 0.0023670774683123737 0 -0.0076366699606399344 0.0025360650162601626 0 -0.0076582323795839563 0.002509828697192241 0 -0.0075627359685658917 0.0023670774683123737 0 -0.0075942214784767616 0.002589069806299556 0 -0.0076366699606399344 0.0025360650162601626 0 -0.0076485981029197599 0.002550328720530729 0 -0.0076366699606399344 0.0025360650162601626 0 -0.0076635334188442259 0.0025347805508084118 0 -0.0076485981029197599 0.002550328720530729 0 -0.0075942214784767616 0.002589069806299556 0 -0.0076366699606399344 0.0025360650162601626 0 -0.003691063897384082 0.0030348964811495556 0 -0.0029397478093269921 0.0034138948041079554 0 -0.0076582323795839563 0.002509828697192241 0 -0.0076783605939615626 0.0025096002103977828 0 -0.0076674286821595151 0.0025316707472524584 0 -0.0075627359685658917 0.0023670774683123737 0 -0.0076582323795839563 0.002509828697192241 0 -0.0076783605939615626 0.0025096002103977828 0 -0.0076582323795839563 0.002509828697192241 0 -0.0076635334188442259 0.0025347805508084118 0 -0.0076674286821595151 0.0025316707472524584 0 -0.0076366699606399344 0.0025360650162601626 0 -0.0076582323795839563 0.002509828697192241 0 -0.0076635334188442259 0.0025347805508084118 0 -0.0076783605939615626 0.0025096002103977828 0 -0.0076745314215628134 0.0025218031710437061 0 -0.0076674286821595151 0.0025316707472524584 0 -0.0043259715518842654 0.0032617132709083139 0 -0.0044952242058424697 0.0032502624102377672 0 -0.0044417292679482323 0.0031801668743771097 0 -0.0037440069824211152 0.0033524790912902603 0 -0.0067634336722734939 0.0026883723311534368 0 -0.0029397478093269921 0.0034138948041079554 0 -0.0067634336722734939 0.0026883723311534368 0 -0.0067634336722734939 0.0026883723311534368 0 -0.0078014472358827244 0.0023671872459975875 0 -0.0074880051691998944 0.0025864780521659102 0 -0.0075050261475367031 0.0025279026899969279 0 -0.0075376075118555432 0.002592995838608639 0 -0.0076173546247919428 0.0025724026309667408 0 -0.0076322201080753624 0.0024956540406957557 0 -0.0076674286821595151 0.0025316707472524584 0 -0.0075664219601352068 0.0025209278303273538 0 -0.0076173546247919428 0.0025724026309667408 0 -0.0076322201080753624 0.0024956540406957557 0 -0.0075754882018501399 0.0025833539122105506 0 -0.0067634336722734939 0.0026883723311534368 0 -0.0075664219601352068 0.0025209278303273538 0 -0.0076322201080753624 0.0024956540406957557 0 -0.0075846807083376697 0.0024520002445166697 0 -0.0076635334188442259 0.0025347805508084118 0 -0.0076674286821595151 0.0025316707472524584 0 -0.0077066131118774641 0.0024829366106834303 0 -0.0076322201080753624 0.0024956540406957557 0 -0.0076674286821595151 0.0025316707472524584 0 -0.0077066131118774641 0.0024829366106834303 0 -0.0076485981029197599 0.002550328720530729 0 -0.0076635334188442259 0.0025347805508084118 0 -0.0077066131118774641 0.0024829366106834303 0 -0.0076322201080753624 0.0024956540406957557 0 -0.0077066131118774641 0.0024829366106834303 0 -0.0076542406364111639 0.0024133741873080877 0 -0.0077066131118774641 0.0024829366106834303 0 -0.0076542406364111639 0.0024133741873080877 0 -0.0077307655083733032 0.0023728396099661911 0 -0.0076322201080753624 0.0024956540406957557 0 -0.0075846807083376697 0.0024520002445166697 0 -0.0076542406364111639 0.0024133741873080877 0 -0.0075669163314974587 0.0023733362389234429 0 -0.0075846807083376697 0.0024520002445166697 0 -0.0076542406364111639 0.0024133741873080877 0 -0.0075669163314974587 0.0023733362389234429 0 -0.0076542406364111639 0.0024133741873080877 0 -0.0076609191572554513 0.0022893285428014372 0 -0.0076542406364111639 0.0024133741873080877 0 -0.0076609191572554513 0.0022893285428014372 0 -0.0077307655083733032 0.0023728396099661911 0 -0.0076609191572554513 0.0022893285428014372 0 -0.0077307655083733032 0.0023728396099661911 0 -0.0078065699029600038 0.0022476054141930633 0 -0.0077559314260528291 0.0024117867842162401 0 -0.0078667393816041122 0.0022328943671845233 0 -0.0078311322022560931 0.0024183238231444515 0 -0.0078065699029600038 0.0022476054141930633 0 -0.0079324616431725951 0.0022327436217013095 0 -0.0077307655083733032 0.0023728396099661911 0 -0.0078311322022560931 0.0024183238231444515 0 -0.0078065699029600038 0.0022476054141930633 0 -0.0077066131118774641 0.0024829366106834303 0 -0.0077307655083733032 0.0023728396099661911 0 -0.0078311322022560931 0.0024183238231444515 0 -0.0076866487366446818 0.00241212344264569 0 -0.0077534254346597539 0.0024665191192968102 0 -0.0078490564035098055 0.0023617858326616514 0 -0.0077534254346597539 0.0024665191192968102 0 -0.0078490564035098055 0.0023617858326616514 0 -0.0078357981617294872 0.0025479029461786921 0 -0.0076935657882496776 0.0025136713039533016 0 -0.0076866487366446818 0.00241212344264569 0 -0.0077534254346597539 0.0024665191192968102 0 -0.0076866487366446818 0.00241212344264569 0 -0.0078490564035098055 0.0023617858326616514 0 -0.0077943961607708197 0.0022275249678956688 0 -0.0082818008744402153 0.0027731078693912811 0 -0.0083272170563289134 0.0028031236164213678 0 -0.0082855096097627732 0.0027024752489840627 0 -0.0082818008744402153 0.0027731078693912811 0 -0.0083272170563289134 0.0028031236164213678 0 -0.0082865362988490468 0.0027315361597451742 0 -0.0083272170563289134 0.0028031236164213678 0 -0.0082865362988490468 0.0027315361597451742 0 -0.0081750436024943373 0.0027765764789341651 0 -0.0082865362988490468 0.0027315361597451742 0 -0.0081750436024943373 0.0027765764789341651 0 -0.0081873105617764289 0.0026784322079283374 0 -0.0082818008744402153 0.0027731078693912811 0 -0.0082865362988490468 0.0027315361597451742 0 -0.0083068906700019748 0.0026871224152905282 0 -0.0082626249348833614 0.0025017404417984135 0 -0.0065695988465729396 0.0029647890688246662 0 -0.0085901557953550322 0.0027819576504538369 0 -0.0068619374662097924 0.0032665281956533593 0 -0.0035857272918154224 0.0030115215844812994 0 -0.0068619374662097924 0.0032665281956533593 0 -0.0080591714617895289 0.0029300132415704993 0 -0.007846216809686498 0.0027511783736295569 0 -0.0077461393565347141 0.0029932095509687612 0 -0.0083272170563289134 0.0028031236164213678 0 -0.0085848521642368104 0.0027577928820354111 0 -0.0085449625081577413 0.0026838694230264183 0 -0.0082182222426889114 0.0028335615363195435 0 -0.0085901557953550322 0.0027819576504538369 0 -0.0083272170563289134 0.0028031236164213678 0 -0.0081750436024943373 0.0027765764789341651 0 -0.0080591714617895289 0.0029300132415704993 0 -0.0081750436024943373 0.0027765764789341651 0 -0.0080591714617895289 0.0029300132415704993 0 -0.007846216809686498 0.0027511783736295569 0 -0.0081750436024943373 0.0027765764789341651 0 -0.0081873105617764289 0.0026784322079283374 0 -0.007846216809686498 0.0027511783736295569 0 -0.0053353128095820742 0.0028739758292223756 0 -0.0035857272918154224 0.0030115215844812994 0 -0.002340343919516273 0.0031360330276941632 0 -0.0019055372449379132 0.0033275453822644262 0 -0.0020396048630685112 0.0028575324951702441 0 1.7008862665366242e-05 0.0034395253193981942 0 -6.5992236706282763e-05 0.003163462290105223 0 9.4697357847270619e-05 0.0032822325217824687 0 -0.0035857272918154224 0.0030115215844812994 0 0.00016023797112349057 0.0032977483565158543 0 -6.5992236706282763e-05 0.003163462290105223 0 0.0001371129285119266 0.0031315255331947974 0 9.4697357847270619e-05 0.0032822325217824687 0 0.00016023797112349057 0.0032977483565158543 0 0.0022852563656223456 0.0033528239314946601 0 -0.002340343919516273 0.0031360330276941632 0 -0.0020396048630685112 0.0028575324951702441 0 -0.0026027710120299788 0.0029138854929857748 0 0.00016023797112349057 0.0032977483565158543 0 -0.0033811500633010639 0.0028351843332832722 0 -0.0014847070856186461 0.0027878686065084309 0 -0.0016742969718143987 0.0022489400159933079 0 -0.0023243796992846902 0.0022291269758374769 0 0.0021133715391600453 0.0028372230329544801 0 0.0001661141128502087 0.0026471749865599136 0 0.00016023797112349057 0.0032977483565158543 0 0.0021133715391600453 0.0028372230329544801 0 0.0021133715391600453 0.0028372230329544801 0 0.0045270016437625616 0.0033230326966294508 0 0.0037586536259278255 0.003697017670746722 0 0.0040895090147984271 0.0033226439223531792 0 0.0042685668670703544 0.0035838654617643267 0 0.0037586536259278255 0.003697017670746722 0 0.0036018903347861332 0.0032850206467931252 0 0.0040895090147984271 0.0033226439223531792 0 -0.0029461549197113443 0.0028713152784689685 0 -0.0026027710120299788 0.0029138854929857748 0 -0.0027386449697746505 0.0025878068799995327 0 -0.0082865362988490468 0.0027315361597451742 0 -0.0081873105617764289 0.0026784322079283374 0 -0.0083068906700019748 0.0026871224152905282 0 -0.002340343919516273 0.0031360330276941632 0 -0.0029461549197113443 0.0028713152784689685 0 -0.0026027710120299788 0.0029138854929857748 0 -0.0053353128095820742 0.0028739758292223756 0 -0.0065695988465729396 0.0029647890688246662 0 -0.0014847070856186461 0.0027878686065084309 0 -0.0026027710120299788 0.0029138854929857748 0 -0.0023243796992846902 0.0022291269758374769 0 -0.0023243796992846902 0.0022291269758374769 0 -0.0028946133267380085 0.0022404055604499026 0 -0.0027386449697746505 0.0025878068799995327 0 0.0001661141128502087 0.0026471749865599136 0 -0.001181353836226326 0.0026045512997394287 0 -0.0026027710120299788 0.0029138854929857748 0 -0.0023243796992846902 0.0022291269758374769 0 -0.0027386449697746505 0.0025878068799995327 0 -0.0069607306371649476 0.0026417105008267943 0 -0.0065402391010243154 0.0031491307400500911 0 -0.0063953877104062379 0.0022931984566504373 0 -0.0029461549197113443 0.0028713152784689685 0 -0.0028946133267380085 0.0022404055604499026 0 -0.0027386449697746505 0.0025878068799995327 0 -0.0065695988465729396 0.0029647890688246662 0 -0.001181353836226326 0.0026045512997394287 0 0.0019681056689994057 0.002985266026891936 0 0.0024085346685273671 0.003696410994701508 0 0.0024931053829304411 0.0029452650989284265 0 -0.001181353836226326 0.0026045512997394287 0 0.0023597704348928971 0.002841820418900836 0 0.0024055255948000702 0.0030520822608911934 0 0.0024833861846479655 0.0027099327102024884 0 0.0027755615041438662 0.0027893480909160955 0 0.0019681056689994057 0.002985266026891936 0 0.0024931053829304411 0.0029452650989284265 0 0.0021365094458254252 0.0025016927607295551 0 0.0024833861846479655 0.0027099327102024884 0 0.0025583720574731323 0.0023679344977977769 0 0.0027374219816081197 0.0024953255845156894 0 0.0024931053829304411 0.0029452650989284265 0 0.0025583720574731323 0.0023679344977977769 0 0.0021365094458254252 0.0025016927607295551 0 0.0023597704348928971 0.002841820418900836 0 0.0025419242686735943 0.0024221009293673387 0 0.0021243521242179943 0.0021155111427678492 0 0.0025583720574731323 0.0023679344977977769 0 0.0021365094458254252 0.0025016927607295551 0 0.0027374219816081197 0.0024953255845156894 0 0.0030091522537199463 0.0025681583155728921 0 0.0028833138314415608 0.0019794652385672785 0 0.0027374219816081197 0.0024953255845156894 0 0.0027755615041438662 0.0027893480909160955 0 0.0030091522537199463 0.0025681583155728921 0 0.0031592609287488388 0.0030764240137124586 0 0.0027934257328962346 0.0030644063409101009 0 0.0027755615041438662 0.0027893480909160955 0 0.0027934257328962346 0.0030644063409101009 0 0.0024055255948000702 0.0030520822608911934 0 0.0027755615041438662 0.0027893480909160955 0 0.0024833861846479655 0.0027099327102024884 0 0.0027374219816081197 0.0024953255845156894 0 0.0027755615041438662 0.0027893480909160955 0 0.0037402551364571881 0.0033259365153237761 0 0.0039635004339325904 0.0029845832401758669 0 0.0034950968258748703 0.0027766957073544671 0 0.0021133715391600453 0.0028372230329544801 0 0.0034228228267739178 0.0027878204412423984 0 0.0031592609287488388 0.0030764240137124586 0 0.0027755615041438662 0.0027893480909160955 0 0.0030091522537199463 0.0025681583155728921 0 0.0037402551364571881 0.0033259365153237761 0 0.0040895090147984271 0.0033226439223531792 0 0.0039635004339325904 0.0029845832401758669 0 0.0040895090147984271 0.0033226439223531792 0 0.0039635004339325904 0.0029845832401758669 0 0.0043515037191915159 0.003050443181597075 0 0.0039635004339325904 0.0029845832401758669 0 0.0040928057946650531 0.0025519554795046216 0 0.0043515037191915159 0.003050443181597075 0 0.0040411587199010715 0.0025086321959120767 0 0.0047563314137109829 0.0031667375470640193 0 0.0040928057946650531 0.0025519554795046216 0 0.0034950968258748703 0.0027766957073544671 0 0.0037283680368218109 0.0021960907724088291 0 0.0039635004339325904 0.0029845832401758669 0 0.0040928057946650531 0.0025519554795046216 0 0.0034950968258748703 0.0027766957073544671 0 0.0034950968258748703 0.0027766957073544671 0 0.0037283680368218109 0.0021960907724088291 0 0.0031548476490331889 0.0020661767848881947 0 0.0037283680368218109 0.0021960907724088291 0 0.003460204121483128 0.0017512129297423623 0 0.0031548476490331889 0.0020661767848881947 0 0.0040928057946650531 0.0025519554795046216 0 0.0042715101799561733 0.0021072238599140636 0 0.0046173883021237375 0.0023286843087955383 0 0.0040928057946650531 0.0025519554795046216 0 0.0037283680368218109 0.0021960907724088291 0 0.0042715101799561733 0.0021072238599140636 0 0.0037283680368218109 0.0021960907724088291 0 0.0042715101799561733 0.0021072238599140636 0 0.0038574031310168867 0.0017604833595756004 0 0.0047390317326296075 0.0013913660075093881 0 0.0040814997634227267 0.0019723258440496115 0 0.0041048618407843124 0.001211889916939885 0 0.0042715101799561733 0.0021072238599140636 0 0.0043427913895654627 0.0016736013568180174 0 0.0040317569710297879 0.0012289133864243661 0 0.0042715101799561733 0.0021072238599140636 0 0.0038574031310168867 0.0017604833595756004 0 0.0048080448099471866 0.0014022198369781783 0 0.0044822233556657265 0.0015411415486134027 0 0.0041048618407843124 0.001211889916939885 0 0.0043093904172809274 0.0013003852656594175 0 0.0043427913895654627 0.0016736013568180174 0 0.0040317569710297879 0.0012289133864243661 0 0.0038574031310168867 0.0017604833595756004 0 0.0037142334322422857 0.0014953693364418573 0 0.0037283680368218109 0.0021960907724088291 0 0.003460204121483128 0.0017512129297423623 0 0.0038574031310168867 0.0017604833595756004 0 0.003460204121483128 0.0017512129297423623 0 0.0038574031310168867 0.0017604833595756004 0 0.0037142334322422857 0.0014953693364418573 0 0.0034267554478116017 0.001335888660104345 0 0.003460204121483128 0.0017512129297423623 0 0.0037142334322422857 0.0014953693364418573 0 0.0027904499715182278 0.0013471445967704573 0 0.0029875102978716185 0.0019690186421883701 0 0.0027732858768185599 0.0012972202851287604 0 0.003460204121483128 0.0017512129297423623 0 0.0031548476490331889 0.0020661767848881947 0 0.0027732858768185599 0.0012972202851287604 0 0.0025403053786079801 0.0016108609302610455 0 0.0028833138314415608 0.0019794652385672785 0 0.0027732858768185599 0.0012972202851287604 0 0.0034267554478116017 0.001335888660104345 0 0.003460204121483128 0.0017512129297423623 0 0.0022941197601723195 0.0011731960205244717 0 0.0025403053786079801 0.0016108609302610455 0 0.0022277956059745074 0.0016445190969249482 0 0.0025403053786079801 0.0016108609302610455 0 0.0022277956059745074 0.0016445190969249482 0 0.0024782944490482637 0.0019369881646571982 0 0.0025403053786079801 0.0016108609302610455 0 0.0024782944490482637 0.0019369881646571982 0 0.0028833138314415608 0.0019794652385672785 0 0.0021243521242179943 0.0021155111427678492 0 0.0022277956059745074 0.0016445190969249482 0 0.0024782944490482637 0.0019369881646571982 0 0.0021243521242179943 0.0021155111427678492 0 0.0025583720574731323 0.0023679344977977769 0 0.0024782944490482637 0.0019369881646571982 0 0.0025583720574731323 0.0023679344977977769 0 0.0027374219816081197 0.0024953255845156894 0 0.0028833138314415608 0.0019794652385672785 0 0.0034228228267739178 0.0027878204412423984 0 0.0029875102978716185 0.0019690186421883701 0 0.0025583720574731323 0.0023679344977977769 0 0.0024782944490482637 0.0019369881646571982 0 0.0028833138314415608 0.0019794652385672785 0 0.005941821147457821 0.0023398612633812993 0 0.0062346385948910017 0.0020567181489963122 0 0.0056257068384580272 0.0019247376494581348 0 0.0055512087911383885 0.0022654702534093871 0 0.005941821147457821 0.0023398612633812993 0 0.0056257068384580272 0.0019247376494581348 0 0.0063168734305265838 0.0023036275832938897 0 0.0062346385948910017 0.0020567181489963122 0 0.0065456598304211907 0.0020586739086178238 0 0.005941821147457821 0.0023398612633812993 0 0.0063168734305265838 0.0023036275832938897 0 0.0062346385948910017 0.0020567181489963122 0 0.0062346385948910017 0.0020567181489963122 0 0.0064460804386055909 0.001945406095278557 0 0.0063844285014121923 0.0019248963133981537 0 0.0062346385948910017 0.0020567181489963122 0 0.0064460804386055909 0.001945406095278557 0 0.0065456598304211907 0.0020586739086178238 0 0.0062372267594165681 0.0020223248601424649 0 0.0061024609953483624 0.0017981504135804335 0 0.0062346385948910017 0.0020567181489963122 0 0.0057852267476172026 0.0015903541629920964 0 0.0056257068384580272 0.0019247376494581348 0 0.0057852267476172026 0.0015903541629920964 0 0.0056257068384580272 0.0019247376494581348 0 0.0054578894615688583 0.0015840915385521789 0 0.0056257068384580272 0.0019247376494581348 0 0.0054578894615688583 0.0015840915385521789 0 0.0053138381807382052 0.0017396371057491751 0 0.0053151108139590005 0.0015596092688758881 0 0.0054578894615688583 0.0015840915385521789 0 0.0053138381807382052 0.0017396371057491751 0 0.0053151108139590005 0.0015596092688758881 0 0.0053138381807382052 0.0017396371057491751 0 0.0052115831078055315 0.0015878070907659745 0 0.0052842265073454802 0.00169983749327631 0 0.0050039849832842435 0.0015467353807630043 0 0.0056257068384580272 0.0019247376494581348 0 0.0053138381807382052 0.0017396371057491751 0 0.0052041348621008334 0.0020987041230230144 0 0.004299914652124562 0.0012820567941822839 0 0.0043427913895654627 0.0016736013568180174 0 0.004799877237362386 0.0014925317069297039 0 0.0048080448099471866 0.0014022198369781783 0 0.0050039849832842435 0.0015467353807630043 0 0.0053138381807382052 0.0017396371057491751 0 0.004799877237362386 0.0014925317069297039 0 0.0048061701198140868 0.0020053261530190145 0 0.0043427913895654627 0.0016736013568180174 0 0.004799877237362386 0.0014925317069297039 0 0.0048061701198140868 0.0020053261530190145 0 0.0042715101799561733 0.0021072238599140636 0 0.0048061701198140868 0.0020053261530190145 0 0.0046173883021237375 0.0023286843087955383 0 0.0042715101799561733 0.0021072238599140636 0 0.0043427913895654627 0.0016736013568180174 0 0.0048061701198140868 0.0020053261530190145 0 0.0048061701198140868 0.0020053261530190145 0 0.0046173883021237375 0.0023286843087955383 0 0.0049772553319942471 0.0024237409003211091 0 0.0048061701198140868 0.0020053261530190145 0 0.0052041348621008334 0.0020987041230230144 0 0.0049772553319942471 0.0024237409003211091 0 0.0052041348621008334 0.0020987041230230144 0 0.0053340374784454636 0.0025838614370032546 0 0.0049772553319942471 0.0024237409003211091 0 0.0055512087911383885 0.0022654702534093871 0 0.0052041348621008334 0.0020987041230230144 0 0.0053340374784454636 0.0025838614370032546 0 0.0055512087911383885 0.0022654702534093871 0 0.0056257068384580272 0.0019247376494581348 0 0.0052041348621008334 0.0020987041230230144 0 0.0053138381807382052 0.0017396371057491751 0 0.0048061701198140868 0.0020053261530190145 0 0.0052041348621008334 0.0020987041230230144 0 0.0053340374784454636 0.0025838614370032546 0 0.0050453311603182215 0.0027790595015867617 0 0.0052973787492525811 0.0029997335980248806 0 0.0053340374784454636 0.0025838614370032546 0 0.0052973787492525811 0.0029997335980248806 0 0.0056880780027349703 0.002704670713437685 0 0.0053340374784454636 0.0025838614370032546 0 0.0050453311603182215 0.0027790595015867617 0 0.0049772553319942471 0.0024237409003211091 0 0.0050453311603182215 0.0027790595015867617 0 0.0047140402190050112 0.0026441537925577132 0 0.0047634264686052617 0.0030897672222657585 0 0.0040928057946650531 0.0025519554795046216 0 0.0046173883021237375 0.0023286843087955383 0 0.0047140402190050112 0.0026441537925577132 0 0.0040928057946650531 0.0025519554795046216 0 0.0047140402190050112 0.0026441537925577132 0 0.0047634264686052617 0.0030897672222657585 0 0.0050453311603182215 0.0027790595015867617 0 0.0047140402190050112 0.0026441537925577132 0 0.0049772553319942471 0.0024237409003211091 0 0.0046173883021237375 0.0023286843087955383 0 0.0047140402190050112 0.0026441537925577132 0 0.0049772553319942471 0.0024237409003211091 0 0.0050453311603182215 0.0027790595015867617 0 0.0047634264686052617 0.0030897672222657585 0 0.0052973787492525811 0.0029997335980248806 0 0.0047634264686052617 0.0030897672222657585 0 0.0052973787492525811 0.0029997335980248806 0 0.0052370820939779111 0.003513028046869095 0 0.0052973787492525811 0.0029997335980248806 0 0.0056174395781131174 0.00311331802178668 0 0.0056880780027349703 0.002704670713437685 0 0.0056174395781131174 0.00311331802178668 0 0.0059015450582204764 0.0030154408838025093 0 0.0056755366391967261 0.0033762888824324529 0 0.0056174395781131174 0.00311331802178668 0 0.0056880780027349703 0.002704670713437685 0 0.0059015450582204764 0.0030154408838025093 0 0.0055512087911383885 0.0022654702534093871 0 0.005941821147457821 0.0023398612633812993 0 0.0056880780027349703 0.002704670713437685 0 0.0055512087911383885 0.0022654702534093871 0 0.0053340374784454636 0.0025838614370032546 0 0.0056880780027349703 0.002704670713437685 0 0.005941821147457821 0.0023398612633812993 0 0.0056880780027349703 0.002704670713437685 0 0.0060980834973222414 0.0026554757479292611 0 0.0056880780027349703 0.002704670713437685 0 0.0060980834973222414 0.0026554757479292611 0 0.0059015450582204764 0.0030154408838025093 0 0.0063168734305265838 0.0023036275832938897 0 0.0060980834973222414 0.0026554757479292611 0 0.0063835909409040046 0.0026369094166291472 0 0.005941821147457821 0.0023398612633812993 0 0.0063168734305265838 0.0023036275832938897 0 0.0060980834973222414 0.0026554757479292611 0 0.0059015450582204764 0.0030154408838025093 0 0.0060366780057828475 0.0032674915287662478 0 0.006257344402168262 0.0029217348592954131 0 0.0060980834973222414 0.0026554757479292611 0 0.0059015450582204764 0.0030154408838025093 0 0.006257344402168262 0.0029217348592954131 0 0.0060366780057828475 0.0032674915287662478 0 0.0056755366391967261 0.0033762888824324529 0 0.0057938747864851861 0.0035594688560649534 0 0.0059015450582204764 0.0030154408838025093 0 0.0060366780057828475 0.0032674915287662478 0 0.0056755366391967261 0.0033762888824324529 0 0.0060366780057828475 0.0032674915287662478 0 0.0057938747864851861 0.0035594688560649534 0 0.0060555419743613809 0.0034805832673849508 0 0.0056755366391967261 0.0033762888824324529 0 0.0057938747864851861 0.0035594688560649534 0 0.0053648149349141833 0.0034196587977684502 0 0.0056174395781131174 0.00311331802178668 0 0.0056755366391967261 0.0033762888824324529 0 0.0052370820939779111 0.003513028046869095 0 0.0057938747864851861 0.0035594688560649534 0 0.0059393499727797908 0.0036743882750386761 0 0.0057232615082608591 0.0037909369746225597 0 0.0057938747864851861 0.0035594688560649534 0 0.0053648149349141833 0.0034196587977684502 0 0.0057232615082608591 0.0037909369746225597 0 0.0059393499727797908 0.0036743882750386761 0 0.0060555419743613809 0.0034805832673849508 0 0.0062202828266960993 0.0035521787957709492 0 0.0057938747864851861 0.0035594688560649534 0 0.0059393499727797908 0.0036743882750386761 0 0.0060555419743613809 0.0034805832673849508 0 0.0022852563656223456 0.0033528239314946601 0 0.0036839396366217304 0.0032841228871940209 0 0.0040895090147984271 0.0033226439223531792 0 0.0043515037191915159 0.003050443181597075 0 0.0042685668670703544 0.0035838654617643267 0 0.0047563314137109829 0.0031667375470640193 0 0.0036839396366217304 0.0032841228871940209 0 0.0043515037191915159 0.003050443181597075 0 0.0042685668670703544 0.0035838654617643267 0 0.0046856531590812028 0.0035055568424848249 0 0.0061297017887334921 0.0033012548906923055 0 0.0036839396366217304 0.0032841228871940209 0 0.0052973787492525811 0.0029997335980248806 0 0.0056174395781131174 0.00311331802178668 0 0.0052370820939779111 0.003513028046869095 0 0.00034014869095543981 0.0031073511760725077 0 0.00024723197193683965 0.0032800255180202467 0 0.00047773873149690126 0.0033167989121091791 0 0.0036839396366217304 0.0032841228871940209 0 0.0029187682640369841 0.0034785370021695908 0 0.0001371129285119266 0.0031315255331947974 0 0.00034014869095543981 0.0031073511760725077 0 0.00024723197193683965 0.0032800255180202467 0 0.0001371129285119266 0.0031315255331947974 0 0.00024723197193683965 0.0032800255180202467 0 9.4697357847270619e-05 0.0032822325217824687 0 1.7008862665366242e-05 0.0034395253193981942 0 9.4697357847270619e-05 0.0032822325217824687 0 0.00016553229714268473 0.0033865057064713816 0 1.7008862665366242e-05 0.0034395253193981942 0 0.00016553229714268473 0.0033865057064713816 0 0.00016952279666268002 0.0035081820132648578 0 0.00024723197193683965 0.0032800255180202467 0 9.4697357847270619e-05 0.0032822325217824687 0 0.00016553229714268473 0.0033865057064713816 0 0.00024723197193683965 0.0032800255180202467 0 0.00016553229714268473 0.0033865057064713816 0 0.00029401971500374384 0.0034221140406980573 0 0.00016553229714268473 0.0033865057064713816 0 0.00029401971500374384 0.0034221140406980573 0 0.00016952279666268002 0.0035081820132648578 0 0.00024723197193683965 0.0032800255180202467 0 0.00029401971500374384 0.0034221140406980573 0 0.00047773873149690126 0.0033167989121091791 0 0.00029401971500374384 0.0034221140406980573 0 0.00031580173543648823 0.0035732355868573719 0 0.00040777770303639896 0.003456396788961035 0 -0.0011000725992535475 0.0035891233432475953 0 -0.0050269489566071657 0.0036808948204342809 0 -0.0011000725992535475 0.0035891233432475953 0 -0.0013476272974403097 0.0033860648058557639 0 0.00029401971500374384 0.0034221140406980573 0 0.00031580173543648823 0.0035732355868573719 0 0.00016952279666268002 0.0035081820132648578 0 -0.0043735378850771429 0.002530643875411027 0 -0.0032535011646753565 0.0030420438839570789 0 -0.0039171522265300067 0.0038101075007818778 0 -0.0021130765602364403 0.0035602067388105147 0 -0.0032535011646753565 0.0030420438839570789 0 -0.0032650714088764475 0.0039218406603408855 0 -0.0032535011646753565 0.0030420438839570789 0 -0.0032650714088764475 0.0039218406603408855 0 -0.0039171522265300067 0.0038101075007818778 0 -0.0035857272918154224 0.0030115215844812994 0 -0.0013476272974403097 0.0033860648058557639 0 0.00047773873149690126 0.0033167989121091791 0 0.00064365080565738136 0.0035326300471700128 0 0.00053962910154664763 0.0035087341535560168 0 0.0059393499727797908 0.0036743882750386761 0 0.0058396667418200215 0.0038351100094623876 0 0.0057232615082608591 0.0037909369746225597 0 0.0029187682640369841 0.0034785370021695908 0 0.0035340940619838397 0.0036509651463180102 0 0.0058396667418200215 0.0038351100094623876 0 0.0057232615082608591 0.0037909369746225597 0 0.0058415685612403165 0.0036950597791922429 0 0.0059393499727797908 0.0036743882750386761 0 0.0058396667418200215 0.0038351100094623876 0 0.006150844114583838 0.0037395221185920957 0 0.00047773873149690126 0.0033167989121091791 0 0.00040777770303639896 0.003456396788961035 0 0.00053962910154664763 0.0035087341535560168 0 0.00029401971500374384 0.0034221140406980573 0 0.00047773873149690126 0.0033167989121091791 0 0.00040777770303639896 0.003456396788961035 0 0.00031580173543648823 0.0035732355868573719 0 0.00040777770303639896 0.003456396788961035 0 0.00053962910154664763 0.0035087341535560168 0 -0.0011000725992535475 0.0035891233432475953 0 0.0010295560658601371 0.0034370228613999475 0 8.2882455625150005e-05 0.0036305765441650159 0 0.00053962910154664763 0.0035087341535560168 0 0.00051364502786807186 0.0038092313744687795 0 0.00064365080565738136 0.0035326300471700128 0 0.00053962910154664763 0.0035087341535560168 0 0.00051364502786807186 0.0038092313744687795 0 -0.0027830639579101125 0.003627321705186226 0 -0.0029097427289182776 0.0035856053932385311 0 -0.0028720319910078705 0.0035680396138293661 0 -0.003161656955462755 0.0038376694130909899 0 -0.0056645975294644787 0.0035060340379294607 0 0.00064365080565738136 0.0035326300471700128 0 0.00051364502786807186 0.0038092313744687795 0 0.00091092359433483038 0.0038672535456681987 0 -0.003161656955462755 0.0038376694130909899 0 0.0010648190897783406 0.0035192114235040452 0 -0.003161656955462755 0.0038376694130909899 0 -0.0055941942565400048 0.0038658617691324114 0 -0.0011000725992535475 0.0035891233432475953 0 -0.003161656955462755 0.0038376694130909899 0 -0.0037288696112108754 0.0035807747087610699 0 -0.003011674103944146 0.0039030172806510358 0 -0.0035907470558872849 0.0038146531528878858 0 -0.0072131763437560774 0.0039363979572636367 0 -0.0069599719471466004 0.0037500343674860457 0 -0.00681134742606596 0.0039953460498833695 0 -0.0069599719471466004 0.0037500343674860457 0 -0.0069261036253684552 0.0034614184776700441 0 -0.0072753237602602083 0.0035478200128805861 0 -0.0072131763437560774 0.0039363979572636367 0 -0.0069599719471466004 0.0037500343674860457 0 -0.0072753237602602083 0.0035478200128805861 0 -0.0072131763437560774 0.0039363979572636367 0 -0.0072753237602602083 0.0035478200128805861 0 -0.0075839319729003899 0.0037774918930534086 0 -0.0072753237602602083 0.0035478200128805861 0 -0.0075839319729003899 0.0037774918930534086 0 -0.0076468629283820821 0.0034321903899498427 0 -0.0073948375303064069 0.0032725750325578551 0 -0.0075797548107115129 0.0031259847053036493 0 -0.0076468629283820821 0.0034321903899498427 0 -0.0072753237602602083 0.0035478200128805861 0 -0.0073948375303064069 0.0032725750325578551 0 -0.0076468629283820821 0.0034321903899498427 0 -0.0073948375303064069 0.0032725750325578551 0 -0.0073431814264273872 0.0030422338963057584 0 -0.0075797548107115129 0.0031259847053036493 0 -0.0073948375303064069 0.0032725750325578551 0 -0.0071372845257513659 0.0032375179572985127 0 -0.0073431814264273872 0.0030422338963057584 0 -0.0072753237602602083 0.0035478200128805861 0 -0.0073948375303064069 0.0032725750325578551 0 -0.0071372845257513659 0.0032375179572985127 0 -0.0069261036253684552 0.0034614184776700441 0 -0.0072753237602602083 0.0035478200128805861 0 -0.0071372845257513659 0.0032375179572985127 0 -0.0069261036253684552 0.0034614184776700441 0 -0.0071372845257513659 0.0032375179572985127 0 -0.0068653446446289021 0.0031735011400008703 0 -0.0071372845257513659 0.0032375179572985127 0 -0.0071215403763759061 0.0029424906398318523 0 -0.0068653446446289021 0.0031735011400008703 0 -0.0071215403763759061 0.0029424906398318523 0 -0.0069417008269602124 0.0028162822138090098 0 -0.0068653446446289021 0.0031735011400008703 0 -0.0071372845257513659 0.0032375179572985127 0 -0.0071215403763759061 0.0029424906398318523 0 -0.0073431814264273872 0.0030422338963057584 0 -0.0071215403763759061 0.0029424906398318523 0 -0.0069417008269602124 0.0028162822138090098 0 -0.0071493222736957514 0.0027365664172307393 0 -0.0071215403763759061 0.0029424906398318523 0 -0.0073287604128015691 0.0028088687850710077 0 -0.0071493222736957514 0.0027365664172307393 0 -0.0073287604128015691 0.0028088687850710077 0 -0.0074983332380694533 0.0029032516864169505 0 -0.0073431814264273872 0.0030422338963057584 0 -0.0074983332380694533 0.0029032516864169505 0 -0.007484909380884531 0.0027563281383425151 0 -0.0076537413664941019 0.0028335185884933063 0 -0.0073287604128015691 0.0028088687850710077 0 -0.0074983332380694533 0.0029032516864169505 0 -0.007484909380884531 0.0027563281383425151 0 -0.0074983332380694533 0.0029032516864169505 0 -0.0073431814264273872 0.0030422338963057584 0 -0.0075797548107115129 0.0031259847053036493 0 -0.0071215403763759061 0.0029424906398318523 0 -0.0073287604128015691 0.0028088687850710077 0 -0.0073431814264273872 0.0030422338963057584 0 -0.0092140770931968749 0.002095999533854062 0 -0.0089578436020920481 0.0020790826752198175 0 -0.00914752317013574 0.0019215589340564614 0 -0.0080502709730189224 0.0026328677094257899 0 -0.0081141358712529879 0.0026537307044455262 0 -0.0082252541366640529 0.0023553439509245281 0 -0.0069417008269602124 0.0028162822138090098 0 -0.0066364486672967748 0.003034247610552843 0 -0.0068653446446289021 0.0031735011400008703 0 -0.0069417008269602124 0.0028162822138090098 0 -0.0066364486672967748 0.003034247610552843 0 -0.0068039676580022952 0.0024925927413406187 0 -0.0072562529373100268 0.0028948045183191293 0 -0.0085104950169541532 0.0023101778313439239 0 -0.0066364486672967748 0.003034247610552843 0 -0.0068653446446289021 0.0031735011400008703 0 -0.0064496554562787503 0.0035272408801498602 0 -0.0069261036253684552 0.0034614184776700441 0 -0.0068653446446289021 0.0031735011400008703 0 -0.0064496554562787503 0.0035272408801498602 0 -0.0086904425125397793 0.0023039218011033009 0 -0.0084123677268431035 0.0026739524928939963 0 -0.0080502709730189224 0.0026328677094257899 0 -0.0078946476306139147 0.0028880542059428137 0 -0.0080108929347686899 0.0029269161755052144 0 -0.0080502709730189224 0.0026328677094257899 0 -0.0081141358712529879 0.0026537307044455262 0 -0.0080108929347686899 0.0029269161755052144 0 -0.0072562529373100268 0.0028948045183191293 0 -0.0072377597027890889 0.0032405120809952744 0 -0.0092140770931968749 0.002095999533854062 0 -0.0090338098287370446 0.0023843224447669667 0 -0.0089578436020920481 0.0020790826752198175 0 -0.0078946476306139147 0.0028880542059428137 0 -0.0080108929347686899 0.0029269161755052144 0 -0.0079161237046609396 0.0031786606649239629 0 -0.0069261036253684552 0.0034614184776700441 0 -0.0064496554562787503 0.0035272408801498602 0 -0.0065792739295138774 0.0038035430422331518 0 -0.0069599719471466004 0.0037500343674860457 0 -0.0069261036253684552 0.0034614184776700441 0 -0.0065792739295138774 0.0038035430422331518 0 -0.0037288696112108754 0.0035807747087610699 0 -0.0035907470558872849 0.0038146531528878858 0 -0.0041809046794909713 0.0037284430234271128 0 -0.0055941942565400048 0.0038658617691324114 0 -0.0050269489566071657 0.0036808948204342809 0 -0.00681134742606596 0.0039953460498833695 0 -0.0065792739295138774 0.0038035430422331518 0 -0.0064119552334010793 0.0040569086798159983 0 -0.0069599719471466004 0.0037500343674860457 0 -0.00681134742606596 0.0039953460498833695 0 -0.0065792739295138774 0.0038035430422331518 0 -0.0072377597027890889 0.0032405120809952744 0 -0.0071229197146873624 0.003457870351633965 0 -0.0064496554562787503 0.0035272408801498602 0 -0.0065792739295138774 0.0038035430422331518 0 -0.0062688683257108102 0.004010154410480778 0 -0.0065792739295138774 0.0038035430422331518 0 -0.0064119552334010793 0.0040569086798159983 0 -0.0062688683257108102 0.004010154410480778 0 -0.0050269489566071657 0.0036808948204342809 0 -0.0068619374662097924 0.0032665281956533593 0 -0.0050269489566071657 0.0036808948204342809 0 -0.0071229197146873624 0.003457870351633965 0 -0.005656664166016255 0.0034304383051045931 0 -0.0065994945286145948 0.0037287850408646906 0 -0.0067764144743410306 0.0032435751776846277 0 -0.0071229197146873624 0.003457870351633965 0 -0.0068619374662097924 0.0032665281956533593 0 -0.0071229197146873624 0.003457870351633965 0 -0.0085619117528582048 0.0028481507559755884 0 -0.0085848521642368104 0.0027577928820354111 0 -0.0086367497663240051 0.0027285419498640994 0 -0.0086001044484786092 0.0026972853237195271 0 -0.0078946476306139147 0.0028880542059428137 0 -0.0079161237046609396 0.0031786606649239629 0 -0.0077507015751751797 0.0031214625099419764 0 -0.0086385846542634676 0.0027191047223795576 0 -0.0086367497663240051 0.0027285419498640994 0 -0.0086022381916614245 0.0026937933809688917 0 -0.0085619117528582048 0.0028481507559755884 0 -0.0085712764738918364 0.0028302004299044681 0 -0.0086367497663240051 0.0027285419498640994 0 -0.0086022381916614245 0.0026937933809688917 0 -0.0086001044484786092 0.0026972853237195271 0 -0.0085619117528582048 0.0028481507559755884 0 -0.0085777248057913799 0.0026249382304157666 0 -0.0085848521642368104 0.0027577928820354111 0 -0.0086001044484786092 0.0026972853237195271 0 -0.0085449625081577413 0.0026838694230264183 0 -0.0086055113443422766 0.0026882516537350665 0 -0.0085289689238454511 0.0026074153387578374 0 -0.0085449625081577413 0.0026838694230264183 0 -0.0086055113443422766 0.0026882516537350665 0 -0.0086001044484786092 0.0026972853237195271 0 -0.0085449625081577413 0.0026838694230264183 0 -0.0085289689238454511 0.0026074153387578374 0 -0.0087474747000345719 0.0024745061779197081 0 -0.0085483306699076136 0.0023608411214768852 0 -0.0087474747000345719 0.0024745061779197081 0 -0.0085483306699076136 0.0023608411214768852 0 -0.008803548233109389 0.0023013327927672673 0 -0.0088271548532111062 0.0027080751952453666 0 -0.0085289689238454511 0.0026074153387578374 0 -0.0087474747000345719 0.0024745061779197081 0 -0.0090338098287370446 0.0023843224447669667 0 -0.0088271548532111062 0.0027080751952453666 0 -0.0087474747000345719 0.0024745061779197081 0 -0.0084123677268431035 0.0026739524928939963 0 -0.0085619117528582048 0.0028481507559755884 0 -0.0090338098287370446 0.0023843224447669667 0 -0.0087474747000345719 0.0024745061779197081 0 -0.008803548233109389 0.0023013327927672673 0 -0.0083272170563289134 0.0028031236164213678 0 -0.0082855096097627732 0.0027024752489840627 0 -0.0083455177629254314 0.0025966978441891511 0 -0.0082855096097627732 0.0027024752489840627 0 -0.0083455177629254314 0.0025966978441891511 0 -0.0081751863560258434 0.0025980816144471662 0 -0.0082818008744402153 0.0027731078693912811 0 -0.0082855096097627732 0.0027024752489840627 0 -0.0081751863560258434 0.0025980816144471662 0 -0.0083272170563289134 0.0028031236164213678 0 -0.0085289689238454511 0.0026074153387578374 0 -0.0083455177629254314 0.0025966978441891511 0 -0.0083272170563289134 0.0028031236164213678 0 -0.0085289689238454511 0.0026074153387578374 0 -0.0085449625081577413 0.0026838694230264183 0 -0.0084274000675796761 0.0024761659455438123 0 -0.0083504659333678549 0.002367465278926114 0 -0.0085483306699076136 0.0023608411214768852 0 -0.0085289689238454511 0.0026074153387578374 0 -0.0083455177629254314 0.0025966978441891511 0 -0.0084274000675796761 0.0024761659455438123 0 -0.0085289689238454511 0.0026074153387578374 0 -0.0084274000675796761 0.0024761659455438123 0 -0.0085483306699076136 0.0023608411214768852 0 -0.0083455177629254314 0.0025966978441891511 0 -0.0083050137429232177 0.0024777631129817182 0 -0.0081751863560258434 0.0025980816144471662 0 -0.0083050137429232177 0.0024777631129817182 0 -0.0082262631897783729 0.0023358650669779604 0 -0.0081751863560258434 0.0025980816144471662 0 -0.0083455177629254314 0.0025966978441891511 0 -0.0084274000675796761 0.0024761659455438123 0 -0.0083050137429232177 0.0024777631129817182 0 -0.0084274000675796761 0.0024761659455438123 0 -0.0083050137429232177 0.0024777631129817182 0 -0.0083504659333678549 0.002367465278926114 0 -0.0083050137429232177 0.0024777631129817182 0 -0.0082262631897783729 0.0023358650669779604 0 -0.0083504659333678549 0.002367465278926114 0 -0.0083072231128698895 0.0021860615683368689 0 -0.0082262631897783729 0.0023358650669779604 0 -0.0081161755842080428 0.0022167225369989847 0 -0.0083072231128698895 0.0021860615683368689 0 -0.0082262631897783729 0.0023358650669779604 0 -0.0083504659333678549 0.002367465278926114 0 -0.0083072231128698895 0.0021860615683368689 0 -0.0083504659333678549 0.002367465278926114 0 -0.0084378501002729412 0.0022414644510942955 0 -0.0083504659333678549 0.002367465278926114 0 -0.0084378501002729412 0.0022414644510942955 0 -0.0085483306699076136 0.0023608411214768852 0 -0.0085483306699076136 0.0023608411214768852 0 -0.0085471568776099901 0.0021770415719420352 0 -0.008703643136381712 0.0021640219915352375 0 -0.0084378501002729412 0.0022414644510942955 0 -0.0085483306699076136 0.0023608411214768852 0 -0.0085471568776099901 0.0021770415719420352 0 -0.0085471568776099901 0.0021770415719420352 0 -0.0084565652039262206 0.0020516381951869063 0 -0.0086266135267821561 0.002026692581603894 0 -0.0084565652039262206 0.0020516381951869063 0 -0.0086266135267821561 0.002026692581603894 0 -0.008543674375517266 0.0018902581394811828 0 -0.0084378501002729412 0.0022414644510942955 0 -0.0085471568776099901 0.0021770415719420352 0 -0.0084565652039262206 0.0020516381951869063 0 -0.0083072231128698895 0.0021860615683368689 0 -0.0084565652039262206 0.0020516381951869063 0 -0.008316586474988525 0.0019991497989585148 0 -0.0083072231128698895 0.0021860615683368689 0 -0.0084378501002729412 0.0022414644510942955 0 -0.0084565652039262206 0.0020516381951869063 0 -0.0084565652039262206 0.0020516381951869063 0 -0.008316586474988525 0.0019991497989585148 0 -0.0084073257334578034 0.0018625259069617642 0 -0.008316586474988525 0.0019991497989585148 0 -0.008215372048516514 0.0020631232605059385 0 -0.0082468032985267888 0.0019070831749367163 0 -0.0083072231128698895 0.0021860615683368689 0 -0.008316586474988525 0.0019991497989585148 0 -0.008215372048516514 0.0020631232605059385 0 -0.0090338098287370446 0.0023843224447669667 0 -0.008803548233109389 0.0023013327927672673 0 -0.0089578436020920481 0.0020790826752198175 0 -0.008803548233109389 0.0023013327927672673 0 -0.008703643136381712 0.0021640219915352375 0 -0.0089578436020920481 0.0020790826752198175 0 -0.0085483306699076136 0.0023608411214768852 0 -0.008803548233109389 0.0023013327927672673 0 -0.008703643136381712 0.0021640219915352375 0 -0.008703643136381712 0.0021640219915352375 0 -0.0087895824662380714 0.0020259312666113323 0 -0.0089578436020920481 0.0020790826752198175 0 -0.0085471568776099901 0.0021770415719420352 0 -0.008703643136381712 0.0021640219915352375 0 -0.0086266135267821561 0.002026692581603894 0 -0.008703643136381712 0.0021640219915352375 0 -0.0086266135267821561 0.002026692581603894 0 -0.0087895824662380714 0.0020259312666113323 0 -0.0086266135267821561 0.002026692581603894 0 -0.0087895824662380714 0.0020259312666113323 0 -0.0087056289142528227 0.0018763093879571896 0 -0.0087895824662380714 0.0020259312666113323 0 -0.0089578436020920481 0.0020790826752198175 0 -0.008879608900340159 0.0019181115568585433 0 -0.0089578436020920481 0.0020790826752198175 0 -0.0089976068008647912 0.0018830757634524678 0 -0.00914752317013574 0.0019215589340564614 0 -0.0089976068008647912 0.0018830757634524678 0 -0.0088921770511874564 0.0017763302234864442 0 -0.0089814711365198158 0.0017665273388708903 0 -0.0089578436020920481 0.0020790826752198175 0 -0.0089976068008647912 0.0018830757634524678 0 -0.008879608900340159 0.0019181115568585433 0 -0.0089976068008647912 0.0018830757634524678 0 -0.0088921770511874564 0.0017763302234864442 0 -0.008879608900340159 0.0019181115568585433 0 -0.0087895824662380714 0.0020259312666113323 0 -0.008879608900340159 0.0019181115568585433 0 -0.0087056289142528227 0.0018763093879571896 0 -0.0088921770511874564 0.0017763302234864442 0 -0.008879608900340159 0.0019181115568585433 0 -0.0087056289142528227 0.0018763093879571896 0 -0.0088934082709853941 0.0017728690278844335 0 -0.0087314083438049771 0.0016837801438017018 0 -0.0088921770511874564 0.0017763302234864442 0 -0.00895161489437242 0.0017176411142280524 0 -0.0089814611860302741 0.0017027024826108265 0 -0.0088921770511874564 0.0017763302234864442 0 -0.0087056289142528227 0.0018763093879571896 0 -0.0084710602972649582 0.001644486977740695 0 -0.0088921770511874564 0.0017763302234864442 0 -0.00895161489437242 0.0017176411142280524 0 -0.0089365567417031468 0.0017472077696532239 0 -0.00895161489437242 0.0017176411142280524 0 -0.0089477646464111212 0.0017184615177771557 0 -0.0089365567417031468 0.0017472077696532239 0 -0.0089477646464111212 0.0017184615177771557 0 -0.008971593794289353 0.0017188776890801074 0 -0.0089814711365198158 0.0017665273388708903 0 -0.008971593794289353 0.0017188776890801074 0 -0.0089814711365198158 0.0017665273388708903 0 -0.0091340733782174031 0.0017464897671921615 0 -0.0091801284183536044 0.0019146908236154878 0 -0.00957629298356516 0.0020684355104614327 0 -0.0089477646464111212 0.0017184615177771557 0 -0.0089814711365198158 0.0017665273388708903 0 -0.0089365567417031468 0.0017472077696532239 0 -0.0088921770511874564 0.0017763302234864442 0 -0.0089814711365198158 0.0017665273388708903 0 -0.0089365567417031468 0.0017472077696532239 0 -0.0083113754877963929 0.0018712607288023343 0 -0.0083266259050581697 0.0017610735351228219 0 -0.0082441617170490866 0.0018047634833003999 0 -0.0083113754877963929 0.0018712607288023343 0 -0.0082441617170490866 0.0018047634833003999 0 -0.0082468032985267888 0.0019070831749367163 0 -0.008316586474988525 0.0019991497989585148 0 -0.0083113754877963929 0.0018712607288023343 0 -0.0082468032985267888 0.0019070831749367163 0 -0.008316586474988525 0.0019991497989585148 0 -0.0083113754877963929 0.0018712607288023343 0 -0.0084073257334578034 0.0018625259069617642 0 -0.0083113754877963929 0.0018712607288023343 0 -0.0084073257334578034 0.0018625259069617642 0 -0.0083266259050581697 0.0017610735351228219 0 -0.0084073257334578034 0.0018625259069617642 0 -0.008543674375517266 0.0018902581394811828 0 -0.0084710602972649582 0.001644486977740695 0 -0.0087056289142528227 0.0018763093879571896 0 -0.008543674375517266 0.0018902581394811828 0 -0.0084710602972649582 0.001644486977740695 0 -0.0084565652039262206 0.0020516381951869063 0 -0.0084073257334578034 0.0018625259069617642 0 -0.008543674375517266 0.0018902581394811828 0 -0.0086266135267821561 0.002026692581603894 0 -0.0087056289142528227 0.0018763093879571896 0 -0.008543674375517266 0.0018902581394811828 0 -0.0084710602972649582 0.001644486977740695 0 -0.0083266259050581697 0.0017610735351228219 0 -0.0082708647884844142 0.0016190494716068768 0 -0.0084073257334578034 0.0018625259069617642 0 -0.0084710602972649582 0.001644486977740695 0 -0.0083266259050581697 0.0017610735351228219 0 -0.0087314083438049771 0.0016837801438017018 0 -0.0085576641621386319 0.0016459797921565841 0 -0.0089814611860302741 0.0017027024826108265 0 -0.0089814810289243711 0.0016350555932714056 0 -0.0088552154463965305 0.0016911863599821885 0 -0.0089814611860302741 0.0017027024826108265 0 -0.0089814810289243711 0.0016350555932714056 0 -0.009003095647883352 0.0016772143423710141 0 -0.0089814810289243711 0.0016350555932714056 0 -0.009003095647883352 0.0016772143423710141 0 -0.0090179685237696712 0.0014872666555068579 0 -0.0094465673113588878 0.0018638080425256239 0 -0.0092135907820937793 0.0015506802344986761 0 -0.0089814810289243711 0.0016350555932714056 0 -0.0088645321322115746 0.0014854373764272711 0 -0.0090179685237696712 0.0014872666555068579 0 -0.0089814810289243711 0.0016350555932714056 0 -0.0088552154463965305 0.0016911863599821885 0 -0.0088645321322115746 0.0014854373764272711 0 -0.010284837021319534 0.0021028239741665991 0 -0.01065971742249058 0.0021780095730692208 0 -0.01049942891290398 0.0023334042033224698 0 -0.010313654882661548 0.0024658113995379306 0 -0.010284837021319534 0.0021028239741665991 0 -0.01049942891290398 0.0023334042033224698 0 -0.010313654882661548 0.0024658113995379306 0 -0.010284837021319534 0.0021028239741665991 0 -0.0098760381075555983 0.0020487205976135866 0 -0.0089477646464111212 0.0017184615177771557 0 -0.0089382059046497972 0.0017266890849069821 0 -0.009003095647883352 0.0016772143423710141 0 -0.00895161489437242 0.0017176411142280524 0 -0.0089814611860302741 0.0017027024826108265 0 -0.009003095647883352 0.0016772143423710141 0 -0.00957629298356516 0.0020684355104614327 0 -0.0094465673113588878 0.0018638080425256239 0 -0.00895161489437242 0.0017176411142280524 0 -0.0089477646464111212 0.0017184615177771557 0 -0.009003095647883352 0.0016772143423710141 0 -0.010284837021319534 0.0021028239741665991 0 -0.0098760381075555983 0.0020487205976135866 0 -0.010263453604256864 0.0018556712373895099 0 -0.0098760381075555983 0.0020487205976135866 0 -0.010097824624901275 0.0016702303573969874 0 -0.010263453604256864 0.0018556712373895099 0 -0.0098760381075555983 0.0020487205976135866 0 -0.010097824624901275 0.0016702303573969874 0 -0.0094313706330135753 0.0016417945586384938 0 -0.010097824624901275 0.0016702303573969874 0 -0.010263453604256864 0.0018556712373895099 0 -0.010428259019840886 0.0015603894414857886 0 -0.010284837021319534 0.0021028239741665991 0 -0.010263453604256864 0.0018556712373895099 0 -0.010563151844512344 0.0018537014639061972 0 -0.010263453604256864 0.0018556712373895099 0 -0.010563151844512344 0.0018537014639061972 0 -0.010428259019840886 0.0015603894414857886 0 -0.010563151844512344 0.0018537014639061972 0 -0.01065971742249058 0.0021780095730692208 0 -0.010953731741987792 0.0019431150340165992 0 -0.010563151844512344 0.0018537014639061972 0 -0.010953731741987792 0.0019431150340165992 0 -0.010789878695438257 0.0016082029136315278 0 -0.010563151844512344 0.0018537014639061972 0 -0.010789878695438257 0.0016082029136315278 0 -0.010428259019840886 0.0015603894414857886 0 -0.010284837021319534 0.0021028239741665991 0 -0.010563151844512344 0.0018537014639061972 0 -0.01065971742249058 0.0021780095730692208 0 -0.011081830701887604 0.0022897916543131625 0 -0.010953731741987792 0.0019431150340165992 0 -0.011427618499793893 0.0019790337337448633 0 -0.01065971742249058 0.0021780095730692208 0 -0.011081830701887604 0.0022897916543131625 0 -0.010953731741987792 0.0019431150340165992 0 -0.010953731741987792 0.0019431150340165992 0 -0.011186909942555407 0.0017405806225189112 0 -0.010789878695438257 0.0016082029136315278 0 -0.010953731741987792 0.0019431150340165992 0 -0.011186909942555407 0.0017405806225189112 0 -0.011427618499793893 0.0019790337337448633 0 -0.011186909942555407 0.0017405806225189112 0 -0.011530784155627159 0.0017064965592914862 0 -0.011427618499793893 0.0019790337337448633 0 -0.01259514529369409 0.00087837660737519413 0 -0.011163307434893993 0.0012898800985700226 0 -0.011894852552703896 0.00047764739947596505 0 -0.011601239429654001 0.0012742575286759732 0 -0.012221369554782511 0.0007068202836223998 0 -0.011163307434893993 0.0012898800985700226 0 -0.011983687709995139 0.0004630778475419368 0 -0.011892036243814125 0.00018544458062366313 0 -0.011371024726902086 0.00019142613130088533 0 -0.012055759303213072 -0.00043352828931070801 0 -0.011892036243814125 0.00018544458062366313 0 -0.011371024726902086 0.00019142613130088533 0 -0.01161044529262888 0.00035900261706373277 0 -0.01259514529369409 0.00087837660737519413 0 -0.011983687709995139 0.0004630778475419368 0 -0.010904345598733756 0.00057297271668182059 0 -0.011357794931859042 0.00050642329836682451 0 -0.011287391360574139 0.00073884342412309731 0 -0.010904345598733756 0.00057297271668182059 0 -0.011359724623198762 0.00017522167085542929 0 -0.011357794931859042 0.00050642329836682451 0 -0.011357794931859042 0.00050642329836682451 0 -0.01161044529262888 0.00035900261706373277 0 -0.011606710760833682 0.00068126652622532691 0 -0.011359724623198762 0.00017522167085542929 0 -0.011357794931859042 0.00050642329836682451 0 -0.01161044529262888 0.00035900261706373277 0 -0.011983687709995139 0.0004630778475419368 0 -0.011649345917937032 0.00028163899321101632 0 -0.011892036243814125 0.00018544458062366313 0 -0.01161044529262888 0.00035900261706373277 0 -0.011965115421512868 0.00056165384574594318 0 -0.01161044529262888 0.00035900261706373277 0 -0.011606710760833682 0.00068126652622532691 0 -0.011965115421512868 0.00056165384574594318 0 -0.011606710760833682 0.00068126652622532691 0 -0.011909762916357411 0.00097073094599990422 0 -0.011965115421512868 0.00056165384574594318 0 -0.011606710760833682 0.00068126652622532691 0 -0.011545924359075917 0.0010064960425631196 0 -0.011909762916357411 0.00097073094599990422 0 -0.011606710760833682 0.00068126652622532691 0 -0.011287391360574139 0.00073884342412309731 0 -0.011545924359075917 0.0010064960425631196 0 -0.011357794931859042 0.00050642329836682451 0 -0.011606710760833682 0.00068126652622532691 0 -0.011287391360574139 0.00073884342412309731 0 -0.01129879923864709 0.0012245055112914903 0 -0.011545924359075917 0.0010064960425631196 0 -0.011628646142513415 0.0014151965133841445 0 -0.011287391360574139 0.00073884342412309731 0 -0.01129879923864709 0.0012245055112914903 0 -0.011545924359075917 0.0010064960425631196 0 -0.011545924359075917 0.0010064960425631196 0 -0.011628646142513415 0.0014151965133841445 0 -0.011909762916357411 0.00097073094599990422 0 -0.011163307434893993 0.0012898800985700226 0 -0.010546007248539926 0.0014714499624006775 0 -0.010152016963105887 0.0016068359491137676 0 -0.010659377207995516 0.0011482331534767647 0 -0.010451923553676055 0.0016956206989583108 0 -0.010904345598733756 0.00057297271668182059 0 -0.010896018393197584 0.0010500856153695748 0 -0.010581313157987363 0.0013971219014653423 0 -0.010612594086807868 0.0019968081431314009 0 -0.011163307434893993 0.0012898800985700226 0 -0.010904345598733756 0.00057297271668182059 0 -0.011287391360574139 0.00073884342412309731 0 -0.010896018393197584 0.0010500856153695748 0 -0.011214823665793705 0.0008495177785588548 0 -0.010905391828113358 0.0013475395930827002 0 -0.011287391360574139 0.00073884342412309731 0 -0.01129879923864709 0.0012245055112914903 0 -0.010855781973498561 0.0013907665771933804 0 -0.011287391360574139 0.00073884342412309731 0 -0.010896018393197584 0.0010500856153695748 0 -0.010809077617874282 0.0014949519874910555 0 -0.010896018393197584 0.0010500856153695748 0 -0.010581313157987363 0.0013971219014653423 0 -0.010809077617874282 0.0014949519874910555 0 -0.010926471371114002 0.0018504434658782438 0 -0.011241163218879528 0.0016248777877189179 0 -0.011335224692650015 0.0023249087561135738 0 -0.010581313157987363 0.0013971219014653423 0 -0.010809077617874282 0.0014949519874910555 0 -0.010242547652205563 0.0022696238402780343 0 -0.010546007248539926 0.0014714499624006775 0 -0.0092575635887329841 0.0021294174586778823 0 -0.010855781973498561 0.0013907665771933804 0 -0.010926471371114002 0.0018504434658782438 0 -0.011241163218879528 0.0016248777877189179 0 -0.01129879923864709 0.0012245055112914903 0 -0.010855781973498561 0.0013907665771933804 0 -0.011241163218879528 0.0016248777877189179 0 -0.010905391828113358 0.0013475395930827002 0 -0.0092575635887329841 0.0021294174586778823 0 -0.010855781973498561 0.0013907665771933804 0 -0.010926471371114002 0.0018504434658782438 0 -0.010377817070544819 0.0020475256014014275 0 -0.011241163218879528 0.0016248777877189179 0 -0.011587049026094363 0.001844457296694078 0 -0.011335224692650015 0.0023249087561135738 0 -0.011628646142513415 0.0014151965133841445 0 -0.011241163218879528 0.0016248777877189179 0 -0.011587049026094363 0.001844457296694078 0 -0.01129879923864709 0.0012245055112914903 0 -0.011628646142513415 0.0014151965133841445 0 -0.011241163218879528 0.0016248777877189179 0 -0.011628646142513415 0.0014151965133841445 0 -0.011587049026094363 0.001844457296694078 0 -0.012060687176744659 0.0019355303768645862 0 -0.0073651442808072851 0.0025785692766079143 0 -0.0095209592525849138 0.0027088644952763703 0 -0.007376871187625038 0.0026236353354465829 0 -0.007484909380884531 0.0027563281383425151 0 -0.0077528002617605774 0.0027095525536444285 0 -0.011587049026094363 0.001844457296694078 0 -0.011335224692650015 0.0023249087561135738 0 -0.012060687176744659 0.0019355303768645862 0 -0.0076992346106732456 0.0025925555818360028 0 -0.0078288394693257941 0.002657195971437877 0 -0.0086451768551679721 0.0028022839072782582 0 -0.0095624410626690189 0.0024712810160307901 0 -0.0095209592525849138 0.0027088644952763703 0 -0.0073287604128015691 0.0028088687850710077 0 -0.007258507613702757 0.002676862410969857 0 -0.0073610606500483736 0.0027157406813637154 0 -0.0073287604128015691 0.0028088687850710077 0 -0.0073610606500483736 0.0027157406813637154 0 -0.007484909380884531 0.0027563281383425151 0 -0.007258507613702757 0.002676862410969857 0 -0.0073610606500483736 0.0027157406813637154 0 -0.007376871187625038 0.0026236353354465829 0 -0.0073610606500483736 0.0027157406813637154 0 -0.007376871187625038 0.0026236353354465829 0 -0.007484909380884531 0.0027563281383425151 0 -0.0095624410626690189 0.0024712810160307901 0 -0.0092575635887329841 0.0021294174586778823 0 -0.0076992346106732456 0.0025925555818360028 0 -0.0070659403751287967 0.0024986428007125923 0 -0.0068013730707807956 0.0023606304215857687 0 -0.0076992346106732456 0.0025925555818360028 0 -0.0078288394693257941 0.002657195971437877 0 -0.0070659403751287967 0.0024986428007125923 0 -0.007258507613702757 0.002676862410969857 0 -0.007376871187625038 0.0026236353354465829 0 -0.0070659403751287967 0.0024986428007125923 0 -0.0073651442808072851 0.0025785692766079143 0 -0.0071961688213430953 0.0025334649435195073 0 -0.010926471371114002 0.0018504434658782438 0 -0.011335224692650015 0.0023249087561135738 0 -0.010377817070544819 0.0020475256014014275 0 -0.0073287604128015691 0.0028088687850710077 0 -0.007258507613702757 0.002676862410969857 0 -0.0071493222736957514 0.0027365664172307393 0 -0.007258507613702757 0.002676862410969857 0 -0.0070659403751287967 0.0024986428007125923 0 -0.0071493222736957514 0.0027365664172307393 0 -0.0069417008269602124 0.0028162822138090098 0 -0.0070659403751287967 0.0024986428007125923 0 -0.0071493222736957514 0.0027365664172307393 0 -0.0069417008269602124 0.0028162822138090098 0 -0.0070659403751287967 0.0024986428007125923 0 -0.0068039676580022952 0.0024925927413406187 0 -0.0093704798954940983 0.0018374339823027288 0 -0.0093856979598956197 0.0017961139730199968 0 -0.0091802266553387725 0.0017313892810188357 0 -0.0086904425125397793 0.0023039218011033009 0 -0.0085104950169541532 0.0023101778313439239 0 -0.0092140770931968749 0.002095999533854062 0 -0.0093704798954940983 0.0018374339823027288 0 -0.00914752317013574 0.0019215589340564614 0 -0.0093704798954940983 0.0018374339823027288 0 -0.00914752317013574 0.0019215589340564614 0 -0.0091802266553387725 0.0017313892810188357 0 -0.0070659403751287967 0.0024986428007125923 0 -0.0068039676580022952 0.0024925927413406187 0 -0.0068013730707807956 0.0023606304215857687 0 -0.0085104950169541532 0.0023101778313439239 0 -0.0092575635887329841 0.0021294174586778823 0 -0.0089976068008647912 0.0018830757634524678 0 -0.0089814711365198158 0.0017665273388708903 0 -0.0091340733782174031 0.0017464897671921615 0 -0.0089976068008647912 0.0018830757634524678 0 -0.00914752317013574 0.0019215589340564614 0 -0.0091802266553387725 0.0017313892810188357 0 -0.0088833733581670238 0.0018970887038732077 0 -0.0097831366250386697 0.0019944747149764548 0 -0.010313654882661548 0.0024658113995379306 0 -0.01049942891290398 0.0023334042033224698 0 -0.010737814461345604 0.0025939906966005216 0 -0.01065971742249058 0.0021780095730692208 0 -0.01049942891290398 0.0023334042033224698 0 -0.010737814461345604 0.0025939906966005216 0 -0.00957629298356516 0.0020684355104614327 0 -0.0097831366250386697 0.0019944747149764548 0 -0.01065971742249058 0.0021780095730692208 0 -0.011081830701887604 0.0022897916543131625 0 -0.010737814461345604 0.0025939906966005216 0 -0.0092575635887329841 0.0021294174586778823 0 -0.0097831366250386697 0.0019944747149764548 0 -0.010612594086807868 0.0019968081431314009 0 -0.0097831366250386697 0.0019944747149764548 0 -0.010152016963105887 0.0016068359491137676 0 -0.010246528964846844 0.0022393014925932786 0 -0.0096537489015102677 0.002061572627472068 0 -0.010152016963105887 0.0016068359491137676 0 -0.010451923553676055 0.0016956206989583108 0 -0.010246528964846844 0.0022393014925932786 0 -0.007346143670560989 0.0018976659549103608 0 -0.007455828445355501 0.0019172739839607078 0 -0.0074301224215144969 0.0017974501423424593 0 -0.007455828445355501 0.0019172739839607078 0 -0.0073663811749915334 0.0020447358589395928 0 -0.0074884519938552717 0.0020540925702435715 0 -0.007346143670560989 0.0018976659549103608 0 -0.007455828445355501 0.0019172739839607078 0 -0.0073663811749915334 0.0020447358589395928 0 -0.0071767685435099897 0.0020482946643237644 0 -0.007346143670560989 0.0018976659549103608 0 -0.0073663811749915334 0.0020447358589395928 0 -0.0071767685435099897 0.0020482946643237644 0 -0.0073663811749915334 0.0020447358589395928 0 -0.0072748532210864577 0.0021641400146062634 0 -0.0071302191427689357 0.0022477716868666529 0 -0.0072888936451047477 0.0022824283910793967 0 -0.0072748532210864577 0.0021641400146062634 0 -0.0072888936451047477 0.0022824283910793967 0 -0.0072748532210864577 0.0021641400146062634 0 -0.0074119241195920692 0.0021904407818494525 0 -0.0073663811749915334 0.0020447358589395928 0 -0.0072748532210864577 0.0021641400146062634 0 -0.0074119241195920692 0.0021904407818494525 0 -0.0073663811749915334 0.0020447358589395928 0 -0.0074119241195920692 0.0021904407818494525 0 -0.0074884519938552717 0.0020540925702435715 0 -0.0074119241195920692 0.0021904407818494525 0 -0.00752383227496851 0.0021523535418564344 0 -0.0074884519938552717 0.0020540925702435715 0 -0.0073845229941173502 0.0023220759754999701 0 -0.0074119241195920692 0.0021904407818494525 0 -0.007516848446273418 0.0022655626939514541 0 -0.0074119241195920692 0.0021904407818494525 0 -0.00752383227496851 0.0021523535418564344 0 -0.007516848446273418 0.0022655626939514541 0 -0.00752383227496851 0.0021523535418564344 0 -0.0076086916255753466 0.0021845167478643283 0 -0.007516848446273418 0.0022655626939514541 0 -0.0076609191572554513 0.0022893285428014372 0 -0.0076086916255753466 0.0021845167478643283 0 -0.007516848446273418 0.0022655626939514541 0 -0.00752383227496851 0.0021523535418564344 0 -0.0076265101143492223 0.0020654395287188531 0 -0.0074884519938552717 0.0020540925702435715 0 -0.00752383227496851 0.0021523535418564344 0 -0.0076086916255753466 0.0021845167478643283 0 -0.0076265101143492223 0.0020654395287188531 0 -0.0076265101143492223 0.0020654395287188531 0 -0.0075759085948093816 0.001934386544367783 0 -0.0077292403731791439 0.0019281608287994255 0 -0.0076265101143492223 0.0020654395287188531 0 -0.0074884519938552717 0.0020540925702435715 0 -0.0075759085948093816 0.001934386544367783 0 -0.007455828445355501 0.0019172739839607078 0 -0.0074884519938552717 0.0020540925702435715 0 -0.0075759085948093816 0.001934386544367783 0 -0.007455828445355501 0.0019172739839607078 0 -0.0075759085948093816 0.001934386544367783 0 -0.0075209612550364117 0.0017958847398492506 0 -0.0075759085948093816 0.001934386544367783 0 -0.0077292403731791439 0.0019281608287994255 0 -0.0076496512064431563 0.0018154151857293149 0 -0.0075759085948093816 0.001934386544367783 0 -0.0076496512064431563 0.0018154151857293149 0 -0.0075209612550364117 0.0017958847398492506 0 -0.0077292403731791439 0.0019281608287994255 0 -0.0077661821541950811 0.0018036825681298813 0 -0.0076496512064431563 0.0018154151857293149 0 -0.0077292403731791439 0.0019281608287994255 0 -0.0078890137845693698 0.0018694395586174265 0 -0.0077661821541950811 0.0018036825681298813 0 -0.0077292403731791439 0.0019281608287994255 0 -0.0078890137845693698 0.0018694395586174265 0 -0.0078615469640013827 0.0019875419233980492 0 -0.0078890137845693698 0.0018694395586174265 0 -0.0078615469640013827 0.0019875419233980492 0 -0.0079664127626666009 0.0019450442430922214 0 -0.0077292403731791439 0.0019281608287994255 0 -0.0078615469640013827 0.0019875419233980492 0 -0.0077598042404483864 0.0020424997034786886 0 -0.0078615469640013827 0.0019875419233980492 0 -0.0078591105594061229 0.0020611880464322958 0 -0.0077598042404483864 0.0020424997034786886 0 -0.0076265101143492223 0.0020654395287188531 0 -0.0077292403731791439 0.0019281608287994255 0 -0.0077598042404483864 0.0020424997034786886 0 -0.0076265101143492223 0.0020654395287188531 0 -0.0077598042404483864 0.0020424997034786886 0 -0.0077357669918694423 0.0021470503057579322 0 -0.0076086916255753466 0.0021845167478643283 0 -0.0076265101143492223 0.0020654395287188531 0 -0.0077357669918694423 0.0021470503057579322 0 -0.0076609191572554513 0.0022893285428014372 0 -0.0076086916255753466 0.0021845167478643283 0 -0.0077357669918694423 0.0021470503057579322 0 -0.0076609191572554513 0.0022893285428014372 0 -0.0078065699029600038 0.0022476054141930633 0 -0.0077357669918694423 0.0021470503057579322 0 -0.0078065699029600038 0.0022476054141930633 0 -0.0077357669918694423 0.0021470503057579322 0 -0.0078481015254521745 0.0021415021091385133 0 -0.0078591105594061229 0.0020611880464322958 0 -0.0077357669918694423 0.0021470503057579322 0 -0.0078481015254521745 0.0021415021091385133 0 -0.0078591105594061229 0.0020611880464322958 0 -0.0077598042404483864 0.0020424997034786886 0 -0.0077357669918694423 0.0021470503057579322 0 -0.0078591105594061229 0.0020611880464322958 0 -0.0079120638943285474 0.0020932509471228698 0 -0.0078481015254521745 0.0021415021091385133 0 -0.0079120638943285474 0.0020932509471228698 0 -0.0079009702248180012 0.0021531425978506278 0 -0.0079823841715443138 0.0020644446149630916 0 -0.0079120638943285474 0.0020932509471228698 0 -0.0079009702248180012 0.0021531425978506278 0 -0.0078481015254521745 0.0021415021091385133 0 -0.0078065699029600038 0.0022476054141930633 0 -0.0079009702248180012 0.0021531425978506278 0 -0.0079324616431725951 0.0022327436217013095 0 -0.0078065699029600038 0.0022476054141930633 0 -0.0079009702248180012 0.0021531425978506278 0 -0.0078481015254521745 0.0021415021091385133 0 -0.0082626249348833614 0.0025017404417984135 0 -0.0080212597134450628 0.0023851771120429873 0 -0.0078490564035098055 0.0023617858326616514 0 -0.0077943961607708197 0.0022275249678956688 0 -0.0079125929853058764 0.0021704951699662391 0 -0.0079125929853058764 0.0021704951699662391 0 -0.0080404511685479643 0.0020030007853464151 0 -0.0079823841715443138 0.0020644446149630916 0 -0.0078667393816041122 0.0022328943671845233 0 -0.007963897840492817 0.0020784994604704271 0 -0.0077943961607708197 0.0022275249678956688 0 -0.0079125929853058764 0.0021704951699662391 0 -0.0079823841715443138 0.0020644446149630916 0 -0.0079009702248180012 0.0021531425978506278 0 -0.0079324616431725951 0.0022327436217013095 0 -0.0079823841715443138 0.0020644446149630916 0 -0.0082262631897783729 0.0023358650669779604 0 -0.0081751863560258434 0.0025980816144471662 0 -0.0081161755842080428 0.0022167225369989847 0 -0.0080212597134450628 0.0023851771120429873 0 -0.008085273467850122 0.0020995005257065263 0 -0.0080404511685479643 0.0020030007853464151 0 -0.0079823841715443138 0.0020644446149630916 0 -0.0079970021025704292 0.001992719721902902 0 -0.0079823841715443138 0.0020644446149630916 0 -0.0079391874145668933 0.0020353365241840542 0 -0.0079970021025704292 0.001992719721902902 0 -0.0079120638943285474 0.0020932509471228698 0 -0.0079823841715443138 0.0020644446149630916 0 -0.0079391874145668933 0.0020353365241840542 0 -0.0078615469640013827 0.0019875419233980492 0 -0.0078591105594061229 0.0020611880464322958 0 -0.0079391874145668933 0.0020353365241840542 0 -0.0078591105594061229 0.0020611880464322958 0 -0.0079120638943285474 0.0020932509471228698 0 -0.0079391874145668933 0.0020353365241840542 0 -0.0078615469640013827 0.0019875419233980492 0 -0.0079391874145668933 0.0020353365241840542 0 -0.0079664127626666009 0.0019450442430922214 0 -0.0079391874145668933 0.0020353365241840542 0 -0.0079970021025704292 0.001992719721902902 0 -0.0079664127626666009 0.0019450442430922214 0 -0.0079970021025704292 0.001992719721902902 0 -0.0079664127626666009 0.0019450442430922214 0 -0.0080418137069038428 0.0019056853030531608 0 -0.0078890137845693698 0.0018694395586174265 0 -0.0079664127626666009 0.0019450442430922214 0 -0.0080004205234834834 0.0018785182935934775 0 -0.0080004205234834834 0.0018785182935934775 0 -0.0080418137069038428 0.0019056853030531608 0 -0.0080736324331828063 0.0017960540420548482 0 -0.0079664127626666009 0.0019450442430922214 0 -0.0080004205234834834 0.0018785182935934775 0 -0.0080418137069038428 0.0019056853030531608 0 -0.008085273467850122 0.0020995005257065263 0 -0.0081276440048731347 0.0018248556893639633 0 -0.0080404511685479643 0.0020030007853464151 0 -0.0080418137069038428 0.0019056853030531608 0 -0.008145300835975141 0.0018076577792071338 0 -0.0081161755842080428 0.0022167225369989847 0 -0.008215372048516514 0.0020631232605059385 0 -0.008145300835975141 0.0018076577792071338 0 -0.0083072231128698895 0.0021860615683368689 0 -0.0081161755842080428 0.0022167225369989847 0 -0.008215372048516514 0.0020631232605059385 0 -0.0080404511685479643 0.0020030007853464151 0 -0.0079970021025704292 0.001992719721902902 0 -0.0080418137069038428 0.0019056853030531608 0 -0.008215372048516514 0.0020631232605059385 0 -0.008145300835975141 0.0018076577792071338 0 -0.0082468032985267888 0.0019070831749367163 0 -0.008145300835975141 0.0018076577792071338 0 -0.0082441617170490866 0.0018047634833003999 0 -0.0082342142415121264 0.0017228153736712226 0 -0.008145300835975141 0.0018076577792071338 0 -0.0082441617170490866 0.0018047634833003999 0 -0.0082468032985267888 0.0019070831749367163 0 -0.0080418137069038428 0.0019056853030531608 0 -0.008145300835975141 0.0018076577792071338 0 -0.0080736324331828063 0.0017960540420548482 0 -0.0080775872457057949 0.0017846309960448017 0 -0.008038462491344019 0.0017180449395048892 0 -0.008145300835975141 0.0018076577792071338 0 -0.0080736324331828063 0.0017960540420548482 0 -0.0081828590718640778 0.0017092475410366164 0 -0.0078890137845693698 0.0018694395586174265 0 -0.0080004205234834834 0.0018785182935934775 0 -0.0080736324331828063 0.0017960540420548482 0 -0.0080736324331828063 0.0017960540420548482 0 -0.0081828590718640778 0.0017092475410366164 0 -0.0081876864593292062 0.0017115558951187738 0 -0.0081828590718640778 0.0017092475410366164 0 -0.0082342142415121264 0.0017228153736712226 0 -0.0082708647884844142 0.0016190494716068768 0 -0.0083266259050581697 0.0017610735351228219 0 -0.0082342142415121264 0.0017228153736712226 0 -0.0082708647884844142 0.0016190494716068768 0 -0.008145300835975141 0.0018076577792071338 0 -0.0081828590718640778 0.0017092475410366164 0 -0.0082342142415121264 0.0017228153736712226 0 -0.0083266259050581697 0.0017610735351228219 0 -0.0082441617170490866 0.0018047634833003999 0 -0.0082342142415121264 0.0017228153736712226 0 -0.0081828590718640778 0.0017092475410366164 0 -0.0082708647884844142 0.0016190494716068768 0 -0.0082564246135273228 0.0016552269660159559 0 -0.0082708647884844142 0.0016190494716068768 0 -0.0082564246135273228 0.0016552269660159559 0 -0.0083715241186068778 0.0015526358374040859 0 -0.0088552154463965305 0.0016911863599821885 0 -0.0088645321322115746 0.0014854373764272711 0 -0.0083715241186068778 0.0015526358374040859 0 -0.0085576641621386319 0.0016459797921565841 0 -0.0083707496050978939 0.0015540024530301115 0 -0.0088645321322115746 0.0014854373764272711 0 -0.0083715241186068778 0.0015526358374040859 0 -0.008583072542770671 0.001333553931332598 0 -0.0082564246135273228 0.0016552269660159559 0 -0.0081887228356614036 0.001682733363147044 0 -0.0081876864593292062 0.0017115558951187738 0 -0.0084774719260419865 0.0014165465361203747 0 -0.0084761515989487529 0.0013540010364574313 0 -0.0082564246135273228 0.0016552269660159559 0 -0.0083715241186068778 0.0015526358374040859 0 -0.0080673415547741212 0.0015300880482323434 0 -0.0083715241186068778 0.0015526358374040859 0 -0.0080673415547741212 0.0015300880482323434 0 -0.008583072542770671 0.001333553931332598 0 -0.0082094086640163138 0.0016208746696145795 0 -0.0084774719260419865 0.0014165465361203747 0 -0.0084774719260419865 0.0014165465361203747 0 -0.0086089575124352457 0.0013190058494935363 0 -0.0082174034598113156 0.0016076531498285527 0 -0.0081887228356614036 0.001682733363147044 0 -0.0081428921486715045 0.0016407055699559992 0 -0.0082564246135273228 0.0016552269660159559 0 -0.0082174034598113156 0.0016076531498285527 0 -0.0081887228356614036 0.001682733363147044 0 -0.0078583891267537519 0.001635515268344608 0 -0.008038462491344019 0.0017180449395048892 0 -0.0077165210669656644 0.0016214676297560027 0 -0.0077126251879383366 0.0017237181052332164 0 -0.0076089252334802281 0.0017086680389650796 0 -0.0077165210669656644 0.0016214676297560027 0 -0.0077126251879383366 0.0017237181052332164 0 -0.0078496217797706207 0.00168568882805399 0 -0.0081828590718640778 0.0017092475410366164 0 -0.0082564246135273228 0.0016552269660159559 0 -0.0081876864593292062 0.0017115558951187738 0 -0.0078890137845693698 0.0018694395586174265 0 -0.0080736324331828063 0.0017960540420548482 0 -0.0078496217797706207 0.00168568882805399 0 -0.0078890137845693698 0.0018694395586174265 0 -0.0078496217797706207 0.00168568882805399 0 -0.0077661821541950811 0.0018036825681298813 0 -0.0077126251879383366 0.0017237181052332164 0 -0.0078496217797706207 0.00168568882805399 0 -0.0077661821541950811 0.0018036825681298813 0 -0.0077126251879383366 0.0017237181052332164 0 -0.0077661821541950811 0.0018036825681298813 0 -0.0076496512064431563 0.0018154151857293149 0 -0.0077126251879383366 0.0017237181052332164 0 -0.0076496512064431563 0.0018154151857293149 0 -0.0076089252334802281 0.0017086680389650796 0 -0.0076496512064431563 0.0018154151857293149 0 -0.0075209612550364117 0.0017958847398492506 0 -0.0076089252334802281 0.0017086680389650796 0 -0.007504876379518099 0.00168694773155748 0 -0.0075845886726350446 0.0016341893362472341 0 -0.0074804996816324977 0.0016064914573443955 0 -0.0075209612550364117 0.0017958847398492506 0 -0.007504876379518099 0.00168694773155748 0 -0.0076089252334802281 0.0017086680389650796 0 -0.0075209612550364117 0.0017958847398492506 0 -0.007504876379518099 0.00168694773155748 0 -0.0074481804894795389 0.0017183952309989487 0 -0.007504876379518099 0.00168694773155748 0 -0.0076089252334802281 0.0017086680389650796 0 -0.0075845886726350446 0.0016341893362472341 0 -0.0076328312782320499 0.0015921783477295692 0 -0.008064232652321212 0.0015884243202495315 0 -0.0077165210669656644 0.0016214676297560027 0 -0.0076089252334802281 0.0017086680389650796 0 -0.0075845886726350446 0.0016341893362472341 0 -0.0077165210669656644 0.0016214676297560027 0 -0.0075845886726350446 0.0016341893362472341 0 -0.0076089831278808827 0.001545503882293177 0 -0.0078583891267537519 0.001635515268344608 0 -0.0086089575124352457 0.0013190058494935363 0 -0.0090500963032623533 0.0012135481631444546 0 -0.0092997470265949386 0.0012129185515165498 0 -0.0092465405765833099 0.0012984380983594342 0 -0.0090500963032623533 0.0012135481631444546 0 -0.0092806843060504809 0.0011107792124100152 0 -0.0092997470265949386 0.0012129185515165498 0 -0.0093990965097967751 0.0012023388699153653 0 -0.0094478107003052123 0.0011870790959264503 0 -0.0094356260114039931 0.0010657306751257691 0 -0.0093990965097967751 0.0012023388699153653 0 -0.0094513176178074136 0.0012451037093357312 0 -0.0094478107003052123 0.0011870790959264503 0 -0.0093990965097967751 0.0012023388699153653 0 -0.0094513176178074136 0.0012451037093357312 0 -0.0093872444184864047 0.0012602558780309436 0 -0.0092997470265949386 0.0012129185515165498 0 -0.0093990965097967751 0.0012023388699153653 0 -0.0093872444184864047 0.0012602558780309436 0 -0.0092997470265949386 0.0012129185515165498 0 -0.0093872444184864047 0.0012602558780309436 0 -0.0093476175298250683 0.0013222442576924847 0 -0.0092806843060504809 0.0011107792124100152 0 -0.0092997470265949386 0.0012129185515165498 0 -0.0093990965097967751 0.0012023388699153653 0 -0.0086089575124352457 0.0013190058494935363 0 -0.0094757055472547633 0.0012906438321072739 0 -0.0092892945128147091 0.0011306514806732765 0 -0.0093990965097967751 0.0012023388699153653 0 -0.0094356260114039931 0.0010657306751257691 0 -0.0075845886726350446 0.0016341893362472341 0 -0.0076089831278808827 0.001545503882293177 0 -0.0074804996816324977 0.0016064914573443955 0 -0.0086089575124352457 0.0013190058494935363 0 -0.008064232652321212 0.0015884243202495315 0 -0.008064232652321212 0.0015884243202495315 0 -0.0072999108089701207 0.0017573677328879505 0 -0.0075008433111885368 0.0016652450322150385 0 -0.0074449374387905113 0.0016467909920761901 0 -0.0074780668847120885 0.0015760136302157739 0 -0.008064232652321212 0.0015884243202495315 0 -0.0092539802733490155 0.0011799165027771706 0 -0.0074449374387905113 0.0016467909920761901 0 -0.0074780668847120885 0.0015760136302157739 0 -0.0073858448217103958 0.0016601921178456282 0 -0.0075008433111885368 0.0016652450322150385 0 -0.0074449374387905113 0.0016467909920761901 0 -0.0074258811533243286 0.0016802529312794317 0 -0.0094513176178074136 0.0012451037093357312 0 -0.0095297871107320586 0.001191465927437079 0 -0.0095962093460562614 0.00135096547219904 0 -0.0094478107003052123 0.0011870790959264503 0 -0.0094356260114039931 0.0010657306751257691 0 -0.009497748171420569 0.0012060909069325895 0 -0.0094333146232510046 0.0011643407870894147 0 -0.0092539802733490155 0.0011799165027771706 0 -0.0094513176178074136 0.0012451037093357312 0 -0.0094478107003052123 0.0011870790959264503 0 -0.009497748171420569 0.0012060909069325895 0 -0.011394140020100627 0.0013445241401017548 0 -0.010961820573932166 0.0012301978875228082 0 -0.010981377193279683 0.0016373467210290308 0 -0.011394140020100627 0.0013445241401017548 0 -0.010961820573932166 0.0012301978875228082 0 -0.011118666440455283 0.0010709662977764509 0 -0.010765120797585416 0.0013935474431250525 0 -0.010961820573932166 0.0012301978875228082 0 -0.010981377193279683 0.0016373467210290308 0 -0.0092539802733490155 0.0011799165027771706 0 -0.0091985404662920794 0.0016792781155645609 0 -0.0073846091591300783 0.0016657065440608249 0 -0.0073858448217103958 0.0016601921178456282 0 -0.0074258811533243286 0.0016802529312794317 0 -0.0074449374387905113 0.0016467909920761901 0 -0.0073858448217103958 0.0016601921178456282 0 -0.0074258811533243286 0.0016802529312794317 0 -0.0073846091591300783 0.0016657065440608249 0 -0.0074258811533243286 0.0016802529312794317 0 -0.0073862781672391744 0.001752858247744706 0 -0.0074258811533243286 0.0016802529312794317 0 -0.0074481804894795389 0.0017183952309989487 0 -0.0073862781672391744 0.001752858247744706 0 -0.0074863648265060014 0.0016420669374397738 0 -0.0074258811533243286 0.0016802529312794317 0 -0.0074481804894795389 0.0017183952309989487 0 -0.007504876379518099 0.00168694773155748 0 -0.0074863648265060014 0.0016420669374397738 0 -0.0074481804894795389 0.0017183952309989487 0 -0.0074481804894795389 0.0017183952309989487 0 -0.0074301224215144969 0.0017974501423424593 0 -0.0073862781672391744 0.001752858247744706 0 -0.0075209612550364117 0.0017958847398492506 0 -0.0074481804894795389 0.0017183952309989487 0 -0.0074301224215144969 0.0017974501423424593 0 -0.007455828445355501 0.0019172739839607078 0 -0.0075209612550364117 0.0017958847398492506 0 -0.0074301224215144969 0.0017974501423424593 0 -0.0072493975644763583 0.0018415529259714191 0 -0.007346143670560989 0.0018976659549103608 0 -0.0073862781672391744 0.001752858247744706 0 -0.007346143670560989 0.0018976659549103608 0 -0.0074301224215144969 0.0017974501423424593 0 -0.0073862781672391744 0.001752858247744706 0 -0.0073846091591300783 0.0016657065440608249 0 -0.0072493975644763583 0.0018415529259714191 0 -0.0073862781672391744 0.001752858247744706 0 -0.012242189098150629 -1.7368219474176558e-05 0 -0.010874462078200165 0.00013312333763292164 0 -0.011412662194345547 -5.3736418755939086e-05 0 -0.011389009045855944 -1.1543519903055067e-05 0 -0.011350025549329224 -2.2515716571487574e-06 0 -0.01075638174703965 0.00029441714667983792 0 -0.011350025549329224 -2.2515716571487574e-06 0 -0.011286841596976953 0.000227816952318761 0 -0.014959337343418999 -0.00013795873282132631 0 -0.014835983079900347 -0.00029866222463377127 0 -0.01489229743053104 -7.595460759063469e-05 0 -0.013027404883097546 -0.00012320176893784284 0 -0.013565304163455222 5.3830137297261516e-05 0 -0.011382372564786065 3.8001162826360369e-06 0 -0.011286841596976953 0.000227816952318761 0 -0.011736722482024967 0.00039120641437865135 0 -0.011350025549329224 -2.2515716571487574e-06 0 -0.011382372564786065 3.8001162826360369e-06 0 -0.011286841596976953 0.000227816952318761 0 -0.011286841596976953 0.000227816952318761 0 -0.01144289014553918 0.00063224668558685187 0 -0.011736722482024967 0.00039120641437865135 0 -0.01075638174703965 0.00029441714667983792 0 -0.011138770886371108 0.00042733846984808181 0 -0.011286841596976953 0.000227816952318761 0 -0.011138770886371108 0.00042733846984808181 0 -0.011286841596976953 0.000227816952318761 0 -0.01144289014553918 0.00063224668558685187 0 -0.011138770886371108 0.00042733846984808181 0 -0.011036733054274451 0.00079040531593849899 0 -0.011300764847366123 0.0010150744893531417 0 -0.011250556789910202 0.00038221984973473521 0 -0.010928844627907382 0.0012245930047055206 0 -0.010868704246004493 0.00059489015525023405 0 -0.011138770886371108 0.00042733846984808181 0 -0.011036733054274451 0.00079040531593849899 0 -0.010827730742537126 0.00083312018010377024 0 -0.011036733054274451 0.00079040531593849899 0 -0.010962083885499959 0.00097042354336866017 0 -0.011036733054274451 0.00079040531593849899 0 -0.010962083885499959 0.00097042354336866017 0 -0.011118666440455283 0.0010709662977764509 0 -0.011036733054274451 0.00079040531593849899 0 -0.011118666440455283 0.0010709662977764509 0 -0.011300764847366123 0.0010150744893531417 0 -0.011194742886063437 0.0010923332233826954 0 -0.010928844627907382 0.0012245930047055206 0 -0.010961820573932166 0.0012301978875228082 0 -0.010962083885499959 0.00097042354336866017 0 -0.011118666440455283 0.0010709662977764509 0 -0.010798437882387667 0.0010298559429234913 0 -0.010961820573932166 0.0012301978875228082 0 -0.010962083885499959 0.00097042354336866017 0 -0.010928844627907382 0.0012245930047055206 0 -0.010373302771330134 0.0012074347970305491 0 -0.0092539802733490155 0.0011799165027771706 0 -0.010928844627907382 0.0012245930047055206 0 -0.0095962093460562614 0.00135096547219904 0 -0.0094275871457166344 0.0013979680165794089 0 -0.0094387942938256291 0.0013199986585122542 0 -0.011394140020100627 0.0013445241401017548 0 -0.011118666440455283 0.0010709662977764509 0 -0.011282024986726754 0.0010210362106254252 0 -0.0094513176178074136 0.0012451037093357312 0 -0.0095962093460562614 0.00135096547219904 0 -0.0094387942938256291 0.0013199986585122542 0 -0.011138770886371108 0.00042733846984808181 0 -0.011352849197236486 0.0010127095747822544 0 -0.01144289014553918 0.00063224668558685187 0 -0.011352849197236486 0.0010127095747822544 0 -0.01144289014553918 0.00063224668558685187 0 -0.011710189830785605 0.00089627355156706465 0 -0.011392207582737374 0.00084185372533134625 0 -0.013565304163455222 5.3830137297261516e-05 0 -0.01144289014553918 0.00063224668558685187 0 -0.011710189830785605 0.00089627355156706465 0 -0.011736722482024967 0.00039120641437865135 0 -0.011710189830785605 0.00089627355156706465 0 -0.012065423697019372 0.00078305817825092205 0 -0.011736722482024967 0.00039120641437865135 0 -0.010373302771330134 0.0012074347970305491 0 -0.011392207582737374 0.00084185372533134625 0 -0.0094275871457166344 0.0013979680165794089 0 -0.0093476175298250683 0.0013222442576924847 0 -0.0092763505956649575 0.0014455999402114741 0 -0.0094275871457166344 0.0013979680165794089 0 -0.0093476175298250683 0.0013222442576924847 0 -0.0094387942938256291 0.0013199986585122542 0 -0.0093872444184864047 0.0012602558780309436 0 -0.0093476175298250683 0.0013222442576924847 0 -0.0094387942938256291 0.0013199986585122542 0 -0.0094513176178074136 0.0012451037093357312 0 -0.0093872444184864047 0.0012602558780309436 0 -0.0094387942938256291 0.0013199986585122542 0 -0.0092465405765833099 0.0012984380983594342 0 -0.0092763505956649575 0.0014455999402114741 0 -0.0091601266285301838 0.0013305370347913117 0 -0.0093476175298250683 0.0013222442576924847 0 -0.0092465405765833099 0.0012984380983594342 0 -0.0092763505956649575 0.0014455999402114741 0 -0.0092997470265949386 0.0012129185515165498 0 -0.0093476175298250683 0.0013222442576924847 0 -0.0092465405765833099 0.0012984380983594342 0 -0.011392207582737374 0.00084185372533134625 0 -0.0086360505948650575 0.0011255225291601353 0 -0.0083229722781486964 0.0011650475552496804 0 -0.008369592221669362 0.0011918193063918162 0 -0.0083679354537525511 0.001254239202021393 0 -0.011392207582737374 0.00084185372533134625 0 -0.0101509518142197 0.00024049386790436916 0 -0.014656656560192863 -0.00047108239894775049 0 -0.014650825624291495 -0.00032369086304752501 0 -0.014512087404448355 -0.00042625740874639067 0 -0.0083229722781486964 0.0011650475552496804 0 -0.0083855528797129198 0.0011405005971334358 0 -0.008369592221669362 0.0011918193063918162 0 -0.014650825624291495 -0.00032369086304752501 0 -0.014722602198915033 -0.00018356041429003225 0 -0.01450809000427122 -0.00025841569874489074 0 -0.014650825624291495 -0.00032369086304752501 0 -0.014835983079900347 -0.00029866222463377127 0 -0.014722602198915033 -0.00018356041429003225 0 -0.014656656560192863 -0.00047108239894775049 0 -0.014650825624291495 -0.00032369086304752501 0 -0.014835983079900347 -0.00029866222463377127 0 -0.014835983079900347 -0.00029866222463377127 0 -0.014722602198915033 -0.00018356041429003225 0 -0.01489229743053104 -7.595460759063469e-05 0 -0.014722602198915033 -0.00018356041429003225 0 -0.01450809000427122 -0.00025841569874489074 0 -0.01465426133221312 -7.9694284623121011e-05 0 -0.011532840976126961 0.00024459136656614485 0 -0.011396888325710041 0.00022215773621120597 0 -0.01450809000427122 -0.00025841569874489074 0 -0.014477318405774889 -7.9372716903099234e-05 0 -0.01465426133221312 -7.9694284623121011e-05 0 -0.0086568634431882594 0.00070764234436568123 0 -0.0084119934065738922 0.00079230129969758058 0 -0.0084767641614378834 0.00051463391739503962 0 -0.0086568634431882594 0.00070764234436568123 0 -0.0087693789671072133 0.00045275497753152186 0 -0.0084767641614378834 0.00051463391739503962 0 -0.0086568634431882594 0.00070764234436568123 0 -0.0086051812134836092 0.00097923455300599348 0 -0.0084119934065738922 0.00079230129969758058 0 -0.0086051812134836092 0.00097923455300599348 0 -0.0084119934065738922 0.00079230129969758058 0 -0.0083895706461276209 0.0010114693022941137 0 -0.014650825624291495 -0.00032369086304752501 0 -0.01450809000427122 -0.00025841569874489074 0 -0.014512087404448355 -0.00042625740874639067 0 -0.011532840976126961 0.00024459136656614485 0 -0.0101509518142197 0.00024049386790436916 0 -0.008382601282328395 0.001119422699898717 0 -0.0084112862409179492 0.0012082849543331149 0 -0.0084981301553856015 0.0012115074281616076 0 -0.0083229722781486964 0.0011650475552496804 0 -0.008389067211167691 0.0011283685017304187 0 -0.0083855528797129198 0.0011405005971334358 0 -0.0083855528797129198 0.0011405005971334358 0 -0.008369592221669362 0.0011918193063918162 0 -0.0084112862409179492 0.0012082849543331149 0 -0.008382601282328395 0.001119422699898717 0 -0.0083855528797129198 0.0011405005971334358 0 -0.0084112862409179492 0.0012082849543331149 0 -0.0101509518142197 0.00024049386790436916 0 -0.010031830813628646 0.00044663364116741646 0 -0.008369592221669362 0.0011918193063918162 0 -0.0084112862409179492 0.0012082849543331149 0 -0.0083679354537525511 0.001254239202021393 0 -0.0090500963032623533 0.0012135481631444546 0 -0.0092465405765833099 0.0012984380983594342 0 -0.0091601266285301838 0.0013305370347913117 0 -0.0084112862409179492 0.0012082849543331149 0 -0.0083679354537525511 0.001254239202021393 0 -0.0084579322638010275 0.0012740423281942096 0 -0.0084112862409179492 0.0012082849543331149 0 -0.0084579322638010275 0.0012740423281942096 0 -0.0084981301553856015 0.0012115074281616076 0 -0.0084419276571904133 0.0013425332411194178 0 -0.0083679354537525511 0.001254239202021393 0 -0.0084579322638010275 0.0012740423281942096 0 -0.0084774719260419865 0.0014165465361203747 0 -0.0086360505948650575 0.0011255225291601353 0 -0.0084579322638010275 0.0012740423281942096 0 -0.0084981301553856015 0.0012115074281616076 0 -0.008583072542770671 0.001333553931332598 0 -0.0084419276571904133 0.0013425332411194178 0 -0.0084579322638010275 0.0012740423281942096 0 -0.008583072542770671 0.001333553931332598 0 -0.0086051812134836092 0.00097923455300599348 0 -0.0084981301553856015 0.0012115074281616076 0 -0.0086750331868363541 0.0011376145585710205 0 -0.0086051812134836092 0.00097923455300599348 0 -0.008382601282328395 0.001119422699898717 0 -0.0084981301553856015 0.0012115074281616076 0 -0.0078573840357088094 0.0012713785118530843 0 -0.0101509518142197 0.00024049386790436916 0 -0.0086051812134836092 0.00097923455300599348 0 -0.0086750331868363541 0.0011376145585710205 0 -0.0088385392397298777 0.00093258726571299883 0 -0.0086750331868363541 0.0011376145585710205 0 -0.008583072542770671 0.001333553931332598 0 -0.008960336212428489 0.0012000281635076661 0 -0.0084981301553856015 0.0012115074281616076 0 -0.0086750331868363541 0.0011376145585710205 0 -0.008583072542770671 0.001333553931332598 0 -0.0088645321322115746 0.0014854373764272711 0 -0.008583072542770671 0.001333553931332598 0 -0.008960336212428489 0.0012000281635076661 0 -0.0086750331868363541 0.0011376145585710205 0 -0.008960336212428489 0.0012000281635076661 0 -0.0088385392397298777 0.00093258726571299883 0 -0.0088385392397298777 0.00093258726571299883 0 -0.0089718251873937647 0.00064674359814702689 0 -0.009255296717303926 0.00080818180158525124 0 -0.008960336212428489 0.0012000281635076661 0 -0.0088385392397298777 0.00093258726571299883 0 -0.009255296717303926 0.00080818180158525124 0 -0.0086568634431882594 0.00070764234436568123 0 -0.0086051812134836092 0.00097923455300599348 0 -0.0088385392397298777 0.00093258726571299883 0 -0.0086568634431882594 0.00070764234436568123 0 -0.0088385392397298777 0.00093258726571299883 0 -0.0089718251873937647 0.00064674359814702689 0 -0.0086568634431882594 0.00070764234436568123 0 -0.0089718251873937647 0.00064674359814702689 0 -0.0087693789671072133 0.00045275497753152186 0 -0.0085047220073124034 0.00074140861622241634 0 -0.011112888356558877 9.4803576269002047e-05 0 -0.0089718251873937647 0.00064674359814702689 0 -0.0090507761476234985 0.00034652339149817015 0 -0.0087693789671072133 0.00045275497753152186 0 -0.0089718251873937647 0.00064674359814702689 0 -0.0090727653730803826 0.00011885850367645393 0 -0.0094388878888796504 0.0003749666890291147 0 -0.011112888356558877 9.4803576269002047e-05 0 -0.01231041468457887 -0.00010204250191531718 0 -0.0090507761476234985 0.00034652339149817015 0 -0.0087693789671072133 0.00045275497753152186 0 -0.0088104109037851347 0.0001634475422807886 0 -0.011112888356558877 9.4803576269002047e-05 0 -0.014547801632194293 -0.00037078222378129065 0 -0.012802607588221255 0.00013768638805181546 0 -0.012308306456615122 -0.0002125838175018103 0 -0.012902600180979917 -0.00042526690821129419 0 -0.014976620326878954 -1.0827692818210755e-06 0 -0.014982533351126986 -3.6784525648630257e-06 0 -0.014988111001197419 -1.1567737874757337e-06 0 -0.01231041468457887 -0.00010204250191531718 0 -0.014547801632194293 -0.00037078222378129065 0 -0.014547801632194293 -0.00037078222378129065 0 -0.014934636098210656 -3.5554675362329645e-05 0 -0.014982533351126986 -3.6784525648630257e-06 0 -0.014988111001197419 -1.1567737874757337e-06 0 -0.014986233143919241 -5.3074969555105286e-07 0 -0.014988111001197419 -1.1567737874757337e-06 0 -0.014999965874563646 1.0340252766638876e-08 0 -0.014986233143919241 -5.3074969555105286e-07 0 -0.015000000226661266 1.1803691465139421e-10 0 -0.014999999203253758 -3.4679428008458303e-10 0 -0.014999781935318018 -2.0332759037314395e-07 0 -0.01500004303518406 2.9854269487694857e-08 0 -0.014934636098210656 -3.5554675362329645e-05 0 -0.014988111001197419 -1.1567737874757337e-06 0 -0.014999965874563646 1.0340252766638876e-08 0 -0.014990415005480507 1.3754815603438173e-06 0 -0.014999965874563646 1.0340252766638876e-08 0 -0.014990415005480507 1.3754815603438173e-06 0 -0.014995512258579388 3.3303728202419329e-06 0 -0.014990415005480507 1.3754815603438173e-06 0 -0.014988242965187765 3.3820799858932432e-06 0 -0.014995512258579388 3.3303728202419329e-06 0 -0.014976620326878954 -1.0827692818210755e-06 0 -0.014990415005480507 1.3754815603438173e-06 0 -0.014988242965187765 3.3820799858932432e-06 0 -0.014976620326878954 -1.0827692818210755e-06 0 -0.014988111001197419 -1.1567737874757337e-06 0 -0.014990415005480507 1.3754815603438173e-06 0 -0.014976620326878954 -1.0827692818210755e-06 0 -0.014989571246985701 7.6703556285017305e-06 0 -0.014988242965187765 3.3820799858932432e-06 0 -0.014566970833130331 -0.0001074966607228468 0 -0.014854807237313585 -2.2892644607448454e-05 0 -0.014839914931639067 3.4228147944347702e-05 0 -0.01231041468457887 -0.00010204250191531718 0 -0.015280400385175594 0.00019447159599829297 0 -0.014989571246985701 7.6703556285017305e-06 0 -0.014988242965187765 3.3820799858932432e-06 0 -0.014995512258579388 3.3303728202419329e-06 0 -0.014989571246985701 7.6703556285017305e-06 0 -0.014995512258579388 3.3303728202419329e-06 0 -0.014972967314741415 1.0523723377971597e-05 0 -0.014999965874563646 1.0340252766638876e-08 0 -0.014999981295331382 -1.874904329253325e-09 0 -0.014995512258579388 3.3303728202419329e-06 0 -0.014999981295331382 -1.874904329253325e-09 0 -0.014995512258579388 3.3303728202419329e-06 0 -0.014972967314741415 1.0523723377971597e-05 0 -0.014999981295331382 -1.874904329253325e-09 0 -0.014972967314741415 1.0523723377971597e-05 0 -0.014999902106908795 1.3260354971738919e-08 0 -0.014839914931639067 3.4228147944347702e-05 0 -0.014972967314741415 1.0523723377971597e-05 0 -0.014908349288086611 -2.6552074016841922e-06 0 -0.015280400385175594 0.00019447159599829297 0 -0.01483071073881443 -6.7644628995154808e-05 0 -0.014972967314741415 1.0523723377971597e-05 0 -0.014908349288086611 -2.6552074016841922e-06 0 -0.014925646824013782 -1.0658104146901073e-05 0 -0.014854807237313585 -2.2892644607448454e-05 0 -0.014839914931639067 3.4228147944347702e-05 0 -0.014908349288086611 -2.6552074016841922e-06 0 -0.014854807237313585 -2.2892644607448454e-05 0 -0.014908349288086611 -2.6552074016841922e-06 0 -0.014897704292235999 -2.1835480203596773e-05 0 -0.014908349288086611 -2.6552074016841922e-06 0 -0.014897704292235999 -2.1835480203596773e-05 0 -0.014925646824013782 -1.0658104146901073e-05 0 -0.014898375082051824 -2.2471969031267333e-05 0 -0.014897704292235999 -2.1835480203596773e-05 0 -0.014925646824013782 -1.0658104146901073e-05 0 -0.014898375082051824 -2.2471969031267333e-05 0 -0.014897704292235999 -2.1835480203596773e-05 0 -0.014878847606170425 -3.1420122313698545e-05 0 -0.01499456349957703 -6.4716290975419739e-05 0 -0.012993578967450283 0.00041714414223247389 0 -0.014854807237313585 -2.2892644607448454e-05 0 -0.014897704292235999 -2.1835480203596773e-05 0 -0.014878847606170425 -3.1420122313698545e-05 0 -0.01231041468457887 -0.00010204250191531718 0 -0.012993578967450283 0.00041714414223247389 0 -0.014575116761896613 -0.00028511176363616103 0 -0.012993578967450283 0.00041714414223247389 0 -0.014566970833130331 -0.0001074966607228468 0 -0.014854807237313585 -2.2892644607448454e-05 0 -0.014871225625189647 -0.00021606385518931003 0 -0.0087693789671072133 0.00045275497753152186 0 -0.0088104109037851347 0.0001634475422807886 0 -0.0085546239107338468 0.00025197071487270234 0 -0.0087693789671072133 0.00045275497753152186 0 -0.0085546239107338468 0.00025197071487270234 0 -0.0084767641614378834 0.00051463391739503962 0 -0.014616003787355773 9.4920907671856207e-05 0 -0.01442255436790831 0.0001663388449481442 0 -0.014477318405774889 -7.9372716903099234e-05 0 -0.012993578967450283 0.00041714414223247389 0 -0.011396888325710041 0.00022215773621120597 0 -0.014616003787355773 9.4920907671856207e-05 0 -0.014477318405774889 -7.9372716903099234e-05 0 -0.01465426133221312 -7.9694284623121011e-05 0 -0.014722602198915033 -0.00018356041429003225 0 -0.014829003399323715 -1.2031220251755006e-05 0 -0.01465426133221312 -7.9694284623121011e-05 0 -0.014616003787355773 9.4920907671856207e-05 0 -0.014829003399323715 -1.2031220251755006e-05 0 -0.01465426133221312 -7.9694284623121011e-05 0 -0.01499456349957703 -6.4716290975419739e-05 0 -0.014747560299272608 2.474218754829147e-05 0 -0.014722602198915033 -0.00018356041429003225 0 -0.014829003399323715 -1.2031220251755006e-05 0 -0.01489229743053104 -7.595460759063469e-05 0 -0.01489229743053104 -7.595460759063469e-05 0 -0.014888530386835019 -1.5090778720250563e-05 0 -0.014929181423940957 -2.0250839403278972e-05 0 -0.014829003399323715 -1.2031220251755006e-05 0 -0.01489229743053104 -7.595460759063469e-05 0 -0.014888530386835019 -1.5090778720250563e-05 0 -0.014888530386835019 -1.5090778720250563e-05 0 -0.014894742473197008 -1.6488161885279696e-05 0 -0.014933600376428225 -4.0347345896857635e-06 0 -0.014933600376428225 -4.0347345896857635e-06 0 -0.014960255027330135 -3.6656067399041409e-06 0 -0.014929181423940957 -2.0250839403278972e-05 0 -0.014888530386835019 -1.5090778720250563e-05 0 -0.014933600376428225 -4.0347345896857635e-06 0 -0.014929181423940957 -2.0250839403278972e-05 0 -0.014898375082051824 -2.2471969031267333e-05 0 -0.014894742473197008 -1.6488161885279696e-05 0 -0.014925646824013782 -1.0658104146901073e-05 0 -0.014829003399323715 -1.2031220251755006e-05 0 -0.014888530386835019 -1.5090778720250563e-05 0 -0.014894742473197008 -1.6488161885279696e-05 0 -0.014898375082051824 -2.2471969031267333e-05 0 -0.014829003399323715 -1.2031220251755006e-05 0 -0.014894742473197008 -1.6488161885279696e-05 0 -0.014925646824013782 -1.0658104146901073e-05 0 -0.014961557967574916 1.6938736375368914e-06 0 -0.014933600376428225 -4.0347345896857635e-06 0 -0.014894742473197008 -1.6488161885279696e-05 0 -0.014925646824013782 -1.0658104146901073e-05 0 -0.014933600376428225 -4.0347345896857635e-06 0 -0.014972967314741415 1.0523723377971597e-05 0 -0.014925646824013782 -1.0658104146901073e-05 0 -0.014961557967574916 1.6938736375368914e-06 0 -0.014972967314741415 1.0523723377971597e-05 0 -0.014961557967574916 1.6938736375368914e-06 0 -0.014999902106908795 1.3260354971738919e-08 0 -0.014999902106908795 1.3260354971738919e-08 0 -0.014973304993762602 3.3906098980454767e-06 0 -0.014999970185543629 8.3178599514056839e-09 0 -0.014961557967574916 1.6938736375368914e-06 0 -0.014999902106908795 1.3260354971738919e-08 0 -0.014973304993762602 3.3906098980454767e-06 0 -0.014973304993762602 3.3906098980454767e-06 0 -0.014933600376428225 -4.0347345896857635e-06 0 -0.014960255027330135 -3.6656067399041409e-06 0 -0.014961557967574916 1.6938736375368914e-06 0 -0.014973304993762602 3.3906098980454767e-06 0 -0.014933600376428225 -4.0347345896857635e-06 0 -0.014960255027330135 -3.6656067399041409e-06 0 -0.014987449285954805 1.2643679331271542e-06 0 -0.014980069177812258 -6.2339671959373678e-06 0 -0.014973304993762602 3.3906098980454767e-06 0 -0.014960255027330135 -3.6656067399041409e-06 0 -0.014987449285954805 1.2643679331271542e-06 0 -0.014973304993762602 3.3906098980454767e-06 0 -0.014987449285954805 1.2643679331271542e-06 0 -0.014999970185543629 8.3178599514056839e-09 0 -0.014999996142760832 -1.5429881280058103e-10 0 -0.014999970185543629 8.3178599514056839e-09 0 -0.014993988925381528 5.2079496692340402e-09 0 -0.014987449285954805 1.2643679331271542e-06 0 -0.014999970185543629 8.3178599514056839e-09 0 -0.014993988925381528 5.2079496692340402e-09 0 -0.014987449285954805 1.2643679331271542e-06 0 -0.014993988925381528 5.2079496692340402e-09 0 -0.014986156533636961 -5.675585988497016e-06 0 -0.014994476490914722 -5.6329805306660402e-06 0 -0.014993988925381528 5.2079496692340402e-09 0 -0.014986156533636961 -5.675585988497016e-06 0 -0.014971237735205511 3.0576011891585074e-05 0 -0.015050078585314564 -7.8009163385637435e-05 0 -0.014980069177812258 -6.2339671959373678e-06 0 -0.01496259718240394 -3.2431579191392921e-05 0 -0.015004763933213228 -4.8997984944714674e-05 0 -0.014994476490914722 -5.6329805306660402e-06 0 -0.014986156533636961 -5.675585988497016e-06 0 -0.014981866874606902 -1.2817531191670946e-05 0 -0.015050078585314564 -7.8009163385637435e-05 0 -0.013869380433505888 2.6788341778038256e-05 0 -0.014960255027330135 -3.6656067399041409e-06 0 -0.014980069177812258 -6.2339671959373678e-06 0 -0.01496259718240394 -3.2431579191392921e-05 0 -0.014960255027330135 -3.6656067399041409e-06 0 -0.014929181423940957 -2.0250839403278972e-05 0 -0.01496259718240394 -3.2431579191392921e-05 0 -0.014959337343418999 -0.00013795873282132631 0 -0.01489229743053104 -7.595460759063469e-05 0 -0.01496259718240394 -3.2431579191392921e-05 0 -0.01489229743053104 -7.595460759063469e-05 0 -0.014929181423940957 -2.0250839403278972e-05 0 -0.01496259718240394 -3.2431579191392921e-05 0 -0.011389009045855944 -1.1543519903055067e-05 0 -0.011350025549329224 -2.2515716571487574e-06 0 -0.011363018630632127 -1.1536397906231392e-05 0 -0.01314905942437901 -3.7854671109353745e-05 0 -0.013869380433505888 2.6788341778038256e-05 0 -0.013027404883097546 -0.00012320176893784284 0 -0.013869380433505888 2.6788341778038256e-05 0 -0.014959337343418999 -0.00013795873282132631 0 -0.01496259718240394 -3.2431579191392921e-05 0 -0.015004763933213228 -4.8997984944714674e-05 0 -0.011350025549329224 -2.2515716571487574e-06 0 -0.011382372564786065 3.8001162826360369e-06 0 -0.011363018630632127 -1.1536397906231392e-05 0 -0.013501775329545659 3.5418308746109339e-05 0 -0.013629440074284406 -0.00013699362595520349 0 -0.013568986512505503 8.4812374227611668e-05 0 -0.013353876270648983 2.5399373103164021e-05 0 -0.013501834556475752 0.00019927309413055665 0 -0.013568986512505503 8.4812374227611668e-05 0 -0.013615624289650753 -8.6214724978388085e-05 0 -0.013718583999598874 0.00010404947257190246 0 -0.013568986512505503 8.4812374227611668e-05 0 -0.013353876270648983 2.5399373103164021e-05 0 -0.013410092104859613 -0.00018035515475053315 0 -0.013353876270648983 2.5399373103164021e-05 0 -0.013349967293596141 0.00023683203484046501 0 -0.013111824049610976 7.1628983990776771e-05 0 -0.013629440074284406 -0.00013699362595520349 0 -0.014205122383780759 -0.000332161453928944 0 -0.013353876270648983 2.5399373103164021e-05 0 -0.013410092104859613 -0.00018035515475053315 0 -0.01318244626911548 -0.00028152155011625817 0 -0.013629440074284406 -0.00013699362595520349 0 -0.013778053566257864 -2.5018221278920439e-05 0 -0.013568986512505503 8.4812374227611668e-05 0 -0.013420318163759295 -0.00017190237381297215 0 -0.013615624289650753 -8.6214724978388085e-05 0 -0.013975702821367036 2.6433303931367178e-05 0 -0.013902776222778681 1.8014421039899981e-05 0 -0.013922119071143773 6.0051314651861361e-05 0 -0.013902776222778681 1.8014421039899981e-05 0 -0.013922119071143773 6.0051314651861361e-05 0 -0.013865768893959756 7.7655515146767381e-05 0 -0.013902776222778681 1.8014421039899981e-05 0 -0.013842026782144698 1.7596113977973322e-05 0 -0.013865768893959756 7.7655515146767381e-05 0 -0.013886751551553753 2.9878638761647123e-05 0 -0.013793430088826457 -2.6538783893013346e-07 0 -0.013861939127718931 2.1676190444434579e-05 0 -0.013842026782144698 1.7596113977973322e-05 0 -0.013865768893959756 7.7655515146767381e-05 0 -0.013897567667011935 -3.6648784598743247e-05 0 -0.013861939127718931 2.1676190444434579e-05 0 -0.013869689833817136 -7.1551583224766855e-05 0 -0.013897567667011935 -3.6648784598743247e-05 0 -0.013861939127718931 2.1676190444434579e-05 0 -0.013936130038057725 6.0427520749814448e-05 0 -0.013897567667011935 -3.6648784598743247e-05 0 -0.013936130038057725 6.0427520749814448e-05 0 -0.013956635615098977 -4.7047682686243161e-05 0 -0.013861939127718931 2.1676190444434579e-05 0 -0.013852516622824869 6.833156140338711e-05 0 -0.013936130038057725 6.0427520749814448e-05 0 -0.013861939127718931 2.1676190444434579e-05 0 -0.013852516622824869 6.833156140338711e-05 0 -0.013842026782144698 1.7596113977973322e-05 0 -0.013852516622824869 6.833156140338711e-05 0 -0.013936130038057725 6.0427520749814448e-05 0 -0.013819916675203816 0.00017497379482457959 0 -0.013778053566257864 -2.5018221278920439e-05 0 -0.013829560293563891 7.0942224120405476e-06 0 -0.013615624289650753 -8.6214724978388085e-05 0 -0.013842026782144698 1.7596113977973322e-05 0 -0.013718583999598874 0.00010404947257190246 0 -0.013852516622824869 6.833156140338711e-05 0 -0.013804291308679162 9.1094777219132402e-05 0 -0.013819916675203816 0.00017497379482457959 0 -0.013804291308679162 9.1094777219132402e-05 0 -0.013718583999598874 0.00010404947257190246 0 -0.013819916675203816 0.00017497379482457959 0 -0.013842026782144698 1.7596113977973322e-05 0 -0.013804291308679162 9.1094777219132402e-05 0 -0.013718583999598874 0.00010404947257190246 0 -0.013852516622824869 6.833156140338711e-05 0 -0.013842026782144698 1.7596113977973322e-05 0 -0.013804291308679162 9.1094777219132402e-05 0 -0.013647062603973812 0.00024958215274540539 0 -0.013830772426407973 0.00035140933056927173 0 -0.01371119966880322 0.00036513372411700574 0 -0.013737754257472781 0.00027805401639206313 0 -0.0136384583553313 0.00031288360897694181 0 -0.013819916675203816 0.00017497379482457959 0 -0.013647062603973812 0.00024958215274540539 0 -0.013881867473937165 0.00032204621015839274 0 -0.013718583999598874 0.00010404947257190246 0 -0.013819916675203816 0.00017497379482457959 0 -0.013647062603973812 0.00024958215274540539 0 -0.01393244115709436 -1.580173944585829e-06 0 -0.0136384583553313 0.00031288360897694181 0 -0.013967822795532455 -2.1431159092277504e-05 0 -0.013862597882992057 0.00025688678745861406 0 -0.014005673839527222 0.00015130064212955517 0 -0.013936130038057725 6.0427520749814448e-05 0 -0.013819916675203816 0.00017497379482457959 0 -0.013881867473937165 0.00032204621015839274 0 -0.01259514529369409 0.00087837660737519413 0 -0.0136384583553313 0.00031288360897694181 0 -0.012680721265413282 0.00059967535732177214 0 -0.012778455570281627 0.00066849264068560062 0 -0.012804482291748369 0.00027084822077512135 0 -0.012778455570281627 0.00066849264068560062 0 -0.012804482291748369 0.00027084822077512135 0 -0.013083823409161284 0.00038931308419299499 0 -0.013862597882992057 0.00025688678745861406 0 -0.014022517922284206 0.00032091087055201805 0 -0.014005673839527222 0.00015130064212955517 0 -0.0136384583553313 0.00031288360897694181 0 -0.012979760731240244 0.00020629353957155513 0 -0.011983687709995139 0.0004630778475419368 0 -0.012979760731240244 0.00020629353957155513 0 -0.013768629921085941 0.00051352368460420037 0 -0.01371119966880322 0.00036513372411700574 0 -0.013583363398947168 0.00038595846724707989 0 -0.013768629921085941 0.00051352368460420037 0 -0.013830772426407973 0.00035140933056927173 0 -0.01371119966880322 0.00036513372411700574 0 -0.01259514529369409 0.00087837660737519413 0 -0.012378762937250537 0.00093823274079536223 0 -0.011186909942555407 0.0017405806225189112 0 -0.011530784155627159 0.0017064965592914862 0 -0.011106743795527571 0.001417644547140306 0 -0.013647062603973812 0.00024958215274540539 0 -0.01371119966880322 0.00036513372411700574 0 -0.013583363398947168 0.00038595846724707989 0 -0.011186909942555407 0.0017405806225189112 0 -0.011106743795527571 0.001417644547140306 0 -0.010789878695438257 0.0016082029136315278 0 -0.011106743795527571 0.001417644547140306 0 -0.010688405113421194 0.0011276504118688723 0 -0.010789878695438257 0.0016082029136315278 0 -0.013647062603973812 0.00024958215274540539 0 -0.013583363398947168 0.00038595846724707989 0 -0.013501834556475752 0.00019927309413055665 0 -0.012378762937250537 0.00093823274079536223 0 -0.011940225405114937 0.00067542771351995594 0 -0.013583363398947168 0.00038595846724707989 0 -0.013501834556475752 0.00019927309413055665 0 -0.013349967293596141 0.00023683203484046501 0 -0.013568986512505503 8.4812374227611668e-05 0 -0.013718583999598874 0.00010404947257190246 0 -0.013647062603973812 0.00024958215274540539 0 -0.013568986512505503 8.4812374227611668e-05 0 -0.013647062603973812 0.00024958215274540539 0 -0.013501834556475752 0.00019927309413055665 0 -0.013353876270648983 2.5399373103164021e-05 0 -0.013501834556475752 0.00019927309413055665 0 -0.013349967293596141 0.00023683203484046501 0 -0.010688405113421194 0.0011276504118688723 0 -0.010789878695438257 0.0016082029136315278 0 -0.010428259019840886 0.0015603894414857886 0 -0.010097824624901275 0.0016702303573969874 0 -0.010428259019840886 0.0015603894414857886 0 -0.010182728649940676 0.0012389563797240058 0 -0.010097824624901275 0.0016702303573969874 0 -0.0098436525644254157 0.0013308015515580325 0 -0.010182728649940676 0.0012389563797240058 0 -0.0098436525644254157 0.0013308015515580325 0 -0.009941942843828936 0.0010157529376869114 0 -0.010182728649940676 0.0012389563797240058 0 -0.009941942843828936 0.0010157529376869114 0 -0.010182728649940676 0.0012389563797240058 0 -0.010242239345664012 0.0008663371930515022 0 -0.010083011062606033 0.001515000487344398 0 -0.012204844633417642 0.00021383394525652133 0 -0.011940225405114937 0.00067542771351995594 0 -0.012204844633417642 0.00021383394525652133 0 -0.010688405113421194 0.0011276504118688723 0 -0.010428259019840886 0.0015603894414857886 0 -0.010182728649940676 0.0012389563797240058 0 -0.010688405113421194 0.0011276504118688723 0 -0.010182728649940676 0.0012389563797240058 0 -0.010266377497418225 0.00082404754330680998 0 -0.0089629891177494432 0.001222610773076471 0 -0.0092135907820937793 0.0015506802344986761 0 -0.0088645321322115746 0.0014854373764272711 0 -0.008960336212428489 0.0012000281635076661 0 -0.0090179685237696712 0.0014872666555068579 0 -0.0098436525644254157 0.0013308015515580325 0 -0.0094313706330135753 0.0016417945586384938 0 -0.0095605276830146961 0.0010976068347043097 0 -0.010097824624901275 0.0016702303573969874 0 -0.0098436525644254157 0.0013308015515580325 0 -0.0094313706330135753 0.0016417945586384938 0 -0.0098436525644254157 0.0013308015515580325 0 -0.009941942843828936 0.0010157529376869114 0 -0.0095605276830146961 0.0010976068347043097 0 -0.008960336212428489 0.0012000281635076661 0 -0.0094313706330135753 0.0016417945586384938 0 -0.0095605276830146961 0.0010976068347043097 0 -0.008960336212428489 0.0012000281635076661 0 -0.0095605276830146961 0.0010976068347043097 0 -0.009255296717303926 0.00080818180158525124 0 -0.0095605276830146961 0.0010976068347043097 0 -0.009255296717303926 0.00080818180158525124 0 -0.0098301209797211526 0.00060697246283534861 0 -0.009941942843828936 0.0010157529376869114 0 -0.0095605276830146961 0.0010976068347043097 0 -0.0098301209797211526 0.00060697246283534861 0 -0.009255296717303926 0.00080818180158525124 0 -0.0098301209797211526 0.00060697246283534861 0 -0.0094388878888796504 0.0003749666890291147 0 -0.012261130034043657 0.00011458695586473817 0 -0.012231025891735943 6.5615023068782047e-05 0 -0.0089718251873937647 0.00064674359814702689 0 -0.009255296717303926 0.00080818180158525124 0 -0.0094388878888796504 0.0003749666890291147 0 -0.009941942843828936 0.0010157529376869114 0 -0.010242239345664012 0.0008663371930515022 0 -0.0098301209797211526 0.00060697246283534861 0 -0.012204844633417642 0.00021383394525652133 0 -0.012261130034043657 0.00011458695586473817 0 -0.014530800201800373 -0.00046862525078239547 0 -0.014677329764185187 -0.00038025322779607236 0 -0.014525029118133921 -0.00028960085235822029 0 -0.012204844633417642 0.00021383394525652133 0 -0.014205122383780759 -0.000332161453928944 0 -0.013353876270648983 2.5399373103164021e-05 0 -0.013111824049610976 7.1628983990776771e-05 0 -0.01318244626911548 -0.00028152155011625817 0 -0.014661537744308433 -0.00027475390659458226 0 -0.014692055180788255 -0.00023006602419631291 0 -0.014649316044197875 -0.00022783158757577632 0 -0.014205122383780759 -0.000332161453928944 0 -0.01421425202947672 2.8417296274832483e-05 0 -0.014661537744308433 -0.00027475390659458226 0 -0.014720520694738547 -0.00024129925646398538 0 -0.014692055180788255 -0.00023006602419631291 0 -0.014205122383780759 -0.000332161453928944 0 -0.014867106303020794 -0.00020290423025189473 0 -0.014677329764185187 -0.00038025322779607236 0 -0.014525029118133921 -0.00028960085235822029 0 -0.014720520694738547 -0.00024129925646398538 0 -0.014692055180788255 -0.00023006602419631291 0 -0.014741500771532317 -0.0002135505029201251 0 -0.014680047573886353 -0.00016508825809133344 0 -0.014720520694738547 -0.00024129925646398538 0 -0.014692055180788255 -0.00023006602419631291 0 -0.014741500771532317 -0.0002135505029201251 0 -0.01421425202947672 2.8417296274832483e-05 0 -0.014412625864461607 2.001724390735902e-05 0 -0.014082251764912868 0.00010463206519812217 0 -0.014158548120234971 0.00022085909005024028 0 -0.014067700077114515 0.00018674548838081416 0 -0.014692055180788255 -0.00023006602419631291 0 -0.014649316044197875 -0.00022783158757577632 0 -0.014680047573886353 -0.00016508825809133344 0 -0.01421425202947672 2.8417296274832483e-05 0 -0.014095793760565894 0.00019994526918129456 0 -0.01480572828951438 -0.0002341720934494175 0 -0.014772985554533845 -0.00028980541369921808 0 -0.014794980358151561 -0.00021134035996824571 0 -0.011112888356558877 9.4803576269002047e-05 0 -0.012231025891735943 6.5615023068782047e-05 0 -0.014677329764185187 -0.00038025322779607236 0 -0.014720520694738547 -0.00024129925646398538 0 -0.014772985554533845 -0.00028980541369921808 0 -0.014720520694738547 -0.00024129925646398538 0 -0.014772985554533845 -0.00028980541369921808 0 -0.014794980358151561 -0.00021134035996824571 0 -0.014720520694738547 -0.00024129925646398538 0 -0.014772343738824266 -0.00021288863143396222 0 -0.014794980358151561 -0.00021134035996824571 0 -0.014720520694738547 -0.00024129925646398538 0 -0.014741500771532317 -0.0002135505029201251 0 -0.014772343738824266 -0.00021288863143396222 0 -0.014741500771532317 -0.0002135505029201251 0 -0.014772343738824266 -0.00021288863143396222 0 -0.014827808129226315 -0.00017741867580395369 0 -0.014772343738824266 -0.00021288863143396222 0 -0.014794980358151561 -0.00021134035996824571 0 -0.014827808129226315 -0.00017741867580395369 0 -0.01480572828951438 -0.0002341720934494175 0 -0.014807994670405262 -0.00019670472850436886 0 -0.014794980358151561 -0.00021134035996824571 0 -0.014806305293937984 -0.00019049142567374104 0 -0.014827808129226315 -0.00017741867580395369 0 -0.014784865348202584 -0.00021210973823270279 0 -0.014819884225143081 -0.00020602138311762315 0 -0.014934636098210656 -3.5554675362329645e-05 0 -0.014807994670405262 -0.00019670472850436886 0 -0.014794980358151561 -0.00021134035996824571 0 -0.014806305293937984 -0.00019049142567374104 0 -0.014547801632194293 -0.00037078222378129065 0 -0.014841910668649001 -0.00022980461644010649 0 -0.014778320842663353 -0.00018214329522916689 0 -0.014806305293937984 -0.00019049142567374104 0 -0.014784865348202584 -0.00021210973823270279 0 -0.014794980358151561 -0.00021134035996824571 0 -0.014806305293937984 -0.00019049142567374104 0 -0.014827808129226315 -0.00017741867580395369 0 -0.014827808129226315 -0.00017741867580395369 0 -0.014915145285653403 -7.3778358888216384e-05 0 -0.014756000013339777 -4.7812759903998127e-05 0 -0.015000074186638342 1.1826901772954619e-08 0 -0.014719683093079519 8.7725346398870489e-05 0 -0.0150000015853087 3.6220960763465582e-11 0 -0.014999125739892191 2.2233396152372418e-07 0 -0.014999995856824272 3.8196560243173421e-10 0 -0.014999507552488158 4.512647207466806e-08 0 -0.014915145285653403 -7.3778358888216384e-05 0 -0.014756000013339777 -4.7812759903998127e-05 0 -0.014999507552488158 4.512647207466806e-08 0 -0.014915145285653403 -7.3778358888216384e-05 0 -0.014992262095152744 -2.0239978502264746e-05 0 -0.014915145285653403 -7.3778358888216384e-05 0 -0.014992262095152744 -2.0239978502264746e-05 0 -0.015055365361473345 -4.3427495544259553e-05 0 -0.014827808129226315 -0.00017741867580395369 0 -0.014915145285653403 -7.3778358888216384e-05 0 -0.015055365361473345 -4.3427495544259553e-05 0 -0.014999507552488158 4.512647207466806e-08 0 -0.014992262095152744 -2.0239978502264746e-05 0 -0.015000327514356442 -4.662953149306048e-08 0 -0.014999956494500137 -3.3268648774626247e-08 0 -0.014934636098210656 -3.5554675362329645e-05 0 -0.014992262095152744 -2.0239978502264746e-05 0 -0.015000327514356442 -4.662953149306048e-08 0 -0.015055365361473345 -4.3427495544259553e-05 0 -0.014158548120234971 0.00022085909005024028 0 -0.014067700077114515 0.00018674548838081416 0 -0.014050885758247129 0.0002655078088656464 0 -0.014158548120234971 0.00022085909005024028 0 -0.014238194863001053 0.0003384289110597624 0 -0.014050885758247129 0.0002655078088656464 0 -0.014827808129226315 -0.00017741867580395369 0 -0.014680047573886353 -0.00016508825809133344 0 -0.014756000013339777 -4.7812759903998127e-05 0 -0.014741500771532317 -0.0002135505029201251 0 -0.014827808129226315 -0.00017741867580395369 0 -0.014680047573886353 -0.00016508825809133344 0 -0.014412625864461607 2.001724390735902e-05 0 -0.014719683093079519 8.7725346398870489e-05 0 -0.014999426044837184 -8.6880287700998991e-08 0 -0.01499999631420168 1.395853582811763e-09 0 -0.015000002440717733 -2.9773956721429603e-09 0 -0.014719683093079519 8.7725346398870489e-05 0 -0.014999783036277359 1.3032656498635394e-07 0 -0.014719683093079519 8.7725346398870489e-05 0 -0.014519379498669121 0.00015642931677066238 0 -0.014999426044837184 -8.6880287700998991e-08 0 -0.015000002440717733 -2.9773956721429603e-09 0 -0.014997354136689687 -2.8856737958227884e-06 0 -0.014999977592394634 3.8434234468301705e-09 0 -0.014989648852200846 -3.6526439052298948e-06 0 -0.014997354136689687 -2.8856737958227884e-06 0 -0.015000002440717733 -2.9773956721429603e-09 0 -0.014999977592394634 3.8434234468301705e-09 0 -0.014997354136689687 -2.8856737958227884e-06 0 -0.014996080729684405 -1.7916122955092834e-06 0 -0.015000005408285558 6.242264806319998e-09 0 -0.014999989476432685 -5.1517238269216767e-09 0 -0.014996080729684405 -1.7916122955092834e-06 0 -0.015000005408285558 6.242264806319998e-09 0 -0.015004654098801039 -2.2058268732938884e-05 0 -0.014999987842190754 -2.3673186254009365e-08 0 -0.014985005411151834 1.9228535979552393e-05 0 -0.014996080729684405 -1.7916122955092834e-06 0 -0.015004654098801039 -2.2058268732938884e-05 0 -0.014976464584139372 -3.9671201411396018e-05 0 -0.014989648852200846 -3.6526439052298948e-06 0 -0.014982200994564078 -1.1289824436277923e-05 0 -0.014997354136689687 -2.8856737958227884e-06 0 -0.015004654098801039 -2.2058268732938884e-05 0 -0.014976464584139372 -3.9671201411396018e-05 0 -0.014980021165498373 -9.0757457250701006e-05 0 -0.014985005411151834 1.9228535979552393e-05 0 -0.014398142302589755 -8.5969361027314838e-06 0 -0.013912851649699395 0.00019961969718780114 0 -0.014050885758247129 0.0002655078088656464 0 -0.013998377905968756 0.00017914846464129149 0 -0.014398142302589755 -8.5969361027314838e-06 0 -0.014519379498669121 0.00015642931677066238 0 -0.014067700077114515 0.00018674548838081416 0 -0.014050885758247129 0.0002655078088656464 0 -0.013998377905968756 0.00017914846464129149 0 -0.014066966348506609 0.00013030499142196742 0 -0.014067700077114515 0.00018674548838081416 0 -0.013998377905968756 0.00017914846464129149 0 -0.014066966348506609 0.00013030499142196742 0 -0.013998377905968756 0.00017914846464129149 0 -0.013960094383878307 0.00011294738157788145 0 -0.013912851649699395 0.00019961969718780114 0 -0.013960094383878307 0.00011294738157788145 0 -0.013865768893959756 7.7655515146767381e-05 0 -0.013912851649699395 0.00019961969718780114 0 -0.013998377905968756 0.00017914846464129149 0 -0.013960094383878307 0.00011294738157788145 0 -0.013975702821367036 2.6433303931367178e-05 0 -0.013922119071143773 6.0051314651861361e-05 0 -0.013960094383878307 0.00011294738157788145 0 -0.013922119071143773 6.0051314651861361e-05 0 -0.013960094383878307 0.00011294738157788145 0 -0.013865768893959756 7.7655515146767381e-05 0 -0.013843183369777931 -0.00029038768425736802 0 -0.01409232621896497 -0.00018376437041674784 0 -0.01405380492959662 4.956900712782078e-05 0 -0.013975702821367036 2.6433303931367178e-05 0 -0.014066966348506609 0.00013030499142196742 0 -0.013960094383878307 0.00011294738157788145 0 -0.013629440074284406 -0.00013699362595520349 0 -0.01421425202947672 2.8417296274832483e-05 0 -0.013897567667011935 -3.6648784598743247e-05 0 -0.013916624890899091 -8.0956311806027113e-05 0 -0.013956635615098977 -4.7047682686243161e-05 0 -0.013897567667011935 -3.6648784598743247e-05 0 -0.013916624890899091 -8.0956311806027113e-05 0 -0.013869689833817136 -7.1551583224766855e-05 0 -0.014398142302589755 -8.5969361027314838e-06 0 -0.013793430088826457 -2.6538783893013346e-07 0 -0.014398142302589755 -8.5969361027314838e-06 0 -0.014555814701298775 -0.00011684610609353694 0 -0.013869435910251474 -0.00010937446918669273 0 -0.013869689833817136 -7.1551583224766855e-05 0 -0.013896659916571701 -0.00010038021039080867 0 -0.014990496079143562 -6.6701400603427374e-06 0 -0.014994423850634465 -4.317309741409636e-06 0 -0.014993293342202021 -3.0685094852584631e-06 0 -0.013916624890899091 -8.0956311806027113e-05 0 -0.013869689833817136 -7.1551583224766855e-05 0 -0.013896659916571701 -0.00010038021039080867 0 -0.014458901758566182 -4.3118170385106248e-05 0 -0.014555814701298775 -0.00011684610609353694 0 -0.014994423850634465 -4.317309741409636e-06 0 -0.014996593662781527 -1.1502512280452164e-06 0 -0.014998207464890034 -9.9932192862019438e-07 0 -0.014996593662781527 -1.1502512280452164e-06 0 -0.014998207464890034 -9.9932192862019438e-07 0 -0.014998538772019893 -4.9536902087649171e-07 0 -0.014994423850634465 -4.317309741409636e-06 0 -0.014996593662781527 -1.1502512280452164e-06 0 -0.014993293342202021 -3.0685094852584631e-06 0 -0.014980021165498373 -9.0757457250701006e-05 0 -0.014858928696931407 -0.00013884421904811632 0 -0.014926829554980179 -5.5029620937326843e-05 0 -0.014555814701298775 -0.00011684610609353694 0 -0.014999548797825694 5.3044935701030051e-06 0 -0.014976464584139372 -3.9671201411396018e-05 0 -0.014980021165498373 -9.0757457250701006e-05 0 -0.014926829554980179 -5.5029620937326843e-05 0 -0.014978827227621328 -1.8340397077507821e-05 0 -0.014999548797825694 5.3044935701030051e-06 0 -0.014996080729684405 -1.7916122955092834e-06 0 -0.014976464584139372 -3.9671201411396018e-05 0 -0.014926829554980179 -5.5029620937326843e-05 0 -0.014996080729684405 -1.7916122955092834e-06 0 -0.014998207464890034 -9.9932192862019438e-07 0 -0.014998562865552272 -8.1446235665686793e-07 0 -0.014998207464890034 -9.9932192862019438e-07 0 -0.014998562865552272 -8.1446235665686793e-07 0 -0.014998538772019893 -4.9536902087649171e-07 0 -0.014998562865552272 -8.1446235665686793e-07 0 -0.014999989476432685 -5.1517238269216767e-09 0 -0.014998538772019893 -4.9536902087649171e-07 0 -0.014996080729684405 -1.7916122955092834e-06 0 -0.014998562865552272 -8.1446235665686793e-07 0 -0.014999989476432685 -5.1517238269216767e-09 0 -0.014996593662781527 -1.1502512280452164e-06 0 -0.014998538772019893 -4.9536902087649171e-07 0 -0.014999996680537 7.9005034494626486e-10 0 -0.014999989476432685 -5.1517238269216767e-09 0 -0.014998538772019893 -4.9536902087649171e-07 0 -0.014999996680537 7.9005034494626486e-10 0 -0.014996593662781527 -1.1502512280452164e-06 0 -0.014999996680537 7.9005034494626486e-10 0 -0.014995512881155384 -1.0183713986277563e-06 0 -0.014999955836383399 2.1092297112018893e-08 0 -0.014911679997120609 3.2850154695897658e-05 0 -0.014999996680537 7.9005034494626486e-10 0 -0.01499999481695624 -8.7798541548481514e-10 0 -0.014995512881155384 -1.0183713986277563e-06 0 -0.014911679997120609 3.2850154695897658e-05 0 -0.01489422756659874 6.3096910356946124e-05 0 -0.014996593662781527 -1.1502512280452164e-06 0 -0.014995512881155384 -1.0183713986277563e-06 0 -0.014993293342202021 -3.0685094852584631e-06 0 -0.014999980611043701 1.9254674304717712e-08 0 -0.014960866531166466 1.255943348072194e-05 0 -0.014953046931074234 3.4193302615642983e-05 0 -0.014999980611043701 1.9254674304717712e-08 0 -0.014953046931074234 3.4193302615642983e-05 0 -0.014981956173413717 2.3380664378961998e-05 0 -0.014999677817505929 -8.5665689764612156e-09 0 -0.014830356333301077 4.7755350219917282e-05 0 -0.014960866531166466 1.255943348072194e-05 0 -0.014999677817505929 -8.5665689764612156e-09 0 -0.014999980611043701 1.9254674304717712e-08 0 -0.014960866531166466 1.255943348072194e-05 0 -0.014830356333301077 4.7755350219917282e-05 0 -0.014960866531166466 1.255943348072194e-05 0 -0.014894262225822526 5.9734901733549064e-05 0 -0.014830356333301077 4.7755350219917282e-05 0 -0.014894262225822526 5.9734901733549064e-05 0 -0.014806106314064345 0.00012672748720507984 0 -0.014953046931074234 3.4193302615642983e-05 0 -0.01491048092257739 0.00010547307864745988 0 -0.014964782703714059 6.2720308152816465e-05 0 -0.014894262225822526 5.9734901733549064e-05 0 -0.014953046931074234 3.4193302615642983e-05 0 -0.01491048092257739 0.00010547307864745988 0 -0.014960866531166466 1.255943348072194e-05 0 -0.014894262225822526 5.9734901733549064e-05 0 -0.014953046931074234 3.4193302615642983e-05 0 -0.014894262225822526 5.9734901733549064e-05 0 -0.01491048092257739 0.00010547307864745988 0 -0.014806106314064345 0.00012672748720507984 0 -0.014790443400966738 0.00012743434917433203 0 -0.014766710469191121 0.00016995200479165908 0 -0.014806106314064345 0.00012672748720507984 0 -0.014661104006245613 0.00013814861459329536 0 -0.014698563833474305 0.00014755389558033074 0 -0.01491048092257739 0.00010547307864745988 0 -0.014806106314064345 0.00012672748720507984 0 -0.014867087104051964 0.00021665061348426622 0 -0.01491048092257739 0.00010547307864745988 0 -0.014867087104051964 0.00021665061348426622 0 -0.01492574246989823 0.000167454093237639 0 -0.014995512881155384 -1.0183713986277563e-06 0 -0.014990274364023986 -4.0538890755901674e-06 0 -0.014993293342202021 -3.0685094852584631e-06 0 -0.014990496079143562 -6.6701400603427374e-06 0 -0.014990274364023986 -4.0538890755901674e-06 0 -0.014993293342202021 -3.0685094852584631e-06 0 -0.014830356333301077 4.7755350219917282e-05 0 -0.014806106314064345 0.00012672748720507984 0 -0.01473227354442742 0.00012237109501351366 0 -0.01473227354442742 0.00012237109501351366 0 -0.014698563833474305 0.00014755389558033074 0 -0.014696281128991084 0.00014155668956254648 0 -0.014806106314064345 0.00012672748720507984 0 -0.01473227354442742 0.00012237109501351366 0 -0.014698563833474305 0.00014755389558033074 0 -0.01489422756659874 6.3096910356946124e-05 0 -0.014437469345654836 -3.9341315886871411e-05 0 -0.014990496079143562 -6.6701400603427374e-06 0 -0.014990274364023986 -4.0538890755901674e-06 0 -0.014985567746110075 -9.2269739397294084e-06 0 -0.014458901758566182 -4.3118170385106248e-05 0 -0.014437469345654836 -3.9341315886871411e-05 0 -0.01393244115709436 -1.580173944585829e-06 0 -0.014437469345654836 -3.9341315886871411e-05 0 -0.013967822795532455 -2.1431159092277504e-05 0 -0.014074614011799973 -0.00029707953885278195 0 -0.014256786264041315 -5.9567917584898147e-05 0 -0.014437469345654836 -3.9341315886871411e-05 0 -0.014436341628973311 4.0275537955297106e-05 0 -0.013967822795532455 -2.1431159092277504e-05 0 -0.014256786264041315 -5.9567917584898147e-05 0 -0.014181635231763304 0.00017524665816037269 0 -0.014698563833474305 0.00014755389558033074 0 -0.014696281128991084 0.00014155668956254648 0 -0.01463987223448994 0.00014056733659038054 0 -0.014661104006245613 0.00013814861459329536 0 -0.014698563833474305 0.00014755389558033074 0 -0.014608752852035872 0.00013791683180483253 0 -0.014698563833474305 0.00014755389558033074 0 -0.01463987223448994 0.00014056733659038054 0 -0.014608752852035872 0.00013791683180483253 0 -0.014766710469191121 0.00016995200479165908 0 -0.014755325770371272 0.00019739251345829794 0 -0.014661104006245613 0.00013814861459329536 0 -0.014608752852035872 0.00013791683180483253 0 -0.014625886066116631 0.00012546251357015649 0 -0.014608752852035872 0.00013791683180483253 0 -0.014463732014930017 0.00019695056894079591 0 -0.014625886066116631 0.00012546251357015649 0 -0.01463987223448994 0.00014056733659038054 0 -0.014608752852035872 0.00013791683180483253 0 -0.014463732014930017 0.00019695056894079591 0 -0.014436341628973311 4.0275537955297106e-05 0 -0.014482070766955613 0.00019412497855496636 0 -0.014463732014930017 0.00019695056894079591 0 -0.01457565423787173 0.00024093142485000378 0 -0.014625886066116631 0.00012546251357015649 0 -0.014428153993682429 0.00035297493504203169 0 -0.01457565423787173 0.00024093142485000378 0 -0.014619917414062388 0.00041169911907508542 0 -0.014463732014930017 0.00019695056894079591 0 -0.014428153993682429 0.00035297493504203169 0 -0.01457565423787173 0.00024093142485000378 0 -0.014463732014930017 0.00019695056894079591 0 -0.014428153993682429 0.00035297493504203169 0 -0.014274225513817313 0.00042905551625379136 0 -0.014463732014930017 0.00019695056894079591 0 -0.014181635231763304 0.00017524665816037269 0 -0.014274225513817313 0.00042905551625379136 0 -0.014022517922284206 0.00032091087055201805 0 -0.014181635231763304 0.00017524665816037269 0 -0.014274225513817313 0.00042905551625379136 0 -0.012979760731240244 0.00020629353957155513 0 -0.01371563050724609 0.00021259127744051537 0 -0.013967822795532455 -2.1431159092277504e-05 0 -0.014005673839527222 0.00015130064212955517 0 -0.014181635231763304 0.00017524665816037269 0 -0.014022517922284206 0.00032091087055201805 0 -0.014005673839527222 0.00015130064212955517 0 -0.014181635231763304 0.00017524665816037269 0 -0.014256786264041315 -5.9567917584898147e-05 0 -0.014463732014930017 0.00019695056894079591 0 -0.014181635231763304 0.00017524665816037269 0 -0.014898292066106702 0.00029632371785098637 0 -0.01486740967426459 0.00030875393412716038 0 -0.014882788648375528 0.00027996033296332807 0 -0.014898292066106702 0.00029632371785098637 0 -0.014882788648375528 0.00027996033296332807 0 -0.014900877800165756 0.00027311096728624613 0 -0.014087593765466123 0.00035570608447887741 0 -0.014919336224506757 0.00029371032683793755 0 -0.014087593765466123 0.00035570608447887741 0 -0.013715670008697212 0.00037824783824284461 0 -0.014898292066106702 0.00029632371785098637 0 -0.014922314737475843 0.00029360095166008812 0 -0.01490493070996091 0.00033797067242904576 0 -0.014898292066106702 0.00029632371785098637 0 -0.014922314737475843 0.00029360095166008812 0 -0.014900877800165756 0.00027311096728624613 0 -0.012399637908256494 0.00048694356636542395 0 -0.012392186923444924 0.00047914980451399839 0 -0.012407810857975972 0.00049984057594037491 0 -0.012408938597307472 0.00048742719572372642 0 -0.012399637908256494 0.00048694356636542395 0 -0.012407810857975972 0.00049984057594037491 0 -0.012399637908256494 0.00048694356636542395 0 -0.012392186923444924 0.00047914980451399839 0 -0.012396211815707669 0.0004827242508763791 0 -0.012392186923444924 0.00047914980451399839 0 -0.012407810857975972 0.00049984057594037491 0 -0.012385888769214039 0.00044892054522807661 0 -0.01490493070996091 0.00033797067242904576 0 -0.014813685730786733 0.00036515710681320608 0 -0.01486740967426459 0.00030875393412716038 0 -0.014898292066106702 0.00029632371785098637 0 -0.01490493070996091 0.00033797067242904576 0 -0.01486740967426459 0.00030875393412716038 0 -0.014813685730786733 0.00036515710681320608 0 -0.014857686486950515 0.00029283087230552165 0 -0.01486740967426459 0.00030875393412716038 0 -0.014816052275263808 0.00036091531313542922 0 -0.01477470144259832 0.00025870355071456135 0 -0.014813685730786733 0.00036515710681320608 0 -0.014695279025795198 0.00031517888123903335 0 -0.014686121700325209 0.00020963411745085792 0 -0.014813685730786733 0.00036515710681320608 0 -0.014695279025795198 0.00031517888123903335 0 -0.014619917414062388 0.00041169911907508542 0 -0.01457565423787173 0.00024093142485000378 0 -0.014695279025795198 0.00031517888123903335 0 -0.014619917414062388 0.00041169911907508542 0 -0.01457565423787173 0.00024093142485000378 0 -0.014695279025795198 0.00031517888123903335 0 -0.014686121700325209 0.00020963411745085792 0 -0.01457565423787173 0.00024093142485000378 0 -0.014686121700325209 0.00020963411745085792 0 -0.014625886066116631 0.00012546251357015649 0 -0.014857686486950515 0.00029283087230552165 0 -0.014882788648375528 0.00027996033296332807 0 -0.014890885182406695 0.00026671258551535718 0 -0.014857686486950515 0.00029283087230552165 0 -0.01486740967426459 0.00030875393412716038 0 -0.014882788648375528 0.00027996033296332807 0 -0.014895324564163991 0.00026596115808641516 0 -0.014903721804937901 0.00025426124459997725 0 -0.014900877800165756 0.00027311096728624613 0 -0.014882788648375528 0.00027996033296332807 0 -0.014895324564163991 0.00026596115808641516 0 -0.014890885182406695 0.00026671258551535718 0 -0.014895324564163991 0.00026596115808641516 0 -0.014890885182406695 0.00026671258551535718 0 -0.014903721804937901 0.00025426124459997725 0 -0.01477470144259832 0.00025870355071456135 0 -0.014755325770371272 0.00019739251345829794 0 -0.014857686486950515 0.00029283087230552165 0 -0.014882293632010966 0.00026583447481641877 0 -0.014890885182406695 0.00026671258551535718 0 -0.014867087104051964 0.00021665061348426622 0 -0.014882293632010966 0.00026583447481641877 0 -0.014932850733392738 0.00023281718397240943 0 -0.014882293632010966 0.00026583447481641877 0 -0.014890885182406695 0.00026671258551535718 0 -0.014932850733392738 0.00023281718397240943 0 -0.014996304146985133 0.00027651168365204265 0 -0.015063804752439647 0.00018481481707271263 0 -0.014997017599241998 0.00020916557381658082 0 -0.014890885182406695 0.00026671258551535718 0 -0.014932850733392738 0.00023281718397240943 0 -0.014903721804937901 0.00025426124459997725 0 -0.014946694226862641 0.0002548553519584278 0 -0.014868402015160627 0.00021513653328900868 0 -0.014932850733392738 0.00023281718397240943 0 -0.014996304146985133 0.00027651168365204265 0 -0.014997017599241998 0.00020916557381658082 0 -0.014868402015160627 0.00021513653328900868 0 -0.014901234626491608 0.0001696593779186468 0 -0.014706014179555518 0.00019806180664526838 0 -0.01475841444723637 0.00019064516914483841 0 -0.014747859948707542 0.00014362895434447774 0 -0.014868402015160627 0.00021513653328900868 0 -0.014919336224506757 0.00029371032683793755 0 -0.014706014179555518 0.00019806180664526838 0 -0.01475841444723637 0.00019064516914483841 0 -0.014752053798137425 0.00023571270931098634 0 -0.01475841444723637 0.00019064516914483841 0 -0.014752053798137425 0.00023571270931098634 0 -0.014791866270203324 0.00021692040936320474 0 -0.014882788648375528 0.00027996033296332807 0 -0.014895324564163991 0.00026596115808641516 0 -0.014900877800165756 0.00027311096728624613 0 -0.01479521039288167 0.00027351774119167041 0 -0.014791866270203324 0.00021692040936320474 0 -0.01484044291709046 0.00022073556633326892 0 -0.01479521039288167 0.00027351774119167041 0 -0.014752053798137425 0.00023571270931098634 0 -0.014791866270203324 0.00021692040936320474 0 -0.01475841444723637 0.00019064516914483841 0 -0.014791866270203324 0.00021692040936320474 0 -0.014813632990160678 0.00016353954034219133 0 -0.01475841444723637 0.00019064516914483841 0 -0.014813632990160678 0.00016353954034219133 0 -0.014747859948707542 0.00014362895434447774 0 -0.014813632990160678 0.00016353954034219133 0 -0.014747859948707542 0.00014362895434447774 0 -0.014794356936832193 8.2620230164898918e-05 0 -0.014901234626491608 0.0001696593779186468 0 -0.014957482984218532 9.6891634918008893e-05 0 -0.015063804752439647 0.00018481481707271263 0 -0.015042284680747314 9.6447934960668016e-05 0 -0.015113019307012166 0.00011600298725751331 0 -0.015063804752439647 0.00018481481707271263 0 -0.015042284680747314 9.6447934960668016e-05 0 -0.014988601114798408 0.00014971667567051169 0 -0.015042284680747314 9.6447934960668016e-05 0 -0.015113019307012166 0.00011600298725751331 0 -0.015089650581656842 7.8487334463013162e-05 0 -0.014867087104051964 0.00021665061348426622 0 -0.014932850733392738 0.00023281718397240943 0 -0.01492574246989823 0.000167454093237639 0 -0.014932850733392738 0.00023281718397240943 0 -0.01492574246989823 0.000167454093237639 0 -0.014988601114798408 0.00014971667567051169 0 -0.014932850733392738 0.00023281718397240943 0 -0.014988601114798408 0.00014971667567051169 0 -0.014997017599241998 0.00020916557381658082 0 -0.015063804752439647 0.00018481481707271263 0 -0.014988601114798408 0.00014971667567051169 0 -0.014997017599241998 0.00020916557381658082 0 -0.015042284680747314 9.6447934960668016e-05 0 -0.014988601114798408 0.00014971667567051169 0 -0.014992450877604308 8.2081245367824395e-05 0 -0.01492574246989823 0.000167454093237639 0 -0.014988601114798408 0.00014971667567051169 0 -0.014955638693597709 0.00010842576595810229 0 -0.014988601114798408 0.00014971667567051169 0 -0.014955638693597709 0.00010842576595810229 0 -0.014992450877604308 8.2081245367824395e-05 0 -0.01491048092257739 0.00010547307864745988 0 -0.014955638693597709 0.00010842576595810229 0 -0.014964782703714059 6.2720308152816465e-05 0 -0.01491048092257739 0.00010547307864745988 0 -0.01492574246989823 0.000167454093237639 0 -0.014955638693597709 0.00010842576595810229 0 -0.014953046931074234 3.4193302615642983e-05 0 -0.014964782703714059 6.2720308152816465e-05 0 -0.014981956173413717 2.3380664378961998e-05 0 -0.014964782703714059 6.2720308152816465e-05 0 -0.014992322955835176 4.0850050771175347e-05 0 -0.014981956173413717 2.3380664378961998e-05 0 -0.014955638693597709 0.00010842576595810229 0 -0.014964782703714059 6.2720308152816465e-05 0 -0.014992450877604308 8.2081245367824395e-05 0 -0.014964782703714059 6.2720308152816465e-05 0 -0.014992322955835176 4.0850050771175347e-05 0 -0.014992450877604308 8.2081245367824395e-05 0 -0.015042284680747314 9.6447934960668016e-05 0 -0.014992450877604308 8.2081245367824395e-05 0 -0.015017485908502206 5.0574599907040901e-05 0 -0.014992322955835176 4.0850050771175347e-05 0 -0.015017485908502206 5.0574599907040901e-05 0 -0.015008640706352808 3.2640133697215285e-05 0 -0.014992322955835176 4.0850050771175347e-05 0 -0.014992450877604308 8.2081245367824395e-05 0 -0.015017485908502206 5.0574599907040901e-05 0 -0.015017485908502206 5.0574599907040901e-05 0 -0.015022266114533419 2.1022844704426695e-05 0 -0.01505137832981629 5.578254584766215e-05 0 -0.015007914515360779 9.1941807833571094e-06 0 -0.014998607583713649 4.3633310998141838e-06 0 -0.014999994888840641 1.3732436430493775e-09 0 -0.015000243852924687 3.6354392697863634e-07 0 -0.014997462646442011 3.140585417140848e-06 0 -0.015017485908502206 5.0574599907040901e-05 0 -0.015022266114533419 2.1022844704426695e-05 0 -0.015008640706352808 3.2640133697215285e-05 0 -0.015022266114533419 2.1022844704426695e-05 0 -0.015008640706352808 3.2640133697215285e-05 0 -0.015001245961639853 2.1327729733282702e-05 0 -0.014999980611043701 1.9254674304717712e-08 0 -0.014999994888840641 1.3732436430493775e-09 0 -0.014997462646442011 3.140585417140848e-06 0 -0.015022266114533419 2.1022844704426695e-05 0 -0.015001245961639853 2.1327729733282702e-05 0 -0.014997462646442011 3.140585417140848e-06 0 -0.014992322955835176 4.0850050771175347e-05 0 -0.015001245961639853 2.1327729733282702e-05 0 -0.014981956173413717 2.3380664378961998e-05 0 -0.014992322955835176 4.0850050771175347e-05 0 -0.015008640706352808 3.2640133697215285e-05 0 -0.015001245961639853 2.1327729733282702e-05 0 -0.014999980611043701 1.9254674304717712e-08 0 -0.014997462646442011 3.140585417140848e-06 0 -0.014981956173413717 2.3380664378961998e-05 0 -0.015001245961639853 2.1327729733282702e-05 0 -0.014997462646442011 3.140585417140848e-06 0 -0.014981956173413717 2.3380664378961998e-05 0 -0.015062905335266203 2.1149162957042659e-05 0 -0.01498535310584557 3.6056904837456455e-05 0 -0.015089650581656842 7.8487334463013162e-05 0 -0.01508911648427304 3.6896873543883171e-05 0 -0.01515785974741049 5.7048744808895718e-05 0 -0.015113019307012166 0.00011600298725751331 0 -0.015089650581656842 7.8487334463013162e-05 0 -0.01515785974741049 5.7048744808895718e-05 0 -0.015042284680747314 9.6447934960668016e-05 0 -0.015089650581656842 7.8487334463013162e-05 0 -0.01505137832981629 5.578254584766215e-05 0 -0.015042284680747314 9.6447934960668016e-05 0 -0.015017485908502206 5.0574599907040901e-05 0 -0.01505137832981629 5.578254584766215e-05 0 -0.015089650581656842 7.8487334463013162e-05 0 -0.01505137832981629 5.578254584766215e-05 0 -0.01508911648427304 3.6896873543883171e-05 0 -0.015007914515360779 9.1941807833571094e-06 0 -0.015062905335266203 2.1149162957042659e-05 0 -0.014999994888840641 1.3732436430493775e-09 0 -0.015000243852924687 3.6354392697863634e-07 0 -0.015000016161701648 -4.0100586027898234e-09 0 -0.015000243852924687 3.6354392697863634e-07 0 -0.015000016161701648 -4.0100586027898234e-09 0 -0.015000447295338412 -8.8771555525171448e-08 0 -0.015022266114533419 2.1022844704426695e-05 0 -0.01505137832981629 5.578254584766215e-05 0 -0.01508911648427304 3.6896873543883171e-05 0 -0.015000447295338412 -8.8771555525171448e-08 0 -0.015000274837057523 -4.3234293983197713e-07 0 -0.015000402820550655 -1.6030571287436658e-06 0 -0.015000016161701648 -4.0100586027898234e-09 0 -0.015000447295338412 -8.8771555525171448e-08 0 -0.015000274837057523 -4.3234293983197713e-07 0 -0.015000016161701648 -4.0100586027898234e-09 0 -0.015000274837057523 -4.3234293983197713e-07 0 -0.014999946587784779 1.2843086347992864e-08 0 -0.015000274837057523 -4.3234293983197713e-07 0 -0.015000402820550655 -1.6030571287436658e-06 0 -0.014999946587784779 1.2843086347992864e-08 0 -0.01498535310584557 3.6056904837456455e-05 0 -0.014988812159176986 -4.5289908377787238e-06 0 -0.014957482984218532 9.6891634918008893e-05 0 -0.01498535310584557 3.6056904837456455e-05 0 -0.014851789505897873 9.909472730229527e-06 0 -0.014946322997836129 3.5024272543180246e-05 0 -0.014873894245981411 9.8510466146516776e-05 0 -0.014942331518071807 2.5253984419097244e-05 0 -0.014946322997836129 3.5024272543180246e-05 0 -0.014965771449330745 1.7607552903287318e-05 0 -0.01498535310584557 3.6056904837456455e-05 0 -0.014910902781024809 2.4491270847542954e-05 0 -0.014946322997836129 3.5024272543180246e-05 0 -0.014977857102157823 1.2701009297334898e-05 0 -0.014983795252126852 1.3208239814644637e-05 0 -0.014946322997836129 3.5024272543180246e-05 0 -0.014977857102157823 1.2701009297334898e-05 0 -0.014965771449330745 1.7607552903287318e-05 0 -0.015000402820550655 -1.6030571287436658e-06 0 -0.014999946587784779 1.2843086347992864e-08 0 -0.014994044163430142 7.5559647668808292e-07 0 -0.014977857102157823 1.2701009297334898e-05 0 -0.014965771449330745 1.7607552903287318e-05 0 -0.014994044163430142 7.5559647668808292e-07 0 -0.014977857102157823 1.2701009297334898e-05 0 -0.014994044163430142 7.5559647668808292e-07 0 -0.014983795252126852 1.3208239814644637e-05 0 -0.014942331518071807 2.5253984419097244e-05 0 -0.014965771449330745 1.7607552903287318e-05 0 -0.014994044163430142 7.5559647668808292e-07 0 -0.014999946587784779 1.2843086347992864e-08 0 -0.014994044163430142 7.5559647668808292e-07 0 -0.014999991672606443 -8.1969885351257617e-09 0 -0.014994044163430142 7.5559647668808292e-07 0 -0.014999991672606443 -8.1969885351257617e-09 0 -0.014983795252126852 1.3208239814644637e-05 0 -0.014999991672606443 -8.1969885351257617e-09 0 -0.014983795252126852 1.3208239814644637e-05 0 -0.015001231033158211 4.0046382732483865e-05 0 -0.014999980306684403 2.3118171331451672e-08 0 -0.015050615922587418 7.7462945420332585e-06 0 -0.014999923404546809 4.7977518411668489e-09 0 -0.01500007720053804 -1.8821416548112766e-09 0 -0.014996097711656796 5.0514552069247282e-05 0 -0.014999998059462248 6.2827303200637993e-09 0 -0.014998691774830871 4.7415117648467241e-05 0 -0.01500007720053804 -1.8821416548112766e-09 0 -0.014996097711656796 5.0514552069247282e-05 0 -0.015029700169310538 4.996871123335805e-05 0 -0.014946322997836129 3.5024272543180246e-05 0 -0.014983795252126852 1.3208239814644637e-05 0 -0.014969733798819456 5.1353814463081546e-05 0 -0.014983795252126852 1.3208239814644637e-05 0 -0.015001231033158211 4.0046382732483865e-05 0 -0.014969733798819456 5.1353814463081546e-05 0 -0.015001231033158211 4.0046382732483865e-05 0 -0.014955641547700965 9.4094533019157699e-05 0 -0.014969733798819456 5.1353814463081546e-05 0 -0.014946322997836129 3.5024272543180246e-05 0 -0.014955641547700965 9.4094533019157699e-05 0 -0.014969733798819456 5.1353814463081546e-05 0 -0.014998691774830871 4.7415117648467241e-05 0 -0.015003947184469442 0.0001283498033033196 0 -0.015001231033158211 4.0046382732483865e-05 0 -0.014955641547700965 9.4094533019157699e-05 0 -0.015003189749923106 0.00013381955411742623 0 -0.015015537323983225 8.3631727822820417e-05 0 -0.015003189749923106 0.00013381955411742623 0 -0.015030795525171139 0.0001024777280486975 0 -0.014996097711656796 5.0514552069247282e-05 0 -0.015015537323983225 8.3631727822820417e-05 0 -0.015003189749923106 0.00013381955411742623 0 -0.014996097711656796 5.0514552069247282e-05 0 -0.015015537323983225 8.3631727822820417e-05 0 -0.015029700169310538 4.996871123335805e-05 0 -0.015003189749923106 0.00013381955411742623 0 -0.015030795525171139 0.0001024777280486975 0 -0.01502602147697823 0.00013677406525198574 0 -0.015003189749923106 0.00013381955411742623 0 -0.01502602147697823 0.00013677406525198574 0 -0.015000325736922625 0.00018548558625765 0 -0.014955641547700965 9.4094533019157699e-05 0 -0.015003189749923106 0.00013381955411742623 0 -0.014941001984904514 0.00015639824207576737 0 -0.014955641547700965 9.4094533019157699e-05 0 -0.014941001984904514 0.00015639824207576737 0 -0.014879176775163932 0.00017143137074081768 0 -0.014955641547700965 9.4094533019157699e-05 0 -0.014873894245981411 9.8510466146516776e-05 0 -0.014879176775163932 0.00017143137074081768 0 -0.014813632990160678 0.00016353954034219133 0 -0.014873894245981411 9.8510466146516776e-05 0 -0.014879176775163932 0.00017143137074081768 0 -0.014813632990160678 0.00016353954034219133 0 -0.014794356936832193 8.2620230164898918e-05 0 -0.014873894245981411 9.8510466146516776e-05 0 -0.014794356936832193 8.2620230164898918e-05 0 -0.014851789505897873 9.909472730229527e-06 0 -0.014873894245981411 9.8510466146516776e-05 0 -0.014946322997836129 3.5024272543180246e-05 0 -0.014955641547700965 9.4094533019157699e-05 0 -0.014873894245981411 9.8510466146516776e-05 0 -0.014818708463677093 4.066046265518581e-05 0 -0.014517872416502009 0.00016222475685482432 0 -0.014517872416502009 0.00016222475685482432 0 -0.01448097165286983 0.00018471236968981757 0 -0.014570554849297085 7.9771468365403785e-05 0 -0.014416155917917194 0.0002512560088873384 0 -0.014596789559084784 0.00012790125239418957 0 -0.014999373501756709 2.3647177732719878e-06 0 -0.014998480334832151 2.2657043819646963e-06 0 -0.01499660215387875 6.3097421704897699e-06 0 -0.014999373501756709 2.3647177732719878e-06 0 -0.014999997507966748 2.0516539356218685e-09 0 -0.015000001520841797 4.0951208707849974e-10 0 -0.014999373501756709 2.3647177732719878e-06 0 -0.014999997507966748 2.0516539356218685e-09 0 -0.014998480334832151 2.2657043819646963e-06 0 -0.014999997507966748 2.0516539356218685e-09 0 -0.014998480334832151 2.2657043819646963e-06 0 -0.014999996453664698 2.0987957479805259e-09 0 -0.014998480334832151 2.2657043819646963e-06 0 -0.014997325888488939 3.5999690320634099e-06 0 -0.01499660215387875 6.3097421704897699e-06 0 -0.014997325888488939 3.5999690320634099e-06 0 -0.014999996453664698 2.0987957479805259e-09 0 -0.014995731752048744 4.0122186893990243e-06 0 -0.014998480334832151 2.2657043819646963e-06 0 -0.014997325888488939 3.5999690320634099e-06 0 -0.014999996453664698 2.0987957479805259e-09 0 -0.014999995102231453 8.4625858573741656e-10 0 -0.014999996453664698 2.0987957479805259e-09 0 -0.014995731752048744 4.0122186893990243e-06 0 -0.015015537323983225 8.3631727822820417e-05 0 -0.015029700169310538 4.996871123335805e-05 0 -0.015030795525171139 0.0001024777280486975 0 -0.015029700169310538 4.996871123335805e-05 0 -0.015030795525171139 0.0001024777280486975 0 -0.015069458795795262 0.00012947123287564415 0 -0.015050615922587418 7.7462945420332585e-06 0 -0.014760790202875964 0.00020448408664297275 0 -0.014710399061276828 0.00036775078791045619 0 -0.014695903043360672 0.00033498328571097139 0 -0.014804943934229974 0.00030738194877148132 0 -0.01502602147697823 0.00013677406525198574 0 -0.015069458795795262 0.00012947123287564415 0 -0.015000325736922625 0.00018548558625765 0 -0.014760790202875964 0.00020448408664297275 0 -0.014924063595565272 0.00024568370918235061 0 -0.015030795525171139 0.0001024777280486975 0 -0.01502602147697823 0.00013677406525198574 0 -0.015069458795795262 0.00012947123287564415 0 -0.014108360527866941 0.00033335749890757319 0 -0.013684861172219329 0.00047465573399759712 0 -0.014760790202875964 0.00020448408664297275 0 -0.014712310074525727 7.1082169037905833e-05 0 -0.013948099897894285 0.00024567465180902167 0 -0.013860916400852833 0.00033789880159846935 0 -0.013892409521329446 0.00041417321050116879 0 -0.014760790202875964 0.00020448408664297275 0 -0.013895518602184298 0.00018765821631616355 0 -0.014298627236270017 0.00022490061382342201 0 -0.014379757136640943 0.0002005836235827722 0 -0.014315552619871471 0.00026810983346091903 0 -0.014108360527866941 0.00033335749890757319 0 -0.013895518602184298 0.00018765821631616355 0 -0.014298627236270017 0.00022490061382342201 0 -0.014379757136640943 0.0002005836235827722 0 -0.014377814009293844 0.00017084093156153642 0 -0.014379757136640943 0.0002005836235827722 0 -0.014384130616821495 0.00018785571586813873 0 -0.014377814009293844 0.00017084093156153642 0 -0.014108360527866941 0.00033335749890757319 0 -0.01413439541269187 0.00029371653598431576 0 -0.014995731752048744 4.0122186893990243e-06 0 -0.014992743100908534 1.0474469560276978e-05 0 -0.014995297102349283 8.033562804924305e-06 0 -0.014997325888488939 3.5999690320634099e-06 0 -0.014995731752048744 4.0122186893990243e-06 0 -0.014995297102349283 8.033562804924305e-06 0 -0.014997325888488939 3.5999690320634099e-06 0 -0.014995297102349283 8.033562804924305e-06 0 -0.01499660215387875 6.3097421704897699e-06 0 -0.013958504701663516 0.00049483905179395894 0 -0.014173806022922411 0.00028572018035281764 0 -0.01416227412436611 0.00049021547933659538 0 -0.014108360527866941 0.00033335749890757319 0 -0.014517872416502009 0.00016222475685482432 0 -0.014712310074525727 7.1082169037905833e-05 0 -0.014517872416502009 0.00016222475685482432 0 -0.014384130616821495 0.00018785571586813873 0 -0.014377814009293844 0.00017084093156153642 0 -0.014461826749641079 0.00011362883345178649 0 -0.014379669429163832 0.00020140083230912425 0 -0.014384130616821495 0.00018785571586813873 0 -0.014461826749641079 0.00011362883345178649 0 -0.013958504701663516 0.00049483905179395894 0 -0.01416227412436611 0.00049021547933659538 0 -0.014061466676122647 0.00065929028191184455 0 -0.01416227412436611 0.00049021547933659538 0 -0.014350910575370145 0.00056412093982409408 0 -0.01443196459098302 0.00038525036041567177 0 -0.01416227412436611 0.00049021547933659538 0 -0.014350910575370145 0.00056412093982409408 0 -0.014061466676122647 0.00065929028191184455 0 -0.014173806022922411 0.00028572018035281764 0 -0.01416227412436611 0.00049021547933659538 0 -0.01443196459098302 0.00038525036041567177 0 -0.014350910575370145 0.00056412093982409408 0 -0.01443196459098302 0.00038525036041567177 0 -0.014591399501841799 0.00024035471790501874 0 -0.014173806022922411 0.00028572018035281764 0 -0.01443196459098302 0.00038525036041567177 0 -0.014596789559084784 0.00012790125239418957 0 -0.014206144077321264 0.00089616627388958234 0 -0.0141077945724459 0.00082195550623977522 0 -0.014029223974477787 0.00089651642476355992 0 -0.014206144077321264 0.00089616627388958234 0 -0.0141077945724459 0.00082195550623977522 0 -0.014251631013922544 0.00075626508997534477 0 -0.01430032697416499 0.0004463864966222068 0 -0.0141077945724459 0.00082195550623977522 0 -0.014251631013922544 0.00075626508997534477 0 -0.014350910575370145 0.00056412093982409408 0 -0.0141077945724459 0.00082195550623977522 0 -0.014061466676122647 0.00065929028191184455 0 -0.014309342994969288 0.00051280060466778556 0 -0.014135302435532956 0.0008016006129031221 0 -0.014061466676122647 0.00065929028191184455 0 -0.013973281892361255 0.00078767587867614633 0 -0.013865594776941751 0.00074098932061716504 0 -0.0141077945724459 0.00082195550623977522 0 -0.014061466676122647 0.00065929028191184455 0 -0.013973281892361255 0.00078767587867614633 0 -0.0141077945724459 0.00082195550623977522 0 -0.013973281892361255 0.00078767587867614633 0 -0.014029223974477787 0.00089651642476355992 0 -0.013973281892361255 0.00078767587867614633 0 -0.014029223974477787 0.00089651642476355992 0 -0.013892422295568344 0.00088421743128884824 0 -0.012860442156521747 0.00026285089270039989 0 -0.012925749329302941 0.00010365391633334013 0 -0.012849345862812217 0.00014226622643114602 0 -0.013973281892361255 0.00078767587867614633 0 -0.013892422295568344 0.00088421743128884824 0 -0.013865594776941751 0.00074098932061716504 0 -0.013892422295568344 0.00088421743128884824 0 -0.013691284276727351 0.00088599025424357218 0 -0.013777927533367228 0.00061048951569015505 0 -0.013928303307318929 0.00094661705557605804 0 -0.013684861172219329 0.00047465573399759712 0 -0.013241107635923349 0.000575963588305925 0 -0.013684861172219329 0.00047465573399759712 0 -0.013958504701663516 0.00049483905179395894 0 -0.014061466676122647 0.00065929028191184455 0 -0.013865594776941751 0.00074098932061716504 0 -0.013895518602184298 0.00018765821631616355 0 -0.013684861172219329 0.00047465573399759712 0 -0.012891525722923586 1.4248843938367694e-05 0 -0.012925749329302941 0.00010365391633334013 0 -0.012849345862812217 0.00014226622643114602 0 -0.013895518602184298 0.00018765821631616355 0 -0.013717677015896081 0.0002364365130426069 0 -0.014695903043360672 0.00033498328571097139 0 -0.014804943934229974 0.00030738194877148132 0 -0.014781388546880991 0.00026106433304799015 0 -0.012891525722923586 1.4248843938367694e-05 0 -0.012849345862812217 0.00014226622643114602 0 -0.012719370577085366 0.00018623605795550918 0 -0.012860442156521747 0.00026285089270039989 0 -0.012849345862812217 0.00014226622643114602 0 -0.012719370577085366 0.00018623605795550918 0 -0.012860442156521747 0.00026285089270039989 0 -0.012779620424129076 0.00032278577062903505 0 -0.012719370577085366 0.00018623605795550918 0 -0.012779620424129076 0.00032278577062903505 0 -0.012719370577085366 0.00018623605795550918 0 -0.012699301817141507 0.00033915710909709646 0 -0.012860442156521747 0.00026285089270039989 0 -0.012779620424129076 0.00032278577062903505 0 -0.012812627715092527 0.00036914029021368821 0 -0.013241107635923349 0.000575963588305925 0 -0.01307748133725347 0.00050324293343922987 0 -0.012779620424129076 0.00032278577062903505 0 -0.012812627715092527 0.00036914029021368821 0 -0.012792365714193649 0.00041239038458865454 0 -0.01307748133725347 0.00050324293343922987 0 -0.012918002866732082 0.00031119694423019123 0 -0.012779620424129076 0.00032278577062903505 0 -0.012751728779264211 0.00037325473710337839 0 -0.012699301817141507 0.00033915710909709646 0 -0.012779620424129076 0.00032278577062903505 0 -0.012751728779264211 0.00037325473710337839 0 -0.012792365714193649 0.00041239038458865454 0 -0.012751728779264211 0.00037325473710337839 0 -0.012724631914433735 0.00041637629221763739 0 -0.012699301817141507 0.00033915710909709646 0 -0.013627941845194533 0.0010333305864479293 0 -0.013699289361411108 0.0011601893597377021 0 -0.013554190395821984 0.0012625506126248407 0 -0.012815430447025692 7.0245023364572134e-05 0 -0.01280899087781474 0.00042320461584706935 0 -0.012707480212834061 0.00055797768907202738 0 -0.012852398291068207 -6.8374041564801263e-05 0 -0.012815430447025692 7.0245023364572134e-05 0 -0.01280899087781474 0.00042320461584706935 0 -0.012918002866732082 0.00031119694423019123 0 -0.012709016690439385 0.00050916363708992582 0 -0.012723840283563236 0.00047671464047515391 0 -0.012792365714193649 0.00041239038458865454 0 -0.012707480212834061 0.00055797768907202738 0 -0.01307748133725347 0.00050324293343922987 0 -0.01331655902266602 0.00081759876188250088 0 -0.012724631914433735 0.00041637629221763739 0 -0.012723840283563236 0.00047671464047515391 0 -0.012792365714193649 0.00041239038458865454 0 -0.012751728779264211 0.00037325473710337839 0 -0.012724631914433735 0.00041637629221763739 0 -0.012792365714193649 0.00041239038458865454 0 -0.012724631914433735 0.00041637629221763739 0 -0.012723840283563236 0.00047671464047515391 0 -0.01266527713831651 0.00044856751541464405 0 -0.012723840283563236 0.00047671464047515391 0 -0.012689707462741296 0.00049942784478699935 0 -0.012707480212834061 0.00055797768907202738 0 -0.013627941845194533 0.0010333305864479293 0 -0.013699289361411108 0.0011601893597377021 0 -0.013729661188378671 0.0010743490376890219 0 -0.013699289361411108 0.0011601893597377021 0 -0.013685518594998839 0.0012874317009809921 0 -0.013554190395821984 0.0012625506126248407 0 -0.013699289361411108 0.0011601893597377021 0 -0.013865761437000612 0.0011193686955755793 0 -0.013685518594998839 0.0012874317009809921 0 -0.013699289361411108 0.0011601893597377021 0 -0.013729661188378671 0.0010743490376890219 0 -0.013865761437000612 0.0011193686955755793 0 -0.013789320394778218 0.0010009913940463811 0 -0.013729661188378671 0.0010743490376890219 0 -0.013865761437000612 0.0011193686955755793 0 -0.013789320394778218 0.0010009913940463811 0 -0.01392664023620969 0.00098031231602853331 0 -0.013865761437000612 0.0011193686955755793 0 -0.013627941845194533 0.0010333305864479293 0 -0.013789320394778218 0.0010009913940463811 0 -0.013729661188378671 0.0010743490376890219 0 -0.013691284276727351 0.00088599025424357218 0 -0.013627941845194533 0.0010333305864479293 0 -0.013789320394778218 0.0010009913940463811 0 -0.013892422295568344 0.00088421743128884824 0 -0.013789320394778218 0.0010009913940463811 0 -0.01392664023620969 0.00098031231602853331 0 -0.013892422295568344 0.00088421743128884824 0 -0.013691284276727351 0.00088599025424357218 0 -0.013789320394778218 0.0010009913940463811 0 -0.014029223974477787 0.00089651642476355992 0 -0.013892422295568344 0.00088421743128884824 0 -0.01392664023620969 0.00098031231602853331 0 -0.014029223974477787 0.00089651642476355992 0 -0.01392664023620969 0.00098031231602853331 0 -0.014050190051974377 0.0010191262943476504 0 -0.01392664023620969 0.00098031231602853331 0 -0.013865761437000612 0.0011193686955755793 0 -0.014050190051974377 0.0010191262943476504 0 -0.013865761437000612 0.0011193686955755793 0 -0.014086235172347904 0.0012106769176367614 0 -0.014050190051974377 0.0010191262943476504 0 -0.013865761437000612 0.0011193686955755793 0 -0.014086235172347904 0.0012106769176367614 0 -0.013804719826890108 0.0013717326756003041 0 -0.014086235172347904 0.0012106769176367614 0 -0.014172498836136711 0.0010390460644664685 0 -0.014050190051974377 0.0010191262943476504 0 -0.014206144077321264 0.00089616627388958234 0 -0.014172498836136711 0.0010390460644664685 0 -0.014050190051974377 0.0010191262943476504 0 -0.014206144077321264 0.00089616627388958234 0 -0.014029223974477787 0.00089651642476355992 0 -0.014050190051974377 0.0010191262943476504 0 -0.014821830762753951 0.00022713776697687118 0 -0.014876454894449777 0.00024472605350498355 0 -0.014842277818807788 0.00025047800905611143 0 -0.014087593765466123 0.00035570608447887741 0 -0.01493151316172257 0.00016103846912869638 0 -0.014791866270203324 0.00021692040936320474 0 -0.014813632990160678 0.00016353954034219133 0 -0.01484044291709046 0.00022073556633326892 0 -0.014813632990160678 0.00016353954034219133 0 -0.01484044291709046 0.00022073556633326892 0 -0.014879176775163932 0.00017143137074081768 0 -0.014821830762753951 0.00022713776697687118 0 -0.014879176775163932 0.00017143137074081768 0 -0.014876454894449777 0.00024472605350498355 0 -0.01493151316172257 0.00016103846912869638 0 -0.014842284923441973 0.00020601181119143391 0 -0.014941001984904514 0.00015639824207576737 0 -0.014879176775163932 0.00017143137074081768 0 -0.014876454894449777 0.00024472605350498355 0 -0.014941001984904514 0.00015639824207576737 0 -0.015000325736922625 0.00018548558625765 0 -0.014876454894449777 0.00024472605350498355 0 -0.014924063595565272 0.00024568370918235061 0 -0.014871373855695279 0.00024815909727784568 0 -0.015003189749923106 0.00013381955411742623 0 -0.014941001984904514 0.00015639824207576737 0 -0.015000325736922625 0.00018548558625765 0 -0.014804943934229974 0.00030738194877148132 0 -0.014781388546880991 0.00026106433304799015 0 -0.014876454894449777 0.00024472605350498355 0 -0.013717677015896081 0.0002364365130426069 0 -0.013793226527741422 0.00026844075220704594 0 -0.014781388546880991 0.00026106433304799015 0 -0.014876454894449777 0.00024472605350498355 0 -0.01484567331394066 0.00023690564528890657 0 -0.014876454894449777 0.00024472605350498355 0 -0.01484567331394066 0.00023690564528890657 0 -0.014842277818807788 0.00025047800905611143 0 -0.012719370577085366 0.00018623605795550918 0 -0.012567680954532258 0.00035198898428985385 0 -0.012699301817141507 0.00033915710909709646 0 -0.012567680954532258 0.00035198898428985385 0 -0.012699301817141507 0.00033915710909709646 0 -0.01266527713831651 0.00044856751541464405 0 -0.012567680954532258 0.00035198898428985385 0 -0.01266527713831651 0.00044856751541464405 0 -0.012577650199902981 0.00048620150556292585 0 -0.012724631914433735 0.00041637629221763739 0 -0.012699301817141507 0.00033915710909709646 0 -0.01266527713831651 0.00044856751541464405 0 -0.01266527713831651 0.00044856751541464405 0 -0.012577650199902981 0.00048620150556292585 0 -0.012660608794267949 0.00051562443884270914 0 -0.01266527713831651 0.00044856751541464405 0 -0.012689707462741296 0.00049942784478699935 0 -0.012660608794267949 0.00051562443884270914 0 -0.012723840283563236 0.00047671464047515391 0 -0.01266527713831651 0.00044856751541464405 0 -0.012689707462741296 0.00049942784478699935 0 -0.013793226527741422 0.00026844075220704594 0 -0.013146462011114943 0.00039274061125922708 0 -0.012567680954532258 0.00035198898428985385 0 -0.012577650199902981 0.00048620150556292585 0 -0.012442100039581331 0.00049304770282443411 0 -0.014825990459931864 0.00027117344302871906 0 -0.014842277818807788 0.00025047800905611143 0 -0.014814381620579168 0.00026382280695774334 0 -0.01484567331394066 0.00023690564528890657 0 -0.014825990459931864 0.00027117344302871906 0 -0.014842277818807788 0.00025047800905611143 0 -0.013146462011114943 0.00039274061125922708 0 -0.013604830572541408 0.00037248851698813137 0 -0.014821830762753951 0.00022713776697687118 0 -0.014842277818807788 0.00025047800905611143 0 -0.014817600393546963 0.00024799903162747998 0 -0.014792032854658951 0.00025015760985826874 0 -0.014821830762753951 0.00022713776697687118 0 -0.014817600393546963 0.00024799903162747998 0 -0.014842277818807788 0.00025047800905611143 0 -0.014817600393546963 0.00024799903162747998 0 -0.014814381620579168 0.00026382280695774334 0 -0.012408938597307472 0.00048742719572372642 0 -0.012399637908256494 0.00048694356636542395 0 -0.012401222704435009 0.00048575341322181973 0 -0.014087593765466123 0.00035570608447887741 0 -0.013604830572541408 0.00037248851698813137 0 -0.014792032854658951 0.00025015760985826874 0 -0.014817600393546963 0.00024799903162747998 0 -0.014814381620579168 0.00026382280695774334 0 -0.012399637908256494 0.00048694356636542395 0 -0.012401222704435009 0.00048575341322181973 0 -0.012396211815707669 0.0004827242508763791 0 -0.012399059577641858 0.00048265310393785907 0 -0.012401222704435009 0.00048575341322181973 0 -0.012396211815707669 0.0004827242508763791 0 -0.011317763587582682 0.00057255674771243114 0 -0.012334512767075746 0.00047967236016487709 0 -0.012396211815707669 0.0004827242508763791 0 -0.012394678796870914 0.00048403931719653999 0 -0.012391900755461963 0.00047982488959791747 0 -0.012392186923444924 0.00047914980451399839 0 -0.012396211815707669 0.0004827242508763791 0 -0.012391900755461963 0.00047982488959791747 0 -0.011945643312824425 0.00018261288202995858 0 -0.011657897948322705 0.00048791894397200083 0 -0.01203467912348519 0.00048607804521881023 0 -0.010346059586833845 0.00045287795958310229 0 -0.011317763587582682 0.00057255674771243114 0 -0.009527403664464678 0.00060385572641762563 0 -0.009654439688798349 0.0006415558844928026 0 -0.009683914502896962 0.00043084372606006768 0 -0.009654439688798349 0.0006415558844928026 0 -0.0095526443918445229 0.00074420322994727989 0 -0.0097695645595428822 0.00074763374590714696 0 -0.010346059586833845 0.00045287795958310229 0 -0.0095304114625958808 0.0004953948656184257 0 -0.0095260377129738113 0.00059675490848638444 0 -0.009654439688798349 0.0006415558844928026 0 -0.0095526443918445229 0.00074420322994727989 0 -0.0095260377129738113 0.00059675490848638444 0 -0.0095526443918445229 0.00074420322994727989 0 -0.0093767011923310481 0.00071567126196255177 0 -0.009654439688798349 0.0006415558844928026 0 -0.0097907840505913682 0.00057454883461815511 0 -0.009683914502896962 0.00043084372606006768 0 -0.0097907840505913682 0.00057454883461815511 0 -0.0099357903906033569 0.00062680609557695807 0 -0.0097695645595428822 0.00074763374590714696 0 -0.009654439688798349 0.0006415558844928026 0 -0.0097907840505913682 0.00057454883461815511 0 -0.0097695645595428822 0.00074763374590714696 0 -0.012399059577641858 0.00048265310393785907 0 -0.012396211815707669 0.0004827242508763791 0 -0.012394678796870914 0.00048403931719653999 0 -0.0097907840505913682 0.00057454883461815511 0 -0.009683914502896962 0.00043084372606006768 0 -0.0099199531160258335 0.0004246759532470482 0 -0.011972568584957139 0.00050230528026356516 0 -0.011982130565552758 0.00048994778900332981 0 -0.011952550335207229 0.00048764495112236129 0 -0.011317763587582682 0.00057255674771243114 0 -0.011493331465779372 0.00051920479112219466 0 -0.013146462011114943 0.00039274061125922708 0 -0.011317763587582682 0.00057255674771243114 0 -0.013146462011114943 0.00039274061125922708 0 -0.011493331465779372 0.00051920479112219466 0 -0.012577650199902981 0.00048620150556292585 0 -0.012442100039581331 0.00049304770282443411 0 -0.012508943624231791 0.00054805531964537395 0 -0.011493331465779372 0.00051920479112219466 0 -0.012495968445502497 0.00055869358442821467 0 -0.012577650199902981 0.00048620150556292585 0 -0.012508943624231791 0.00054805531964537395 0 -0.012618656918877008 0.00054909462614350399 0 -0.012158436214587362 0.00055389822588922447 0 -0.012459334303287639 0.00078124945311398375 0 -0.012732503477682308 0.00059320607821396567 0 -0.011596814224921124 0.00055118981154092419 0 -0.012158436214587362 0.00055389822588922447 0 -0.012334203490847052 0.0011297519296294561 0 -0.012495968445502497 0.00055869358442821467 0 -0.012659636796677268 0.00057967107223977528 0 -0.012660608794267949 0.00051562443884270914 0 -0.012618656918877008 0.00054909462614350399 0 -0.012707480212834061 0.00055797768907202738 0 -0.012577650199902981 0.00048620150556292585 0 -0.012660608794267949 0.00051562443884270914 0 -0.012618656918877008 0.00054909462614350399 0 -0.012158436214587362 0.00055389822588922447 0 -0.012459334303287639 0.00078124945311398375 0 -0.012334203490847052 0.0011297519296294561 0 -0.0099199531160258335 0.0004246759532470482 0 -0.010219214454109586 0.00066086343877514266 0 -0.0099357903906033569 0.00062680609557695807 0 -0.0097907840505913682 0.00057454883461815511 0 -0.0099199531160258335 0.0004246759532470482 0 -0.0099357903906033569 0.00062680609557695807 0 -0.010219214454109586 0.00066086343877514266 0 -0.0099357903906033569 0.00062680609557695807 0 -0.0099145026596354612 0.00082066352407903398 0 -0.011493331465779372 0.00051920479112219466 0 -0.009936255663264679 0.00055712089306532062 0 -0.009936255663264679 0.00055712089306532062 0 -0.0080087508613278947 3.6402517650314587e-06 0 -0.0099357903906033569 0.00062680609557695807 0 -0.0099145026596354612 0.00082066352407903398 0 -0.0097695645595428822 0.00074763374590714696 0 -0.0064810718047406783 -0.00068500242586367211 0 -0.0073058833140188751 -0.00050449849263280286 0 -0.00674372365128277 0.00023047997010206998 0 -0.00754836738016074 -0.0011444729435028467 0 -0.0064810718047406783 -0.00068500242586367211 0 -0.0073058833140188751 -0.00050449849263280286 0 -0.0073058833140188751 -0.00050449849263280286 0 -0.0079316391909899069 -0.00083241929457475688 0 -0.0078100662778889836 -8.1323776805135509e-05 0 -0.00754836738016074 -0.0011444729435028467 0 -0.0073058833140188751 -0.00050449849263280286 0 -0.0079316391909899069 -0.00083241929457475688 0 -0.0039692813933865272 0.0002974129645319762 0 -0.0050403259248198874 -1.9488027456850948e-05 0 -0.004891773029642635 0.00089647285121555609 0 -0.0073058833140188751 -0.00050449849263280286 0 -0.00674372365128277 0.00023047997010206998 0 -0.0078100662778889836 -8.1323776805135509e-05 0 -0.0054197307986068944 0.00024191642693066373 0 -0.0061494700240635547 9.097846312603082e-05 0 -0.0064810718047406783 -0.00068500242586367211 0 -0.00674372365128277 0.00023047997010206998 0 -0.0060685023110222374 -2.3666412978949015e-05 0 -0.0060685023110222374 -2.3666412978949015e-05 0 -0.0053455622992033313 -0.00022559581803367935 0 -0.0056185285836588029 0.00057475218739241267 0 -0.0054197307986068944 0.00024191642693066373 0 -0.0042733133816551328 0.00061992674860249588 0 -0.00674372365128277 0.00023047997010206998 0 -0.0060685023110222374 -2.3666412978949015e-05 0 -0.0056185285836588029 0.00057475218739241267 0 -0.0053455622992033313 -0.00022559581803367935 0 -0.00485328066208085 0.00039380746803874814 0 -0.0056185285836588029 0.00057475218739241267 0 -0.009400077211890635 0.0010855580161651167 0 -0.0092130512738369513 0.0010147109819578786 0 -0.0097695645595428822 0.00074763374590714696 0 -0.0093706772606051755 0.00096408993526723346 0 -0.0097472376808165635 0.00076117980098310369 0 -0.0095199900270646551 0.00091020207550888944 0 -0.0095526443918445229 0.00074420322994727989 0 -0.0097695645595428822 0.00074763374590714696 0 -0.0095199900270646551 0.00091020207550888944 0 -0.0095526443918445229 0.00074420322994727989 0 -0.0094340210367795732 0.00082088721797662348 0 -0.0099145026596354612 0.00082066352407903398 0 -0.009400077211890635 0.0010855580161651167 0 -0.0097695645595428822 0.00074763374590714696 0 -0.0080087508613278947 3.6402517650314587e-06 0 -0.0074016716036437247 0.00043189030871102944 0 -0.0064810718047406783 -0.00068500242586367211 0 -0.0060685023110222374 -2.3666412978949015e-05 0 -0.0053455622992033313 -0.00022559581803367935 0 -0.0070076626745143242 0.00031288215430439891 0 -0.0069440023613843195 0.00062434917862550302 0 -0.0073888081237078636 0.00055710632336873232 0 -0.0070076626745143242 0.00031288215430439891 0 -0.0065833060942718149 0.00046302072314408196 0 -0.0069440023613843195 0.00062434917862550302 0 -0.0070774029760089256 -0.00010758193848855111 0 -0.0070076626745143242 0.00031288215430439891 0 -0.0076196062076444842 0.00022937616522818895 0 -0.0070774029760089256 -0.00010758193848855111 0 -0.0070076626745143242 0.00031288215430439891 0 -0.0064857487865195591 0.00010973530463706497 0 -0.010574658672811448 0.00055480283641622466 0 -0.010016756166860921 0.00075005050006697778 0 -0.0070076626745143242 0.00031288215430439891 0 -0.0065833060942718149 0.00046302072314408196 0 -0.0064857487865195591 0.00010973530463706497 0 -0.0065833060942718149 0.00046302072314408196 0 -0.0062694267687030611 0.00044597227658367653 0 -0.0063514424896903773 0.00059166224671244015 0 -0.0062694267687030611 0.00044597227658367653 0 -0.0064857487865195591 0.00010973530463706497 0 -0.006040928036484516 0.00033480029924624579 0 -0.0065833060942718149 0.00046302072314408196 0 -0.0062694267687030611 0.00044597227658367653 0 -0.0064857487865195591 0.00010973530463706497 0 -0.013804719826890108 0.0013717326756003041 0 -0.013685518594998839 0.0012874317009809921 0 -0.013480510833514625 0.0015193804284399056 0 -0.013865761437000612 0.0011193686955755793 0 -0.013804719826890108 0.0013717326756003041 0 -0.013685518594998839 0.0012874317009809921 0 -0.010016756166860921 0.00075005050006697778 0 -0.010455280365514189 0.0010580165859915543 0 -0.01280899087781474 0.00042320461584706935 0 -0.012732503477682308 0.00059320607821396567 0 -0.012661978523016849 0.00095684282856326993 0 -0.012618656918877008 0.00054909462614350399 0 -0.012732503477682308 0.00059320607821396567 0 -0.012707480212834061 0.00055797768907202738 0 -0.013685518594998839 0.0012874317009809921 0 -0.013554190395821984 0.0012625506126248407 0 -0.013480510833514625 0.0015193804284399056 0 -0.01331655902266602 0.00081759876188250088 0 -0.010455280365514189 0.0010580165859915543 0 -0.012689707462741296 0.00049942784478699935 0 -0.012660608794267949 0.00051562443884270914 0 -0.012707480212834061 0.00055797768907202738 0 -0.01280899087781474 0.00042320461584706935 0 -0.012732503477682308 0.00059320607821396567 0 -0.012707480212834061 0.00055797768907202738 0 -0.012459334303287639 0.00078124945311398375 0 -0.012732503477682308 0.00059320607821396567 0 -0.012661978523016849 0.00095684282856326993 0 -0.012459334303287639 0.00078124945311398375 0 -0.012334203490847052 0.0011297519296294561 0 -0.012661978523016849 0.00095684282856326993 0 -0.009936255663264679 0.00055712089306532062 0 -0.010455280365514189 0.0010580165859915543 0 -0.0062694267687030611 0.00044597227658367653 0 -0.006040928036484516 0.00033480029924624579 0 -0.0060110175200939588 0.00053971871392426694 0 -0.009936255663264679 0.00055712089306532062 0 -0.0075692370538286806 -0.00012401454216500024 0 -0.010455280365514189 0.0010580165859915543 0 -0.0075692370538286806 -0.00012401454216500024 0 -0.009539037074210617 0.00058074288912970267 0 -0.0091562048055676432 0.0007589958592307105 0 -0.0092140934152528751 0.0003239888046930026 0 -0.0062694267687030611 0.00044597227658367653 0 -0.0060110175200939588 0.00053971871392426694 0 -0.0062283044283611474 0.00061733925758219099 0 -0.0075692370538286806 -0.00012401454216500024 0 -0.0061494700240635547 9.097846312603082e-05 0 -0.0066457139751113867 0.00020513087026781735 0 -0.0066646715557915608 5.0037914643453988e-05 0 -0.0065032394153324517 9.7463231672187333e-05 0 -0.0075692370538286806 -0.00012401454216500024 0 -0.0061099258076122639 0.00039861684934209852 0 -0.0060110175200939588 0.00053971871392426694 0 -0.0062110633049519762 0.00072357365339720606 0 -0.0062283044283611474 0.00061733925758219099 0 -0.0061494700240635547 9.097846312603082e-05 0 -0.0049165722154222722 0.0012011317282764129 0 -0.0052887098621405264 0.00070608731486426139 0 -0.005779239804748172 0.00081432311398350074 0 -0.0059398427222750712 0.00055223295038016903 0 -0.0052887098621405264 0.00070608731486426139 0 -0.0055853707608274359 0.001048002566783809 0 -0.0051096281928034223 0.0013189231721341236 0 -0.0061494700240635547 9.097846312603082e-05 0 -0.0061099258076122639 0.00039861684934209852 0 -0.0052887098621405264 0.00070608731486426139 0 -0.0055853707608274359 0.001048002566783809 0 -0.005779239804748172 0.00081432311398350074 0 -0.005779239804748172 0.00081432311398350074 0 -0.0059841736970254683 0.0010065985928524707 0 -0.0061675297470676444 0.00074725903235342344 0 -0.005779239804748172 0.00081432311398350074 0 -0.0061675297470676444 0.00074725903235342344 0 -0.0059398427222750712 0.00055223295038016903 0 -0.0055853707608274359 0.001048002566783809 0 -0.005779239804748172 0.00081432311398350074 0 -0.0059841736970254683 0.0010065985928524707 0 -0.0059841736970254683 0.0010065985928524707 0 -0.0063160422487401023 0.00086299591578737538 0 -0.0062480456813518454 0.0011860135704551244 0 -0.0059841736970254683 0.0010065985928524707 0 -0.0063160422487401023 0.00086299591578737538 0 -0.0061675297470676444 0.00074725903235342344 0 -0.0063160422487401023 0.00086299591578737538 0 -0.0061675297470676444 0.00074725903235342344 0 -0.0063436069673692818 0.00071222782686114808 0 -0.0063436069673692818 0.00071222782686114808 0 -0.0063514424896903773 0.00059166224671244015 0 -0.0065436568835492565 0.00070799318502911559 0 -0.0063436069673692818 0.00071222782686114808 0 -0.0062851976625548532 0.00065901189314325611 0 -0.0062204399302446256 0.00071584568904948024 0 -0.0063436069673692818 0.00071222782686114808 0 -0.0062851976625548532 0.00065901189314325611 0 -0.0063514424896903773 0.00059166224671244015 0 -0.0061675297470676444 0.00074725903235342344 0 -0.0063436069673692818 0.00071222782686114808 0 -0.0062204399302446256 0.00071584568904948024 0 -0.0061984388688739881 0.00055029784936869771 0 -0.0061099258076122639 0.00039861684934209852 0 -0.0061675297470676444 0.00074725903235342344 0 -0.0062233476496772648 0.00071348202172048379 0 -0.0062204399302446256 0.00071584568904948024 0 -0.0061099258076122639 0.00039861684934209852 0 -0.0061184062048649217 0.00041743528184951494 0 -0.0062851976625548532 0.00065901189314325611 0 -0.0062204399302446256 0.00071584568904948024 0 -0.0062283044283611474 0.00061733925758219099 0 -0.0062110633049519762 0.00072357365339720606 0 -0.0062204399302446256 0.00071584568904948024 0 -0.0062283044283611474 0.00061733925758219099 0 -0.0062694267687030611 0.00044597227658367653 0 -0.0062283044283611474 0.00061733925758219099 0 -0.0063514424896903773 0.00059166224671244015 0 -0.0062851976625548532 0.00065901189314325611 0 -0.0062283044283611474 0.00061733925758219099 0 -0.0063514424896903773 0.00059166224671244015 0 -0.0065833060942718149 0.00046302072314408196 0 -0.0063514424896903773 0.00059166224671244015 0 -0.0065436568835492565 0.00070799318502911559 0 -0.0065833060942718149 0.00046302072314408196 0 -0.0065436568835492565 0.00070799318502911559 0 -0.0069440023613843195 0.00062434917862550302 0 -0.0065436568835492565 0.00070799318502911559 0 -0.0068891922354221962 0.00089426642959498297 0 -0.0069440023613843195 0.00062434917862550302 0 -0.0063160422487401023 0.00086299591578737538 0 -0.0063436069673692818 0.00071222782686114808 0 -0.0065436568835492565 0.00070799318502911559 0 -0.0063160422487401023 0.00086299591578737538 0 -0.0065436568835492565 0.00070799318502911559 0 -0.0065321718479448981 0.00095165754403199845 0 -0.0065321718479448981 0.00095165754403199845 0 -0.0069508156847914405 0.001250259576948774 0 -0.0062480456813518454 0.0011860135704551244 0 -0.0063160422487401023 0.00086299591578737538 0 -0.0065321718479448981 0.00095165754403199845 0 -0.0062480456813518454 0.0011860135704551244 0 -0.0065436568835492565 0.00070799318502911559 0 -0.0065321718479448981 0.00095165754403199845 0 -0.0068891922354221962 0.00089426642959498297 0 -0.0065321718479448981 0.00095165754403199845 0 -0.0068891922354221962 0.00089426642959498297 0 -0.0069508156847914405 0.001250259576948774 0 -0.0068891922354221962 0.00089426642959498297 0 -0.0069508156847914405 0.001250259576948774 0 -0.007469989775684369 0.00095952057069362804 0 -0.0068891922354221962 0.00089426642959498297 0 -0.0069440023613843195 0.00062434917862550302 0 -0.007469989775684369 0.00095952057069362804 0 -0.0070851893070533701 0.0018896931330779488 0 -0.0067810967878280367 0.0016659290688832381 0 -0.0066694616118452331 0.0024422651587019356 0 -0.0070851893070533701 0.0018896931330779488 0 -0.0067810967878280367 0.0016659290688832381 0 -0.0071937810914464977 0.0015984645038511676 0 -0.0067810967878280367 0.0016659290688832381 0 -0.0069739916509788087 0.0012272162269770146 0 -0.0071937810914464977 0.0015984645038511676 0 -0.0069500934692450873 0.0012469271484567411 0 -0.0063797269443415568 0.0016148191206530025 0 -0.0067810967878280367 0.0016659290688832381 0 -0.0069739916509788087 0.0012272162269770146 0 -0.0063279534127744456 0.0016278825322178692 0 -0.0069508156847914405 0.001250259576948774 0 -0.0063279534127744456 0.0016278825322178692 0 -0.0062480456813518454 0.0011860135704551244 0 -0.0067810967878280367 0.0016659290688832381 0 -0.0063279534127744456 0.0016278825322178692 0 -0.0066694616118452331 0.0024422651587019356 0 -0.0063279534127744456 0.0016278825322178692 0 -0.0056597291799616077 0.0014082869379911725 0 -0.0056511531518941014 0.0020975143094056664 0 -0.0063279534127744456 0.0016278825322178692 0 -0.0062480456813518454 0.0011860135704551244 0 -0.0056597291799616077 0.0014082869379911725 0 -0.0055853707608274359 0.001048002566783809 0 -0.0059841736970254683 0.0010065985928524707 0 -0.0056597291799616077 0.0014082869379911725 0 -0.0059841736970254683 0.0010065985928524707 0 -0.0062480456813518454 0.0011860135704551244 0 -0.0056597291799616077 0.0014082869379911725 0 -0.0055853707608274359 0.001048002566783809 0 -0.0056597291799616077 0.0014082869379911725 0 -0.0051096281928034223 0.0013189231721341236 0 -0.0056597291799616077 0.0014082869379911725 0 -0.0051096281928034223 0.0013189231721341236 0 -0.0047699851242830275 0.0018515237089790206 0 -0.0056597291799616077 0.0014082869379911725 0 -0.0056511531518941014 0.0020975143094056664 0 -0.0047699851242830275 0.0018515237089790206 0 -0.0056511531518941014 0.0020975143094056664 0 -0.0047699851242830275 0.0018515237089790206 0 -0.0044284010788337496 0.0025890496012467984 0 -0.0056578157160179282 0.0029428873541605051 0 -0.0044284010788337496 0.0025890496012467984 0 -0.0043962953179315757 0.0033608717799015679 0 -0.0056578157160179282 0.0029428873541605051 0 -0.0056511531518941014 0.0020975143094056664 0 -0.0044284010788337496 0.0025890496012467984 0 -0.0056578157160179282 0.0029428873541605051 0 -0.0056511531518941014 0.0020975143094056664 0 -0.0066694616118452331 0.0024422651587019356 0 -0.0063279534127744456 0.0016278825322178692 0 -0.0056511531518941014 0.0020975143094056664 0 -0.0066694616118452331 0.0024422651587019356 0 -0.0052208908081891586 0.0029637156094474894 0 -0.0060000203976294944 0.0024746664875817692 0 -0.0047888071861252072 0.0030027259327578062 0 -0.0053164542087279299 0.0025249034632449908 0 -0.0052961207931995673 0.0030728084894719367 0 -0.0053164542087279299 0.0025249034632449908 0 -0.0056170957422969738 0.0025880982709934465 0 -0.0052961207931995673 0.0030728084894719367 0 -0.0056170957422969738 0.0025880982709934465 0 -0.0059058623970853538 0.002917802392134186 0 -0.0052961207931995673 0.0030728084894719367 0 -0.0070851893070533701 0.0018896931330779488 0 -0.0066694616118452331 0.0024422651587019356 0 -0.0074611897770950611 0.001968711373388601 0 -0.0053164542087279299 0.0025249034632449908 0 -0.0056170957422969738 0.0025880982709934465 0 -0.0057707188643831625 0.0020996802763675738 0 -0.0060000203976294944 0.0024746664875817692 0 -0.0066494319414515468 0.0019744744907482159 0 -0.0032104107986499291 0.0012737280830891862 0 -0.0033087831163585713 0.0016815517350559279 0 -0.0037203472300607722 0.0015002830607871449 0 -0.0032104107986499291 0.0012737280830891862 0 -0.0036623107333036051 0.00096162657599568662 0 -0.0037203472300607722 0.0015002830607871449 0 -0.0033087831163585713 0.0016815517350559279 0 -0.0037203472300607722 0.0015002830607871449 0 -0.0036123590029639371 0.0019264631619524462 0 -0.0033087831163585713 0.0016815517350559279 0 -0.0028468226548342525 0.0016700732254161343 0 -0.0031707542023329035 0.0020296202706853233 0 -0.0032104107986499291 0.0012737280830891862 0 -0.0033087831163585713 0.0016815517350559279 0 -0.0028468226548342525 0.0016700732254161343 0 -0.0028468226548342525 0.0016700732254161343 0 -0.0023881942060956503 0.00187184766211629 0 -0.0022759012874457177 0.0014868681687224686 0 -0.0028468226548342525 0.0016700732254161343 0 -0.0026619757420714945 0.0012252813101430698 0 -0.0022759012874457177 0.0014868681687224686 0 -0.0032104107986499291 0.0012737280830891862 0 -0.0028468226548342525 0.0016700732254161343 0 -0.0026619757420714945 0.0012252813101430698 0 -0.00485328066208085 0.00039380746803874814 0 -0.0056185285836588029 0.00057475218739241267 0 -0.0043607670215465464 0.00095972764402574187 0 -0.0026619757420714945 0.0012252813101430698 0 -0.0029493642950158224 0.00065104641141947744 0 -0.0020569295076525644 0.0010478859516917123 0 -0.0042733133816551328 0.00061992674860249588 0 -0.0032247376120827075 0.0010030783438621661 0 -0.0032104107986499291 0.0012737280830891862 0 -0.0029493642950158224 0.00065104641141947744 0 -0.0036623107333036051 0.00096162657599568662 0 -0.0032104107986499291 0.0012737280830891862 0 -0.0026619757420714945 0.0012252813101430698 0 -0.0029493642950158224 0.00065104641141947744 0 -0.0039692813933865272 0.0002974129645319762 0 -0.0029493642950158224 0.00065104641141947744 0 -0.0036623107333036051 0.00096162657599568662 0 -0.0039692813933865272 0.0002974129645319762 0 -0.0036623107333036051 0.00096162657599568662 0 -0.0042192415230922443 0.0012347364073134459 0 -0.0039692813933865272 0.0002974129645319762 0 -0.004891773029642635 0.00089647285121555609 0 -0.0042192415230922443 0.0012347364073134459 0 -0.004891773029642635 0.00089647285121555609 0 -0.0047699851242830275 0.0018515237089790206 0 -0.0042192415230922443 0.0012347364073134459 0 -0.0049165722154222722 0.0012011317282764129 0 -0.0048190769938840907 0.001781104459258172 0 -0.0047699851242830275 0.0018515237089790206 0 -0.0042192415230922443 0.0012347364073134459 0 -0.0041377313366021112 0.0020102512071519382 0 -0.0037203472300607722 0.0015002830607871449 0 -0.0042192415230922443 0.0012347364073134459 0 -0.0041377313366021112 0.0020102512071519382 0 -0.0036623107333036051 0.00096162657599568662 0 -0.0037203472300607722 0.0015002830607871449 0 -0.0042192415230922443 0.0012347364073134459 0 -0.0037203472300607722 0.0015002830607871449 0 -0.0036123590029639371 0.0019264631619524462 0 -0.0041377313366021112 0.0020102512071519382 0 -0.0036123590029639371 0.0019264631619524462 0 -0.0041377313366021112 0.0020102512071519382 0 -0.0037020181562964086 0.0023055381878886246 0 -0.0041377313366021112 0.0020102512071519382 0 -0.0037020181562964086 0.0023055381878886246 0 -0.0044284010788337496 0.0025890496012467984 0 -0.0047699851242830275 0.0018515237089790206 0 -0.0041377313366021112 0.0020102512071519382 0 -0.0044284010788337496 0.0025890496012467984 0 -0.0044284010788337496 0.0025890496012467984 0 -0.0035333410027427741 0.0027650967323584103 0 -0.0037619901048300867 0.0032762289057146417 0 -0.0037020181562964086 0.0023055381878886246 0 -0.0044284010788337496 0.0025890496012467984 0 -0.0035333410027427741 0.0027650967323584103 0 -0.0035333410027427741 0.0027650967323584103 0 -0.0031590690330213262 0.0029131753498014795 0 -0.0032293329694826319 0.0024543092927887351 0 -0.0031590690330213262 0.0029131753498014795 0 -0.0029142729110576402 0.0024995799140272853 0 -0.0026011783302973671 0.0025950417154343283 0 -0.0031590690330213262 0.0029131753498014795 0 -0.0029142729110576402 0.0024995799140272853 0 -0.0032293329694826319 0.0024543092927887351 0 -0.0029142729110576402 0.0024995799140272853 0 -0.0032293329694826319 0.0024543092927887351 0 -0.0029246910880842266 0.0022732458871703972 0 -0.0037020181562964086 0.0023055381878886246 0 -0.0035333410027427741 0.0027650967323584103 0 -0.0032293329694826319 0.0024543092927887351 0 -0.0037020181562964086 0.0023055381878886246 0 -0.0032293329694826319 0.0024543092927887351 0 -0.0031707542023329035 0.0020296202706853233 0 -0.0029246910880842266 0.0022732458871703972 0 -0.0031707542023329035 0.0020296202706853233 0 -0.0027038500093071907 0.0020572455119528786 0 -0.0032293329694826319 0.0024543092927887351 0 -0.0029246910880842266 0.0022732458871703972 0 -0.0031707542023329035 0.0020296202706853233 0 -0.0028468226548342525 0.0016700732254161343 0 -0.0031707542023329035 0.0020296202706853233 0 -0.0027038500093071907 0.0020572455119528786 0 -0.0036123590029639371 0.0019264631619524462 0 -0.0037020181562964086 0.0023055381878886246 0 -0.0031707542023329035 0.0020296202706853233 0 -0.0033087831163585713 0.0016815517350559279 0 -0.0036123590029639371 0.0019264631619524462 0 -0.0031707542023329035 0.0020296202706853233 0 -0.0028468226548342525 0.0016700732254161343 0 -0.0023881942060956503 0.00187184766211629 0 -0.0027038500093071907 0.0020572455119528786 0 -0.0029246910880842266 0.0022732458871703972 0 -0.0027038500093071907 0.0020572455119528786 0 -0.0026092580208996116 0.0023359255001057385 0 -0.0027038500093071907 0.0020572455119528786 0 -0.0022968907116645188 0.0022202223879800873 0 -0.0026092580208996116 0.0023359255001057385 0 -0.0023881942060956503 0.00187184766211629 0 -0.0027038500093071907 0.0020572455119528786 0 -0.0022968907116645188 0.0022202223879800873 0 -0.0022968907116645188 0.0022202223879800873 0 -0.0023973279102465174 0.0025041916189981 0 -0.0026092580208996116 0.0023359255001057385 0 -0.0023973279102465174 0.0025041916189981 0 -0.0026011783302973671 0.0025950417154343283 0 -0.0021432883271894571 0.003068517328822348 0 -0.0023973279102465174 0.0025041916189981 0 -0.0026092580208996116 0.0023359255001057385 0 -0.0026011783302973671 0.0025950417154343283 0 -0.0029142729110576402 0.0024995799140272853 0 -0.0029246910880842266 0.0022732458871703972 0 -0.0026092580208996116 0.0023359255001057385 0 -0.0029142729110576402 0.0024995799140272853 0 -0.0026092580208996116 0.0023359255001057385 0 -0.0026011783302973671 0.0025950417154343283 0 -0.0022968907116645188 0.0022202223879800873 0 -0.0023973279102465174 0.0025041916189981 0 -0.0019370309770969456 0.0024374905594649033 0 -0.0023973279102465174 0.0025041916189981 0 -0.0019370309770969456 0.0024374905594649033 0 -0.0017826403505593524 0.00294596396886848 0 -0.0023357015774271577 0.0025277839042132976 0 -0.0016387400120905298 0.0029858577375571687 0 -0.0019370309770969456 0.0024374905594649033 0 -0.0015615196045907758 0.0017856412120673122 0 -0.0011457073303941323 0.0025372135801464734 0 -0.0019370309770969456 0.0024374905594649033 0 -0.0011457073303941323 0.0025372135801464734 0 -0.0017826403505593524 0.00294596396886848 0 -0.0015615196045907758 0.0017856412120673122 0 -0.0020421758541678187 0.0020215273237849259 0 -0.0019961419836125914 0.0016837467747883781 0 -0.0019370309770969456 0.0024374905594649033 0 -0.0015615196045907758 0.0017856412120673122 0 -0.0020421758541678187 0.0020215273237849259 0 -0.0023881942060956503 0.00187184766211629 0 -0.0022968907116645188 0.0022202223879800873 0 -0.0020421758541678187 0.0020215273237849259 0 -0.0022968907116645188 0.0022202223879800873 0 -0.0019370309770969456 0.0024374905594649033 0 -0.0020421758541678187 0.0020215273237849259 0 -0.0023881942060956503 0.00187184766211629 0 -0.0020421758541678187 0.0020215273237849259 0 -0.0019961419836125914 0.0016837467747883781 0 -0.0023881942060956503 0.00187184766211629 0 -0.0022759012874457177 0.0014868681687224686 0 -0.0019961419836125914 0.0016837467747883781 0 -0.0022759012874457177 0.0014868681687224686 0 -0.0019961419836125914 0.0016837467747883781 0 -0.0017943684006871366 0.0014999510538672906 0 -0.0022759012874457177 0.0014868681687224686 0 -0.0017943684006871366 0.0014999510538672906 0 -0.0020569295076525644 0.0010478859516917123 0 -0.0015615196045907758 0.0017856412120673122 0 -0.0019961419836125914 0.0016837467747883781 0 -0.0017943684006871366 0.0014999510538672906 0 -0.0015615196045907758 0.0017856412120673122 0 -0.0015280466347248397 0.0016272343693152125 0 -0.0017943684006871366 0.0014999510538672906 0 -0.0015280466347248397 0.0016272343693152125 0 -0.0017943684006871366 0.0014999510538672906 0 -0.0015032226234674125 0.0014692282553003084 0 -0.003498362600018577 0.00086079724446002509 0 -0.0043607670215465464 0.00095972764402574187 0 -0.0029321975642099085 0.0013410438640981388 0 -0.00559120585751899 0.0012003648730640932 0 -0.0064851672217524203 0.00079495654865378135 0 -0.0032247376120827075 0.0010030783438621661 0 -0.0022300129605202323 0.0013925566122230549 0 -0.003498362600018577 0.00086079724446002509 0 -0.0026304625434000473 0.00086618068399685008 0 -0.0040638072444381867 0.00027361605371352702 0 -0.0017943684006871366 0.0014999510538672906 0 -0.0020569295076525644 0.0010478859516917123 0 -0.0015032226234674125 0.0014692282553003084 0 -0.003498362600018577 0.00086079724446002509 0 -0.0026304625434000473 0.00086618068399685008 0 -0.0029321975642099085 0.0013410438640981388 0 -0.003498362600018577 0.00086079724446002509 0 -0.0043607670215465464 0.00095972764402574187 0 -0.0040638072444381867 0.00027361605371352702 0 -0.0026619757420714945 0.0012252813101430698 0 -0.0022759012874457177 0.0014868681687224686 0 -0.0020569295076525644 0.0010478859516917123 0 -0.00485328066208085 0.00039380746803874814 0 -0.0043607670215465464 0.00095972764402574187 0 -0.0040638072444381867 0.00027361605371352702 0 -0.0081872975337820789 0.0016475563297634118 0 -0.0084130582350195483 0.0014862389730633603 0 -0.0085731283479049247 0.0015074638990486412 0 -0.00559120585751899 0.0012003648730640932 0 -0.0047795275450639831 0.0015808282358314777 0 -0.0081872975337820789 0.0016475563297634118 0 -0.0085731283479049247 0.0015074638990486412 0 -0.0080918236799271681 0.0017871014855488508 0 -0.0081872975337820789 0.0016475563297634118 0 -0.0082206710985696686 0.0013797297286654937 0 -0.0080363517431468086 0.0014166911098829837 0 -0.0081872975337820789 0.0016475563297634118 0 -0.0082206710985696686 0.0013797297286654937 0 -0.0084130582350195483 0.0014862389730633603 0 -0.0084130582350195483 0.0014862389730633603 0 -0.0085731283479049247 0.0015074638990486412 0 -0.0087739757408148728 0.0012710574266779019 0 -0.0026304625434000473 0.00086618068399685008 0 -0.0029321975642099085 0.0013410438640981388 0 -0.0015406502856543977 0.0016233962604157979 0 -0.0022300129605202323 0.0013925566122230549 0 -0.0015909008622421975 0.0016065156067830116 0 -0.0015032226234674125 0.0014692282553003084 0 -0.0015089560016058228 0.0016123722383110865 0 -0.0015406502856543977 0.0016233962604157979 0 -0.0015280466347248397 0.0016272343693152125 0 -0.0015032226234674125 0.0014692282553003084 0 -0.0015089560016058228 0.0016123722383110865 0 -0.0015280466347248397 0.0016272343693152125 0 -0.0015089560016058228 0.0016123722383110865 0 -0.0015049844484881878 0.0016822073877500957 0 -0.0015089560016058228 0.0016123722383110865 0 -0.0015406502856543977 0.0016233962604157979 0 -0.001482242413938295 0.0016550579960601653 0 -0.0026304625434000473 0.00086618068399685008 0 -0.0013766905478682892 0.0014737377923004856 0 -0.0015406502856543977 0.0016233962604157979 0 -0.0013766905478682892 0.0014737377923004856 0 -0.0015406502856543977 0.0016233962604157979 0 -0.0013695674615941556 0.0016370803151355363 0 -0.0015406502856543977 0.0016233962604157979 0 -0.001482242413938295 0.0016550579960601653 0 -0.0013695674615941556 0.0016370803151355363 0 -0.0011050025988080926 0.0017944093503895699 0 -0.00082611867380889934 0.00183650783586587 0 -0.001482242413938295 0.0016550579960601653 0 -0.0013888205725882438 0.0017356134844966778 0 -0.0013695674615941556 0.0016370803151355363 0 -0.00074604559133716075 0.0018734869146534475 0 -0.00042323572095260241 0.0023160376780495544 0 1.6035477982048118e-05 0.0019868458465968479 0 -0.001482242413938295 0.0016550579960601653 0 -0.0015049844484881878 0.0016822073877500957 0 -0.0013888205725882438 0.0017356134844966778 0 -0.0015089560016058228 0.0016123722383110865 0 -0.001482242413938295 0.0016550579960601653 0 -0.0015049844484881878 0.0016822073877500957 0 -0.0015373128931487072 0.0017671774475968125 0 -0.0011050025988080926 0.0017944093503895699 0 -0.0015615196045907758 0.0017856412120673122 0 -0.0015280466347248397 0.0016272343693152125 0 -0.0015049844484881878 0.0016822073877500957 0 -0.0015615196045907758 0.0017856412120673122 0 -0.00074604559133716075 0.0018734869146534475 0 -0.0011457073303941323 0.0025372135801464734 0 -0.00074604559133716075 0.0018734869146534475 0 -0.0011457073303941323 0.0025372135801464734 0 -0.00042323572095260241 0.0023160376780495544 0 -0.0011457073303941323 0.0025372135801464734 0 -0.00042323572095260241 0.0023160376780495544 0 -0.00045129728387465829 0.0028455864715117162 0 -0.00042323572095260241 0.0023160376780495544 0 0.00028509619870802669 0.0024691699088760692 0 -0.00045129728387465829 0.0028455864715117162 0 0.00028509619870802669 0.0024691699088760692 0 0.00077620584620635713 0.0021084047706248685 0 1.6035477982048118e-05 0.0019868458465968479 0 -0.00042323572095260241 0.0023160376780495544 0 0.00028509619870802669 0.0024691699088760692 0 1.6035477982048118e-05 0.0019868458465968479 0 0.00051839429607511412 0.0020571673843929649 0 0.0030271287651669814 0.003341684897341924 0 0.0033527686237764115 0.0022399510025533742 0 0.0041382879056162331 0.0030960447012757029 0 0.003455894664104715 0.0037048258566041653 0 0.00028509619870802669 0.0024691699088760692 0 0.00077620584620635713 0.0021084047706248685 0 0.00084777356864221927 0.0030878330034801739 0 -0.0022583093278705788 0.0028947267432988767 0 -0.00097809261605520887 0.0024858248437624447 0 -0.0023344930124410881 0.001858856717276551 0 -0.0012152966318636775 0.0017741881577477765 0 -0.0013888205725882438 0.0017356134844966778 0 -0.0012310422128018264 0.0016432329445394576 0 0.00051839429607511412 0.0020571673843929649 0 -0.0041199763773316148 0.0022293149416677048 0 0.00051839429607511412 0.0020571673843929649 0 -0.00082611867380889934 0.00183650783586587 0 -0.0013888205725882438 0.0017356134844966778 0 -0.0013695674615941556 0.0016370803151355363 0 -0.0012310422128018264 0.0016432329445394576 0 0.0035340940619838397 0.0036509651463180102 0 0.0010648190897783406 0.0035192114235040452 0 0.0049719268078066182 0.0025463700676668214 0 0.0041382879056162331 0.0030960447012757029 0 0.004755318084349403 0.003902371583488095 0 0.0033527686237764115 0.0022399510025533742 0 0.0049719268078066182 0.0025463700676668214 0 0.0041382879056162331 0.0030960447012757029 0 0.00051839429607511412 0.0020571673843929649 0 0.0010648190897783406 0.0035192114235040452 0 -0.0042136861609989047 0.0031284920851132013 0 -0.0041199763773316148 0.0022293149416677048 0 -0.0022583093278705788 0.0028947267432988767 0 -0.00038660727119092038 0.0032170100878754016 0 -0.00097809261605520887 0.0024858248437624447 0 -0.0042136861609989047 0.0031284920851132013 0 -0.0069753141746730779 0.0029133359301988099 0 -0.0029097427289182776 0.0035856053932385311 0 -0.0029739117769740286 0.0035019043964648537 0 -0.0028720319910078705 0.0035680396138293661 0 -0.0079564586682921053 0.0036172017909300693 0 -0.0075839319729003899 0.0037774918930534086 0 -0.0076468629283820821 0.0034321903899498427 0 -0.0042136861609989047 0.0031284920851132013 0 -0.0056645975294644787 0.0035060340379294607 0 0.0010648190897783406 0.0035192114235040452 0 -0.0042136861609989047 0.0031284920851132013 0 -0.0079564586682921053 0.0036172017909300693 0 -0.0076468629283820821 0.0034321903899498427 0 -0.0079266592672891188 0.0033802629624301618 0 -0.0075797548107115129 0.0031259847053036493 0 -0.0076468629283820821 0.0034321903899498427 0 -0.0078825973243909601 0.0031578040319710987 0 -0.0076468629283820821 0.0034321903899498427 0 -0.0078825973243909601 0.0031578040319710987 0 -0.0079266592672891188 0.0033802629624301618 0 -0.004869333122303204 0.0035358323253141979 0 -0.0056357192098700683 0.002591259256936037 0 -0.0063175628074298908 0.0028710507571723309 0 -0.0078825973243909601 0.0031578040319710987 0 -0.0079266592672891188 0.0033802629624301618 0 -0.0082271380884648866 0.0033122030595703028 0 -0.0079564586682921053 0.0036172017909300693 0 -0.0079266592672891188 0.0033802629624301618 0 -0.0082271380884648866 0.0033122030595703028 0 -0.0078825973243909601 0.0031578040319710987 0 -0.0082271380884648866 0.0033122030595703028 0 -0.008214309233604335 0.0030326678358874918 0 -0.008214309233604335 0.0030326678358874918 0 -0.0081278015276431536 0.0027924503276799103 0 -0.0079299396334787196 0.002899884853479633 0 -0.010681655755336692 0.002804792746097292 0 -0.009889904705495868 0.0027318219335154318 0 -0.0081278015276431536 0.0027924503276799103 0 -0.0079299396334787196 0.002899884853479633 0 -0.0078150078235483846 0.0027228368936704343 0 -0.0078825973243909601 0.0031578040319710987 0 -0.008214309233604335 0.0030326678358874918 0 -0.0079299396334787196 0.002899884853479633 0 -0.0078825973243909601 0.0031578040319710987 0 -0.0079299396334787196 0.002899884853479633 0 -0.0077194680757205203 0.0029495386289142022 0 -0.0079299396334787196 0.002899884853479633 0 -0.0077737647326037163 0.0028234460021559142 0 -0.0077194680757205203 0.0029495386289142022 0 -0.0079299396334787196 0.002899884853479633 0 -0.0077737647326037163 0.0028234460021559142 0 -0.0078150078235483846 0.0027228368936704343 0 -0.007484909380884531 0.0027563281383425151 0 -0.0076537413664941019 0.0028335185884933063 0 -0.0077528002617605774 0.0027095525536444285 0 -0.0074983332380694533 0.0029032516864169505 0 -0.0076537413664941019 0.0028335185884933063 0 -0.0077194680757205203 0.0029495386289142022 0 -0.0077737647326037163 0.0028234460021559142 0 -0.0076537413664941019 0.0028335185884933063 0 -0.0077194680757205203 0.0029495386289142022 0 -0.0077737647326037163 0.0028234460021559142 0 -0.0076537413664941019 0.0028335185884933063 0 -0.0077528002617605774 0.0027095525536444285 0 -0.0074983332380694533 0.0029032516864169505 0 -0.0075797548107115129 0.0031259847053036493 0 -0.0077194680757205203 0.0029495386289142022 0 -0.0075797548107115129 0.0031259847053036493 0 -0.0078825973243909601 0.0031578040319710987 0 -0.0077194680757205203 0.0029495386289142022 0 -0.0081872975337820789 0.0016475563297634118 0 -0.0080918236799271681 0.0017871014855488508 0 -0.0076617880556518192 0.0017292024046624309 0 -0.0080918236799271681 0.0017871014855488508 0 -0.0076617880556518192 0.0017292024046624309 0 -0.0072200638330097789 0.0022106179769323083 0 -0.0013766905478682892 0.0014737377923004856 0 -0.0013695674615941556 0.0016370803151355363 0 -0.0012310422128018264 0.0016432329445394576 0 -0.0047795275450639831 0.0015808282358314777 0 -0.0041199763773316148 0.0022293149416677048 0 -0.0056357192098700683 0.002591259256936037 0 -0.0063175628074298908 0.0028710507571723309 0 -0.0064081435266216298 0.0016475038725367252 0 -0.0041199763773316148 0.0022293149416677048 0 -0.0084242701008462213 0.0022117586636639158 0 -0.0076617880556518192 0.0017292024046624309 0 -0.0072200638330097789 0.0022106179769323083 0 -0.0072852767843282719 0.0015583153325194189 0 -0.0069753141746730779 0.0029133359301988099 0 -0.0084242701008462213 0.0022117586636639158 0 -0.0082271380884648866 0.0033122030595703028 0 -0.008214309233604335 0.0030326678358874918 0 -0.0085004842297513195 0.0029972526646685647 0 -0.012980211563707588 0.0027369781691745049 0 -0.013684834782270399 0.002896222893945772 0 -0.013414873134932719 0.0025170461752181935 0 -0.010681655755336692 0.002804792746097292 0 -0.010578722414592906 0.0023387051638677405 0 -0.008214309233604335 0.0030326678358874918 0 -0.0081278015276431536 0.0027924503276799103 0 -0.0085108852597292339 0.0028807059082660486 0 -0.0076617880556518192 0.0017292024046624309 0 -0.0072852767843282719 0.0015583153325194189 0 -0.0074154637037864499 0.0014091915506128875 0 -0.0084242701008462213 0.0022117586636639158 0 -0.010578722414592906 0.0023387051638677405 0 -0.0091073647762356779 0.0021843377371574529 0 -0.0096355511501657679 0.0015251392965807654 0 -0.0091557546829416983 0.0014037253812126057 0 -0.0084242701008462213 0.0022117586636639158 0 -0.0094663391657730609 0.0017122855338420875 0 -0.008214309233604335 0.0030326678358874918 0 -0.0085004842297513195 0.0029972526646685647 0 -0.0085108852597292339 0.0028807059082660486 0 -0.013684834782270399 0.002896222893945772 0 -0.013710894371568619 0.0025912630025028052 0 -0.013414873134932719 0.0025170461752181935 0 -0.013814472098717095 0.0029401185427079405 0 -0.013677547783626322 0.0029057515273780321 0 -0.013710894371568619 0.0025912630025028052 0 -0.0094663391657730609 0.0017122855338420875 0 -0.010578722414592906 0.0023387051638677405 0 -0.010578722414592906 0.0023387051638677405 0 -0.011780404529379996 0.0025609544575063634 0 -0.0081872975337820789 0.0016475563297634118 0 -0.0076617880556518192 0.0017292024046624309 0 -0.0074154637037864499 0.0014091915506128875 0 -0.0081872975337820789 0.0016475563297634118 0 -0.0077632178305096786 0.001517111610019843 0 -0.0080363517431468086 0.0014166911098829837 0 -0.007399261024436137 0.0014824779719726875 0 -0.0094663391657730609 0.0017122855338420875 0 -0.0077632178305096786 0.001517111610019843 0 -0.0080363517431468086 0.0014166911098829837 0 -0.0080698101011962703 0.0011012383029539636 0 -0.013814472098717095 0.0029401185427079405 0 -0.014502453812510986 0.0020650140686956425 0 -0.013710894371568619 0.0025912630025028052 0 -0.0094663391657730609 0.0017122855338420875 0 -0.011466685269846523 0.0015940624546897304 0 -0.014502453812510986 0.0020650140686956425 0 -0.013710894371568619 0.0025912630025028052 0 -0.013883176211532067 0.0019877301897508934 0 -0.013710894371568619 0.0025912630025028052 0 -0.013414873134932719 0.0025170461752181935 0 -0.013599120065734062 0.0022543080679799828 0 -0.013275571775346969 0.0021155218931634104 0 -0.013599120065734062 0.0022543080679799828 0 -0.013883176211532067 0.0019877301897508934 0 -0.013414873134932719 0.0025170461752181935 0 -0.013275571775346969 0.0021155218931634104 0 -0.013599120065734062 0.0022543080679799828 0 -0.013710894371568619 0.0025912630025028052 0 -0.013599120065734062 0.0022543080679799828 0 -0.013883176211532067 0.0019877301897508934 0 -0.013883176211532067 0.0019877301897508934 0 -0.013570195237483072 0.0014990580154599662 0 -0.014348615882770092 0.0013221928264399172 0 -0.013275571775346969 0.0021155218931634104 0 -0.013883176211532067 0.0019877301897508934 0 -0.013570195237483072 0.0014990580154599662 0 -0.014502453812510986 0.0020650140686956425 0 -0.013883176211532067 0.0019877301897508934 0 -0.014348615882770092 0.0013221928264399172 0 -0.011335224692650015 0.0023249087561135738 0 -0.012244867447448425 0.0025764310117390521 0 -0.012060687176744659 0.0019355303768645862 0 -0.012244867447448425 0.0025764310117390521 0 -0.012368017175531069 0.0026037512132952956 0 -0.012677119069517346 0.0021493332270862498 0 -0.0077737647326037163 0.0028234460021559142 0 -0.0077528002617605774 0.0027095525536444285 0 -0.0078150078235483846 0.0027228368936704343 0 -0.0095209592525849138 0.0027088644952763703 0 -0.009889904705495868 0.0027318219335154318 0 -0.012244867447448425 0.0025764310117390521 0 -0.012677119069517346 0.0021493332270862498 0 -0.012060687176744659 0.0019355303768645862 0 -0.012980211563707588 0.0027369781691745049 0 -0.012368017175531069 0.0026037512132952956 0 -0.012677119069517346 0.0021493332270862498 0 -0.012980211563707588 0.0027369781691745049 0 -0.013275571775346969 0.0021155218931634104 0 -0.012677119069517346 0.0021493332270862498 0 -0.012980211563707588 0.0027369781691745049 0 -0.013414873134932719 0.0025170461752181935 0 -0.013275571775346969 0.0021155218931634104 0 -0.012677119069517346 0.0021493332270862498 0 -0.012956995859590223 0.0016227571816019165 0 -0.0123725520157706 0.0013945084021107276 0 -0.013275571775346969 0.0021155218931634104 0 -0.012677119069517346 0.0021493332270862498 0 -0.012956995859590223 0.0016227571816019165 0 -0.013275571775346969 0.0021155218931634104 0 -0.013570195237483072 0.0014990580154599662 0 -0.012956995859590223 0.0016227571816019165 0 -0.013570195237483072 0.0014990580154599662 0 -0.012956995859590223 0.0016227571816019165 0 -0.012937468705953296 0.00096249527764332473 0 -0.012956995859590223 0.0016227571816019165 0 -0.0123725520157706 0.0013945084021107276 0 -0.012937468705953296 0.00096249527764332473 0 -0.011628646142513415 0.0014151965133841445 0 -0.0123725520157706 0.0013945084021107276 0 -0.012060687176744659 0.0019355303768645862 0 -0.012677119069517346 0.0021493332270862498 0 -0.0123725520157706 0.0013945084021107276 0 -0.012060687176744659 0.0019355303768645862 0 -0.011628646142513415 0.0014151965133841445 0 -0.0123725520157706 0.0013945084021107276 0 -0.011909762916357411 0.00097073094599990422 0 -0.011909762916357411 0.00097073094599990422 0 -0.012349743954737499 0.00086002778574527134 0 -0.011965115421512868 0.00056165384574594318 0 -0.0123725520157706 0.0013945084021107276 0 -0.011909762916357411 0.00097073094599990422 0 -0.012349743954737499 0.00086002778574527134 0 -0.0123725520157706 0.0013945084021107276 0 -0.012349743954737499 0.00086002778574527134 0 -0.012937468705953296 0.00096249527764332473 0 -0.012349743954737499 0.00086002778574527134 0 -0.012937468705953296 0.00096249527764332473 0 -0.012423318393585941 0.00031367079786312713 0 -0.012937468705953296 0.00096249527764332473 0 -0.013142123336472099 3.8833274990369572e-05 0 -0.013686975134849462 0.00090775941598897033 0 -0.012937468705953296 0.00096249527764332473 0 -0.013142123336472099 3.8833274990369572e-05 0 -0.012423318393585941 0.00031367079786312713 0 -0.011892036243814125 0.00018544458062366313 0 -0.012055759303213072 -0.00043352828931070801 0 -0.012423318393585941 0.00031367079786312713 0 -0.012055759303213072 -0.00043352828931070801 0 -0.013142123336472099 3.8833274990369572e-05 0 -0.012423318393585941 0.00031367079786312713 0 -0.012349743954737499 0.00086002778574527134 0 -0.012423318393585941 0.00031367079786312713 0 -0.011965115421512868 0.00056165384574594318 0 -0.011892036243814125 0.00018544458062366313 0 -0.012423318393585941 0.00031367079786312713 0 -0.011965115421512868 0.00056165384574594318 0 -0.014348615882770092 0.0013221928264399172 0 -0.013686975134849462 0.00090775941598897033 0 -0.014318640482332246 0.00058377427745213083 0 -0.014348615882770092 0.0013221928264399172 0 -0.014318640482332246 0.00058377427745213083 0 -0.014632232354717452 0.00087780534489807836 0 -0.013570195237483072 0.0014990580154599662 0 -0.012937468705953296 0.00096249527764332473 0 -0.013686975134849462 0.00090775941598897033 0 -0.013570195237483072 0.0014990580154599662 0 -0.014348615882770092 0.0013221928264399172 0 -0.013686975134849462 0.00090775941598897033 0 -0.013142123336472099 3.8833274990369572e-05 0 -0.013686975134849462 0.00090775941598897033 0 -0.014318640482332246 0.00058377427745213083 0 -0.014428153993682429 0.00035297493504203169 0 -0.014274225513817313 0.00042905551625379136 0 -0.014318640482332246 0.00058377427745213083 0 -0.01371563050724609 0.00021259127744051537 0 -0.014295506736978977 0.00056445775953675227 0 -0.014428153993682429 0.00035297493504203169 0 -0.014318640482332246 0.00058377427745213083 0 -0.014619917414062388 0.00041169911907508542 0 -0.014318640482332246 0.00058377427745213083 0 -0.014619917414062388 0.00041169911907508542 0 -0.014632232354717452 0.00087780534489807836 0 -0.014619917414062388 0.00041169911907508542 0 -0.014632232354717452 0.00087780534489807836 0 -0.014932145609617781 0.00077880075515032667 0 -0.014619917414062388 0.00041169911907508542 0 -0.014932145609617781 0.00077880075515032667 0 -0.015455148447631194 0.00061398798346487917 0 -0.015602263029503367 0.00049212096749146278 0 -0.012883392533732599 0.00058792038298164121 0 -0.014348615882770092 0.0013221928264399172 0 -0.014632232354717452 0.00087780534489807836 0 -0.01503686096340013 0.0012427322093663386 0 -0.014632232354717452 0.00087780534489807836 0 -0.014932145609617781 0.00077880075515032667 0 -0.01503686096340013 0.0012427322093663386 0 -0.014932145609617781 0.00077880075515032667 0 -0.01503686096340013 0.0012427322093663386 0 -0.015455148447631194 0.00061398798346487917 0 -0.0084551223320969947 0.0006475205634663857 0 -0.0088342462927650505 0.00022831573972168425 0 -0.008961828547576817 0.0004940042855409903 0 -0.0084551223320969947 0.0006475205634663857 0 -0.008961828547576817 0.0004940042855409903 0 -0.0089731697216067635 0.00079360624417721564 0 -0.011616845110917059 0.00097177057724664366 0 -0.012883392533732599 0.00058792038298164121 0 -0.014813685730786733 0.00036515710681320608 0 -0.014619917414062388 0.00041169911907508542 0 -0.014848068236013867 0.00044631702544977174 0 -0.012883392533732599 0.00058792038298164121 0 -0.010461346269835059 0.00024398497063634765 0 -0.01490493070996091 0.00033797067242904576 0 -0.014813685730786733 0.00036515710681320608 0 -0.014848068236013867 0.00044631702544977174 0 -0.013715670008697212 0.00037824783824284461 0 -0.012883392533732599 0.00058792038298164121 0 -0.012407810857975972 0.00049984057594037491 0 -0.012530969959920658 0.00041500966177683237 0 -0.012385888769214039 0.00044892054522807661 0 -0.012530969959920658 0.00041500966177683237 0 -0.012385888769214039 0.00044892054522807661 0 -0.012351377923169694 0.00030777829082005801 0 -0.012325571053984567 0.0004608744284661933 0 -0.012334512767075746 0.00047967236016487709 0 -0.012392186923444924 0.00047914980451399839 0 -0.012385888769214039 0.00044892054522807661 0 -0.012391900755461963 0.00047982488959791747 0 -0.011945643312824425 0.00018261288202995858 0 -0.01203467912348519 0.00048607804521881023 0 -0.012351377923169694 0.00030777829082005801 0 -0.012385888769214039 0.00044892054522807661 0 -0.01203467912348519 0.00048607804521881023 0 -0.012351377923169694 0.00030777829082005801 0 -0.0096272813429695344 0.00045794223530707198 0 -0.0092183744946159867 0.00034502885948657283 0 -0.0093767011923310481 0.00071567126196255177 0 -0.010346059586833845 0.00045287795958310229 0 -0.010461346269835059 0.00024398497063634765 0 -0.010346059586833845 0.00045287795958310229 0 -0.0093164817010316057 0.0008475445097641173 0 -0.0088342462927650505 0.00022831573972168425 0 -0.0092183744946159867 0.00034502885948657283 0 -0.008961828547576817 0.0004940042855409903 0 -0.008961828547576817 0.0004940042855409903 0 -0.0089731697216067635 0.00079360624417721564 0 -0.0093767011923310481 0.00071567126196255177 0 -0.0092183744946159867 0.00034502885948657283 0 -0.008961828547576817 0.0004940042855409903 0 -0.0093767011923310481 0.00071567126196255177 0 -0.0089731697216067635 0.00079360624417721564 0 -0.0090329725677870103 0.00099307802248344446 0 -0.009240734393959598 0.00094698970370088388 0 -0.0089731697216067635 0.00079360624417721564 0 -0.0090329725677870103 0.00099307802248344446 0 -0.0088700882935300596 0.0010238617183051396 0 -0.0089731697216067635 0.00079360624417721564 0 -0.0093767011923310481 0.00071567126196255177 0 -0.009240734393959598 0.00094698970370088388 0 -0.0094340210367795732 0.00082088721797662348 0 -0.0093767011923310481 0.00071567126196255177 0 -0.009240734393959598 0.00094698970370088388 0 -0.0095526443918445229 0.00074420322994727989 0 -0.0094340210367795732 0.00082088721797662348 0 -0.0093767011923310481 0.00071567126196255177 0 -0.0095199900270646551 0.00091020207550888944 0 -0.0094340210367795732 0.00082088721797662348 0 -0.009240734393959598 0.00094698970370088388 0 -0.0053455622992033313 -0.00022559581803367935 0 -0.00485328066208085 0.00039380746803874814 0 -0.0040638072444381867 0.00027361605371352702 0 -0.0095199900270646551 0.00091020207550888944 0 -0.009240734393959598 0.00094698970370088388 0 -0.0090439326045318059 0.0012144118588663976 0 -0.0074016716036437247 0.00043189030871102944 0 -0.0064851672217524203 0.00079495654865378135 0 -0.0092130512738369513 0.0010147109819578786 0 -0.0089230834932484682 0.0013090856846830639 0 -0.0087739757408148728 0.0012710574266779019 0 -0.009400077211890635 0.0010855580161651167 0 -0.0092130512738369513 0.0010147109819578786 0 -0.0089230834932484682 0.0013090856846830639 0 -0.0093706772606051755 0.00096408993526723346 0 -0.0089004976319364583 0.0012416381849219837 0 -0.0085731283479049247 0.0015074638990486412 0 -0.0089230834932484682 0.0013090856846830639 0 -0.0087739757408148728 0.0012710574266779019 0 -0.0088700882935300596 0.0010238617183051396 0 -0.0090439326045318059 0.0012144118588663976 0 -0.0086035264206034707 0.0010553884952018125 0 -0.0090329725677870103 0.00099307802248344446 0 -0.0088700882935300596 0.0010238617183051396 0 -0.0090439326045318059 0.0012144118588663976 0 -0.0090329725677870103 0.00099307802248344446 0 -0.009240734393959598 0.00094698970370088388 0 -0.0090439326045318059 0.0012144118588663976 0 -0.0084130582350195483 0.0014862389730633603 0 -0.0090439326045318059 0.0012144118588663976 0 -0.0086035264206034707 0.0010553884952018125 0 -0.0084130582350195483 0.0014862389730633603 0 -0.0086035264206034707 0.0010553884952018125 0 -0.0083459083973401217 0.0012509660943203584 0 -0.0084439849749108811 0.001471619020620036 0 -0.0089004976319364583 0.0012416381849219837 0 -0.0080698101011962703 0.0011012383029539636 0 -0.0086035264206034707 0.0010553884952018125 0 -0.0083459083973401217 0.0012509660943203584 0 -0.0082206710985696686 0.0013797297286654937 0 -0.0084130582350195483 0.0014862389730633603 0 -0.0083459083973401217 0.0012509660943203584 0 -0.0082206710985696686 0.0013797297286654937 0 -0.0080698101011962703 0.0011012383029539636 0 -0.0083459083973401217 0.0012509660943203584 0 -0.0082206710985696686 0.0013797297286654937 0 -0.0080363517431468086 0.0014166911098829837 0 -0.0080698101011962703 0.0011012383029539636 0 -0.014502453812510986 0.0020650140686956425 0 -0.014348615882770092 0.0013221928264399172 0 -0.01503686096340013 0.0012427322093663386 0 -0.0080698101011962703 0.0011012383029539636 0 -0.0084551223320969947 0.0006475205634663857 0 -0.0086035264206034707 0.0010553884952018125 0 -0.011466685269846523 0.0015940624546897304 0 -0.011616845110917059 0.00097177057724664366 0 -0.0084551223320969947 0.0006475205634663857 0 -0.0089731697216067635 0.00079360624417721564 0 -0.0086035264206034707 0.0010553884952018125 0 -0.0089731697216067635 0.00079360624417721564 0 -0.0088700882935300596 0.0010238617183051396 0 -0.0086035264206034707 0.0010553884952018125 0 -0.011798957866176471 8.3774747797740046e-05 0 -0.011759632524827155 4.7494424429552244e-05 0 -0.011925699504558521 0.00010023964489232116 0 -0.011798957866176471 8.3774747797740046e-05 0 -0.011925699504558521 0.00010023964489232116 0 -0.012158281072675131 9.9573087942844986e-05 0 -0.011798957866176471 8.3774747797740046e-05 0 -0.011541435262599892 -4.0713735853321419e-09 0 -0.012277358209792649 1.8008127367582723e-07 0 -0.011798957866176471 8.3774747797740046e-05 0 -0.011541435262599892 -4.0713735853321419e-09 0 -0.011325903181650675 -5.0151405165976278e-05 0 -0.011759632524827155 4.7494424429552244e-05 0 -0.01180970128008671 -0.00015485922229446447 0 -0.011325903181650675 -5.0151405165976278e-05 0 -0.011798957866176471 8.3774747797740046e-05 0 -0.011759632524827155 4.7494424429552244e-05 0 -0.011325903181650675 -5.0151405165976278e-05 0 -0.011915644104106253 3.6893195089851819e-05 0 -0.011759632524827155 4.7494424429552244e-05 0 -0.01180970128008671 -0.00015485922229446447 0 -0.011915644104106253 3.6893195089851819e-05 0 -0.011759632524827155 4.7494424429552244e-05 0 -0.011925699504558521 0.00010023964489232116 0 -0.011915644104106253 3.6893195089851819e-05 0 -0.011983436050288883 5.761708069175299e-05 0 -0.011961048753942867 -0.00016143041055955709 0 -0.010497487581883699 -0.00052007714540411646 0 -0.010519189445944791 -0.00019018768472201441 0 -0.011915644104106253 3.6893195089851819e-05 0 -0.011958375103214548 9.451760867534315e-05 0 -0.011983436050288883 5.761708069175299e-05 0 -0.011915644104106253 3.6893195089851819e-05 0 -0.011958375103214548 9.451760867534315e-05 0 -0.011925699504558521 0.00010023964489232116 0 -0.011958375103214548 9.451760867534315e-05 0 -0.011925699504558521 0.00010023964489232116 0 -0.012158281072675131 9.9573087942844986e-05 0 -0.011958375103214548 9.451760867534315e-05 0 -0.012003274075477098 -8.2086381696151919e-06 0 -0.012158281072675131 9.9573087942844986e-05 0 -0.012668022622674812 0.00026740235769387823 0 -0.011135200521775362 -0.00022787191624690554 0 -0.011958375103214548 9.451760867534315e-05 0 -0.012003274075477098 -8.2086381696151919e-06 0 -0.011923296158067684 7.3913542888089147e-05 0 -0.013010957006956812 0.00038512188043979192 0 -0.012445232407784239 2.1487013954367036e-05 0 -0.01214847505721362 0.00090552969624436302 0 -0.012003274075477098 -8.2086381696151919e-06 0 -0.012158281072675131 9.9573087942844986e-05 0 -0.012487577242594812 -0.00017170659755995219 0 -0.012668022622674812 0.00026740235769387823 0 -0.013021328393128485 -1.8770824711763736e-05 0 -0.012158281072675131 9.9573087942844986e-05 0 -0.013013504850069482 2.2863077716174916e-07 0 -0.012487577242594812 -0.00017170659755995219 0 -0.011798957866176471 8.3774747797740046e-05 0 -0.012158281072675131 9.9573087942844986e-05 0 -0.012277358209792649 1.8008127367582723e-07 0 -0.012158281072675131 9.9573087942844986e-05 0 -0.012277358209792649 1.8008127367582723e-07 0 -0.013013504850069482 2.2863077716174916e-07 0 -0.013013504850069482 2.2863077716174916e-07 0 -0.012487577242594812 -0.00017170659755995219 0 -0.013748336620336437 -8.2358023159245774e-07 0 -0.014988485121829719 1.166578893664481e-06 0 -0.014998836570773671 3.0044185683186848e-07 0 -0.015000269892176383 -7.0632189258715683e-08 0 -0.013021328393128485 -1.8770824711763736e-05 0 -0.013749381044316788 -8.6957835628098681e-09 0 -0.013633302396416786 7.6487918097153492e-05 0 -0.0136887654565041 -0.0001400990679651355 0 -0.013750902174140491 -3.4106865152320395e-08 0 -0.0136887654565041 -0.0001400990679651355 0 -0.013750902174140491 -3.4106865152320395e-08 0 -0.014310115816366485 4.2192105421147516e-08 0 -0.0136887654565041 -0.0001400990679651355 0 -0.014310115816366485 4.2192105421147516e-08 0 -0.01382507949319524 -0.00036200047976353859 0 -0.014310115816366485 4.2192105421147516e-08 0 -0.01382507949319524 -0.00036200047976353859 0 -0.014870039395323482 -7.2545292799526446e-07 0 -0.014377792017912689 -0.00015483290714576395 0 -0.014870896958743605 -4.0763642530240771e-08 0 -0.014988485121829719 1.166578893664481e-06 0 -0.014872990253861233 -4.7443825745589715e-07 0 -0.014998836570773671 3.0044185683186848e-07 0 -0.014988485121829719 1.166578893664481e-06 0 -0.014987318039349207 2.568424446158082e-06 0 -0.015000269892176383 -7.0632189258715683e-08 0 -0.014377792017912689 -0.00015483290714576395 0 -0.014033818541535792 -0.00026524366221104996 0 -0.0136887654565041 -0.0001400990679651355 0 -0.01382507949319524 -0.00036200047976353859 0 -0.013117766170409115 -0.00054937053189951844 0 -0.014033818541535792 -0.00026524366221104996 0 -0.013611130477971533 -0.00029794412039285808 0 -0.013117766170409115 -0.00054937053189951844 0 -0.012972592996702392 -0.00016609043150169923 0 -0.012271653213209447 -0.00063406160579677082 0 -0.0136887654565041 -0.0001400990679651355 0 -0.013117766170409115 -0.00054937053189951844 0 -0.012972592996702392 -0.00016609043150169923 0 -0.013010957006956812 0.00038512188043979192 0 -0.013633302396416786 7.6487918097153492e-05 0 -0.012972592996702392 -0.00016609043150169923 0 -0.013633302396416786 7.6487918097153492e-05 0 -0.0136887654565041 -0.0001400990679651355 0 -0.012972592996702392 -0.00016609043150169923 0 -0.013010957006956812 0.00038512188043979192 0 -0.012972592996702392 -0.00016609043150169923 0 -0.012445232407784239 2.1487013954367036e-05 0 -0.012972592996702392 -0.00016609043150169923 0 -0.012445232407784239 2.1487013954367036e-05 0 -0.012271653213209447 -0.00063406160579677082 0 -0.012445232407784239 2.1487013954367036e-05 0 -0.012271653213209447 -0.00063406160579677082 0 -0.01173916031911269 -0.0001043660114394447 0 -0.012271653213209447 -0.00063406160579677082 0 -0.011406232501424956 -0.0005417976576698667 0 -0.01173916031911269 -0.0001043660114394447 0 -0.011406232501424956 -0.0005417976576698667 0 -0.011354841822192034 -0.0002785629532802973 0 -0.01173916031911269 -0.0001043660114394447 0 -0.014981803031620616 8.7622372422484872e-06 0 -0.014984980860536342 8.6668028625787414e-06 0 -0.014971466102296365 1.8454381554390564e-05 0 -0.013611130477971533 -0.00029794412039285808 0 -0.013185692247120181 -0.00025999013297929303 0 -0.014987318039349207 2.568424446158082e-06 0 -0.014981803031620616 8.7622372422484872e-06 0 -0.015000269892176383 -7.0632189258715683e-08 0 -0.014981803031620616 8.7622372422484872e-06 0 -0.015000269892176383 -7.0632189258715683e-08 0 -0.014984980860536342 8.6668028625787414e-06 0 -0.015000269892176383 -7.0632189258715683e-08 0 -0.014983932504334992 1.0937134450072544e-05 0 -0.014999854178749831 3.4229778328729984e-08 0 -0.015000269892176383 -7.0632189258715683e-08 0 -0.014984980860536342 8.6668028625787414e-06 0 -0.014983932504334992 1.0937134450072544e-05 0 -0.014983932504334992 1.0937134450072544e-05 0 -0.014971466102296365 1.8454381554390564e-05 0 -0.014959823944860659 2.9215750023456926e-05 0 -0.014984980860536342 8.6668028625787414e-06 0 -0.014983932504334992 1.0937134450072544e-05 0 -0.014971466102296365 1.8454381554390564e-05 0 -0.011406232501424956 -0.0005417976576698667 0 -0.01080921203157123 -0.00055556122545738962 0 -0.011354841822192034 -0.0002785629532802973 0 -0.013185692247120181 -0.00025999013297929303 0 -0.012853470640354485 -0.00025129418050279294 0 -0.01080921203157123 -0.00055556122545738962 0 -0.011018113219832527 -0.00028378687738089971 0 -0.010597054320082924 -0.00028420325655453284 0 -0.011018113219832527 -0.00028378687738089971 0 -0.010937379520334469 -0.0001314909807591435 0 -0.010597054320082924 -0.00028420325655453284 0 -0.01080921203157123 -0.00055556122545738962 0 -0.011018113219832527 -0.00028378687738089971 0 -0.011354841822192034 -0.0002785629532802973 0 -0.010937379520334469 -0.0001314909807591435 0 -0.01070193889565353 -6.8290588079629764e-05 0 -0.010597054320082924 -0.00028420325655453284 0 -0.010937379520334469 -0.0001314909807591435 0 -0.01086256160740779 4.003814754624528e-05 0 -0.01070193889565353 -6.8290588079629764e-05 0 -0.010937379520334469 -0.0001314909807591435 0 -0.01086256160740779 4.003814754624528e-05 0 -0.011091902421992678 4.950860617082116e-05 0 -0.01070193889565353 -6.8290588079629764e-05 0 -0.01066657674450892 9.751707378305861e-05 0 -0.010491344615924504 -2.8046805533163877e-05 0 -0.01086256160740779 4.003814754624528e-05 0 -0.01070193889565353 -6.8290588079629764e-05 0 -0.01066657674450892 9.751707378305861e-05 0 -0.011091902421992678 4.950860617082116e-05 0 -0.0113935324206514 3.5936121234169692e-05 0 -0.011272175300867196 0.00025552631897025814 0 -0.010937379520334469 -0.0001314909807591435 0 -0.011091902421992678 4.950860617082116e-05 0 -0.01124622493276406 -0.0001096573608884974 0 -0.011091902421992678 4.950860617082116e-05 0 -0.01124622493276406 -0.0001096573608884974 0 -0.0113935324206514 3.5936121234169692e-05 0 -0.01124622493276406 -0.0001096573608884974 0 -0.011513946140575855 -6.4125803119209022e-05 0 -0.0113935324206514 3.5936121234169692e-05 0 -0.01124622493276406 -0.0001096573608884974 0 -0.011354841822192034 -0.0002785629532802973 0 -0.011513946140575855 -6.4125803119209022e-05 0 -0.011018113219832527 -0.00028378687738089971 0 -0.01124622493276406 -0.0001096573608884974 0 -0.011354841822192034 -0.0002785629532802973 0 -0.011018113219832527 -0.00028378687738089971 0 -0.010937379520334469 -0.0001314909807591435 0 -0.01124622493276406 -0.0001096573608884974 0 -0.01173916031911269 -0.0001043660114394447 0 -0.011513946140575855 -6.4125803119209022e-05 0 -0.011659274052355921 3.6814305741972833e-05 0 -0.011354841822192034 -0.0002785629532802973 0 -0.01173916031911269 -0.0001043660114394447 0 -0.011513946140575855 -6.4125803119209022e-05 0 -0.012445232407784239 2.1487013954367036e-05 0 -0.01173916031911269 -0.0001043660114394447 0 -0.01214847505721362 0.00090552969624436302 0 -0.011978037960807581 0.00024784109413544808 0 -0.011135200521775362 -0.00022787191624690554 0 -0.011135200521775362 -0.00022787191624690554 0 -0.0092508925591170705 -4.7971248569841995e-05 0 -0.011513946140575855 -6.4125803119209022e-05 0 -0.011659274052355921 3.6814305741972833e-05 0 -0.0113935324206514 3.5936121234169692e-05 0 -0.011659274052355921 3.6814305741972833e-05 0 -0.0113935324206514 3.5936121234169692e-05 0 -0.011306917557732641 0.00024232300635579243 0 -0.0088492297787088128 -0.0010343761692674571 0 -0.0086387990328371349 -0.00092642467311952813 0 -0.0084695598782153231 -0.0010953394404060362 0 -0.0089783860047747584 -0.0013873637577494766 0 -0.0088492297787088128 -0.0010343761692674571 0 -0.0084695598782153231 -0.0010953394404060362 0 -0.0086387990328371349 -0.00092642467311952813 0 -0.0085204008986547435 -0.00074060931643725176 0 -0.0084695598782153231 -0.0010953394404060362 0 -0.011958375103214548 9.451760867534315e-05 0 -0.011923296158067684 7.3913542888089147e-05 0 -0.011983436050288883 5.761708069175299e-05 0 -0.0089783860047747584 -0.0013873637577494766 0 -0.0088492297787088128 -0.0010343761692674571 0 -0.0091841714420489509 -0.00086111058433463287 0 -0.011135200521775362 -0.00022787191624690554 0 -0.010497487581883699 -0.00052007714540411646 0 -0.0091841714420489509 -0.00086111058433463287 0 -0.0087528801490232601 -0.00069207434840421172 0 -0.0090463359907277021 -0.00049680482253998913 0 -0.0088492297787088128 -0.0010343761692674571 0 -0.0091841714420489509 -0.00086111058433463287 0 -0.0087528801490232601 -0.00069207434840421172 0 -0.0088492297787088128 -0.0010343761692674571 0 -0.0086387990328371349 -0.00092642467311952813 0 -0.0087528801490232601 -0.00069207434840421172 0 -0.0087528801490232601 -0.00069207434840421172 0 -0.0085204008986547435 -0.00074060931643725176 0 -0.008529000150988713 -0.00037128441028076758 0 -0.0086387990328371349 -0.00092642467311952813 0 -0.0087528801490232601 -0.00069207434840421172 0 -0.0085204008986547435 -0.00074060931643725176 0 -0.0076967945644238573 0.00099129192504458807 0 -0.0077215221574603015 0.0010127408275932537 0 -0.0077346388226117767 0.00096543667441436763 0 -0.0078063029667133806 0.00023270342444642059 0 -0.0092508925591170705 -4.7971248569841995e-05 0 -0.0085204008986547435 -0.00074060931643725176 0 -0.0082147937440019345 -0.00060356743965165596 0 -0.0084695598782153231 -0.0010953394404060362 0 -0.0076967945644238573 0.00099129192504458807 0 -0.0077215221574603015 0.0010127408275932537 0 -0.0077360706510449465 0.00095646749554149533 0 -0.010636946898266811 0.00048645652674111651 0 -0.010869259331390969 0.00022088266190982832 0 -0.011272175300867196 0.00025552631897025814 0 -0.010636946898266811 0.00048645652674111651 0 -0.010869259331390969 0.00022088266190982832 0 -0.010589267727810764 0.0002567123999827767 0 -0.010869259331390969 0.00022088266190982832 0 -0.010589267727810764 0.0002567123999827767 0 -0.01066657674450892 9.751707378305861e-05 0 -0.01086256160740779 4.003814754624528e-05 0 -0.011091902421992678 4.950860617082116e-05 0 -0.010869259331390969 0.00022088266190982832 0 -0.01086256160740779 4.003814754624528e-05 0 -0.010869259331390969 0.00022088266190982832 0 -0.01066657674450892 9.751707378305861e-05 0 -0.0076967945644238573 0.00099129192504458807 0 -0.0077346388226117767 0.00096543667441436763 0 -0.0077389164289845651 0.00096407900995337597 0 -0.0092167572762834448 0.00080532222250231488 0 -0.0092860788228665211 0.00016679616018079569 0 -0.011091902421992678 4.950860617082116e-05 0 -0.010869259331390969 0.00022088266190982832 0 -0.011272175300867196 0.00025552631897025814 0 -0.0113935324206514 3.5936121234169692e-05 0 -0.011272175300867196 0.00025552631897025814 0 -0.011306917557732641 0.00024232300635579243 0 -0.0092860788228665211 0.00016679616018079569 0 -0.0092508925591170705 -4.7971248569841995e-05 0 -0.010049906298332578 8.6555284714668617e-05 0 -0.009736131553738047 2.9153791396191598e-06 0 -0.0097824089658995923 0.00027386655950465528 0 -0.010049906298332578 8.6555284714668617e-05 0 -0.009736131553738047 2.9153791396191598e-06 0 -0.0099128119200381868 -0.00018349150331913405 0 -0.009736131553738047 2.9153791396191598e-06 0 -0.0095627145055436971 -0.00020884995617123631 0 -0.0099128119200381868 -0.00018349150331913405 0 -0.010049906298332578 8.6555284714668617e-05 0 -0.0099128119200381868 -0.00018349150331913405 0 -0.010251903429997957 -0.00014960314133006958 0 -0.010394244229733814 0.00011554409327834658 0 -0.010491344615924504 -2.8046805533163877e-05 0 -0.010251903429997957 -0.00014960314133006958 0 -0.010049906298332578 8.6555284714668617e-05 0 -0.010394244229733814 0.00011554409327834658 0 -0.010251903429997957 -0.00014960314133006958 0 -0.010589267727810764 0.0002567123999827767 0 -0.01066657674450892 9.751707378305861e-05 0 -0.010394244229733814 0.00011554409327834658 0 -0.01066657674450892 9.751707378305861e-05 0 -0.010394244229733814 0.00011554409327834658 0 -0.010491344615924504 -2.8046805533163877e-05 0 -0.010589267727810764 0.0002567123999827767 0 -0.010394244229733814 0.00011554409327834658 0 -0.010232297752423221 0.0003288999401545155 0 -0.010049906298332578 8.6555284714668617e-05 0 -0.010394244229733814 0.00011554409327834658 0 -0.010232297752423221 0.0003288999401545155 0 -0.0092167572762834448 0.00080532222250231488 0 -0.0089431902487897615 0.00083798448813899239 0 -0.010636946898266811 0.00048645652674111651 0 -0.010232297752423221 0.0003288999401545155 0 -0.0099418905572106423 0.00068657343841720348 0 -0.010636946898266811 0.00048645652674111651 0 -0.010589267727810764 0.0002567123999827767 0 -0.010232297752423221 0.0003288999401545155 0 -0.0097824089658995923 0.00027386655950465528 0 -0.0093292160611960582 0.00046646086729256462 0 -0.0099418905572106423 0.00068657343841720348 0 -0.010049906298332578 8.6555284714668617e-05 0 -0.010232297752423221 0.0003288999401545155 0 -0.0097824089658995923 0.00027386655950465528 0 -0.010232297752423221 0.0003288999401545155 0 -0.0097824089658995923 0.00027386655950465528 0 -0.0099418905572106423 0.00068657343841720348 0 -0.0097824089658995923 0.00027386655950465528 0 -0.0093699947651819434 4.7967074577808918e-05 0 -0.0093292160611960582 0.00046646086729256462 0 -0.0089054558058901077 0.00029621407596385499 0 -0.0089729376962528785 -1.9420094096100403e-06 0 -0.0093699947651819434 4.7967074577808918e-05 0 -0.0089054558058901077 0.00029621407596385499 0 -0.0093699947651819434 4.7967074577808918e-05 0 -0.0093292160611960582 0.00046646086729256462 0 -0.0089729376962528785 -1.9420094096100403e-06 0 -0.0092301600116907172 -0.00018537317469142882 0 -0.0093699947651819434 4.7967074577808918e-05 0 -0.0089729376962528785 -1.9420094096100403e-06 0 -0.0092301600116907172 -0.00018537317469142882 0 -0.0088313275561662779 -0.00032538258177999905 0 -0.009736131553738047 2.9153791396191598e-06 0 -0.0097824089658995923 0.00027386655950465528 0 -0.0093699947651819434 4.7967074577808918e-05 0 -0.0092301600116907172 -0.00018537317469142882 0 -0.0093699947651819434 4.7967074577808918e-05 0 -0.0095627145055436971 -0.00020884995617123631 0 -0.009736131553738047 2.9153791396191598e-06 0 -0.0093699947651819434 4.7967074577808918e-05 0 -0.0095627145055436971 -0.00020884995617123631 0 -0.0094477316433036439 -0.00047133888163910289 0 -0.0095808958169192344 -0.00043366744556332294 0 -0.010144335869315554 -0.00055123762886815687 0 -0.0095627145055436971 -0.00020884995617123631 0 -0.0095808958169192344 -0.00043366744556332294 0 -0.0098015933981497761 -0.00034695393128489159 0 -0.0092301600116907172 -0.00018537317469142882 0 -0.0095627145055436971 -0.00020884995617123631 0 -0.0094300536960930208 -0.00047402036257586014 0 -0.0095627145055436971 -0.00020884995617123631 0 -0.0094300536960930208 -0.00047402036257586014 0 -0.0095808958169192344 -0.00043366744556332294 0 -0.011798943618420071 -0.00014489938431858819 0 -0.010456782409542042 -0.00027949532578038563 0 -0.011798943618420071 -0.00014489938431858819 0 -0.010081567370225373 1.081622894950663e-05 0 -0.0092301600116907172 -0.00018537317469142882 0 -0.0094300536960930208 -0.00047402036257586014 0 -0.0088313275561662779 -0.00032538258177999905 0 -0.011798943618420071 -0.00014489938431858819 0 -0.013597721917626012 0.0001143052860215326 0 -0.012066724133703074 0.00013777370946204613 0 -0.011979128924471069 0.00013693317831612011 0 -0.011950194224885741 0.00020105828587976609 0 -0.014910718128208083 6.6312596171839812e-05 0 -0.014927578779730059 5.1439877377957511e-05 0 -0.014914377366623236 4.2634917271794862e-05 0 -0.014918553959609166 6.1726110861421197e-05 0 -0.014910718128208083 6.6312596171839812e-05 0 -0.014927578779730059 5.1439877377957511e-05 0 -0.014918553959609166 6.1726110861421197e-05 0 -0.014927578779730059 5.1439877377957511e-05 0 -0.014945752408492776 3.9452798650769271e-05 0 -0.014918553959609166 6.1726110861421197e-05 0 -0.014943740389078914 4.4538465488597483e-05 0 -0.014945752408492776 3.9452798650769271e-05 0 -0.011798943618420071 -0.00014489938431858819 0 -0.012612426571053144 -0.00026823220511529842 0 -0.0095808958169192344 -0.00043366744556332294 0 -0.010144335869315554 -0.00055123762886815687 0 -0.0098015933981497761 -0.00034695393128489159 0 -0.010144335869315554 -0.00055123762886815687 0 -0.0099128119200381868 -0.00018349150331913405 0 -0.010251903429997957 -0.00014960314133006958 0 -0.010144335869315554 -0.00055123762886815687 0 -0.0098015933981497761 -0.00034695393128489159 0 -0.0099128119200381868 -0.00018349150331913405 0 -0.0095627145055436971 -0.00020884995617123631 0 -0.0098015933981497761 -0.00034695393128489159 0 -0.0099128119200381868 -0.00018349150331913405 0 -0.010144335869315554 -0.00055123762886815687 0 -0.010251903429997957 -0.00014960314133006958 0 -0.010597054320082924 -0.00028420325655453284 0 -0.01070193889565353 -6.8290588079629764e-05 0 -0.010491344615924504 -2.8046805533163877e-05 0 -0.010597054320082924 -0.00028420325655453284 0 -0.010491344615924504 -2.8046805533163877e-05 0 -0.010251903429997957 -0.00014960314133006958 0 -0.010597054320082924 -0.00028420325655453284 0 -0.012853470640354485 -0.00025129418050279294 0 -0.012612426571053144 -0.00026823220511529842 0 -0.01080921203157123 -0.00055556122545738962 0 -0.010144335869315554 -0.00055123762886815687 0 -0.010597054320082924 -0.00028420325655453284 0 -0.014983932504334992 1.0937134450072544e-05 0 -0.014959823944860659 2.9215750023456926e-05 0 -0.014961712720244434 2.7824701004096486e-05 0 -0.014983932504334992 1.0937134450072544e-05 0 -0.014961712720244434 2.7824701004096486e-05 0 -0.014968178665364915 2.341211686034618e-05 0 -0.014959823944860659 2.9215750023456926e-05 0 -0.014943740389078914 4.4538465488597483e-05 0 -0.014961712720244434 2.7824701004096486e-05 0 -0.014943740389078914 4.4538465488597483e-05 0 -0.014961712720244434 2.7824701004096486e-05 0 -0.014945752408492776 3.9452798650769271e-05 0 -0.014961712720244434 2.7824701004096486e-05 0 -0.014968178665364915 2.341211686034618e-05 0 -0.014945752408492776 3.9452798650769271e-05 0 -0.014983932504334992 1.0937134450072544e-05 0 -0.014968178665364915 2.341211686034618e-05 0 -0.014991902439301711 1.6444177892814341e-05 0 -0.014983932504334992 1.0937134450072544e-05 0 -0.014999854178749831 3.4229778328729984e-08 0 -0.014991902439301711 1.6444177892814341e-05 0 -0.014991902439301711 1.6444177892814341e-05 0 -0.015008160330255238 2.7695572617497877e-05 0 -0.015000153458545166 5.8238072592679321e-08 0 -0.014999854178749831 3.4229778328729984e-08 0 -0.014991902439301711 1.6444177892814341e-05 0 -0.015000153458545166 5.8238072592679321e-08 0 -0.014991902439301711 1.6444177892814341e-05 0 -0.015008160330255238 2.7695572617497877e-05 0 -0.01497469947529668 2.0808399213324658e-05 0 -0.014968178665364915 2.341211686034618e-05 0 -0.014991902439301711 1.6444177892814341e-05 0 -0.01497469947529668 2.0808399213324658e-05 0 -0.015008160330255238 2.7695572617497877e-05 0 -0.015095581605775479 0.00019145803114012743 0 -0.015010903669560099 5.782628039382924e-05 0 -0.015008160330255238 2.7695572617497877e-05 0 -0.014951566717575542 2.2992909227231261e-05 0 -0.01497469947529668 2.0808399213324658e-05 0 -0.015015404744226796 3.9815581661901855e-05 0 -0.015007263827321217 0.00013336966709498395 0 -0.014951566717575542 2.2992909227231261e-05 0 -0.01497469947529668 2.0808399213324658e-05 0 -0.014948107094285536 3.3837849745620116e-05 0 -0.014968178665364915 2.341211686034618e-05 0 -0.01497469947529668 2.0808399213324658e-05 0 -0.014948107094285536 3.3837849745620116e-05 0 -0.014927578779730059 5.1439877377957511e-05 0 -0.014945752408492776 3.9452798650769271e-05 0 -0.014948107094285536 3.3837849745620116e-05 0 -0.014968178665364915 2.341211686034618e-05 0 -0.014945752408492776 3.9452798650769271e-05 0 -0.014948107094285536 3.3837849745620116e-05 0 -0.014951566717575542 2.2992909227231261e-05 0 -0.014948107094285536 3.3837849745620116e-05 0 -0.014914377366623236 4.2634917271794862e-05 0 -0.014927578779730059 5.1439877377957511e-05 0 -0.014948107094285536 3.3837849745620116e-05 0 -0.014914377366623236 4.2634917271794862e-05 0 -0.015007263827321217 0.00013336966709498395 0 -0.015073831842794799 0.00018140105736809815 0 -0.015095581605775479 0.00019145803114012743 0 -0.015083147192647658 0.00045229175899529235 0 -0.014973966907262872 0.0002908186092915098 0 -0.014822386473785669 0.00045291637375506784 0 -0.014861204458408113 0.00023396418517647119 0 -0.014973966907262872 0.0002908186092915098 0 -0.015083147192647658 0.00045229175899529235 0 -0.014822386473785669 0.00045291637375506784 0 -0.014973966907262872 0.0002908186092915098 0 -0.014861204458408113 0.00023396418517647119 0 -0.014972767873049127 0.00014184204356702134 0 -0.014873167777580167 9.4445084877160985e-05 0 -0.014861204458408113 0.00023396418517647119 0 -0.014973966907262872 0.0002908186092915098 0 -0.014972767873049127 0.00014184204356702134 0 -0.015095581605775479 0.00019145803114012743 0 -0.014973966907262872 0.0002908186092915098 0 -0.014972767873049127 0.00014184204356702134 0 -0.014962641805910627 1.6790945208721202e-05 0 -0.015000153458545166 5.8238072592679321e-08 0 -0.014999524368752473 -1.0013760286629923e-07 0 -0.015095581605775479 0.00019145803114012743 0 -0.015010903669560099 5.782628039382924e-05 0 -0.014972767873049127 0.00014184204356702134 0 -0.015010903669560099 5.782628039382924e-05 0 -0.014972767873049127 0.00014184204356702134 0 -0.014977013419194959 4.430956630119913e-05 0 -0.014972767873049127 0.00014184204356702134 0 -0.014977013419194959 4.430956630119913e-05 0 -0.014873167777580167 9.4445084877160985e-05 0 -0.014977013419194959 4.430956630119913e-05 0 -0.014962641805910627 1.6790945208721202e-05 0 -0.014873167777580167 9.4445084877160985e-05 0 -0.014977013419194959 4.430956630119913e-05 0 -0.014962641805910627 1.6790945208721202e-05 0 -0.015000153458545166 5.8238072592679321e-08 0 -0.015008160330255238 2.7695572617497877e-05 0 -0.015010903669560099 5.782628039382924e-05 0 -0.015000153458545166 5.8238072592679321e-08 0 -0.015010903669560099 5.782628039382924e-05 0 -0.014977013419194959 4.430956630119913e-05 0 -0.015000153458545166 5.8238072592679321e-08 0 -0.014570554849297085 7.9771468365403785e-05 0 -0.014817029026069435 7.8710241628011053e-05 0 -0.014999508137453347 -1.0193131808404138e-07 0 -0.014818708463677093 4.066046265518581e-05 0 -0.014999861618458527 5.5177540192355913e-08 0 -0.014984004885099773 1.7166391410267937e-05 0 -0.01499996704544314 5.8947405480622509e-09 0 -0.014995617580125679 1.6615802639085095e-05 0 -0.014817029026069435 7.8710241628011053e-05 0 -0.014999508137453347 -1.0193131808404138e-07 0 -0.015000356087364566 3.8373980144108081e-08 0 -0.014907447277020388 2.933866926304727e-05 0 -0.014999951711868287 -1.1534415420142236e-08 0 -0.01499996704544314 5.8947405480622509e-09 0 -0.015000028757665171 -3.3511692911002528e-09 0 -0.014995617580125679 1.6615802639085095e-05 0 -0.014999920036127651 2.9237955405101953e-08 0 -0.014890300361999101 1.5227064369476759e-05 0 -0.014962641805910627 1.6790945208721202e-05 0 -0.014999524368752473 -1.0013760286629923e-07 0 -0.014774637358162424 1.1985370183030708e-05 0 -0.014774637358162424 1.1985370183030708e-05 0 -0.014873167777580167 9.4445084877160985e-05 0 -0.01472869528820763 0.00017688325737201622 0 -0.014962641805910627 1.6790945208721202e-05 0 -0.014774637358162424 1.1985370183030708e-05 0 -0.014873167777580167 9.4445084877160985e-05 0 -0.01443196459098302 0.00038525036041567177 0 -0.014596789559084784 0.00012790125239418957 0 -0.014645582100601748 0.00023209094120955654 0 -0.014774637358162424 1.1985370183030708e-05 0 -0.014556636369057768 0.00012318172281653637 0 -0.01472869528820763 0.00017688325737201622 0 -0.014907447277020388 2.933866926304727e-05 0 -0.01468108916383716 0.0001750084448112407 0 -0.014890300361999101 1.5227064369476759e-05 0 -0.01468108916383716 0.0001750084448112407 0 -0.014984004885099773 1.7166391410267937e-05 0 -0.014995617580125679 1.6615802639085095e-05 0 -0.014965100544759861 6.1198744070296526e-05 0 -0.014817029026069435 7.8710241628011053e-05 0 -0.014596789559084784 0.00012790125239418957 0 -0.014645582100601748 0.00023209094120955654 0 -0.014570554849297085 7.9771468365403785e-05 0 -0.014817029026069435 7.8710241628011053e-05 0 -0.014596789559084784 0.00012790125239418957 0 -0.01430032697416499 0.0004463864966222068 0 -0.014556636369057768 0.00012318172281653637 0 -0.014595350077692618 0.00026501505245414022 0 -0.014309342994969288 0.00051280060466778556 0 -0.01468108916383716 0.0001750084448112407 0 -0.014467469662215524 0.0003884611656175333 0 -0.01468108916383716 0.0001750084448112407 0 -0.014556636369057768 0.00012318172281653637 0 -0.014595350077692618 0.00026501505245414022 0 -0.01472869528820763 0.00017688325737201622 0 -0.014822386473785669 0.00045291637375506784 0 -0.014861204458408113 0.00023396418517647119 0 -0.014739319269358168 0.00028707611009678134 0 -0.014861204458408113 0.00023396418517647119 0 -0.014873167777580167 9.4445084877160985e-05 0 -0.01472869528820763 0.00017688325737201622 0 -0.014861204458408113 0.00023396418517647119 0 -0.01472869528820763 0.00017688325737201622 0 -0.014739319269358168 0.00028707611009678134 0 -0.014595350077692618 0.00026501505245414022 0 -0.01472869528820763 0.00017688325737201622 0 -0.014739319269358168 0.00028707611009678134 0 -0.014595350077692618 0.00026501505245414022 0 -0.014739319269358168 0.00028707611009678134 0 -0.014611838978816988 0.0003814298326788533 0 -0.014822386473785669 0.00045291637375506784 0 -0.014611838978816988 0.0003814298326788533 0 -0.014517566357278477 0.00056915162673233243 0 -0.014822386473785669 0.00045291637375506784 0 -0.014739319269358168 0.00028707611009678134 0 -0.014611838978816988 0.0003814298326788533 0 -0.01430032697416499 0.0004463864966222068 0 -0.014611838978816988 0.0003814298326788533 0 -0.014517566357278477 0.00056915162673233243 0 -0.01430032697416499 0.0004463864966222068 0 -0.014595350077692618 0.00026501505245414022 0 -0.014611838978816988 0.0003814298326788533 0 -0.014204824421954245 0.00075027592276289844 0 -0.014639039987575207 0.00080979060841339129 0 -0.014251631013922544 0.00075626508997534477 0 -0.014517566357278477 0.00056915162673233243 0 -0.014691767339466474 0.00074147582467663689 0 -0.01430032697416499 0.0004463864966222068 0 -0.014251631013922544 0.00075626508997534477 0 -0.014517566357278477 0.00056915162673233243 0 -0.014206144077321264 0.00089616627388958234 0 -0.014332465344161412 0.00082637819757229653 0 -0.014293459897883767 0.00093178440779407884 0 -0.014206144077321264 0.00089616627388958234 0 -0.014251631013922544 0.00075626508997534477 0 -0.014332465344161412 0.00082637819757229653 0 -0.014332465344161412 0.00082637819757229653 0 -0.014390307079148675 0.00095912508283817199 0 -0.014293459897883767 0.00093178440779407884 0 -0.014822386473785669 0.00045291637375506784 0 -0.014517566357278477 0.00056915162673233243 0 -0.014691767339466474 0.00074147582467663689 0 -0.015083147192647658 0.00045229175899529235 0 -0.014822386473785669 0.00045291637375506784 0 -0.015003972101832169 0.00072795433299230208 0 -0.014822386473785669 0.00045291637375506784 0 -0.014691767339466474 0.00074147582467663689 0 -0.015003972101832169 0.00072795433299230208 0 -0.014910718128208083 6.6312596171839812e-05 0 -0.014914377366623236 4.2634917271794862e-05 0 -0.014888685683180849 6.949829124204844e-05 0 -0.015073831842794799 0.00018140105736809815 0 -0.014129370488352914 0.000577149742292685 0 -0.011886343920772112 0.00012953789615519098 0 -0.011950194224885741 0.00020105828587976609 0 -0.011818451327387961 0.00026142726914189633 0 -0.011979128924471069 0.00013693317831612011 0 -0.011886343920772112 0.00012953789615519098 0 -0.011950194224885741 0.00020105828587976609 0 -0.013597721917626012 0.0001143052860215326 0 -0.014129370488352914 0.000577149742292685 0 -0.014639039987575207 0.00080979060841339129 0 -0.014129370488352914 0.000577149742292685 0 -0.014129370488352914 0.000577149742292685 0 -0.010710919109213343 2.5008465712870901e-05 0 -0.014332465344161412 0.00082637819757229653 0 -0.014433024023797435 0.00084329634007345073 0 -0.014390307079148675 0.00095912508283817199 0 -0.0088313275561662779 -0.00032538258177999905 0 -0.0083693384185359477 -0.00019570192746649163 0 -0.0085701345819089569 7.3170210747166957e-05 0 -0.010081567370225373 1.081622894950663e-05 0 -0.010710919109213343 2.5008465712870901e-05 0 -0.0089729376962528785 -1.9420094096100403e-06 0 -0.0088313275561662779 -0.00032538258177999905 0 -0.0085701345819089569 7.3170210747166957e-05 0 -0.0089054558058901077 0.00029621407596385499 0 -0.0089729376962528785 -1.9420094096100403e-06 0 -0.0085701345819089569 7.3170210747166957e-05 0 -0.0083693384185359477 -0.00019570192746649163 0 -0.0085701345819089569 7.3170210747166957e-05 0 -0.0081382737397917865 4.4692585383517123e-05 0 -0.010710919109213343 2.5008465712870901e-05 0 -0.0077525803682831646 4.7405998206337735e-05 0 -0.0081382737397917865 4.4692585383517123e-05 0 -0.0076966835444041643 -0.00029694139205330107 0 -0.0076196062076444842 0.00022937616522818895 0 -0.0084303053891585499 -0.00061383943367341806 0 -0.0081382737397917865 4.4692585383517123e-05 0 -0.0076966835444041643 -0.00029694139205330107 0 -0.0070774029760089256 -0.00010758193848855111 0 -0.0076966835444041643 -0.00029694139205330107 0 -0.0076196062076444842 0.00022937616522818895 0 -0.014086235172347904 0.0012106769176367614 0 -0.014172498836136711 0.0010390460644664685 0 -0.014273519701648387 0.0010560354023979159 0 -0.010574658672811448 0.00055480283641622466 0 -0.011110487492347618 0.00037353128299320621 0 -0.014206144077321264 0.00089616627388958234 0 -0.014172498836136711 0.0010390460644664685 0 -0.014293459897883767 0.00093178440779407884 0 -0.014172498836136711 0.0010390460644664685 0 -0.014273519701648387 0.0010560354023979159 0 -0.014293459897883767 0.00093178440779407884 0 -0.014390307079148675 0.00095912508283817199 0 -0.014273519701648387 0.0010560354023979159 0 -0.014293459897883767 0.00093178440779407884 0 -0.010710919109213343 2.5008465712870901e-05 0 -0.011110487492347618 0.00037353128299320621 0 -0.0080002983522593444 0.00068504027334296766 0 -0.0076196062076444842 0.00022937616522818895 0 -0.0080780000123794986 0.00035198489405388031 0 -0.0080002983522593444 0.00068504027334296766 0 -0.0073888081237078636 0.00055710632336873232 0 -0.0076196062076444842 0.00022937616522818895 0 -0.0070076626745143242 0.00031288215430439891 0 -0.0073888081237078636 0.00055710632336873232 0 -0.0076196062076444842 0.00022937616522818895 0 -0.0081382737397917865 4.4692585383517123e-05 0 -0.0076196062076444842 0.00022937616522818895 0 -0.0080780000123794986 0.00035198489405388031 0 -0.0085701345819089569 7.3170210747166957e-05 0 -0.0081382737397917865 4.4692585383517123e-05 0 -0.0084851954276612754 0.00042053778374931189 0 -0.0081382737397917865 4.4692585383517123e-05 0 -0.0080780000123794986 0.00035198489405388031 0 -0.0084851954276612754 0.00042053778374931189 0 -0.0089054558058901077 0.00029621407596385499 0 -0.0083069911433844359 0.00062438708236812253 0 -0.0087580334377096048 0.00066649456193841703 0 -0.0088593144286712514 0.00029198323736491055 0 -0.0084103107843352225 0.00052198965815397267 0 -0.0089054558058901077 0.00029621407596385499 0 -0.0085701345819089569 7.3170210747166957e-05 0 -0.0084851954276612754 0.00042053778374931189 0 -0.0083069911433844359 0.00062438708236812253 0 -0.0083698362719384946 0.00097603015997996961 0 -0.0087580334377096048 0.00066649456193841703 0 -0.0080002983522593444 0.00068504027334296766 0 -0.0080780000123794986 0.00035198489405388031 0 -0.0084851954276612754 0.00042053778374931189 0 -0.0079645494979240384 0.0007411690923364683 0 -0.0084103107843352225 0.00052198965815397267 0 -0.0079414086621848318 0.00080040940175262105 0 -0.0083069911433844359 0.00062438708236812253 0 -0.0083698362719384946 0.00097603015997996961 0 -0.0079414086621848318 0.00080040940175262105 0 -0.0081127805269952009 0.0010684966687594143 0 -0.0078419218962889232 0.0010202033763997216 0 -0.0079414086621848318 0.00080040940175262105 0 -0.0083698362719384946 0.00097603015997996961 0 -0.0081127805269952009 0.0010684966687594143 0 -0.0083698362719384946 0.00097603015997996961 0 -0.0082912653160070304 0.0010345428204482547 0 -0.0081127805269952009 0.0010684966687594143 0 -0.0083698362719384946 0.00097603015997996961 0 -0.0082912653160070304 0.0010345428204482547 0 -0.008301763325019194 0.00096317223886186213 0 -0.0082131648270032959 0.0011324416797386131 0 -0.0081195388088382055 0.0012483707367713507 0 -0.0083364389852326748 0.0011219552698387516 0 -0.0082912653160070304 0.0010345428204482547 0 -0.0082131648270032959 0.0011324416797386131 0 -0.0081127805269952009 0.0010684966687594143 0 -0.0082912653160070304 0.0010345428204482547 0 -0.0082131648270032959 0.0011324416797386131 0 -0.0083364389852326748 0.0011219552698387516 0 -0.0082131648270032959 0.0011324416797386131 0 -0.0081127805269952009 0.0010684966687594143 0 -0.0081195388088382055 0.0012483707367713507 0 -0.0081127805269952009 0.0010684966687594143 0 -0.0078897813856821236 0.0012794183272953413 0 -0.0081195388088382055 0.0012483707367713507 0 -0.0081127805269952009 0.0010684966687594143 0 -0.0078419218962889232 0.0010202033763997216 0 -0.0078897813856821236 0.0012794183272953413 0 -0.0078419218962889232 0.0010202033763997216 0 -0.0075644868057603851 0.0013549296225166471 0 -0.0078897813856821236 0.0012794183272953413 0 -0.0078419218962889232 0.0010202033763997216 0 -0.0075149097146576093 0.00094738899694672544 0 -0.0075644868057603851 0.0013549296225166471 0 -0.0079414086621848318 0.00080040940175262105 0 -0.0078419218962889232 0.0010202033763997216 0 -0.0075149097146576093 0.00094738899694672544 0 -0.0079645494979240384 0.0007411690923364683 0 -0.007494030377122581 0.00095594118252430608 0 -0.0069440023613843195 0.00062434917862550302 0 -0.0073888081237078636 0.00055710632336873232 0 -0.007469989775684369 0.00095952057069362804 0 -0.0080002983522593444 0.00068504027334296766 0 -0.0073888081237078636 0.00055710632336873232 0 -0.007469989775684369 0.00095952057069362804 0 -0.0069739916509788087 0.0012272162269770146 0 -0.0075149097146576093 0.00094738899694672544 0 -0.0075644868057603851 0.0013549296225166471 0 -0.0069500934692450873 0.0012469271484567411 0 -0.007494030377122581 0.00095594118252430608 0 -0.0069739916509788087 0.0012272162269770146 0 -0.0075644868057603851 0.0013549296225166471 0 -0.0071937810914464977 0.0015984645038511676 0 -0.0075644868057603851 0.0013549296225166471 0 -0.0076877944586322671 0.0015450078729131529 0 -0.0074633718280696397 0.0016570531316760248 0 -0.0075644868057603851 0.0013549296225166471 0 -0.0071937810914464977 0.0015984645038511676 0 -0.0074633718280696397 0.0016570531316760248 0 -0.0078897813856821236 0.0012794183272953413 0 -0.0076877944586322671 0.0015450078729131529 0 -0.0080360373021881697 0.0015256773911636475 0 -0.0075644868057603851 0.0013549296225166471 0 -0.0078897813856821236 0.0012794183272953413 0 -0.0076877944586322671 0.0015450078729131529 0 -0.0058382941424638644 0.0019728631492302567 0 -0.0059948792085383383 0.0019467570344551238 0 -0.0061105484579196965 0.0016986863019613433 0 -0.0066494319414515468 0.0019744744907482159 0 -0.0070706941149356111 0.0016081905086517243 0 -0.0076877944586322671 0.0015450078729131529 0 -0.0074611897770950611 0.001968711373388601 0 -0.0080360373021881697 0.0015256773911636475 0 -0.0070851893070533701 0.0018896931330779488 0 -0.0073022051059096907 0.0017766632286875641 0 -0.0071937810914464977 0.0015984645038511676 0 -0.0073022051059096907 0.0017766632286875641 0 -0.0071937810914464977 0.0015984645038511676 0 -0.0074633718280696397 0.0016570531316760248 0 -0.0073022051059096907 0.0017766632286875641 0 -0.0074633718280696397 0.0016570531316760248 0 -0.0074611897770950611 0.001968711373388601 0 -0.0076877944586322671 0.0015450078729131529 0 -0.0074633718280696397 0.0016570531316760248 0 -0.0074611897770950611 0.001968711373388601 0 -0.0070851893070533701 0.0018896931330779488 0 -0.0073022051059096907 0.0017766632286875641 0 -0.0074611897770950611 0.001968711373388601 0 -0.0057707188643831625 0.0020996802763675738 0 -0.0058675748359871228 0.0020931654496390518 0 -0.005735229972932702 0.0022489952138599295 0 -0.0053164542087279299 0.0025249034632449908 0 -0.0058382941424638644 0.0019728631492302567 0 -0.0057707188643831625 0.0020996802763675738 0 -0.0057528853356758692 0.0020688325969068122 0 -0.0059238300509077985 0.0027390103004791204 0 -0.0058382941424638644 0.0019728631492302567 0 -0.0057707188643831625 0.0020996802763675738 0 -0.0058675748359871228 0.0020931654496390518 0 -0.0058382941424638644 0.0019728631492302567 0 -0.0059948792085383383 0.0019467570344551238 0 -0.0058675748359871228 0.0020931654496390518 0 -0.0059948792085383383 0.0019467570344551238 0 -0.0058675748359871228 0.0020931654496390518 0 -0.0059899328687390728 0.0021008604522004342 0 -0.0058675748359871228 0.0020931654496390518 0 -0.0058793497457534831 0.0021970280026148282 0 -0.005735229972932702 0.0022489952138599295 0 -0.0058675748359871228 0.0020931654496390518 0 -0.0058793497457534831 0.0021970280026148282 0 -0.0059899328687390728 0.0021008604522004342 0 -0.0058793497457534831 0.0021970280026148282 0 -0.005982985188601549 0.0022412677009824929 0 -0.0059899328687390728 0.0021008604522004342 0 -0.0058793497457534831 0.0021970280026148282 0 -0.005982985188601549 0.0022412677009824929 0 -0.0058480005127941751 0.002310738788397501 0 -0.0058793497457534831 0.0021970280026148282 0 -0.005735229972932702 0.0022489952138599295 0 -0.0058480005127941751 0.002310738788397501 0 -0.0056170957422969738 0.0025880982709934465 0 -0.0057707188643831625 0.0020996802763675738 0 -0.0059058623970853538 0.002917802392134186 0 -0.0062886983991218056 0.0022157633900973962 0 -0.0061705805042506336 0.0020135082819356122 0 -0.0064240403155625733 0.0018684687619985191 0 -0.0062886983991218056 0.0022157633900973962 0 -0.0061127732105790466 0.0021752344080152634 0 -0.0061705805042506336 0.0020135082819356122 0 -0.0062886983991218056 0.0022157633900973962 0 -0.0061127732105790466 0.0021752344080152634 0 -0.0060835354373683518 0.0023390609406809698 0 -0.0061127732105790466 0.0021752344080152634 0 -0.005982985188601549 0.0022412677009824929 0 -0.0060835354373683518 0.0023390609406809698 0 -0.0061127732105790466 0.0021752344080152634 0 -0.005982985188601549 0.0022412677009824929 0 -0.0059899328687390728 0.0021008604522004342 0 -0.0061127732105790466 0.0021752344080152634 0 -0.0061705805042506336 0.0020135082819356122 0 -0.0059899328687390728 0.0021008604522004342 0 -0.0059948792085383383 0.0019467570344551238 0 -0.0061705805042506336 0.0020135082819356122 0 -0.0059899328687390728 0.0021008604522004342 0 -0.0059948792085383383 0.0019467570344551238 0 -0.0061705805042506336 0.0020135082819356122 0 -0.0062810120142689956 0.0018353344367504874 0 -0.0061705805042506336 0.0020135082819356122 0 -0.0062810120142689956 0.0018353344367504874 0 -0.0064240403155625733 0.0018684687619985191 0 -0.0063814996411406229 0.0017284389824907358 0 -0.0062125539775867607 0.0017087234906946411 0 -0.0064373531817753923 0.0015522121738067356 0 -0.0062810120142689956 0.0018353344367504874 0 -0.0063814996411406229 0.0017284389824907358 0 -0.0064240403155625733 0.0018684687619985191 0 -0.0062810120142689956 0.0018353344367504874 0 -0.0063814996411406229 0.0017284389824907358 0 -0.0062125539775867607 0.0017087234906946411 0 -0.0059948792085383383 0.0019467570344551238 0 -0.0062810120142689956 0.0018353344367504874 0 -0.0062125539775867607 0.0017087234906946411 0 -0.0059948792085383383 0.0019467570344551238 0 -0.0063335331711576338 0.0018055184453809549 0 -0.0061105484579196965 0.0016986863019613433 0 -0.006022293976232761 0.0019260134402399832 0 -0.0062786716109347555 0.001754328819525169 0 -0.0078897813856821236 0.0012794183272953413 0 -0.0080360373021881697 0.0015256773911636475 0 -0.0081195388088382055 0.0012483707367713507 0 -0.0063335331711576338 0.0018055184453809549 0 -0.0061105484579196965 0.0016986863019613433 0 -0.0067151461190438182 0.0013286175253620169 0 -0.0070706941149356111 0.0016081905086517243 0 -0.0075224294199838868 0.0012551429983228191 0 -0.0080360373021881697 0.0015256773911636475 0 -0.0081195388088382055 0.0012483707367713507 0 -0.0083364389852326748 0.0011219552698387516 0 -0.0063335331711576338 0.0018055184453809549 0 -0.0067151461190438182 0.0013286175253620169 0 -0.0067817491295864753 0.0015316932273456956 0 -0.0062786716109347555 0.001754328819525169 0 -0.0065982680710115179 0.0015614730823377925 0 -0.0065982680710115179 0.0015614730823377925 0 -0.0069875250126253492 0.0011301237653616578 0 -0.0064373531817753923 0.0015522121738067356 0 -0.0065376950470790651 0.0016619814142677166 0 -0.0066787491633357029 0.0013955961421824306 0 -0.0067151461190438182 0.0013286175253620169 0 -0.0067817491295864753 0.0015316932273456956 0 -0.0072704328689182848 0.0012305729962825119 0 -0.0065759826481536117 0.0015315564711113436 0 -0.0069875250126253492 0.0011301237653616578 0 -0.0070927433350809199 0.0011190110032570008 0 -0.0069064254737535493 0.00126789977945172 0 -0.0069300315879890547 0.00090026854242665174 0 -0.0069064254737535493 0.00126789977945172 0 -0.0066540889105164971 0.001361253117091792 0 -0.0069300315879890547 0.00090026854242665174 0 -0.0070927433350809199 0.0011190110032570008 0 -0.0072112230166617901 0.00093986946021069764 0 -0.0069300315879890547 0.00090026854242665174 0 -0.0070927433350809199 0.0011190110032570008 0 -0.0069064254737535493 0.00126789977945172 0 -0.00702764331075789 0.0013546589988548746 0 -0.0070927433350809199 0.0011190110032570008 0 -0.00702764331075789 0.0013546589988548746 0 -0.0072400218477861062 0.0012499249653646148 0 -0.00702764331075789 0.0013546589988548746 0 -0.0068294683699773586 0.0016105656882806768 0 -0.007199617880570359 0.0015410693471210677 0 -0.0069064254737535493 0.00126789977945172 0 -0.0068294683699773586 0.0016105656882806768 0 -0.0066540889105164971 0.001361253117091792 0 -0.0069064254737535493 0.00126789977945172 0 -0.00702764331075789 0.0013546589988548746 0 -0.0068294683699773586 0.0016105656882806768 0 -0.0065759826481536117 0.0015315564711113436 0 -0.0064420698561742712 0.001832477101175192 0 -0.0068294683699773586 0.0016105656882806768 0 -0.0066540889105164971 0.001361253117091792 0 -0.0064240403155625733 0.0018684687619985191 0 -0.0063814996411406229 0.0017284389824907358 0 -0.0065376950470790651 0.0016619814142677166 0 -0.0064240403155625733 0.0018684687619985191 0 -0.0063814996411406229 0.0017284389824907358 0 -0.0064373531817753923 0.0015522121738067356 0 -0.0065376950470790651 0.0016619814142677166 0 -0.0068294683699773586 0.0016105656882806768 0 -0.0064240403155625733 0.0018684687619985191 0 -0.0067297851402049894 0.0021221606491150678 0 -0.0068294683699773586 0.0016105656882806768 0 -0.0070346722691665966 0.0018425252884186564 0 -0.007199617880570359 0.0015410693471210677 0 -0.0068294683699773586 0.0016105656882806768 0 -0.0070346722691665966 0.0018425252884186564 0 -0.0067297851402049894 0.0021221606491150678 0 -0.0070346722691665966 0.0018425252884186564 0 -0.0067297851402049894 0.0021221606491150678 0 -0.0073255203220494551 0.002229554451314134 0 -0.0062886983991218056 0.0022157633900973962 0 -0.0067297851402049894 0.0021221606491150678 0 -0.0064859337050303043 0.0024348282678867592 0 -0.0062886983991218056 0.0022157633900973962 0 -0.0064240403155625733 0.0018684687619985191 0 -0.0067297851402049894 0.0021221606491150678 0 -0.0042720754704976696 0.00015935108432293631 0 -0.0046428487797930216 -0.00012165472245058435 0 -0.0045079759875896542 0.00024605168892402141 0 -0.0056420101053674676 0.0012106890537775647 0 -0.0069271601855895532 0.001023449230784061 0 -0.0073711491923887078 0.0018121190187034325 0 -0.0075320992606417022 0.0015357165189471621 0 -0.007199617880570359 0.0015410693471210677 0 -0.0070346722691665966 0.0018425252884186564 0 -0.0073255203220494551 0.002229554451314134 0 -0.0073711491923887078 0.0018121190187034325 0 -0.0070346722691665966 0.0018425252884186564 0 -0.0073711491923887078 0.0018121190187034325 0 -0.007199617880570359 0.0015410693471210677 0 -0.0073255203220494551 0.002229554451314134 0 -0.0073711491923887078 0.0018121190187034325 0 -0.0078390606036789351 0.0018127270815988211 0 -0.0073711491923887078 0.0018121190187034325 0 -0.0075320992606417022 0.0015357165189471621 0 -0.0078390606036789351 0.0018127270815988211 0 -0.0077466629034416519 0.0014756649225702303 0 -0.0075320992606417022 0.0015357165189471621 0 -0.0078390606036789351 0.0018127270815988211 0 -0.0075320992606417022 0.0015357165189471621 0 -0.0074179846745249158 0.0013356417296374505 0 -0.007652416345999751 0.0012262408015974472 0 -0.0077466629034416519 0.0014756649225702303 0 -0.0075320992606417022 0.0015357165189471621 0 -0.007652416345999751 0.0012262408015974472 0 -0.0075320992606417022 0.0015357165189471621 0 -0.007199617880570359 0.0015410693471210677 0 -0.0074179846745249158 0.0013356417296374505 0 -0.007199617880570359 0.0015410693471210677 0 -0.0074179846745249158 0.0013356417296374505 0 -0.0072400218477861062 0.0012499249653646148 0 -0.00702764331075789 0.0013546589988548746 0 -0.007199617880570359 0.0015410693471210677 0 -0.0072400218477861062 0.0012499249653646148 0 -0.0072400218477861062 0.0012499249653646148 0 -0.0074254469027602941 0.0011068988809269668 0 -0.0072665823647684218 0.0010468757836527443 0 -0.0070927433350809199 0.0011190110032570008 0 -0.0072400218477861062 0.0012499249653646148 0 -0.0072665823647684218 0.0010468757836527443 0 -0.0074179846745249158 0.0013356417296374505 0 -0.0072400218477861062 0.0012499249653646148 0 -0.0074254469027602941 0.0011068988809269668 0 -0.0074254469027602941 0.0011068988809269668 0 -0.0072665823647684218 0.0010468757836527443 0 -0.0074152690068126168 0.00089026845560286191 0 -0.0074254469027602941 0.0011068988809269668 0 -0.0075863802660722408 0.0009288331129129315 0 -0.0074152690068126168 0.00089026845560286191 0 -0.0070927433350809199 0.0011190110032570008 0 -0.0072665823647684218 0.0010468757836527443 0 -0.0072112230166617901 0.00093986946021069764 0 -0.0074179846745249158 0.0013356417296374505 0 -0.0074254469027602941 0.0011068988809269668 0 -0.007652416345999751 0.0012262408015974472 0 -0.0074254469027602941 0.0011068988809269668 0 -0.007652416345999751 0.0012262408015974472 0 -0.0075863802660722408 0.0009288331129129315 0 -0.007652416345999751 0.0012262408015974472 0 -0.0075863802660722408 0.0009288331129129315 0 -0.0077851643880616772 0.00096840326741947042 0 -0.0075863802660722408 0.0009288331129129315 0 -0.0076789825716719311 0.0007820255307810156 0 -0.0077851643880616772 0.00096840326741947042 0 -0.0075863802660722408 0.0009288331129129315 0 -0.0075800019060564055 0.00073277014212329641 0 -0.0074152690068126168 0.00089026845560286191 0 -0.0075863802660722408 0.0009288331129129315 0 -0.0075800019060564055 0.00073277014212329641 0 -0.0076789825716719311 0.0007820255307810156 0 -0.0075800019060564055 0.00073277014212329641 0 -0.0076789825716719311 0.0007820255307810156 0 -0.0076951994991660503 0.0006005457121034827 0 -0.0076789825716719311 0.0007820255307810156 0 -0.0076951994991660503 0.0006005457121034827 0 -0.0078401250883404945 0.00074115357779096745 0 -0.0076951994991660503 0.0006005457121034827 0 -0.0077312867876468093 0.0006448025971310205 0 -0.0076577764236071483 0.0008522178784491106 0 -0.0075800019060564055 0.00073277014212329641 0 -0.0076951994991660503 0.0006005457121034827 0 -0.0077312867876468093 0.0006448025971310205 0 -0.007707772368373971 0.00058134622380213356 0 -0.0077504105596951532 0.0007595738118972849 0 -0.0077312867876468093 0.0006448025971310205 0 -0.0073184891415987337 0.00074864876211923651 0 -0.0071435120086379396 0.00068791222727647091 0 -0.0081691820799530915 0.00073079275992159567 0 -0.0077504105596951532 0.0007595738118972849 0 -0.0077312867876468093 0.0006448025971310205 0 -0.0080576749094964043 0.00081752318461248915 0 -0.0082668514692101677 0.00039323777867057838 0 -0.0075800019060564055 0.00073277014212329641 0 -0.0077312867876468093 0.0006448025971310205 0 -0.0073184891415987337 0.00074864876211923651 0 -0.0075800019060564055 0.00073277014212329641 0 -0.0073184891415987337 0.00074864876211923651 0 -0.0074152690068126168 0.00089026845560286191 0 -0.0073184891415987337 0.00074864876211923651 0 -0.0074152690068126168 0.00089026845560286191 0 -0.0072112230166617901 0.00093986946021069764 0 -0.0072665823647684218 0.0010468757836527443 0 -0.0074152690068126168 0.00089026845560286191 0 -0.0072112230166617901 0.00093986946021069764 0 -0.0069875250126253492 0.0011301237653616578 0 -0.0077504105596951532 0.0007595738118972849 0 -0.0073184891415987337 0.00074864876211923651 0 -0.0072112230166617901 0.00093986946021069764 0 -0.0069300315879890547 0.00090026854242665174 0 -0.0067151461190438182 0.0013286175253620169 0 -0.0072704328689182848 0.0012305729962825119 0 -0.0074155949100499201 0.00094060163297885358 0 -0.0072973486632284769 0.00075450401800379607 0 -0.0069875250126253492 0.0011301237653616578 0 -0.0082388967804498739 0.00088606035625382574 0 -0.0083041592961538482 0.0010073188893317308 0 -0.0082767260568954223 0.00094378723657625259 0 -0.0073184891415987337 0.00074864876211923651 0 -0.0070270145921913999 0.00092180087498120085 0 -0.0071435120086379396 0.00068791222727647091 0 -0.0075224294199838868 0.0012551429983228191 0 -0.0077504105596951532 0.0007595738118972849 0 -0.0083364389852326748 0.0011219552698387516 0 -0.0082388967804498739 0.00088606035625382574 0 -0.0083041592961538482 0.0010073188893317308 0 -0.0082912653160070304 0.0010345428204482547 0 -0.0083364389852326748 0.0011219552698387516 0 -0.0083041592961538482 0.0010073188893317308 0 -0.0083041592961538482 0.0010073188893317308 0 -0.008301763325019194 0.00096317223886186213 0 -0.0082767260568954223 0.00094378723657625259 0 -0.0082912653160070304 0.0010345428204482547 0 -0.0083041592961538482 0.0010073188893317308 0 -0.008301763325019194 0.00096317223886186213 0 -0.0083698362719384946 0.00097603015997996961 0 -0.008301763325019194 0.00096317223886186213 0 -0.0082391981718677679 0.00090538068697278888 0 -0.008301763325019194 0.00096317223886186213 0 -0.0082767260568954223 0.00094378723657625259 0 -0.0082391981718677679 0.00090538068697278888 0 -0.0080576749094964043 0.00081752318461248915 0 -0.0082388967804498739 0.00088606035625382574 0 -0.0082391981718677679 0.00090538068697278888 0 -0.0082388967804498739 0.00088606035625382574 0 -0.0082767260568954223 0.00094378723657625259 0 -0.0082391981718677679 0.00090538068697278888 0 -0.0080576749094964043 0.00081752318461248915 0 -0.0082391981718677679 0.00090538068697278888 0 -0.0082341052985808703 0.00095658022352130602 0 -0.0083698362719384946 0.00097603015997996961 0 -0.0082391981718677679 0.00090538068697278888 0 -0.0082341052985808703 0.00095658022352130602 0 -0.0083698362719384946 0.00097603015997996961 0 -0.0091931853411622733 0.00088947262850672733 0 -0.0087580334377096048 0.00066649456193841703 0 -0.0084145719928059391 0.00097592116583201222 0 -0.0087179111374868761 0.00091100239465839305 0 -0.0091931853411622733 0.00088947262850672733 0 -0.0087580334377096048 0.00066649456193841703 0 -0.0093292160611960582 0.00046646086729256462 0 -0.0089054558058901077 0.00029621407596385499 0 -0.0087580334377096048 0.00066649456193841703 0 -0.0093292160611960582 0.00046646086729256462 0 -0.0091931853411622733 0.00088947262850672733 0 -0.0093292160611960582 0.00046646086729256462 0 -0.0099418905572106423 0.00068657343841720348 0 -0.0087179111374868761 0.00091100239465839305 0 -0.0089431902487897615 0.00083798448813899239 0 -0.0079229993696304998 0.0010242719991688709 0 -0.0077828227747576053 0.00088296880143841957 0 -0.0077360706510449465 0.00095646749554149533 0 -0.0077215221574603015 0.0010127408275932537 0 -0.0079229993696304998 0.0010242719991688709 0 -0.0077360706510449465 0.00095646749554149533 0 -0.0077312867876468093 0.0006448025971310205 0 -0.0077828227747576053 0.00088296880143841957 0 -0.0076577764236071483 0.0008522178784491106 0 -0.0080576749094964043 0.00081752318461248915 0 -0.0079229993696304998 0.0010242719991688709 0 -0.0077828227747576053 0.00088296880143841957 0 -0.0080576749094964043 0.00081752318461248915 0 -0.0082341052985808703 0.00095658022352130602 0 -0.0079229993696304998 0.0010242719991688709 0 -0.0077312867876468093 0.0006448025971310205 0 -0.0080576749094964043 0.00081752318461248915 0 -0.0077828227747576053 0.00088296880143841957 0 -0.0083521752868263594 -1.7044400368983956e-05 0 -0.0082607743717675007 -0.00027171017556933282 0 -0.008529000150988713 -0.00037128441028076758 0 -0.0083521752868263594 -1.7044400368983956e-05 0 -0.0079367416359067706 -9.8628088580845748e-05 0 -0.0082607743717675007 -0.00027171017556933282 0 -0.0083521752868263594 -1.7044400368983956e-05 0 -0.0079367416359067706 -9.8628088580845748e-05 0 -0.0080408953266262479 0.00040655222619233702 0 -0.0077828227747576053 0.00088296880143841957 0 -0.0076577764236071483 0.0008522178784491106 0 -0.0077360706510449465 0.00095646749554149533 0 -0.0078063029667133806 0.00023270342444642059 0 -0.0078250125031229887 0.00036361914063016038 0 -0.0076967945644238573 0.00099129192504458807 0 -0.0076577764236071483 0.0008522178784491106 0 -0.0077360706510449465 0.00095646749554149533 0 -0.0085204008986547435 -0.00074060931643725176 0 -0.0082147937440019345 -0.00060356743965165596 0 -0.008529000150988713 -0.00037128441028076758 0 -0.0082147937440019345 -0.00060356743965165596 0 -0.0079367416359067706 -9.8628088580845748e-05 0 -0.0082607743717675007 -0.00027171017556933282 0 -0.0082147937440019345 -0.00060356743965165596 0 -0.0082607743717675007 -0.00027171017556933282 0 -0.008529000150988713 -0.00037128441028076758 0 -0.0088037039580059675 -0.00042287950568483654 0 -0.008529000150988713 -0.00037128441028076758 0 -0.0088872407681965838 -0.00015259482396946103 0 -0.0087528801490232601 -0.00069207434840421172 0 -0.0088037039580059675 -0.00042287950568483654 0 -0.008529000150988713 -0.00037128441028076758 0 -0.0088588302138473476 -0.00032989548816587439 0 -0.010519189445944791 -0.00019018768472201441 0 -0.0090463359907277021 -0.00049680482253998913 0 -0.0088872407681965838 -0.00015259482396946103 0 -0.0094117639652331695 -0.00031741421702315256 0 -0.0088037039580059675 -0.00042287950568483654 0 -0.0090463359907277021 -0.00049680482253998913 0 -0.0088872407681965838 -0.00015259482396946103 0 -0.0087528801490232601 -0.00069207434840421172 0 -0.0088037039580059675 -0.00042287950568483654 0 -0.0090463359907277021 -0.00049680482253998913 0 -0.0091240614044044016 -0.0004973339264497563 0 -0.0095710438662822452 -0.00031960780904490531 0 -0.010069148941443382 -0.00084284562737902856 0 -0.0091240614044044016 -0.0004973339264497563 0 -0.0091078585156455401 -0.0001399437366432662 0 -0.0095710438662822452 -0.00031960780904490531 0 -0.0083521752868263594 -1.7044400368983956e-05 0 -0.0091240614044044016 -0.0004973339264497563 0 -0.0091078585156455401 -0.0001399437366432662 0 -0.0083521752868263594 -1.7044400368983956e-05 0 -0.0091078585156455401 -0.0001399437366432662 0 -0.0086748173949594796 0.00023644621083995259 0 -0.0083521752868263594 -1.7044400368983956e-05 0 -0.008529000150988713 -0.00037128441028076758 0 -0.0088872407681965838 -0.00015259482396946103 0 -0.0084617296924202369 -6.1460447567036625e-05 0 -0.0088588302138473476 -0.00032989548816587439 0 -0.0091078585156455401 -0.0001399437366432662 0 -0.0086748173949594796 0.00023644621083995259 0 -0.0090482754517299396 0.00033243897973972636 0 -0.0086748173949594796 0.00023644621083995259 0 -0.0090482754517299396 0.00033243897973972636 0 -0.0088248199121249184 0.00059391254486099133 0 -0.0086748173949594796 0.00023644621083995259 0 -0.0085714627010163372 0.00051801751738250095 0 -0.0088248199121249184 0.00059391254486099133 0 -0.0086748173949594796 0.00023644621083995259 0 -0.0085714627010163372 0.00051801751738250095 0 -0.0083376760196187966 0.00043217948309767854 0 -0.009151804003257465 -0.00012808363202108141 0 -0.0096198457441188153 0.00017683307560027243 0 -0.0091078585156455401 -0.0001399437366432662 0 -0.0090482754517299396 0.00033243897973972636 0 -0.0094138629666418085 0.00035768084498095779 0 -0.0091078585156455401 -0.0001399437366432662 0 -0.0095710438662822452 -0.00031960780904490531 0 -0.0099534129162115095 0.00011907028869724896 0 -0.0090482754517299396 0.00033243897973972636 0 -0.0091554556951663757 0.00057738512993852004 0 -0.0094138629666418085 0.00035768084498095779 0 -0.0091554556951663757 0.00057738512993852004 0 -0.0089884156015682063 0.00073606530316501083 0 -0.0088248199121249184 0.00059391254486099133 0 -0.0090482754517299396 0.00033243897973972636 0 -0.0091554556951663757 0.00057738512993852004 0 -0.0088248199121249184 0.00059391254486099133 0 -0.0091554556951663757 0.00057738512993852004 0 -0.0089884156015682063 0.00073606530316501083 0 -0.0091129449535705398 0.00088896765676507283 0 -0.0089884156015682063 0.00073606530316501083 0 -0.0088285548218864501 0.00090960204556724737 0 -0.0091129449535705398 0.00088896765676507283 0 -0.0089884156015682063 0.00073606530316501083 0 -0.0088248199121249184 0.00059391254486099133 0 -0.0088285548218864501 0.00090960204556724737 0 -0.0091554556951663757 0.00057738512993852004 0 -0.0091129449535705398 0.00088896765676507283 0 -0.0093609468892844414 0.0007528186047059518 0 -0.0085714627010163372 0.00051801751738250095 0 -0.0088248199121249184 0.00059391254486099133 0 -0.0085961550498842437 0.00081502893852944348 0 -0.0085714627010163372 0.00051801751738250095 0 -0.0085961550498842437 0.00081502893852944348 0 -0.0083893120725021478 0.00071770452565155136 0 -0.0088248199121249184 0.00059391254486099133 0 -0.0085961550498842437 0.00081502893852944348 0 -0.0088285548218864501 0.00090960204556724737 0 -0.0083376760196187966 0.00043217948309767854 0 -0.0080408953266262479 0.00040655222619233702 0 -0.0080464061145936374 0.00084851619060686211 0 -0.0083893120725021478 0.00071770452565155136 0 -0.0083376760196187966 0.00043217948309767854 0 -0.0080464061145936374 0.00084851619060686211 0 -0.0085961550498842437 0.00081502893852944348 0 -0.0083893120725021478 0.00071770452565155136 0 -0.0083147749629586768 0.00093882888623499636 0 -0.0083893120725021478 0.00071770452565155136 0 -0.0080464061145936374 0.00084851619060686211 0 -0.0083147749629586768 0.00093882888623499636 0 -0.0085714627010163372 0.00051801751738250095 0 -0.0083893120725021478 0.00071770452565155136 0 -0.0083376760196187966 0.00043217948309767854 0 -0.0083521752868263594 -1.7044400368983956e-05 0 -0.0083376760196187966 0.00043217948309767854 0 -0.0080408953266262479 0.00040655222619233702 0 -0.0083521752868263594 -1.7044400368983956e-05 0 -0.0086748173949594796 0.00023644621083995259 0 -0.0083376760196187966 0.00043217948309767854 0 -0.0076951994991660503 0.0006005457121034827 0 -0.0079367416359067706 -9.8628088580845748e-05 0 -0.0080408953266262479 0.00040655222619233702 0 -0.0076969569545539546 0.00058672768222190407 0 -0.0078250125031229887 0.00036361914063016038 0 -0.0076951994991660503 0.0006005457121034827 0 -0.0080408953266262479 0.00040655222619233702 0 -0.0078401250883404945 0.00074115357779096745 0 -0.0080408953266262479 0.00040655222619233702 0 -0.0078401250883404945 0.00074115357779096745 0 -0.0080464061145936374 0.00084851619060686211 0 -0.0076789825716719311 0.0007820255307810156 0 -0.0078401250883404945 0.00074115357779096745 0 -0.0077851643880616772 0.00096840326741947042 0 -0.0078401250883404945 0.00074115357779096745 0 -0.0080464061145936374 0.00084851619060686211 0 -0.0077851643880616772 0.00096840326741947042 0 -0.0080330039544753967 0.00085127409540774991 0 -0.0079957277848436859 0.0014138275825918908 0 -0.007652416345999751 0.0012262408015974472 0 -0.0077851643880616772 0.00096840326741947042 0 -0.007962666570004032 0.0013292514683436215 0 -0.0080464061145936374 0.00084851619060686211 0 -0.0077851643880616772 0.00096840326741947042 0 -0.007962666570004032 0.0013292514683436215 0 -0.0080464061145936374 0.00084851619060686211 0 -0.0081379279359295228 0.001112098604043772 0 -0.0079069162983682311 0.001302508413842284 0 -0.0083147749629586768 0.00093882888623499636 0 -0.0081379279359295228 0.001112098604043772 0 -0.0084882926626342302 0.001062007774473149 0 -0.0080464061145936374 0.00084851619060686211 0 -0.0083147749629586768 0.00093882888623499636 0 -0.0081379279359295228 0.001112098604043772 0 -0.0081379279359295228 0.001112098604043772 0 -0.0081984824126771442 0.0012518344823076045 0 -0.0080583860075210418 0.0013224106219870474 0 -0.0081379279359295228 0.001112098604043772 0 -0.0080583860075210418 0.0013224106219870474 0 -0.0079069162983682311 0.001302508413842284 0 -0.0081379279359295228 0.001112098604043772 0 -0.0081984824126771442 0.0012518344823076045 0 -0.0084882926626342302 0.001062007774473149 0 -0.0081984824126771442 0.0012518344823076045 0 -0.0083951269778209364 0.0012771644271141799 0 -0.0084882926626342302 0.001062007774473149 0 -0.0081984824126771442 0.0012518344823076045 0 -0.0080663961970028134 0.0014309012984564183 0 -0.0083951269778209364 0.0012771644271141799 0 -0.0080663961970028134 0.0014309012984564183 0 -0.0080583860075210418 0.0013224106219870474 0 -0.0080296889660639408 0.0013955721689088041 0 -0.0081984824126771442 0.0012518344823076045 0 -0.0080663961970028134 0.0014309012984564183 0 -0.0080583860075210418 0.0013224106219870474 0 -0.0077466629034416519 0.0014756649225702303 0 -0.007962666570004032 0.0013292514683436215 0 -0.0078390606036789351 0.0018127270815988211 0 -0.0079957277848436859 0.0014138275825918908 0 -0.0069271601855895532 0.001023449230784061 0 -0.0080296889660639408 0.0013955721689088041 0 -0.0079069162983682311 0.001302508413842284 0 -0.0078470290311395564 0.0015471653429541706 0 -0.0077466629034416519 0.0014756649225702303 0 -0.007652416345999751 0.0012262408015974472 0 -0.007962666570004032 0.0013292514683436215 0 -0.0080583860075210418 0.0013224106219870474 0 -0.0080296889660639408 0.0013955721689088041 0 -0.0079069162983682311 0.001302508413842284 0 -0.0080296889660639408 0.0013955721689088041 0 -0.0081186899969973823 0.0012224965885412999 0 -0.0078846468760415418 0.0011602341336611232 0 -0.00820437384341661 0.0013086731711652139 0 -0.0069271601855895532 0.001023449230784061 0 -0.0080663961970028134 0.0014309012984564183 0 -0.0078846468760415418 0.0011602341336611232 0 -0.0075695571419214201 0.0011784753124489862 0 -0.0080663961970028134 0.0014309012984564183 0 -0.0080296889660639408 0.0013955721689088041 0 -0.0078846468760415418 0.0011602341336611232 0 -0.0078846468760415418 0.0011602341336611232 0 -0.0075695571419214201 0.0011784753124489862 0 -0.0077348289151406542 0.00083177436589352443 0 -0.0081186899969973823 0.0012224965885412999 0 -0.0078846468760415418 0.0011602341336611232 0 -0.0081514568470819147 0.00084196587750418527 0 -0.0078846468760415418 0.0011602341336611232 0 -0.0077348289151406542 0.00083177436589352443 0 -0.0081514568470819147 0.00084196587750418527 0 -0.0069271601855895532 0.001023449230784061 0 -0.006251687122561903 0.00046498348475000633 0 -0.0081910017964255538 0.0017420581716469199 0 -0.0077594051452059736 0.0010406148637336706 0 -0.0090556933153755903 0.0019992844547654467 0 -0.0094394033506559043 0.0020805775564551772 0 -0.0090472951164670794 0.0025622966449184463 0 -0.0086207650172931537 0.0020392736070586172 0 -0.0090556933153755903 0.0019992844547654467 0 -0.0090472951164670794 0.0025622966449184463 0 -0.0075695571419214201 0.0011784753124489862 0 -0.0074779413666439982 0.00081521656164601909 0 -0.0077348289151406542 0.00083177436589352443 0 -0.0075695571419214201 0.0011784753124489862 0 -0.0074779413666439982 0.00081521656164601909 0 -0.0072303121314377904 0.00083022231416663512 0 -0.0080055248680932223 0.0013729262970877541 0 -0.0081910017964255538 0.0017420581716469199 0 -0.0086207650172931537 0.0020392736070586172 0 -0.0089051493181154205 0.00169252571764024 0 -0.0086447397287789558 0.001454284854758889 0 -0.0086207650172931537 0.0020392736070586172 0 -0.0089051493181154205 0.00169252571764024 0 -0.0090556933153755903 0.0019992844547654467 0 -0.0089051493181154205 0.00169252571764024 0 -0.0090556933153755903 0.0019992844547654467 0 -0.0092641334909468395 0.0015970892300366758 0 -0.0089051493181154205 0.00169252571764024 0 -0.0089742496320947638 0.0013767043158137147 0 -0.0092641334909468395 0.0015970892300366758 0 -0.0089051493181154205 0.00169252571764024 0 -0.0089742496320947638 0.0013767043158137147 0 -0.0086447397287789558 0.001454284854758889 0 -0.0089742496320947638 0.0013767043158137147 0 -0.0092296418708159075 0.0013119289715111126 0 -0.0092641334909468395 0.0015970892300366758 0 -0.0089742496320947638 0.0013767043158137147 0 -0.0092296418708159075 0.0013119289715111126 0 -0.0090249583591722193 0.0011114737496143784 0 -0.0080663961970028134 0.0014309012984564183 0 -0.0086207650172931537 0.0020392736070586172 0 -0.0086447397287789558 0.001454284854758889 0 -0.0080663961970028134 0.0014309012984564183 0 -0.0086447397287789558 0.001454284854758889 0 -0.0083951269778209364 0.0012771644271141799 0 -0.0086447397287789558 0.001454284854758889 0 -0.0085675724347606553 0.001219344148155221 0 -0.0087538203414422675 0.0011512665423530812 0 -0.0089742496320947638 0.0013767043158137147 0 -0.0086447397287789558 0.001454284854758889 0 -0.0087538203414422675 0.0011512665423530812 0 -0.0086447397287789558 0.001454284854758889 0 -0.0083951269778209364 0.0012771644271141799 0 -0.0085675724347606553 0.001219344148155221 0 -0.0083951269778209364 0.0012771644271141799 0 -0.0085675724347606553 0.001219344148155221 0 -0.0084882926626342302 0.001062007774473149 0 -0.0085675724347606553 0.001219344148155221 0 -0.0087538203414422675 0.0011512665423530812 0 -0.0084882926626342302 0.001062007774473149 0 -0.0087538203414422675 0.0011512665423530812 0 -0.0088285548218864501 0.00090960204556724737 0 -0.0084882926626342302 0.001062007774473149 0 -0.0085961550498842437 0.00081502893852944348 0 -0.0083147749629586768 0.00093882888623499636 0 -0.0084882926626342302 0.001062007774473149 0 -0.0085961550498842437 0.00081502893852944348 0 -0.0088285548218864501 0.00090960204556724737 0 -0.0084882926626342302 0.001062007774473149 0 -0.0092296418708159075 0.0013119289715111126 0 -0.0090249583591722193 0.0011114737496143784 0 -0.0093032405936501715 0.0010559849972910879 0 -0.0089742496320947638 0.0013767043158137147 0 -0.0087538203414422675 0.0011512665423530812 0 -0.0090249583591722193 0.0011114737496143784 0 -0.0087538203414422675 0.0011512665423530812 0 -0.0088285548218864501 0.00090960204556724737 0 -0.0090249583591722193 0.0011114737496143784 0 -0.0088285548218864501 0.00090960204556724737 0 -0.0090249583591722193 0.0011114737496143784 0 -0.0091129449535705398 0.00088896765676507283 0 -0.0090249583591722193 0.0011114737496143784 0 -0.0091129449535705398 0.00088896765676507283 0 -0.0093032405936501715 0.0010559849972910879 0 -0.0091129449535705398 0.00088896765676507283 0 -0.0093032405936501715 0.0010559849972910879 0 -0.0093609468892844414 0.0007528186047059518 0 -0.0093032405936501715 0.0010559849972910879 0 -0.0095801522387443487 0.00093283016446520269 0 -0.0093609468892844414 0.0007528186047059518 0 -0.0095801522387443487 0.00093283016446520269 0 -0.0098027719654782408 0.0011005942630018498 0 -0.0095147725614147111 0.0012586290980094123 0 -0.0093032405936501715 0.0010559849972910879 0 -0.0095801522387443487 0.00093283016446520269 0 -0.0095147725614147111 0.0012586290980094123 0 -0.0092296418708159075 0.0013119289715111126 0 -0.0093032405936501715 0.0010559849972910879 0 -0.0095147725614147111 0.0012586290980094123 0 -0.0093304781651504503 0.00018371314820949162 0 -0.010304003424507338 0.00053176598690594088 0 -0.0098027719654782408 0.0011005942630018498 0 -0.0098339836447960266 0.0015713828778524189 0 -0.010199637413617032 0.0010783108229797528 0 -0.0098027719654782408 0.0011005942630018498 0 -0.010199637413617032 0.0010783108229797528 0 -0.0097848301278073164 0.00072222232777298043 0 -0.0095801522387443487 0.00093283016446520269 0 -0.0098027719654782408 0.0011005942630018498 0 -0.0097848301278073164 0.00072222232777298043 0 -0.0098027719654782408 0.0011005942630018498 0 -0.0098339836447960266 0.0015713828778524189 0 -0.0095147725614147111 0.0012586290980094123 0 -0.008467767473011029 0.00067730394292598683 0 -0.0093304781651504503 0.00018371314820949162 0 -0.0098339836447960266 0.0015713828778524189 0 -0.0095147725614147111 0.0012586290980094123 0 -0.0092641334909468395 0.0015970892300366758 0 -0.0092296418708159075 0.0013119289715111126 0 -0.0095147725614147111 0.0012586290980094123 0 -0.0092641334909468395 0.0015970892300366758 0 -0.0098339836447960266 0.0015713828778524189 0 -0.0092641334909468395 0.0015970892300366758 0 -0.0094394033506559043 0.0020805775564551772 0 -0.0090556933153755903 0.0019992844547654467 0 -0.0092641334909468395 0.0015970892300366758 0 -0.0094394033506559043 0.0020805775564551772 0 -0.0072079240052179017 -0.0001994193354880637 0 -0.007170950990641421 0.00011501887415247724 0 -0.0069590416860193472 6.2975159002981543e-05 0 -0.008467767473011029 0.00067730394292598683 0 -0.0082158674541215546 0.0011153931787015769 0 -0.0072079240052179017 -0.0001994193354880637 0 -0.007170950990641421 0.00011501887415247724 0 -0.0075642409563412673 7.3821825096167561e-05 0 -0.007170950990641421 0.00011501887415247724 0 -0.0070836209602416879 0.00018350295694224294 0 -0.0069816931159458716 0.00019773801003238625 0 -0.007170950990641421 0.00011501887415247724 0 -0.0069590416860193472 6.2975159002981543e-05 0 -0.0069816931159458716 0.00019773801003238625 0 -0.0082158674541215546 0.0011153931787015769 0 -0.0077594051452059736 0.0010406148637336706 0 -0.0069590416860193472 6.2975159002981543e-05 0 -0.0069816931159458716 0.00019773801003238625 0 -0.0068473300699629655 0.00020259908218867395 0 -0.0077364783200325835 3.5672647324628717e-07 0 -0.0075642409563412673 7.3821825096167561e-05 0 -0.0072472208718659644 0.00010401452002450525 0 -0.0075642409563412673 7.3821825096167561e-05 0 -0.0070836209602416879 0.00018350295694224294 0 -0.0072472208718659644 0.00010401452002450525 0 -0.007170950990641421 0.00011501887415247724 0 -0.0075642409563412673 7.3821825096167561e-05 0 -0.0070836209602416879 0.00018350295694224294 0 -0.0075642409563412673 7.3821825096167561e-05 0 -0.0080297648536913797 2.1266705223959771e-05 0 -0.0077016609704198711 -0.00023688446477686075 0 -0.0072079240052179017 -0.0001994193354880637 0 -0.0075642409563412673 7.3821825096167561e-05 0 -0.0077016609704198711 -0.00023688446477686075 0 -0.0077364783200325835 3.5672647324628717e-07 0 -0.0075642409563412673 7.3821825096167561e-05 0 -0.0080297648536913797 2.1266705223959771e-05 0 -0.0077364783200325835 3.5672647324628717e-07 0 -0.0080297648536913797 2.1266705223959771e-05 0 -0.0085139289747106529 -5.3476707987611578e-07 0 -0.008191695117742712 -0.00040274770603602008 0 -0.0093304781651504503 0.00018371314820949162 0 -0.0085193813174469901 -9.8111003044631207e-05 0 -0.0085139289747106529 -5.3476707987611578e-07 0 -0.0092916042095337638 2.4781299856018176e-07 0 -0.0080297648536913797 2.1266705223959771e-05 0 -0.0085193813174469901 -9.8111003044631207e-05 0 -0.0085139289747106529 -5.3476707987611578e-07 0 -0.0080297648536913797 2.1266705223959771e-05 0 -0.0085193813174469901 -9.8111003044631207e-05 0 -0.0077016609704198711 -0.00023688446477686075 0 -0.0085193813174469901 -9.8111003044631207e-05 0 -0.0077016609704198711 -0.00023688446477686075 0 -0.0076269371778667945 -0.00088229285086531789 0 -0.0072079240052179017 -0.0001994193354880637 0 -0.0077016609704198711 -0.00023688446477686075 0 -0.0076269371778667945 -0.00088229285086531789 0 -0.0092223859082075331 -2.2938712393370328e-05 0 -0.0090200274559684036 -1.3784175684033826e-05 0 -0.009282210852265816 3.6833492604338688e-06 0 -0.0093304781651504503 0.00018371314820949162 0 -0.0099222123476092969 -5.1911928446203658e-05 0 -0.0085193813174469901 -9.8111003044631207e-05 0 -0.0092916042095337638 2.4781299856018176e-07 0 -0.0090200274559684036 -1.3784175684033826e-05 0 -0.0092916042095337638 2.4781299856018176e-07 0 -0.0090200274559684036 -1.3784175684033826e-05 0 -0.009282210852265816 3.6833492604338688e-06 0 -0.0085193813174469901 -9.8111003044631207e-05 0 -0.0092223859082075331 -2.2938712393370328e-05 0 -0.0090200274559684036 -1.3784175684033826e-05 0 -0.0092916042095337638 2.4781299856018176e-07 0 -0.009282210852265816 3.6833492604338688e-06 0 -0.010068506404401314 -3.4859910009760901e-07 0 -0.0099222123476092969 -5.1911928446203658e-05 0 -0.01006893825094121 1.7482446180949431e-07 0 -0.010424220184444135 -7.3994597335337033e-05 0 -0.010070951792293444 -9.0842682881850885e-08 0 -0.010600693697085928 1.0808392747292534e-05 0 -0.010070951792293444 -9.0842682881850885e-08 0 -0.010600693697085928 1.0808392747292534e-05 0 -0.010675860591368751 8.8209363771075405e-05 0 -0.010600693697085928 1.0808392747292534e-05 0 -0.010658116210641047 6.435062814773724e-05 0 -0.010675860591368751 8.8209363771075405e-05 0 -0.010600693697085928 1.0808392747292534e-05 0 -0.010556899901178312 2.2697494882673577e-05 0 -0.010550468081148314 6.231278928470382e-05 0 -0.010424220184444135 -7.3994597335337033e-05 0 -0.010600693697085928 1.0808392747292534e-05 0 -0.010556899901178312 2.2697494882673577e-05 0 -0.010538715502150036 -3.3036121182680535e-05 0 -0.010424220184444135 -7.3994597335337033e-05 0 -0.010556899901178312 2.2697494882673577e-05 0 -0.010538715502150036 -3.3036121182680535e-05 0 -0.010556899901178312 2.2697494882673577e-05 0 -0.010509902523472517 0.00012936762138029192 0 -0.010509902523472517 0.00012936762138029192 0 -0.010550468081148314 6.231278928470382e-05 0 -0.01028575144322064 1.1652549136794703e-05 0 -0.010556899901178312 2.2697494882673577e-05 0 -0.010509902523472517 0.00012936762138029192 0 -0.010550468081148314 6.231278928470382e-05 0 -0.0093609468892844414 0.0007528186047059518 0 -0.0095349347255915644 0.00069093148968490308 0 -0.0094138629666418085 0.00035768084498095779 0 -0.0091554556951663757 0.00057738512993852004 0 -0.0093609468892844414 0.0007528186047059518 0 -0.0094138629666418085 0.00035768084498095779 0 -0.010304003424507338 0.00053176598690594088 0 -0.0096198457441188153 0.00017683307560027243 0 -0.0097848301278073164 0.00072222232777298043 0 -0.0095349347255915644 0.00069093148968490308 0 -0.0094138629666418085 0.00035768084498095779 0 -0.010509902523472517 0.00012936762138029192 0 -0.0099534129162115095 0.00011907028869724896 0 -0.01028575144322064 1.1652549136794703e-05 0 -0.0095801522387443487 0.00093283016446520269 0 -0.0097848301278073164 0.00072222232777298043 0 -0.0095349347255915644 0.00069093148968490308 0 -0.0095801522387443487 0.00093283016446520269 0 -0.0093609468892844414 0.0007528186047059518 0 -0.0095349347255915644 0.00069093148968490308 0 -0.0095710438662822452 -0.00031960780904490531 0 -0.0099534129162115095 0.00011907028869724896 0 -0.0099282023961369762 -0.00029130900166214835 0 -0.0099534129162115095 0.00011907028869724896 0 -0.01028575144322064 1.1652549136794703e-05 0 -0.010300036371605533 -0.00020446295553486457 0 -0.0099534129162115095 0.00011907028869724896 0 -0.010300036371605533 -0.00020446295553486457 0 -0.0099282023961369762 -0.00029130900166214835 0 -0.010550468081148314 6.231278928470382e-05 0 -0.01028575144322064 1.1652549136794703e-05 0 -0.010300036371605533 -0.00020446295553486457 0 -0.010562322163994794 9.2294390896589397e-05 0 -0.010475943060447978 -0.00011489960230382099 0 -0.010550468081148314 6.231278928470382e-05 0 -0.010658116210641047 6.435062814773724e-05 0 -0.010697156426485737 7.9207980049596222e-05 0 -0.010600693697085928 1.0808392747292534e-05 0 -0.010550468081148314 6.231278928470382e-05 0 -0.010658116210641047 6.435062814773724e-05 0 -0.010658116210641047 6.435062814773724e-05 0 -0.010697156426485737 7.9207980049596222e-05 0 -0.010753741197113507 6.531888811148526e-05 0 -0.010697156426485737 7.9207980049596222e-05 0 -0.010753741197113507 6.531888811148526e-05 0 -0.010660435771314123 5.9152941651470185e-06 0 -0.010475943060447978 -0.00011489960230382099 0 -0.010519189445944791 -0.00019018768472201441 0 -0.010300036371605533 -0.00020446295553486457 0 -0.0099282023961369762 -0.00029130900166214835 0 -0.010069148941443382 -0.00084284562737902856 0 -0.0095710438662822452 -0.00031960780904490531 0 -0.0099282023961369762 -0.00029130900166214835 0 -0.010069148941443382 -0.00084284562737902856 0 -0.0091841714420489509 -0.00086111058433463287 0 -0.0090463359907277021 -0.00049680482253998913 0 -0.0094117639652331695 -0.00031741421702315256 0 -0.011915644104106253 3.6893195089851819e-05 0 -0.011961048753942867 -0.00016143041055955709 0 -0.01180970128008671 -0.00015485922229446447 0 -0.010519189445944791 -0.00019018768472201441 0 -0.011421918152962635 -0.00012636915998181001 0 -0.010753741197113507 6.531888811148526e-05 0 -0.010660435771314123 5.9152941651470185e-06 0 -0.01079483549850796 -5.3314262305942481e-05 0 -0.010753741197113507 6.531888811148526e-05 0 -0.01079483549850796 -5.3314262305942481e-05 0 -0.010944678940480467 4.4718590178114646e-05 0 -0.01079483549850796 -5.3314262305942481e-05 0 -0.011325903181650675 -5.0151405165976278e-05 0 -0.010944678940480467 4.4718590178114646e-05 0 -0.011421918152962635 -0.00012636915998181001 0 -0.011260162692577033 -4.8401877917297046e-05 0 -0.011325903181650675 -5.0151405165976278e-05 0 -0.010944678940480467 4.4718590178114646e-05 0 -0.010805035094209549 1.6700678078755483e-07 0 -0.011541435262599892 -4.0713735853321419e-09 0 -0.011325903181650675 -5.0151405165976278e-05 0 -0.010805035094209549 1.6700678078755483e-07 0 -0.010070951792293444 -9.0842682881850885e-08 0 -0.010805035094209549 1.6700678078755483e-07 0 -0.010675860591368751 8.8209363771075405e-05 0 -0.010944678940480467 4.4718590178114646e-05 0 -0.010805035094209549 1.6700678078755483e-07 0 -0.010675860591368751 8.8209363771075405e-05 0 -0.010753741197113507 6.531888811148526e-05 0 -0.010944678940480467 4.4718590178114646e-05 0 -0.010675860591368751 8.8209363771075405e-05 0 -0.010658116210641047 6.435062814773724e-05 0 -0.010753741197113507 6.531888811148526e-05 0 -0.010675860591368751 8.8209363771075405e-05 0 -0.0043598312935930464 -0.00029980597142169481 0 -0.004263964906622811 -0.00028222615531746126 0 -0.0043046730596610471 -0.00035233702772758237 0 -0.004263964906622811 -0.00028222615531746126 0 -0.0042454836108355484 -0.00037839943532661131 0 -0.0043046730596610471 -0.00035233702772758237 0 -0.0043554255643406719 -0.00034569509248936375 0 -0.0043598312935930464 -0.00029980597142169481 0 -0.0043046730596610471 -0.00035233702772758237 0 -0.0053508630943455973 -0.00053987260234637053 0 -0.0046086598792661445 -0.00016379519495152655 0 -0.0053220590571637031 -0.00021826159125549314 0 -0.0053554610023279848 -0.00018827031576446626 0 -0.0053559749653793523 -0.0001910136090117753 0 -0.0046086598792661445 -0.00016379519495152655 0 -0.0046714359639167483 -0.00015303958191884216 0 -0.0053479741367868684 -0.00027880510993576039 0 -0.0046279347251901234 -9.7955451741704428e-07 0 -0.005133879358864034 -6.8911992248480081e-05 0 -0.0046258486746153932 -4.0036626978395779e-07 0 -0.0042688226023485029 3.2079867406348783e-05 0 -0.004107663755437121 3.9942917682998175e-07 0 -0.0041170394576579023 -7.7510960263829412e-05 0 -0.0046258486746153932 -4.0036626978395779e-07 0 -0.0042688226023485029 3.2079867406348783e-05 0 -0.0053479741367868684 -0.00027880510993576039 0 -0.0053559749653793523 -0.0001910136090117753 0 -0.005133879358864034 -6.8911992248480081e-05 0 -0.0046086598792661445 -0.00016379519495152655 0 -0.0046266941649949229 -1.1888060382558235e-07 0 -0.0041170394576579023 -7.7510960263829412e-05 0 -0.0042688226023485029 3.2079867406348783e-05 0 -0.0041214850544422392 8.7301705969315921e-05 0 -0.0046086598792661445 -0.00016379519495152655 0 -0.0041724121750136177 -0.00017167809599615499 0 -0.004107663755437121 3.9942917682998175e-07 0 -0.0039541881510758011 2.844603474972205e-05 0 -0.0035892587201660502 -4.028192963515724e-07 0 -0.0041214850544422392 8.7301705969315921e-05 0 -0.004107663755437121 3.9942917682998175e-07 0 -0.0039541881510758011 2.844603474972205e-05 0 -0.0042688226023485029 3.2079867406348783e-05 0 -0.0041214850544422392 8.7301705969315921e-05 0 -0.004107663755437121 3.9942917682998175e-07 0 -0.0042454836108355484 -0.00037839943532661131 0 -0.0042483063070199046 -0.00041048515378118552 0 -0.0042327033201802512 -0.00044056255213629553 0 -0.0041214850544422392 8.7301705969315921e-05 0 -0.0039541881510758011 2.844603474972205e-05 0 -0.0040092973915164453 -7.7781405247620244e-05 0 -0.0041724121750136177 -0.00017167809599615499 0 -0.0037120990850650483 -0.00012325640726660914 0 -0.0042483063070199046 -0.00041048515378118552 0 -0.0043046730596610471 -0.00035233702772758237 0 -0.0043639698985444711 -0.00039134651106729514 0 -0.0042483063070199046 -0.00041048515378118552 0 -0.0042815277204175913 -0.00040257965882804276 0 -0.0042714338288898767 -0.00042514938610856574 0 -0.0042884267832134617 -0.00040017250595515447 0 -0.0042492050816713761 -0.00048148158661959022 0 -0.0042454836108355484 -0.00037839943532661131 0 -0.0042483063070199046 -0.00041048515378118552 0 -0.0043046730596610471 -0.00035233702772758237 0 -0.0043554255643406719 -0.00034569509248936375 0 -0.0043046730596610471 -0.00035233702772758237 0 -0.0043639698985444711 -0.00039134651106729514 0 -0.0042492050816713761 -0.00048148158661959022 0 -0.003322950449436461 -7.1882609014119151e-05 0 -0.0036941271754091726 -0.00034060089457394269 0 -0.0035206431947901813 -0.00026424153931970643 0 -0.0037442625653429542 -0.00023328196139003098 0 -0.0036103092480416345 -0.00036570705204713499 0 -0.0036941271754091726 -0.00034060089457394269 0 -0.0035206431947901813 -0.00026424153931970643 0 -0.0042694929724216664 -0.00057519495273824074 0 -0.0031299396787776591 -0.00025780694771617086 0 -0.004558760507583191 -0.00054104485969712422 0 -0.0045090511347524202 -0.00055574565229960654 0 -0.0045328014232466803 -0.00050992651251440706 0 -0.0043554255643406719 -0.00034569509248936375 0 -0.0043639698985444711 -0.00039134651106729514 0 -0.0043933135062784526 -0.00033922761911827785 0 -0.0042492050816713761 -0.00048148158661959022 0 -0.0049744202598425141 -0.0005768559268326623 0 -0.0042694929724216664 -0.00057519495273824074 0 -0.0042492050816713761 -0.00048148158661959022 0 -0.0042694929724216664 -0.00057519495273824074 0 -0.0049744202598425141 -0.0005768559268326623 0 -0.0025728882881082033 -0.0004282951707532525 0 -0.0021422337787332401 -0.00048766914780614133 0 -0.0023744380377252339 -0.00037319672315525785 0 -0.0042694929724216664 -0.00057519495273824074 0 -0.0052911269112052399 -0.00074873393495547037 0 -0.0041262633333386048 -0.0006433131680606669 0 -0.0039191693483764389 -0.0004077556355731657 0 -0.003667334797336367 -0.00077973098067216193 0 -0.0031299396787776591 -0.00025780694771617086 0 -0.0022813751042965072 -0.00061122921906375425 0 -0.0039191693483764389 -0.0004077556355731657 0 -0.003667334797336367 -0.00077973098067216193 0 -0.0035126321323541796 -0.00046327346756105047 0 -0.0050860803805808956 -0.000652210379991206 0 -0.0052124746746720005 -0.00061553079259621228 0 -0.0050734400146632387 -0.00059060231855144149 0 -0.0069250925802461514 -0.00092066875003939672 0 -0.006778331163536099 -0.00071504581575787367 0 -0.0064827721426277633 -0.00086478019063274884 0 -0.0052911269112052399 -0.00074873393495547037 0 -0.0058276978077569574 -0.00071172416497700651 0 -0.0069250925802461514 -0.00092066875003939672 0 -0.006778331163536099 -0.00071504581575787367 0 -0.007033354597552232 -0.00071499978646961948 0 -0.0050860803805808956 -0.000652210379991206 0 -0.0050734400146632387 -0.00059060231855144149 0 -0.0050584976340226099 -0.00061883309308237086 0 -0.0058276978077569574 -0.00071172416497700651 0 -0.0049744202598425141 -0.0005768559268326623 0 -0.0053508630943455973 -0.00053987260234637053 0 -0.0049744202598425141 -0.0005768559268326623 0 -0.0053250673437171981 -0.00068161594763916245 0 -0.0053086990502243447 -0.00067849861552567625 0 -0.0053130750093791585 -0.00066779038149690365 0 -0.0053508630943455973 -0.00053987260234637053 0 -0.0058276978077569574 -0.00071172416497700651 0 -0.0043554255643406719 -0.00034569509248936375 0 -0.0043598312935930464 -0.00029980597142169481 0 -0.0043933135062784526 -0.00033922761911827785 0 -0.0058276978077569574 -0.00071172416497700651 0 -0.0062676346541268397 -0.0006547651792569002 0 -0.006778331163536099 -0.00071504581575787367 0 -0.0064827721426277633 -0.00086478019063274884 0 -0.0065644613738351492 -0.00071377375248983489 0 -0.0064542370808845177 -0.0010271716916892585 0 -0.0065644613738351492 -0.00071377375248983489 0 -0.006379211003061787 -0.00071657040782427471 0 -0.0062097453340122562 -0.0010119075111453906 0 -0.0064542370808845177 -0.0010271716916892585 0 -0.006379211003061787 -0.00071657040782427471 0 -0.0062097453340122562 -0.0010119075111453906 0 -0.006379211003061787 -0.00071657040782427471 0 -0.0061423243209143344 -0.00040021967259584951 0 -0.006379211003061787 -0.00071657040782427471 0 -0.0064761493014723528 -0.0004784945096799071 0 -0.0061423243209143344 -0.00040021967259584951 0 -0.0065644613738351492 -0.00071377375248983489 0 -0.0064761493014723528 -0.0004784945096799071 0 -0.0067185692776754232 -0.0004971655456050178 0 -0.0065644613738351492 -0.00071377375248983489 0 -0.006379211003061787 -0.00071657040782427471 0 -0.0064761493014723528 -0.0004784945096799071 0 -0.0064761493014723528 -0.0004784945096799071 0 -0.0063651617737619272 -0.00024971495025066781 0 -0.0066196634217390565 -0.00028007078799956365 0 -0.0064761493014723528 -0.0004784945096799071 0 -0.0067185692776754232 -0.0004971655456050178 0 -0.0066196634217390565 -0.00028007078799956365 0 -0.0064761493014723528 -0.0004784945096799071 0 -0.0063651617737619272 -0.00024971495025066781 0 -0.0061423243209143344 -0.00040021967259584951 0 -0.006778331163536099 -0.00071504581575787367 0 -0.0067185692776754232 -0.0004971655456050178 0 -0.0069507448672352186 -0.00050614068218892794 0 -0.006778331163536099 -0.00071504581575787367 0 -0.0069507448672352186 -0.00050614068218892794 0 -0.007033354597552232 -0.00071499978646961948 0 -0.006778331163536099 -0.00071504581575787367 0 -0.0065644613738351492 -0.00071377375248983489 0 -0.0067185692776754232 -0.0004971655456050178 0 -0.0067185692776754232 -0.0004971655456050178 0 -0.006884186817502031 -0.00030798075617261862 0 -0.0066196634217390565 -0.00028007078799956365 0 -0.0067185692776754232 -0.0004971655456050178 0 -0.0069507448672352186 -0.00050614068218892794 0 -0.006884186817502031 -0.00030798075617261862 0 -0.006884186817502031 -0.00030798075617261862 0 -0.0068044747590479465 -0.00010739398415954006 0 -0.0066196634217390565 -0.00028007078799956365 0 -0.006884186817502031 -0.00030798075617261862 0 -0.0068044747590479465 -0.00010739398415954006 0 -0.0070695577556273009 -0.00014223796075342414 0 -0.0063651617737619272 -0.00024971495025066781 0 -0.0064769217719426297 -5.5081563480713007e-05 0 -0.0061213059596219536 -9.6667424234273282e-05 0 -0.0063651617737619272 -0.00024971495025066781 0 -0.0066196634217390565 -0.00028007078799956365 0 -0.0064769217719426297 -5.5081563480713007e-05 0 -0.0068044747590479465 -0.00010739398415954006 0 -0.0066196634217390565 -0.00028007078799956365 0 -0.0064769217719426297 -5.5081563480713007e-05 0 -0.0061213059596219536 -9.6667424234273282e-05 0 -0.0054740261641629574 -0.00012110656484924438 0 -0.0060568132779004876 5.084906583445286e-05 0 -0.0064769217719426297 -5.5081563480713007e-05 0 -0.0061213059596219536 -9.6667424234273282e-05 0 -0.0060568132779004876 5.084906583445286e-05 0 -0.0063651617737619272 -0.00024971495025066781 0 -0.0061213059596219536 -9.6667424234273282e-05 0 -0.0061423243209143344 -0.00040021967259584951 0 -0.0061213059596219536 -9.6667424234273282e-05 0 -0.0061423243209143344 -0.00040021967259584951 0 -0.0054740261641629574 -0.00012110656484924438 0 -0.0053508630943455973 -0.00053987260234637053 0 -0.0056177346444756821 -0.00020525324076692804 0 -0.0053220590571637031 -0.00021826159125549314 0 -0.0053559749653793523 -0.0001910136090117753 0 -0.0054740261641629574 -0.00012110656484924438 0 -0.0062097453340122562 -0.0010119075111453906 0 -0.0061423243209143344 -0.00040021967259584951 0 -0.0054740261641629574 -0.00012110656484924438 0 -0.0046279347251901234 -9.7955451741704428e-07 0 -0.005133879358864034 -6.8911992248480081e-05 0 -0.0054041859836066741 1.2592454918606038e-07 0 -0.0053559749653793523 -0.0001910136090117753 0 -0.0054740261641629574 -0.00012110656484924438 0 -0.005133879358864034 -6.8911992248480081e-05 0 -0.0054740261641629574 -0.00012110656484924438 0 -0.005133879358864034 -6.8911992248480081e-05 0 -0.0054041859836066741 1.2592454918606038e-07 0 -0.0054740261641629574 -0.00012110656484924438 0 -0.0054041859836066741 1.2592454918606038e-07 0 -0.0060568132779004876 5.084906583445286e-05 0 -0.0054041859836066741 1.2592454918606038e-07 0 -0.0060568132779004876 5.084906583445286e-05 0 -0.0061817801364007774 2.3911737010046909e-07 0 -0.0060568132779004876 5.084906583445286e-05 0 -0.006528029263298628 0.0001512896746463311 0 -0.0061817801364007774 2.3911737010046909e-07 0 -0.0060568132779004876 5.084906583445286e-05 0 -0.006528029263298628 0.0001512896746463311 0 -0.00658425015068923 0.00011922394230281112 0 -0.006528029263298628 0.0001512896746463311 0 -0.0061817801364007774 2.3911737010046909e-07 0 -0.0066805137295654409 0.00011610412795097002 0 -0.0061817801364007774 2.3911737010046909e-07 0 -0.0066805137295654409 0.00011610412795097002 0 -0.0069590939685513975 2.56084336004315e-07 0 -0.0066805137295654409 0.00011610412795097002 0 -0.0069590939685513975 2.56084336004315e-07 0 -0.0072472208718659644 0.00010401452002450525 0 -0.006528029263298628 0.0001512896746463311 0 -0.0066805137295654409 0.00011610412795097002 0 -0.0068458838698748211 0.00021349033370575806 0 -0.0066805137295654409 0.00011610412795097002 0 -0.0068458838698748211 0.00021349033370575806 0 -0.0072472208718659644 0.00010401452002450525 0 -0.0068458838698748211 0.00021349033370575806 0 -0.0070836209602416879 0.00018350295694224294 0 -0.0072472208718659644 0.00010401452002450525 0 -0.0077364783200325835 3.5672647324628717e-07 0 -0.0069590939685513975 2.56084336004315e-07 0 -0.0072472208718659644 0.00010401452002450525 0 -0.0069816931159458716 0.00019773801003238625 0 -0.0068898286487469292 0.0002626938918361635 0 -0.0068473300699629655 0.00020259908218867395 0 -0.0069816931159458716 0.00019773801003238625 0 -0.006914760098591286 0.00024800261165727945 0 -0.0068898286487469292 0.0002626938918361635 0 -0.0070836209602416879 0.00018350295694224294 0 -0.0069816931159458716 0.00019773801003238625 0 -0.006914760098591286 0.00024800261165727945 0 -0.0068458838698748211 0.00021349033370575806 0 -0.0070836209602416879 0.00018350295694224294 0 -0.006914760098591286 0.00024800261165727945 0 -0.0068458838698748211 0.00021349033370575806 0 -0.006914760098591286 0.00024800261165727945 0 -0.0068190056064800801 0.00029515210023937303 0 -0.0068298647319242076 0.00030267980690393861 0 -0.0068709238271637439 0.00036028691110933964 0 -0.006914760098591286 0.00024800261165727945 0 -0.0068898286487469292 0.0002626938918361635 0 -0.0068190056064800801 0.00029515210023937303 0 -0.0069581373070974591 0.00058537489316743297 0 -0.0070186360324718125 0.00034476706653237163 0 -0.0068190056064800801 0.00029515210023937303 0 -0.0070186360324718125 0.00034476706653237163 0 -0.0068045485327071472 0.00010989797287083611 0 -0.0070407762235057628 6.7881154080817315e-05 0 -0.0070186360324718125 0.00034476706653237163 0 -0.0068190056064800801 0.00029515210023937303 0 -0.0068045485327071472 0.00010989797287083611 0 -0.006528029263298628 0.0001512896746463311 0 -0.0068458838698748211 0.00021349033370575806 0 -0.0068190056064800801 0.00029515210023937303 0 -0.006528029263298628 0.0001512896746463311 0 -0.0068190056064800801 0.00029515210023937303 0 -0.00658425015068923 0.00011922394230281112 0 -0.0068190056064800801 0.00029515210023937303 0 -0.00658425015068923 0.00011922394230281112 0 -0.0068045485327071472 0.00010989797287083611 0 -0.0064769217719426297 -5.5081563480713007e-05 0 -0.0060568132779004876 5.084906583445286e-05 0 -0.00658425015068923 0.00011922394230281112 0 -0.0064769217719426297 -5.5081563480713007e-05 0 -0.00658425015068923 0.00011922394230281112 0 -0.0068045485327071472 0.00010989797287083611 0 -0.0068044747590479465 -0.00010739398415954006 0 -0.0064769217719426297 -5.5081563480713007e-05 0 -0.0068045485327071472 0.00010989797287083611 0 -0.0068044747590479465 -0.00010739398415954006 0 -0.0068045485327071472 0.00010989797287083611 0 -0.0070407762235057628 6.7881154080817315e-05 0 -0.0068044747590479465 -0.00010739398415954006 0 -0.0070407762235057628 6.7881154080817315e-05 0 -0.0070695577556273009 -0.00014223796075342414 0 -0.0070407762235057628 6.7881154080817315e-05 0 -0.0073264332875861643 -5.4478961020255021e-06 0 -0.0070695577556273009 -0.00014223796075342414 0 -0.0070407762235057628 6.7881154080817315e-05 0 -0.0073264332875861643 -5.4478961020255021e-06 0 -0.0072133931065335747 0.00022209595522135975 0 -0.0073264332875861643 -5.4478961020255021e-06 0 -0.0075727340549485468 0.00011449792084242531 0 -0.0075992699664331857 -6.118849772214579e-05 0 -0.0073264332875861643 -5.4478961020255021e-06 0 -0.0075992699664331857 -6.118849772214579e-05 0 -0.0074795712690221465 -0.00023622223731108784 0 -0.0073264332875861643 -5.4478961020255021e-06 0 -0.0073963760774609696 0.00015862127067612844 0 -0.0072133931065335747 0.00022209595522135975 0 -0.0073264332875861643 -5.4478961020255021e-06 0 -0.0073963760774609696 0.00015862127067612844 0 -0.0075727340549485468 0.00011449792084242531 0 -0.0074781532564771351 0.00030851628921175377 0 -0.0072133931065335747 0.00022209595522135975 0 -0.0073815699242816227 0.00057320934826413301 0 -0.0073963760774609696 0.00015862127067612844 0 -0.0074781532564771351 0.00030851628921175377 0 -0.0075727340549485468 0.00011449792084242531 0 -0.0073963760774609696 0.00015862127067612844 0 -0.0074781532564771351 0.00030851628921175377 0 -0.0072133931065335747 0.00022209595522135975 0 -0.0070186360324718125 0.00034476706653237163 0 -0.0070407762235057628 6.7881154080817315e-05 0 -0.0072133931065335747 0.00022209595522135975 0 -0.0069581373070974591 0.00058537489316743297 0 -0.0070186360324718125 0.00034476706653237163 0 -0.0073815699242816227 0.00057320934826413301 0 -0.0070186360324718125 0.00034476706653237163 0 -0.0072133931065335747 0.00022209595522135975 0 -0.0073815699242816227 0.00057320934826413301 0 -0.0074781532564771351 0.00030851628921175377 0 -0.0073815699242816227 0.00057320934826413301 0 -0.0076410886936262423 0.00049927183596073935 0 -0.0073815699242816227 0.00057320934826413301 0 -0.0077348289151406542 0.00083177436589352443 0 -0.0076410886936262423 0.00049927183596073935 0 -0.0073815699242816227 0.00057320934826413301 0 -0.0074779413666439982 0.00081521656164601909 0 -0.0077348289151406542 0.00083177436589352443 0 -0.0069581373070974591 0.00058537489316743297 0 -0.0073815699242816227 0.00057320934826413301 0 -0.0071597929509347865 0.00085354464643164988 0 -0.0068298647319242076 0.00030267980690393861 0 -0.0077594051452059736 0.0010406148637336706 0 -0.0073815699242816227 0.00057320934826413301 0 -0.0074779413666439982 0.00081521656164601909 0 -0.0072303121314377904 0.00083022231416663512 0 -0.007293509861139501 0.00062388989568151125 0 -0.0077594051452059736 0.0010406148637336706 0 -0.0077348289151406542 0.00083177436589352443 0 -0.0079235789330016088 0.0004946020703798336 0 -0.0081514568470819147 0.00084196587750418527 0 -0.0077348289151406542 0.00083177436589352443 0 -0.0076410886936262423 0.00049927183596073935 0 -0.0079235789330016088 0.0004946020703798336 0 -0.0076410886936262423 0.00049927183596073935 0 -0.0079235789330016088 0.0004946020703798336 0 -0.007720104060367286 0.00029506738421552456 0 -0.0079235789330016088 0.0004946020703798336 0 -0.007940398305690587 0.00022952532159064662 0 -0.007720104060367286 0.00029506738421552456 0 -0.0079235789330016088 0.0004946020703798336 0 -0.007940398305690587 0.00022952532159064662 0 -0.0081945661663174064 0.00043751424813356671 0 -0.0074781532564771351 0.00030851628921175377 0 -0.0076410886936262423 0.00049927183596073935 0 -0.007720104060367286 0.00029506738421552456 0 -0.007940398305690587 0.00022952532159064662 0 -0.007720104060367286 0.00029506738421552456 0 -0.0077531115077896515 0.0001198978066188649 0 -0.007720104060367286 0.00029506738421552456 0 -0.0075727340549485468 0.00011449792084242531 0 -0.0077531115077896515 0.0001198978066188649 0 -0.0074781532564771351 0.00030851628921175377 0 -0.007720104060367286 0.00029506738421552456 0 -0.0075727340549485468 0.00011449792084242531 0 -0.0075727340549485468 0.00011449792084242531 0 -0.0077531115077896515 0.0001198978066188649 0 -0.0075992699664331857 -6.118849772214579e-05 0 -0.0077531115077896515 0.0001198978066188649 0 -0.0077844583274031655 -2.8286310771963278e-05 0 -0.0075992699664331857 -6.118849772214579e-05 0 -0.0077844583274031655 -2.8286310771963278e-05 0 -0.0075992699664331857 -6.118849772214579e-05 0 -0.0077120264172761211 -0.00015853320012041962 0 -0.007940398305690587 0.00022952532159064662 0 -0.0079437020905151808 3.3832981534096192e-05 0 -0.0081039615577506042 9.586282864351509e-06 0 -0.0077531115077896515 0.0001198978066188649 0 -0.0077844583274031655 -2.8286310771963278e-05 0 -0.0079437020905151808 3.3832981534096192e-05 0 -0.007940398305690587 0.00022952532159064662 0 -0.0077531115077896515 0.0001198978066188649 0 -0.0079437020905151808 3.3832981534096192e-05 0 -0.0077844583274031655 -2.8286310771963278e-05 0 -0.0079437020905151808 3.3832981534096192e-05 0 -0.0078877305370800756 -8.9414602811930074e-05 0 -0.0077844583274031655 -2.8286310771963278e-05 0 -0.0078877305370800756 -8.9414602811930074e-05 0 -0.0077120264172761211 -0.00015853320012041962 0 -0.0078877305370800756 -8.9414602811930074e-05 0 -0.0079777385305805498 -5.1473407620495734e-05 0 -0.0080150419788770581 -0.00012966297170320724 0 -0.0079437020905151808 3.3832981534096192e-05 0 -0.0079777385305805498 -5.1473407620495734e-05 0 -0.0081039615577506042 9.586282864351509e-06 0 -0.0079437020905151808 3.3832981534096192e-05 0 -0.0078877305370800756 -8.9414602811930074e-05 0 -0.0079777385305805498 -5.1473407620495734e-05 0 -0.0078877305370800756 -8.9414602811930074e-05 0 -0.0080150419788770581 -0.00012966297170320724 0 -0.0078873760486506666 -0.00020272854356296412 0 -0.0032381544171276749 -0.00062411672464730882 0 -0.0036452382575740041 -0.00068031954803923571 0 -0.0030337727210798318 -0.0011894035388339947 0 -0.0078873760486506666 -0.00020272854356296412 0 -0.0077712853156566303 -0.00045026405645442108 0 -0.0080375601659905243 -0.00018504671235094981 0 -0.0058979552888268338 -0.00050799121448595326 0 -0.0051669293984746949 -0.0004467935416167377 0 -0.0080150419788770581 -0.00012966297170320724 0 -0.0078873760486506666 -0.00020272854356296412 0 -0.0080375601659905243 -0.00018504671235094981 0 -0.0078873760486506666 -0.00020272854356296412 0 -0.0077712853156566303 -0.00045026405645442108 0 -0.0077120264172761211 -0.00015853320012041962 0 -0.0056075002849991932 -0.00063387347433949636 0 -0.0051669293984746949 -0.0004467935416167377 0 -0.0078877305370800756 -8.9414602811930074e-05 0 -0.0078873760486506666 -0.00020272854356296412 0 -0.0077120264172761211 -0.00015853320012041962 0 -0.0032381544171276749 -0.00062411672464730882 0 -0.0035354229610739785 -0.00030297817291335006 0 -0.0028271974927334275 -0.00054846895491986647 0 -0.0028754699668173647 -0.00051347644431580281 0 -0.0028539117391271104 -0.00048765607006970437 0 -0.0028271974927334275 -0.00054846895491986647 0 -0.0029742132766369467 -0.00045858078139655661 0 -0.0029439085292518059 -0.00050791810248975583 0 -0.0032381544171276749 -0.00062411672464730882 0 -0.0035354229610739785 -0.00030297817291335006 0 -0.0036452382575740041 -0.00068031954803923571 0 -0.0077712853156566303 -0.00045026405645442108 0 -0.0075294419313190709 -0.0004592804673819411 0 -0.0074891914466761475 -0.00072685586279047458 0 -0.0035354229610739785 -0.00030297817291335006 0 -0.0036452382575740041 -0.00068031954803923571 0 -0.0043103137865282415 -8.3183204863300917e-05 0 -0.0058979552888268338 -0.00050799121448595326 0 -0.0048485050397334946 -0.00041693821792511453 0 -0.0075294419313190709 -0.0004592804673819411 0 -0.0077120264172761211 -0.00015853320012041962 0 -0.0074795712690221465 -0.00023622223731108784 0 -0.0077712853156566303 -0.00045026405645442108 0 -0.0075294419313190709 -0.0004592804673819411 0 -0.0077120264172761211 -0.00015853320012041962 0 -0.0075992699664331857 -6.118849772214579e-05 0 -0.0077120264172761211 -0.00015853320012041962 0 -0.0074795712690221465 -0.00023622223731108784 0 -0.0073264332875861643 -5.4478961020255021e-06 0 -0.0074795712690221465 -0.00023622223731108784 0 -0.0072586261884763368 -0.00022797025490948691 0 -0.0074795712690221465 -0.00023622223731108784 0 -0.0072586261884763368 -0.00022797025490948691 0 -0.0072728594176950092 -0.00049400084109005294 0 -0.0073264332875861643 -5.4478961020255021e-06 0 -0.0072586261884763368 -0.00022797025490948691 0 -0.0070695577556273009 -0.00014223796075342414 0 -0.0072586261884763368 -0.00022797025490948691 0 -0.0071073529116597329 -0.00034068955577958542 0 -0.0072728594176950092 -0.00049400084109005294 0 -0.0072586261884763368 -0.00022797025490948691 0 -0.0070695577556273009 -0.00014223796075342414 0 -0.0071073529116597329 -0.00034068955577958542 0 -0.006884186817502031 -0.00030798075617261862 0 -0.0070695577556273009 -0.00014223796075342414 0 -0.0071073529116597329 -0.00034068955577958542 0 -0.0069507448672352186 -0.00050614068218892794 0 -0.0071073529116597329 -0.00034068955577958542 0 -0.0072728594176950092 -0.00049400084109005294 0 -0.0069507448672352186 -0.00050614068218892794 0 -0.0072728594176950092 -0.00049400084109005294 0 -0.007033354597552232 -0.00071499978646961948 0 -0.0069507448672352186 -0.00050614068218892794 0 -0.006884186817502031 -0.00030798075617261862 0 -0.0071073529116597329 -0.00034068955577958542 0 -0.0075294419313190709 -0.0004592804673819411 0 -0.0074795712690221465 -0.00023622223731108784 0 -0.0072728594176950092 -0.00049400084109005294 0 -0.0075294419313190709 -0.0004592804673819411 0 -0.0072728594176950092 -0.00049400084109005294 0 -0.0074891914466761475 -0.00072685586279047458 0 -0.0072728594176950092 -0.00049400084109005294 0 -0.0074891914466761475 -0.00072685586279047458 0 -0.0072165913822654203 -0.00081929416840344118 0 -0.0029131029195871021 -0.00050218498987545518 0 -0.002938516117248591 -0.00047860002350511461 0 -0.0028681434780216939 -0.00047000352376608663 0 -0.0048485050397334946 -0.00041693821792511453 0 -0.0062790072792233411 -0.00064377821452949683 0 -0.0046624220126048107 -0.00069508729830192596 0 -0.0048276700828697042 -0.00065299999355308911 0 -0.0047980043140449478 -0.00056927345604319683 0 -0.0048485050397334946 -0.00041693821792511453 0 -0.0030836635203200179 -0.0006926605241465661 0 -0.0052911269112052399 -0.00074873393495547037 0 -0.0062790072792233411 -0.00064377821452949683 0 -0.0052911269112052399 -0.00074873393495547037 0 -0.0030836635203200179 -0.0006926605241465661 0 -0.0049999426771434874 -0.00060900854120187419 0 -0.0048276700828697042 -0.00065299999355308911 0 -0.0047980043140449478 -0.00056927345604319683 0 -0.0069250925802461514 -0.00092066875003939672 0 -0.0072165913822654203 -0.00081929416840344118 0 -0.007033354597552232 -0.00071499978646961948 0 -0.0072728594176950092 -0.00049400084109005294 0 -0.0072165913822654203 -0.00081929416840344118 0 -0.007033354597552232 -0.00071499978646961948 0 -0.003667334797336367 -0.00077973098067216193 0 -0.0035126321323541796 -0.00046327346756105047 0 -0.0032559891769537662 -0.00070624012551863543 0 -0.0022813751042965072 -0.00061122921906375425 0 -0.0030836635203200179 -0.0006926605241465661 0 -0.001653530481891064 -0.00077116740421147095 0 -0.0014169828041130802 -0.00098099127223275268 0 -0.001374118405210294 -0.00081129474046781223 0 -0.0015939174416903584 -0.0007756107684938027 0 -0.001374118405210294 -0.00081129474046781223 0 -0.0014247471247432692 -0.00068022687108980524 0 -0.0022813751042965072 -0.00061122921906375425 0 -0.0012471413742622534 -0.00081517070619822624 0 -0.0022813751042965072 -0.00061122921906375425 0 -0.0019069331450240414 -0.00045024944922104887 0 -0.001374118405210294 -0.00081129474046781223 0 -0.00089466646246602849 -0.00088342433029623411 0 -0.0012118017653525608 -0.00057222088294433821 0 -0.0014169828041130802 -0.00098099127223275268 0 -0.001374118405210294 -0.00081129474046781223 0 -0.00089466646246602849 -0.00088342433029623411 0 0.0014921239662928768 -0.00087669955848468449 0 0.0014927256327991565 -0.00083990259383085798 0 0.0014217403519998992 -0.0008195381432178669 0 -0.0030836635203200179 -0.0006926605241465661 0 -0.00057525914706073398 -0.00078663775087619268 0 -0.00057525914706073398 -0.00078663775087619268 0 0.00028035021191813355 -0.00075680487243152191 0 0.0014921239662928768 -0.00087669955848468449 0 0.0014927256327991565 -0.00083990259383085798 0 0.0015150209654310187 -0.00087976784333597218 0 0.0014927256327991565 -0.00083990259383085798 0 0.0015469835528711345 -0.00085146195404334462 0 0.0015852433532180979 -0.00082203202283416955 0 0.0015469835528711345 -0.00085146195404334462 0 0.0016146104039254584 -0.00087942781179865077 0 0.0015150209654310187 -0.00087976784333597218 0 0.0014927256327991565 -0.00083990259383085798 0 0.0015469835528711345 -0.00085146195404334462 0 0.0015150209654310187 -0.00087976784333597218 0 0.0016146104039254584 -0.00087942781179865077 0 0.0016769620639085321 -0.00078609374022799866 0 0.0015852433532180979 -0.00082203202283416955 0 0.0015469835528711345 -0.00085146195404334462 0 0.0016146104039254584 -0.00087942781179865077 0 0.0015852433532180979 -0.00082203202283416955 0 0.0016146104039254584 -0.00087942781179865077 0 0.0015150209654310187 -0.00087976784333597218 0 0.0015838771022561211 -0.00098428475922633912 0 0.0014845502644555504 -0.00088469480058058869 0 0.0015150209654310187 -0.00087976784333597218 0 0.0015838771022561211 -0.00098428475922633912 0 -0.00057525914706073398 -0.00078663775087619268 0 0.00024973083177062886 -0.00069778908714788676 0 -0.00057525914706073398 -0.00078663775087619268 0 -0.00065897987114247583 -0.00071742165842517212 0 -0.0028681434780216939 -0.00047000352376608663 0 -0.0028539117391271104 -0.00048765607006970437 0 -0.0028750956370957896 -0.00049080508472032806 0 -0.0028754699668173647 -0.00051347644431580281 0 -0.0028539117391271104 -0.00048765607006970437 0 -0.0028750956370957896 -0.00049080508472032806 0 -0.0029131029195871021 -0.00050218498987545518 0 -0.0028681434780216939 -0.00047000352376608663 0 -0.0028750956370957896 -0.00049080508472032806 0 -0.0029742132766369467 -0.00045858078139655661 0 -0.0048485050397334946 -0.00041693821792511453 0 -0.0028754699668173647 -0.00051347644431580281 0 -0.0029131029195871021 -0.00050218498987545518 0 -0.0028750956370957896 -0.00049080508472032806 0 0.0020666589070490525 -0.00084489470210012002 0 -0.00036323703728700896 -0.00066676306463990282 0 0.0018199928405294736 -0.00085055547025263242 0 0.0018074432665198734 -0.00081718060599298749 0 0.0017311115721935911 -0.00089974297948018482 0 0.0015838771022561211 -0.00098428475922633912 0 0.0016729012828283086 -0.00094520793474360001 0 0.0016720235791314669 -0.0010816934332272135 0 0.0016729012828283086 -0.00094520793474360001 0 0.0017803998015820553 -0.00091600664811337018 0 0.0016720235791314669 -0.0010816934332272135 0 -0.00065897987114247583 -0.00071742165842517212 0 -0.00036323703728700896 -0.00066676306463990282 0 0.0016146104039254584 -0.00087942781179865077 0 0.0015838771022561211 -0.00098428475922633912 0 0.0016729012828283086 -0.00094520793474360001 0 0.0016729012828283086 -0.00094520793474360001 0 0.0017119986796647604 -0.00085104403611542707 0 0.0017803998015820553 -0.00091600664811337018 0 0.0016146104039254584 -0.00087942781179865077 0 0.0016729012828283086 -0.00094520793474360001 0 0.0017119986796647604 -0.00085104403611542707 0 0.0016146104039254584 -0.00087942781179865077 0 0.0017119986796647604 -0.00085104403611542707 0 0.0016769620639085321 -0.00078609374022799866 0 0.0020666589070490525 -0.00084489470210012002 0 0.0017909102631640554 -0.00076949490551073043 0 0.0018199928405294736 -0.00085055547025263242 0 0.0018074432665198734 -0.00081718060599298749 0 0.0018687055313602525 -0.00076963912446658235 0 0.0038150157256875024 -0.00083488239425620538 0 0.0033216655403859666 -0.00088705692208226362 0 0.0017803998015820553 -0.00091600664811337018 0 0.001871066308694102 -0.00073414950986268378 0 0.0017854818784895756 -0.00080755246008324462 0 0.0018074432665198734 -0.00081718060599298749 0 0.0018687055313602525 -0.00076963912446658235 0 0.001871066308694102 -0.00073414950986268378 0 0.0017119986796647604 -0.00085104403611542707 0 0.0017803998015820553 -0.00091600664811337018 0 0.0017854818784895756 -0.00080755246008324462 0 0.0050502752936717734 -0.00091637045808021581 0 0.0050615409591202622 -0.00094494850762508848 0 0.0050541284768468335 -0.00093932470095166266 0 0.005045293310771407 -0.00088871098040096258 0 0.0050502752936717734 -0.00091637045808021581 0 0.0050541284768468335 -0.00093932470095166266 0 0.0050615409591202622 -0.00094494850762508848 0 0.0050464946465001896 -0.00090268598594531548 0 0.0050644880842029456 -0.00093210422174292221 0 0.0050615409591202622 -0.00094494850762508848 0 0.0050644880842029456 -0.00093210422174292221 0 0.0050869424571313975 -0.00097955796673508569 0 0.0050502752936717734 -0.00091637045808021581 0 0.0050615409591202622 -0.00094494850762508848 0 0.0050464946465001896 -0.00090268598594531548 0 0.0050464946465001896 -0.00090268598594531548 0 0.0050229293848575518 -0.00085252089673998398 0 0.0050644880842029456 -0.00093210422174292221 0 0.0050464946465001896 -0.00090268598594531548 0 0.0050213985684214261 -0.00085438831492563687 0 0.0050229293848575518 -0.00085252089673998398 0 0.0050502752936717734 -0.00091637045808021581 0 0.0050464946465001896 -0.00090268598594531548 0 0.0050213985684214261 -0.00085438831492563687 0 0.005045293310771407 -0.00088871098040096258 0 0.0050502752936717734 -0.00091637045808021581 0 0.0050213985684214261 -0.00085438831492563687 0 0.0050213985684214261 -0.00085438831492563687 0 0.0050229293848575518 -0.00085252089673998398 0 0.0049868119954433864 -0.00080309253415797701 0 0.00048197837938987193 0.00015779746620449113 0 0.003050630731903232 -0.00012170122523666526 0 0.0050213985684214261 -0.00085438831492563687 0 0.004988145556561888 -0.00081757748050408118 0 0.0050070812547426211 -0.00083878310262179893 0 0.0050213985684214261 -0.00085438831492563687 0 0.004988145556561888 -0.00081757748050408118 0 0.0049868119954433864 -0.00080309253415797701 0 0.00048197837938987193 0.00015779746620449113 0 -0.00016785698979038149 0.00016120809340169399 0 -0.0038233260294864317 0.0003660104520729837 0 -0.003649592431493692 0.00017198173772185407 0 -0.0037552108436592537 0.0004425613885771273 0 0.00048197837938987193 0.00015779746620449113 0 4.5038557191117028e-05 -0.00062434767858730617 0 -0.0038481304386634059 0.00036538502812282517 0 -0.0038233260294864317 0.0003660104520729837 0 -0.003649592431493692 0.00017198173772185407 0 4.5038557191117028e-05 -0.00062434767858730617 0 -0.0046535310540580088 0.00041745348710788683 0 0.0038150157256875024 -0.00083488239425620538 0 4.5038557191117028e-05 -0.00062434767858730617 0 0.005045293310771407 -0.00088871098040096258 0 0.0050213985684214261 -0.00085438831492563687 0 0.0050070812547426211 -0.00083878310262179893 0 0.0018199928405294736 -0.00085055547025263242 0 0.0017660072381103038 -0.00093832402141940199 0 0.0017311115721935911 -0.00089974297948018482 0 -0.0032381544171276749 -0.00062411672464730882 0 -0.0028271974927334275 -0.00054846895491986647 0 -0.0030337727210798318 -0.0011894035388339947 0 -0.0028271974927334275 -0.00054846895491986647 0 -0.0027423728959681602 -0.00051089736832351932 0 -0.0030337727210798318 -0.0011894035388339947 0 -0.0028539117391271104 -0.00048765607006970437 0 -0.0028271974927334275 -0.00054846895491986647 0 -0.0027423728959681602 -0.00051089736832351932 0 4.5038557191117028e-05 -0.00062434767858730617 0 -0.00036323703728700896 -0.00066676306463990282 0 -0.00036323703728700896 -0.00066676306463990282 0 -0.0051669293984746949 -0.0004467935416167377 0 -0.0027084611493915231 -0.0003524009236575954 0 -0.0026478825276350574 -0.00041029427420623136 0 -0.0026202940679622058 -0.00029141620420835196 0 -0.0027084611493915231 -0.0003524009236575954 0 -0.0026202940679622058 -0.00029141620420835196 0 -0.0027032060517884178 -0.00021378621918969977 0 -0.008034246247488849 -0.00018092337656054413 0 -0.0081039615577506042 9.586282864351509e-06 0 -0.0082527293368286278 3.4296045376280978e-05 0 -0.0079777385305805498 -5.1473407620495734e-05 0 -0.0080150419788770581 -0.00012966297170320724 0 -0.0081039615577506042 9.586282864351509e-06 0 -0.0051669293984746949 -0.0004467935416167377 0 -0.0046535310540580088 0.00041745348710788683 0 -0.0080150419788770581 -0.00012966297170320724 0 -0.008034246247488849 -0.00018092337656054413 0 -0.0081039615577506042 9.586282864351509e-06 0 -0.0036281559127993015 0.00047996832803913876 0 -0.0037552108436592537 0.0004425613885771273 0 -0.0038671226225047424 0.00051438624387504649 0 -0.003649592431493692 0.00017198173772185407 0 -0.0036281559127993015 0.00047996832803913876 0 -0.0037552108436592537 0.0004425613885771273 0 -0.0038233260294864317 0.0003660104520729837 0 -0.0037552108436592537 0.0004425613885771273 0 -0.0038516495596883629 0.00044982549317151957 0 -0.0036281559127993015 0.00047996832803913876 0 -0.003953602708195344 0.0006147139882613687 0 -0.0038671226225047424 0.00051438624387504649 0 -0.0042897628036565475 0.00093736676949332737 0 -0.0043836647690756987 0.00057622518422185032 0 -0.003953602708195344 0.0006147139882613687 0 -0.0046535310540580088 0.00041745348710788683 0 -0.0037166547974401684 0.00066492028788023088 0 -0.007940398305690587 0.00022952532159064662 0 -0.0081039615577506042 9.586282864351509e-06 0 -0.0081945661663174064 0.00043751424813356671 0 -0.0046535310540580088 0.00041745348710788683 0 -0.0064892399829753582 0.00050146474066466824 0 -0.0081039615577506042 9.586282864351509e-06 0 -0.0082527293368286278 3.4296045376280978e-05 0 -0.0081945661663174064 0.00043751424813356671 0 -0.0079235789330016088 0.0004946020703798336 0 -0.0081945661663174064 0.00043751424813356671 0 -0.0081514568470819147 0.00084196587750418527 0 -0.0043836647690756987 0.00057622518422185032 0 -0.0042085694689942416 0.0004209919664059158 0 -0.003953602708195344 0.0006147139882613687 0 -0.0056420101053674676 0.0012106890537775647 0 -0.0056098472163037677 0.0014427307939242956 0 -0.0042720754704976696 0.00015935108432293631 0 -0.0042085694689942416 0.0004209919664059158 0 -0.0039509037073497712 0.00046662194678594507 0 -0.0042720754704976696 0.00015935108432293631 0 -0.0042085694689942416 0.0004209919664059158 0 -0.0045079759875896542 0.00024605168892402141 0 -0.0064892399829753582 0.00050146474066466824 0 -0.006251687122561903 0.00046498348475000633 0 -0.0043836647690756987 0.00057622518422185032 0 -0.0042085694689942416 0.0004209919664059158 0 -0.0045079759875896542 0.00024605168892402141 0 -0.0067297851402049894 0.0021221606491150678 0 -0.0064859337050303043 0.0024348282678867592 0 -0.0068360813751938351 0.0025659768386162608 0 -0.0067297851402049894 0.0021221606491150678 0 -0.0073255203220494551 0.002229554451314134 0 -0.0068360813751938351 0.0025659768386162608 0 -0.0039509037073497712 0.00046662194678594507 0 -0.0039086076406322215 0.00059631869254573515 0 -0.003953602708195344 0.0006147139882613687 0 -0.0042085694689942416 0.0004209919664059158 0 -0.0039509037073497712 0.00046662194678594507 0 -0.003953602708195344 0.0006147139882613687 0 -0.0064859337050303043 0.0024348282678867592 0 -0.0068360813751938351 0.0025659768386162608 0 -0.0064031530251281062 0.0028925052176697478 0 -0.0056098472163037677 0.0014427307939242956 0 -0.0042069523943300243 0.0018685254897452121 0 -0.0039086076406322215 0.00059631869254573515 0 -0.003953602708195344 0.0006147139882613687 0 -0.0039400146502230511 0.00054647496459217808 0 -0.0042069523943300243 0.0018685254897452121 0 -0.0020280268398932878 0.00066900385347449793 0 -0.00028194235874437831 0.00098478742711520322 0 -0.00026843393450173559 0.00088985600363738712 0 -0.00016715148285123744 0.00089053999840023085 0 -0.003953602708195344 0.0006147139882613687 0 -0.0038671226225047424 0.00051438624387504649 0 -0.0039400146502230511 0.00054647496459217808 0 -0.0038671226225047424 0.00051438624387504649 0 -0.0038516495596883629 0.00044982549317151957 0 -0.0039400146502230511 0.00054647496459217808 0 -0.0037552108436592537 0.0004425613885771273 0 -0.0038671226225047424 0.00051438624387504649 0 -0.0038516495596883629 0.00044982549317151957 0 0.00048197837938987193 0.00015779746620449113 0 -0.0020280268398932878 0.00066900385347449793 0 -0.0038492956463156112 0.00037120688694017756 0 -0.0038516495596883629 0.00044982549317151957 0 -0.0039400146502230511 0.00054647496459217808 0 -0.0038492956463156112 0.00037120688694017756 0 -0.0038233260294864317 0.0003660104520729837 0 -0.0038516495596883629 0.00044982549317151957 0 -5.7938600436373127e-05 0.00078261002203074907 0 -0.00016715148285123744 0.00089053999840023085 0 -0.00026298881687458785 0.00079877098576717771 0 -0.00026843393450173559 0.00088985600363738712 0 -0.00016715148285123744 0.00089053999840023085 0 -0.00026298881687458785 0.00079877098576717771 0 -0.00035206082316536222 0.00088646709775812196 0 -0.00041407778436440941 0.00081494071982359916 0 -0.00026298881687458785 0.00079877098576717771 0 -0.00026843393450173559 0.00088985600363738712 0 -0.00035206082316536222 0.00088646709775812196 0 -0.00026298881687458785 0.00079877098576717771 0 -0.0060639388772590905 0.0036478101367757362 0 -0.0051395370231637231 0.0035990518213204373 0 -0.0052623630800829714 0.0044632714043608144 0 -0.0034496462222669269 0.0022761235081424106 0 0.0010526179391701529 0.00080075899004591715 0 -0.0057645996691349077 0.0031289697421235771 0 -0.0060306495159289861 0.0026335272275965649 0 -0.0049642634320774199 0.0029506872713741306 0 -0.0060639388772590905 0.0036478101367757362 0 -0.0051395370231637231 0.0035990518213204373 0 -0.0057645996691349077 0.0031289697421235771 0 -0.0051395370231637231 0.0035990518213204373 0 -0.0057645996691349077 0.0031289697421235771 0 -0.0049642634320774199 0.0029506872713741306 0 -0.0066172583655098628 0.0029922570388886201 0 -0.0057645996691349077 0.0031289697421235771 0 -0.0060306495159289861 0.0026335272275965649 0 -0.0066172583655098628 0.0029922570388886201 0 -0.0060639388772590905 0.0036478101367757362 0 -0.0057645996691349077 0.0031289697421235771 0 -0.00028194235874437831 0.00098478742711520322 0 -0.00026843393450173559 0.00088985600363738712 0 -0.00035206082316536222 0.00088646709775812196 0 -0.0042069523943300243 0.0018685254897452121 0 -0.0034496462222669269 0.0022761235081424106 0 -0.0064031530251281062 0.0028925052176697478 0 -0.0060468843426570301 0.002468358324458333 0 -0.0062424367585438515 0.0024218398202535199 0 -0.0066172583655098628 0.0029922570388886201 0 -0.0060306495159289861 0.0026335272275965649 0 -0.0060468843426570301 0.002468358324458333 0 -0.0042069523943300243 0.0018685254897452121 0 -0.0069432474925436782 0.0030669831022946685 0 -0.0064859337050303043 0.0024348282678867592 0 -0.0064031530251281062 0.0028925052176697478 0 -0.0062424367585438515 0.0024218398202535199 0 -0.0060306495159289861 0.0026335272275965649 0 -0.0059310400848327106 0.0025485344318847605 0 -0.0058736913430489229 0.0027029640733197565 0 -0.0059217246228809393 0.0026463442574940518 0 -0.0055053531718376007 0.0028293093880043521 0 -0.0059310400848327106 0.0025485344318847605 0 -0.0059974243056155297 0.0025227219425923734 0 -0.0059977530049953797 0.0024524706607746121 0 -0.0060306495159289861 0.0026335272275965649 0 -0.0059974243056155297 0.0025227219425923734 0 -0.0060468843426570301 0.002468358324458333 0 -0.0060306495159289861 0.0026335272275965649 0 -0.0059310400848327106 0.0025485344318847605 0 -0.0059974243056155297 0.0025227219425923734 0 -0.0059974243056155297 0.0025227219425923734 0 -0.0060468843426570301 0.002468358324458333 0 -0.0059977530049953797 0.0024524706607746121 0 -0.0060468843426570301 0.002468358324458333 0 -0.0059977530049953797 0.0024524706607746121 0 -0.0060835354373683518 0.0023390609406809698 0 -0.0059310400848327106 0.0025485344318847605 0 -0.0059569747493836726 0.0023835241552039007 0 -0.0059977530049953797 0.0024524706607746121 0 -0.0059569747493836726 0.0023835241552039007 0 -0.0059977530049953797 0.0024524706607746121 0 -0.0060835354373683518 0.0023390609406809698 0 -0.005982985188601549 0.0022412677009824929 0 -0.0059569747493836726 0.0023835241552039007 0 -0.0060835354373683518 0.0023390609406809698 0 -0.0062886983991218056 0.0022157633900973962 0 -0.0060835354373683518 0.0023390609406809698 0 -0.0062424367585438515 0.0024218398202535199 0 -0.0062886983991218056 0.0022157633900973962 0 -0.0064859337050303043 0.0024348282678867592 0 -0.0062424367585438515 0.0024218398202535199 0 -0.0060468843426570301 0.002468358324458333 0 -0.0060835354373683518 0.0023390609406809698 0 -0.0062424367585438515 0.0024218398202535199 0 -0.0059058623970853538 0.002917802392134186 0 -0.0059223869348264792 0.0035544977256040588 0 -0.0055569320635436908 0.0033923284158356138 0 -0.005735229972932702 0.0022489952138599295 0 -0.0058480005127941751 0.002310738788397501 0 -0.005698969507876319 0.0025241016724467974 0 -0.0059238300509077985 0.0027390103004791204 0 -0.0048869511470982065 0.0023743974641627849 0 -0.0058480005127941751 0.002310738788397501 0 -0.0058249652907503089 0.0024708386017247589 0 -0.005698969507876319 0.0025241016724467974 0 -0.005982985188601549 0.0022412677009824929 0 -0.0059569747493836726 0.0023835241552039007 0 -0.0058480005127941751 0.002310738788397501 0 -0.0059569747493836726 0.0023835241552039007 0 -0.0058480005127941751 0.002310738788397501 0 -0.0058249652907503089 0.0024708386017247589 0 -0.0058249652907503089 0.0024708386017247589 0 -0.0057840938659169013 0.0026146777484461906 0 -0.0056432904521012978 0.0025368301009086845 0 -0.0059310400848327106 0.0025485344318847605 0 -0.0058249652907503089 0.0024708386017247589 0 -0.0057840938659169013 0.0026146777484461906 0 -0.0059310400848327106 0.0025485344318847605 0 -0.0059569747493836726 0.0023835241552039007 0 -0.0058249652907503089 0.0024708386017247589 0 -0.0059310400848327106 0.0025485344318847605 0 -0.0057840938659169013 0.0026146777484461906 0 -0.0058736913430489229 0.0027029640733197565 0 -0.0059303287892921164 0.0023496146004860739 0 -0.0048869511470982065 0.0023743974641627849 0 -0.0048869511470982065 0.0023743974641627849 0 -0.0040711422914942097 0.0029352806378132971 0 -0.0031444162248689656 0.0012756214441384359 0 -0.00319116302962785 0.0025329089275538084 0 -0.002649864256046183 0.0021755602042608899 0 -0.0057840938659169013 0.0026146777484461906 0 -0.0056432904521012978 0.0025368301009086845 0 -0.0056462785973722266 0.0028521195047478696 0 -0.0057840938659169013 0.0026146777484461906 0 -0.0058736913430489229 0.0027029640733197565 0 -0.0056462785973722266 0.0028521195047478696 0 -0.0049642634320774199 0.0029506872713741306 0 -0.0037772241470921939 0.0035335531550757197 0 -0.0039561052376960925 0.0035963279012923444 0 -0.0055053531718376007 0.0028293093880043521 0 -0.0040711422914942097 0.0029352806378132971 0 -0.0049642634320774199 0.0029506872713741306 0 -0.0044937167106800149 0.0036101833134229563 0 -0.0039561052376960925 0.0035963279012923444 0 -0.0051395370231637231 0.0035990518213204373 0 -0.0049642634320774199 0.0029506872713741306 0 -0.0044937167106800149 0.0036101833134229563 0 -0.0043726796124781203 0.0040834105895644285 0 -0.0036481728661273151 0.0045928483948143427 0 -0.0052623630800829714 0.0044632714043608144 0 -0.0051395370231637231 0.0035990518213204373 0 -0.0044937167106800149 0.0036101833134229563 0 -0.0043726796124781203 0.0040834105895644285 0 -0.0044937167106800149 0.0036101833134229563 0 -0.0039561052376960925 0.0035963279012923444 0 -0.0040490460716994048 0.0038660858279210542 0 -0.0044937167106800149 0.0036101833134229563 0 -0.0043726796124781203 0.0040834105895644285 0 -0.0040490460716994048 0.0038660858279210542 0 -0.0051395370231637231 0.0035990518213204373 0 -0.0043726796124781203 0.0040834105895644285 0 -0.0052623630800829714 0.0044632714043608144 0 -0.0040711422914942097 0.0029352806378132971 0 -0.0022702785304895712 0.0030184113073094374 0 -0.00319116302962785 0.0025329089275538084 0 -0.0025548767278144226 0.0029356504246957531 0 -0.002649864256046183 0.0021755602042608899 0 -0.0036786410773110598 0.0027268055854035478 0 -0.0036864880615938515 0.002904716973789009 0 -0.0025990215789900841 0.0034024075535707523 0 -0.0038636533846700002 0.0032556701433232456 0 -0.0022702785304895712 0.0030184113073094374 0 -0.0037831095224261867 0.0036698072783433876 0 -0.0040490460716994048 0.0038660858279210542 0 -0.0037485803158579124 0.0042712435250112247 0 -0.0038636533846700002 0.0032556701433232456 0 -0.0038109632347809301 0.004059789950618219 0 -0.0037772241470921939 0.0035335531550757197 0 -0.0037837113722320203 0.0036722299568138802 0 -0.0039561052376960925 0.0035963279012923444 0 -0.0040711422914942097 0.0029352806378132971 0 -0.0038636533846700002 0.0032556701433232456 0 -0.0038636533846700002 0.0032556701433232456 0 -0.0038437636667866381 0.0032967925667737783 0 -0.0037831095224261867 0.0036698072783433876 0 -0.0039561052376960925 0.0035963279012923444 0 -0.0040490460716994048 0.0038660858279210542 0 -0.0043726796124781203 0.0040834105895644285 0 -0.0037485803158579124 0.0042712435250112247 0 -0.0036481728661273151 0.0045928483948143427 0 -0.0043726796124781203 0.0040834105895644285 0 -0.0040490460716994048 0.0038660858279210542 0 -0.0037485803158579124 0.0042712435250112247 0 -0.0037485803158579124 0.0042712435250112247 0 -0.0036481728661273151 0.0045928483948143427 0 -0.0023173407712739728 0.0038004558650745024 0 -0.0037024662192898 0.003189658116203135 0 -0.0037485803158579124 0.0042712435250112247 0 -0.0023173407712739728 0.0038004558650745024 0 0.0046984041021540758 -0.00033434133368052537 0 0.0047567356337344753 -0.00044210363556249294 0 0.0046267780931985598 -0.0004388114157957611 0 0.0049192038102839446 -0.00074718100191600726 0 0.0049015176388232775 -0.00081029688307527996 0 0.0047140685858077678 -0.00072081788406239903 0 0.0053961705558439408 -0.00059573914061967722 0 0.0045232577375257767 -0.00078565894158117724 0 0.0047567356337344753 -0.00044210363556249294 0 0.0046267780931985598 -0.0004388114157957611 0 0.0047140685858077678 -0.00072081788406239903 0 0.0049192038102839446 -0.00074718100191600726 0 0.0049864420464129713 -0.00080880055232455494 0 0.0049764416614318241 -0.00082579248006993628 0 0.0049192038102839446 -0.00074718100191600726 0 0.0049015176388232775 -0.00081029688307527996 0 0.0049764416614318241 -0.00082579248006993628 0 0.0049192038102839446 -0.00074718100191600726 0 0.0049483191277647914 -0.00076737231197964643 0 0.0049864420464129713 -0.00080880055232455494 0 0.0053961705558439408 -0.00059573914061967722 0 0.0010526179391701529 0.00080075899004591715 0 0.0046984041021540758 -0.00033434133368052537 0 0.0047567356337344753 -0.00044210363556249294 0 0.0047484013684802075 -0.00034556274270080878 0 0.00030773042703282851 0.0022447629005243434 0 0.0010526179391701529 0.00080075899004591715 0 0.0049483191277647914 -0.00076737231197964643 0 0.0049868119954433864 -0.00080309253415797701 0 0.0049864420464129713 -0.00080880055232455494 0 0.0050229293848575518 -0.00085252089673998398 0 0.0049868119954433864 -0.00080309253415797701 0 0.0049864420464129713 -0.00080880055232455494 0 0.0010526179391701529 0.00080075899004591715 0 0.003050630731903232 -0.00012170122523666526 0 0.0050229293848575518 -0.00085252089673998398 0 0.0049864420464129713 -0.00080880055232455494 0 0.0050242389633133209 -0.00086271846635967522 0 0.0049864420464129713 -0.00080880055232455494 0 0.0050242389633133209 -0.00086271846635967522 0 0.0049764416614318241 -0.00082579248006993628 0 0.00502186856998252 -0.00088808145128506475 0 0.0050242389633133209 -0.00086271846635967522 0 0.0050779042482766773 -0.00095274839510169106 0 0.00502186856998252 -0.00088808145128506475 0 0.0050242389633133209 -0.00086271846635967522 0 0.0049764416614318241 -0.00082579248006993628 0 0.0050229293848575518 -0.00085252089673998398 0 0.0050242389633133209 -0.00086271846635967522 0 0.0050644880842029456 -0.00093210422174292221 0 0.0050644880842029456 -0.00093210422174292221 0 0.0050779042482766773 -0.00095274839510169106 0 0.0050869424571313975 -0.00097955796673508569 0 0.0050242389633133209 -0.00086271846635967522 0 0.0050644880842029456 -0.00093210422174292221 0 0.0050779042482766773 -0.00095274839510169106 0 0.00502186856998252 -0.00088808145128506475 0 0.0050779042482766773 -0.00095274839510169106 0 0.0050001941167455823 -0.0009142444618666899 0 0.0050779042482766773 -0.00095274839510169106 0 0.0050001941167455823 -0.0009142444618666899 0 0.0050806797568968571 -0.0010066390789302481 0 0.0050001941167455823 -0.0009142444618666899 0 0.0049707188445373323 -0.0010462568386755268 0 0.0050806797568968571 -0.0010066390789302481 0 0.0050001941167455823 -0.0009142444618666899 0 0.0048266560933290003 -0.00088323543671602848 0 0.0049707188445373323 -0.0010462568386755268 0 0.0048266560933290003 -0.00088323543671602848 0 0.0049707188445373323 -0.0010462568386755268 0 0.0046667973441619076 -0.00099406962983793591 0 0.0048266560933290003 -0.00088323543671602848 0 0.0049015176388232775 -0.00081029688307527996 0 0.0047140685858077678 -0.00072081788406239903 0 0.0050001941167455823 -0.0009142444618666899 0 0.0048266560933290003 -0.00088323543671602848 0 0.0049015176388232775 -0.00081029688307527996 0 0.0050001941167455823 -0.0009142444618666899 0 0.0049015176388232775 -0.00081029688307527996 0 0.0049764416614318241 -0.00082579248006993628 0 0.00502186856998252 -0.00088808145128506475 0 0.0050001941167455823 -0.0009142444618666899 0 0.0049764416614318241 -0.00082579248006993628 0 0.0051264390012942425 -0.001156654286518535 0 0.0050455193686316895 -0.001188425515110609 0 0.0049707188445373323 -0.0010462568386755268 0 0.0051264390012942425 -0.001156654286518535 0 0.0052497003312351196 -0.0013264844005315068 0 0.0051405214097000997 -0.0012663507477935403 0 0.0051264390012942425 -0.001156654286518535 0 0.0052464754226466499 -0.0012512531830235838 0 0.0052497003312351196 -0.0013264844005315068 0 0.0051264390012942425 -0.001156654286518535 0 0.0050455193686316895 -0.001188425515110609 0 0.0051405214097000997 -0.0012663507477935403 0 0.0050455193686316895 -0.001188425515110609 0 0.0051405214097000997 -0.0012663507477935403 0 0.005118848439695913 -0.0013101331594592284 0 0.0050981231249984174 -0.0013043031245901168 0 0.0049816092003376203 -0.0011682041723161695 0 0.0050455193686316895 -0.001188425515110609 0 0.005118848439695913 -0.0013101331594592284 0 0.004852588420817568 -0.001150263612259236 0 0.0050455193686316895 -0.001188425515110609 0 0.0049707188445373323 -0.0010462568386755268 0 0.004852588420817568 -0.001150263612259236 0 0.0051264390012942425 -0.001156654286518535 0 0.0049707188445373323 -0.0010462568386755268 0 0.0050806797568968571 -0.0010066390789302481 0 0.0050779042482766773 -0.00095274839510169106 0 0.0050806797568968571 -0.0010066390789302481 0 0.0051665964380868401 -0.0010620599983804891 0 0.0051264390012942425 -0.001156654286518535 0 0.0050806797568968571 -0.0010066390789302481 0 0.0051665964380868401 -0.0010620599983804891 0 0.0051665964380868401 -0.0010620599983804891 0 0.0050869424571313975 -0.00097955796673508569 0 0.0050965829510532011 -0.0010181629312149207 0 0.0050779042482766773 -0.00095274839510169106 0 0.0051665964380868401 -0.0010620599983804891 0 0.0050869424571313975 -0.00097955796673508569 0 0.0050965829510532011 -0.0010181629312149207 0 0.0050924641888401871 -0.00099533770734669099 0 0.0050814657833770701 -0.0010083765300667735 0 0.0051665964380868401 -0.0010620599983804891 0 0.0050965829510532011 -0.0010181629312149207 0 0.0050924641888401871 -0.00099533770734669099 0 0.0051781701032629322 -0.001071606523803054 0 0.005240775402402989 -0.0011685634552369944 0 0.0051665964380868401 -0.0010620599983804891 0 0.0052464754226466499 -0.0012512531830235838 0 0.0054067915301045004 -0.0013386873071443417 0 0.0051264390012942425 -0.001156654286518535 0 0.0051665964380868401 -0.0010620599983804891 0 0.0052464754226466499 -0.0012512531830235838 0 0.0052464754226466499 -0.0012512531830235838 0 0.0053271677268947925 -0.0013625999147209454 0 0.0052497003312351196 -0.0013264844005315068 0 0.0052464754226466499 -0.0012512531830235838 0 0.0053271677268947925 -0.0013625999147209454 0 0.0054067915301045004 -0.0013386873071443417 0 0.0053271677268947925 -0.0013625999147209454 0 0.0053618867011603717 -0.001413342319736557 0 0.0052497003312351196 -0.0013264844005315068 0 0.0053271677268947925 -0.0013625999147209454 0 0.0054067915301045004 -0.0013386873071443417 0 0.0053781454256438604 -0.0014147632506939043 0 0.005240775402402989 -0.0011685634552369944 0 0.00519856912429403 -0.0012177922139279668 0 0.0054067915301045004 -0.0013386873071443417 0 0.0053781454256438604 -0.0014147632506939043 0 0.0053475456234481503 -0.0014341633425338585 0 0.0053271677268947925 -0.0013625999147209454 0 0.0053781454256438604 -0.0014147632506939043 0 0.0053618867011603717 -0.001413342319736557 0 0.0053781454256438604 -0.0014147632506939043 0 0.0053618867011603717 -0.001413342319736557 0 0.0054103933105576745 -0.0014240888216857771 0 0.0053618867011603717 -0.001413342319736557 0 0.0053244888148996092 -0.0014031575472788777 0 0.0052497003312351196 -0.0013264844005315068 0 0.0053618867011603717 -0.001413342319736557 0 0.0053244888148996092 -0.0014031575472788777 0 0.005441897119701211 -0.0014381008644923428 0 0.0053244888148996092 -0.0014031575472788777 0 0.0055218498260260667 -0.0014603966886024857 0 0.005441897119701211 -0.0014381008644923428 0 0.0053244888148996092 -0.0014031575472788777 0 0.0052133192626773505 -0.0013258139288695719 0 0.0051663442768179061 -0.0013356013823463588 0 0.0053244888148996092 -0.0014031575472788777 0 0.0052497003312351196 -0.0013264844005315068 0 0.0052133192626773505 -0.0013258139288695719 0 0.0052497003312351196 -0.0013264844005315068 0 0.0052133192626773505 -0.0013258139288695719 0 0.0051405214097000997 -0.0012663507477935403 0 0.0052133192626773505 -0.0013258139288695719 0 0.0051405214097000997 -0.0012663507477935403 0 0.0051663442768179061 -0.0013356013823463588 0 0.005118848439695913 -0.0013101331594592284 0 0.0051165735102968197 -0.0013190727397411081 0 0.005108197447674415 -0.0012952194960361115 0 0.0051405214097000997 -0.0012663507477935403 0 0.005118848439695913 -0.0013101331594592284 0 0.0051663442768179061 -0.0013356013823463588 0 0.0051663442768179061 -0.0013356013823463588 0 0.0051220666148167095 -0.0013472744145406363 0 0.0051165735102968197 -0.0013190727397411081 0 0.005118848439695913 -0.0013101331594592284 0 0.0051663442768179061 -0.0013356013823463588 0 0.0051165735102968197 -0.0013190727397411081 0 0.0051663442768179061 -0.0013356013823463588 0 0.0051425615868105571 -0.0013810370055218101 0 0.0051220666148167095 -0.0013472744145406363 0 0.0053244888148996092 -0.0014031575472788777 0 0.0051663442768179061 -0.0013356013823463588 0 0.0055218498260260667 -0.0014603966886024857 0 0.0051989973207011014 -0.0013274867147307805 0 0.0053360373496453613 -0.0014029494083512473 0 0.0055218498260260667 -0.0014603966886024857 0 0.005441897119701211 -0.0014381008644923428 0 0.0056519093360069429 -0.0014094272876229966 0 0.005441897119701211 -0.0014381008644923428 0 0.0054919251573679832 -0.0014060129503002023 0 0.0056519093360069429 -0.0014094272876229966 0 0.0054919251573679832 -0.0014060129503002023 0 0.0056519093360069429 -0.0014094272876229966 0 0.005569710893529093 -0.0013410307884817801 0 0.0056519093360069429 -0.0014094272876229966 0 0.0057347628214665936 -0.0013158522264666906 0 0.005569710893529093 -0.0013410307884817801 0 0.0055218498260260667 -0.0014603966886024857 0 0.0056519093360069429 -0.0014094272876229966 0 0.005908365701282739 -0.0013683630865902702 0 0.0053360373496453613 -0.0014029494083512473 0 0.005505169522196502 -0.0013696741635150235 0 0.0056519093360069429 -0.0014094272876229966 0 0.005862713444134829 -0.0013136477590488256 0 0.005908365701282739 -0.0013683630865902702 0 0.0059999560176659649 -0.0012330710419049705 0 0.0061795331721094075 -0.001151432549227955 0 0.005908365701282739 -0.0013683630865902702 0 0.005862713444134829 -0.0013136477590488256 0 0.0059999560176659649 -0.0012330710419049705 0 0.005908365701282739 -0.0013683630865902702 0 0.005862713444134829 -0.0013136477590488256 0 0.0059999560176659649 -0.0012330710419049705 0 0.0058521638926643596 -0.0012371353292445072 0 0.0059999560176659649 -0.0012330710419049705 0 0.0058521638926643596 -0.0012371353292445072 0 0.00600453134942834 -0.0011537734267383446 0 0.005862713444134829 -0.0013136477590488256 0 0.0058521638926643596 -0.0012371353292445072 0 0.0057347628214665936 -0.0013158522264666906 0 0.0056519093360069429 -0.0014094272876229966 0 0.005862713444134829 -0.0013136477590488256 0 0.0057347628214665936 -0.0013158522264666906 0 0.0057347628214665936 -0.0013158522264666906 0 0.005569710893529093 -0.0013410307884817801 0 0.0056867651964284689 -0.0012352433020302951 0 0.005569710893529093 -0.0013410307884817801 0 0.0056867651964284689 -0.0012352433020302951 0 0.0054811423112347815 -0.0012586088828900103 0 0.0058521638926643596 -0.0012371353292445072 0 0.0057347628214665936 -0.0013158522264666906 0 0.0056867651964284689 -0.0012352433020302951 0 0.0056867651964284689 -0.0012352433020302951 0 0.0058505736894095689 -0.0011265890529775387 0 0.0057088642172652519 -0.00099716405892957003 0 0.0058521638926643596 -0.0012371353292445072 0 0.0056867651964284689 -0.0012352433020302951 0 0.0058505736894095689 -0.0011265890529775387 0 0.0056867651964284689 -0.0012352433020302951 0 0.0057088642172652519 -0.00099716405892957003 0 0.0054811423112347815 -0.0012586088828900103 0 0.0058505736894095689 -0.0011265890529775387 0 0.0057088642172652519 -0.00099716405892957003 0 0.0059791523145146866 -0.00099559333652748504 0 0.0058505736894095689 -0.0011265890529775387 0 0.0059791523145146866 -0.00099559333652748504 0 0.00600453134942834 -0.0011537734267383446 0 0.0059791523145146866 -0.00099559333652748504 0 0.0061539811234844043 -0.0010746078414877727 0 0.00600453134942834 -0.0011537734267383446 0 0.0061539811234844043 -0.0010746078414877727 0 0.0062981189944413332 -0.0010519926821458889 0 0.0063127484380360848 -0.00096428605706276984 0 0.0061539811234844043 -0.0010746078414877727 0 0.00600453134942834 -0.0011537734267383446 0 0.0061795331721094075 -0.001151432549227955 0 0.0059999560176659649 -0.0012330710419049705 0 0.00600453134942834 -0.0011537734267383446 0 0.0061795331721094075 -0.001151432549227955 0 0.0058521638926643596 -0.0012371353292445072 0 0.0058505736894095689 -0.0011265890529775387 0 0.00600453134942834 -0.0011537734267383446 0 0.0057088642172652519 -0.00099716405892957003 0 0.0054811423112347815 -0.0012586088828900103 0 0.0054357556270427446 -0.00086804079814281382 0 0.0054779957507833732 -0.0012419677122840612 0 0.0054543312031971264 -0.00096948251925922375 0 0.005344081026706882 -0.001197010782204301 0 0.0054811423112347815 -0.0012586088828900103 0 0.005469494494195289 -0.0010729615193120436 0 0.005569710893529093 -0.0013410307884817801 0 0.0054811423112347815 -0.0012586088828900103 0 0.0054091935529886181 -0.0013615248578385329 0 0.005344081026706882 -0.001197010782204301 0 0.0054811423112347815 -0.0012586088828900103 0 0.0054091935529886181 -0.0013615248578385329 0 0.005344081026706882 -0.001197010782204301 0 0.0054091935529886181 -0.0013615248578385329 0 0.0052886654617536602 -0.001347219796012932 0 0.0054091935529886181 -0.0013615248578385329 0 0.0053798660352350584 -0.0014063941312837855 0 0.0052886654617536602 -0.001347219796012932 0 0.0053718110537589094 -0.0013942782087853788 0 0.0052930334031957779 -0.0012821460308385494 0 0.0054919251573679832 -0.0014060129503002023 0 0.005569710893529093 -0.0013410307884817801 0 0.0054091935529886181 -0.0013615248578385329 0 0.0054919251573679832 -0.0014060129503002023 0 0.0054091935529886181 -0.0013615248578385329 0 0.0054103933105576745 -0.0014240888216857771 0 0.0053618867011603717 -0.001413342319736557 0 0.005441897119701211 -0.0014381008644923428 0 0.0054103933105576745 -0.0014240888216857771 0 0.005441897119701211 -0.0014381008644923428 0 0.0054919251573679832 -0.0014060129503002023 0 0.0054103933105576745 -0.0014240888216857771 0 0.0054091935529886181 -0.0013615248578385329 0 0.0054103933105576745 -0.0014240888216857771 0 0.0053798660352350584 -0.0014063941312837855 0 0.0053781454256438604 -0.0014147632506939043 0 0.0053798660352350584 -0.0014063941312837855 0 0.0053475456234481503 -0.0014341633425338585 0 0.0053781454256438604 -0.0014147632506939043 0 0.0054103933105576745 -0.0014240888216857771 0 0.0053798660352350584 -0.0014063941312837855 0 0.0050383166113471597 -0.0010158324056225433 0 0.0050114221402074721 -0.0010116714479884647 0 0.0050532976256440227 -0.0010130684145961283 0 0.0050892945221117257 -0.0011454983051868209 0 0.00519856912429403 -0.0012177922139279668 0 0.0053798660352350584 -0.0014063941312837855 0 0.005302049967710284 -0.0013437703563596154 0 0.0053475456234481503 -0.0014341633425338585 0 0.005302049967710284 -0.0013437703563596154 0 0.0051613144312054014 -0.0012880497751031898 0 0.0053475456234481503 -0.0014341633425338585 0 0.0050383166113471597 -0.0010158324056225433 0 0.0050119428986773922 -0.0010150141210596175 0 0.0050114221402074721 -0.0010116714479884647 0 0.0050119428986773922 -0.0010150141210596175 0 0.0050114221402074721 -0.0010116714479884647 0 0.00500143656046522 -0.0010165319236956408 0 0.0050119428986773922 -0.0010150141210596175 0 0.005000061883731555 -0.0010202159390414573 0 0.0050033957652410319 -0.0010276913370629891 0 0.0050383166113471597 -0.0010158324056225433 0 0.0050119428986773922 -0.0010150141210596175 0 0.0050033957652410319 -0.0010276913370629891 0 0.0050114221402074721 -0.0010116714479884647 0 0.0050022211724781857 -0.0010198835794265248 0 0.00500143656046522 -0.0010165319236956408 0 0.0050114221402074721 -0.0010116714479884647 0 0.005002583138223736 -0.0010248954577995874 0 0.0050022211724781857 -0.0010198835794265248 0 0.0053798660352350584 -0.0014063941312837855 0 0.005302049967710284 -0.0013437703563596154 0 0.0053045956687178177 -0.0012191715879526172 0 0.005302049967710284 -0.0013437703563596154 0 0.0051613144312054014 -0.0012880497751031898 0 0.0053045956687178177 -0.0012191715879526172 0 0.0051613144312054014 -0.0012880497751031898 0 0.0053045956687178177 -0.0012191715879526172 0 0.0051753576246559964 -0.0011490493513901039 0 0.005344081026706882 -0.001197010782204301 0 0.0052886654617536602 -0.001347219796012932 0 0.0051749897675839309 -0.0012172523152407457 0 0.0052930334031957779 -0.0012821460308385494 0 0.0051578743917156753 -0.0011200869471785634 0 0.0053045956687178177 -0.0012191715879526172 0 0.0051753576246559964 -0.0011490493513901039 0 0.005138811610041461 -0.0010161409823770482 0 0.0051613144312054014 -0.0012880497751031898 0 0.0051230451734973282 -0.0011192063867314663 0 0.0051753576246559964 -0.0011490493513901039 0 0.0051613144312054014 -0.0012880497751031898 0 0.0051230451734973282 -0.0011192063867314663 0 0.0050117643543330587 -0.0010317781147236886 0 0.0050114221402074721 -0.0010116714479884647 0 0.0050117643543330587 -0.0010317781147236886 0 0.005002583138223736 -0.0010248954577995874 0 0.0050892945221117257 -0.0011454983051868209 0 0.0050157481309892112 -0.0010395016353102345 0 0.0051230451734973282 -0.0011192063867314663 0 0.005138811610041461 -0.0010161409823770482 0 0.0050117643543330587 -0.0010317781147236886 0 0.0051230451734973282 -0.0011192063867314663 0 0.0051753576246559964 -0.0011490493513901039 0 0.005138811610041461 -0.0010161409823770482 0 0.0051749897675839309 -0.0012172523152407457 0 0.0052327402117894528 -0.0010726385635437641 0 0.0050615292262795718 -0.0010714774372536122 0 0.005138811610041461 -0.0010161409823770482 0 0.0050117643543330587 -0.0010317781147236886 0 0.0050159232748982702 -0.00093207486804502808 0 0.0051578743917156753 -0.0011200869471785634 0 0.0050421606516130226 -0.0010034077448669242 0 0.005344081026706882 -0.001197010782204301 0 0.0051749897675839309 -0.0012172523152407457 0 0.0052327402117894528 -0.0010726385635437641 0 0.0049271550513602571 -0.00098440340944496037 0 0.0049891610100288942 -0.0010231427121683888 0 0.0049233596883231454 -0.0010303117069331543 0 0.0049271550513602571 -0.00098440340944496037 0 0.0048927965801014049 -0.0009746795007786218 0 0.004863639737683674 -0.0010102447912692879 0 0.0049271550513602571 -0.00098440340944496037 0 0.0048638925284531006 -0.0010515145797707856 0 0.004863639737683674 -0.0010102447912692879 0 0.0049271550513602571 -0.00098440340944496037 0 0.0048927965801014049 -0.0009746795007786218 0 0.004937753093489948 -0.00094756265101328602 0 0.0049271550513602571 -0.00098440340944496037 0 0.0049542617856988885 -0.00096125281102345337 0 0.0049799816983096459 -0.00097667570933570799 0 0.0049271550513602571 -0.00098440340944496037 0 0.0049542617856988885 -0.00096125281102345337 0 0.004937753093489948 -0.00094756265101328602 0 0.0049799816983096459 -0.00097667570933570799 0 0.0050117643543330587 -0.0010317781147236886 0 0.0050159232748982702 -0.00093207486804502808 0 0.0049799816983096459 -0.00097667570933570799 0 0.0049891610100288942 -0.0010231427121683888 0 0.0050117643543330587 -0.0010317781147236886 0 0.0049271550513602571 -0.00098440340944496037 0 0.0049799816983096459 -0.00097667570933570799 0 0.0049891610100288942 -0.0010231427121683888 0 0.0049891610100288942 -0.0010231427121683888 0 0.005002583138223736 -0.0010248954577995874 0 0.0049937846938402398 -0.0010180441312705028 0 0.0049891610100288942 -0.0010231427121683888 0 0.0050117643543330587 -0.0010317781147236886 0 0.005002583138223736 -0.0010248954577995874 0 0.0049486129863327609 -0.0010428904978156456 0 0.0050758475842474903 -0.001113524856784001 0 0.0049891610100288942 -0.0010231427121683888 0 0.0048958419517248003 -0.0010919904616350613 0 0.0048849649918302675 -0.0012525654226872326 0 0.0049891610100288942 -0.0010231427121683888 0 0.0048958419517248003 -0.0010919904616350613 0 0.0049233596883231454 -0.0010303117069331543 0 0.0049271550513602571 -0.00098440340944496037 0 0.0049233596883231454 -0.0010303117069331543 0 0.0048638925284531006 -0.0010515145797707856 0 0.0048958419517248003 -0.0010919904616350613 0 0.0049233596883231454 -0.0010303117069331543 0 0.0048638925284531006 -0.0010515145797707856 0 0.0048958419517248003 -0.0010919904616350613 0 0.0048638925284531006 -0.0010515145797707856 0 0.0048311501921022666 -0.0011251523509212889 0 0.0048638925284531006 -0.0010515145797707856 0 0.0048311501921022666 -0.0011251523509212889 0 0.004817082460393681 -0.0010632585076234635 0 0.0048311501921022666 -0.0011251523509212889 0 0.0048849649918302675 -0.0012525654226872326 0 0.0047137275470828834 -0.0011588276885704848 0 0.0048958419517248003 -0.0010919904616350613 0 0.0048311501921022666 -0.0011251523509212889 0 0.0048849649918302675 -0.0012525654226872326 0 0.0048849649918302675 -0.0012525654226872326 0 0.0045671990846923452 -0.0015577484829583205 0 0.0047137275470828834 -0.0011588276885704848 0 0.0049937846938402398 -0.0010180441312705028 0 0.0050022211724781857 -0.0010198835794265248 0 0.00500143656046522 -0.0010165319236956408 0 0.005002583138223736 -0.0010248954577995874 0 0.0049937846938402398 -0.0010180441312705028 0 0.0050022211724781857 -0.0010198835794265248 0 0.0049937846938402398 -0.0010180441312705028 0 0.00500143656046522 -0.0010165319236956408 0 0.0049900114127479234 -0.0010221157768850444 0 0.00500143656046522 -0.0010165319236956408 0 0.0049900114127479234 -0.0010221157768850444 0 0.005000061883731555 -0.0010202159390414573 0 0.0050119428986773922 -0.0010150141210596175 0 0.00500143656046522 -0.0010165319236956408 0 0.005000061883731555 -0.0010202159390414573 0 0.0049900114127479234 -0.0010221157768850444 0 0.005000061883731555 -0.0010202159390414573 0 0.0049855702274906859 -0.0010286187695006867 0 0.0049937846938402398 -0.0010180441312705028 0 0.0049900114127479234 -0.0010221157768850444 0 0.0049669224773670412 -0.0010302031847098502 0 0.0048849649918302675 -0.0012525654226872326 0 0.0045890838866560549 -0.0017521432569714943 0 0.0045671990846923452 -0.0015577484829583205 0 0.0050758475842474903 -0.001113524856784001 0 0.003746610464119407 -0.0013255664822361701 0 0.003746610464119407 -0.0013255664822361701 0 0.0031916332970227715 -0.00072015979976859093 0 0.0045890838866560549 -0.0017521432569714943 0 0.0045333469508591134 -0.0017187699075481601 0 0.0045671990846923452 -0.0015577484829583205 0 0.0049900114127479234 -0.0010221157768850444 0 0.0049669224773670412 -0.0010302031847098502 0 0.0049855702274906859 -0.0010286187695006867 0 0.0049669224773670412 -0.0010302031847098502 0 0.0049801823609632598 -0.001041866258088536 0 0.0049855702274906859 -0.0010286187695006867 0 0.003746610464119407 -0.0013255664822361701 0 0.0039776626406479963 -0.0014945384081846214 0 0.0018122834401408544 -0.0006354711635032078 0 0.0018023564823861666 -0.00063365661361231387 0 0.0019000728167714704 -0.00065263416912630272 0 0.0015184499334824852 -0.00047303739683229737 0 0.0025128410488725219 -0.00091476094335649202 0 0.0018930356867116298 -0.0007138764168808224 0 0.0018122834401408544 -0.0006354711635032078 0 0.0019000728167714704 -0.00065263416912630272 0 0.0031916332970227715 -0.00072015979976859093 0 0.004317663317779199 -0.00080927136414194736 0 0.0049801823609632598 -0.001041866258088536 0 0.0049855702274906859 -0.0010286187695006867 0 0.0050033957652410319 -0.0010276913370629891 0 0.005000061883731555 -0.0010202159390414573 0 0.0049855702274906859 -0.0010286187695006867 0 0.0050033957652410319 -0.0010276913370629891 0 0.0050386161968866685 -0.0010101743725235777 0 0.0050609410694297313 -0.0010362281337605857 0 0.0050383166113471597 -0.0010158324056225433 0 0.0050033957652410319 -0.0010276913370629891 0 0.0050117154291563415 -0.0010418132612229521 0 0.0049801823609632598 -0.001041866258088536 0 0.0050033957652410319 -0.0010276913370629891 0 0.0050117154291563415 -0.0010418132612229521 0 0.0050383166113471597 -0.0010158324056225433 0 0.0050532976256440227 -0.0010130684145961283 0 0.0050653405652610339 -0.0010058983451416426 0 0.0050924641888401871 -0.00099533770734669099 0 0.0050532976256440227 -0.0010130684145961283 0 0.0050653405652610339 -0.0010058983451416426 0 0.0050924641888401871 -0.00099533770734669099 0 0.0050653405652610339 -0.0010058983451416426 0 0.0050814657833770701 -0.0010083765300667735 0 0.0050653405652610339 -0.0010058983451416426 0 0.0050726828426013665 -0.0010087388999788023 0 0.0050814657833770701 -0.0010083765300667735 0 0.0050609410694297313 -0.0010362281337605857 0 0.004317663317779199 -0.00080927136414194736 0 0.0049801823609632598 -0.001041866258088536 0 0.0050117154291563415 -0.0010418132612229521 0 0.0049971219008070385 -0.0010557918860302194 0 0.004317663317779199 -0.00080927136414194736 0 0.0051521156207170113 -0.0010539283395690729 0 0.0018970132047474403 -0.00066715487923236984 0 0.001871066308694102 -0.00073414950986268378 0 0.001833454299729674 -0.0006752474490813084 0 0.0050726828426013665 -0.0010087388999788023 0 0.0050814657833770701 -0.0010083765300667735 0 0.0050895113977104381 -0.0010108620120080224 0 0.0050965829510532011 -0.0010181629312149207 0 0.0050814657833770701 -0.0010083765300667735 0 0.0050895113977104381 -0.0010108620120080224 0 0.0050615409591202622 -0.00094494850762508848 0 0.0050869424571313975 -0.00097955796673508569 0 0.005061151983876409 -0.00094307998080723598 0 0.0050869424571313975 -0.00097955796673508569 0 0.0050965829510532011 -0.0010181629312149207 0 0.0050895113977104381 -0.0010108620120080224 0 0.0050560886396954713 -0.00095665192477254889 0 0.0051521156207170113 -0.0010539283395690729 0 0.0050510738622176216 -0.00093799702876872892 0 0.005061151983876409 -0.00094307998080723598 0 0.0050541284768468335 -0.00093932470095166266 0 0.004317663317779199 -0.00080927136414194736 0 0.0033216655403859666 -0.00088705692208226362 0 0.0050615409591202622 -0.00094494850762508848 0 0.005061151983876409 -0.00094307998080723598 0 0.0050541284768468335 -0.00093932470095166266 0 0.0018970132047474403 -0.00066715487923236984 0 0.0018687055313602525 -0.00076963912446658235 0 0.001871066308694102 -0.00073414950986268378 0 0.001871066308694102 -0.00073414950986268378 0 0.0018004905915259138 -0.0007401208096405274 0 0.0017854818784895756 -0.00080755246008324462 0 0.001871066308694102 -0.00073414950986268378 0 0.0018004905915259138 -0.0007401208096405274 0 0.001833454299729674 -0.0006752474490813084 0 0.0018004905915259138 -0.0007401208096405274 0 0.0017472936525465979 -0.0007788453043051539 0 0.0017643892433329854 -0.00071587031670107472 0 0.0018004905915259138 -0.0007401208096405274 0 0.0017854818784895756 -0.00080755246008324462 0 0.0017472936525465979 -0.0007788453043051539 0 0.0017119986796647604 -0.00085104403611542707 0 0.0017854818784895756 -0.00080755246008324462 0 0.0017472936525465979 -0.0007788453043051539 0 0.0016769620639085321 -0.00078609374022799866 0 0.0017643892433329854 -0.00071587031670107472 0 0.0016883731892440297 -0.00068055782332789353 0 0.0017119986796647604 -0.00085104403611542707 0 0.0017472936525465979 -0.0007788453043051539 0 0.0016769620639085321 -0.00078609374022799866 0 0.0016769620639085321 -0.00078609374022799866 0 0.0016883731892440297 -0.00068055782332789353 0 0.0016076278451201814 -0.00075733872807585555 0 0.0017472936525465979 -0.0007788453043051539 0 0.0016769620639085321 -0.00078609374022799866 0 0.0017643892433329854 -0.00071587031670107472 0 0.0016883731892440297 -0.00068055782332789353 0 0.0018023564823861666 -0.00063365661361231387 0 0.0016367495029373535 -0.00051986551552082871 0 0.0017643892433329854 -0.00071587031670107472 0 0.0016883731892440297 -0.00068055782332789353 0 0.0018023564823861666 -0.00063365661361231387 0 0.0018122834401408544 -0.0006354711635032078 0 0.0018023564823861666 -0.00063365661361231387 0 0.001833454299729674 -0.0006752474490813084 0 0.0018122834401408544 -0.0006354711635032078 0 0.0018970132047474403 -0.00066715487923236984 0 0.001833454299729674 -0.0006752474490813084 0 0.0018004905915259138 -0.0007401208096405274 0 0.0017643892433329854 -0.00071587031670107472 0 0.001833454299729674 -0.0006752474490813084 0 0.0017643892433329854 -0.00071587031670107472 0 0.0018023564823861666 -0.00063365661361231387 0 0.001833454299729674 -0.0006752474490813084 0 0.0014543457564238959 -0.000787329238807865 0 0.0014848540777137893 -0.00077624432161622122 0 0.0014896454727636038 -0.00076520638577955873 0 0.0014605256245465294 -0.00082135125969282497 0 0.0014369144422628226 -0.0006968687475033085 0 0.0014751220398918465 -0.00078949175291982894 0 0.0014848540777137893 -0.00077624432161622122 0 0.0015032127766846121 -0.00078136561799129953 0 0.0014751220398918465 -0.00078949175291982894 0 0.0014543457564238959 -0.000787329238807865 0 0.0014848540777137893 -0.00077624432161622122 0 0.0016883731892440297 -0.00068055782332789353 0 0.0015683020187111222 -0.0006833414270483283 0 0.0016367495029373535 -0.00051986551552082871 0 0.0014848540777137893 -0.00077624432161622122 0 0.0015032127766846121 -0.00078136561799129953 0 0.0014993091821673061 -0.00076765715494689401 0 0.0016883731892440297 -0.00068055782332789353 0 0.0015683020187111222 -0.0006833414270483283 0 0.0016076278451201814 -0.00075733872807585555 0 0.0015104491484470703 -0.00083470043451508164 0 0.0014534870442185217 -0.00071806367472165562 0 0.0014927256327991565 -0.00083990259383085798 0 0.0015683020187111222 -0.0006833414270483283 0 0.0016076278451201814 -0.00075733872807585555 0 0.0016769620639085321 -0.00078609374022799866 0 0.0016076278451201814 -0.00075733872807585555 0 0.0015852433532180979 -0.00082203202283416955 0 0.0014927256327991565 -0.00083990259383085798 0 0.0016076278451201814 -0.00075733872807585555 0 0.0015852433532180979 -0.00082203202283416955 0 0.0014927256327991565 -0.00083990259383085798 0 0.0015032127766846121 -0.00078136561799129953 0 0.0014745770737475484 -0.00081061982853707505 0 0.0014927256327991565 -0.00083990259383085798 0 0.0014745770737475484 -0.00081061982853707505 0 0.0014217403519998992 -0.0008195381432178669 0 0.0014751220398918465 -0.00078949175291982894 0 0.0015032127766846121 -0.00078136561799129953 0 0.0014745770737475484 -0.00081061982853707505 0 0.0014751220398918465 -0.00078949175291982894 0 0.0014745770737475484 -0.00081061982853707505 0 0.0014582705304985496 -0.0007955921519414538 0 0.0014745770737475484 -0.00081061982853707505 0 0.0014582705304985496 -0.0007955921519414538 0 0.0014217403519998992 -0.0008195381432178669 0 0.0014543457564238959 -0.000787329238807865 0 0.0014582705304985496 -0.0007955921519414538 0 0.0014382597508523164 -0.00078850574590789253 0 0.0014751220398918465 -0.00078949175291982894 0 0.0014543457564238959 -0.000787329238807865 0 0.0014582705304985496 -0.0007955921519414538 0 0.0014217403519998992 -0.0008195381432178669 0 0.0014382597508523164 -0.00078850574590789253 0 0.0011059315749400488 -0.00054782473404174485 0 -0.0014247471247432692 -0.00068022687108980524 0 -0.0012118017653525608 -0.00057222088294433821 0 -0.0015116991272605428 -0.00055747174768330029 0 -0.001374118405210294 -0.00081129474046781223 0 -0.0014247471247432692 -0.00068022687108980524 0 -0.0012118017653525608 -0.00057222088294433821 0 0.0014582705304985496 -0.0007955921519414538 0 0.0014217403519998992 -0.0008195381432178669 0 0.0014382597508523164 -0.00078850574590789253 0 -0.0015116991272605428 -0.00055747174768330029 0 -0.0015340089751631268 -0.00032727788344134921 0 -0.0017280191793761608 -0.00064721790429328604 0 -0.0010286019972953239 -0.00044100079604980072 0 -0.0019446631260416627 -0.00018720660326135654 0 -0.0012118017653525608 -0.00057222088294433821 0 -0.0015116991272605428 -0.00055747174768330029 0 -0.0015340089751631268 -0.00032727788344134921 0 -0.001418959146215095 -0.00020385922303645714 0 -0.0016488748603497808 -0.0004567148045037486 0 -0.0016017718463867054 -0.00050141522553766977 0 -0.0010286019972953239 -0.00044100079604980072 0 -0.0019069331450240414 -0.00045024944922104887 0 -0.0015939174416903584 -0.0007756107684938027 0 -0.0015116991272605428 -0.00055747174768330029 0 -0.0017280191793761608 -0.00064721790429328604 0 -0.0015939174416903584 -0.0007756107684938027 0 -0.0014247471247432692 -0.00068022687108980524 0 -0.0015116991272605428 -0.00055747174768330029 0 -0.0012118017653525608 -0.00057222088294433821 0 -0.0015340089751631268 -0.00032727788344134921 0 -0.0015045498827808801 -0.00028041698658758378 0 -0.0011781886208627598 -0.00032462731988016388 0 -0.0012728891695504554 -0.00029974049818903722 0 -0.0012715841618577968 -0.00036496814972665265 0 -0.0010286019972953239 -0.00044100079604980072 0 -0.00046934152885422676 -0.00047318715769015203 0 -0.0011781886208627598 -0.00032462731988016388 0 -0.0011668229125838874 -0.00030377333987789375 0 -0.0012728891695504554 -0.00029974049818903722 0 0.0014543457564238959 -0.000787329238807865 0 0.0014382597508523164 -0.00078850574590789253 0 0.0014753788173000964 -0.00080328351700096581 0 0.00028035021191813355 -0.00075680487243152191 0 -0.00046934152885422676 -0.00047318715769015203 0 0.0015058994045584737 -0.00074272987211988382 0 0.0011000505693741997 -0.00070429650807070181 0 0.0014382597508523164 -0.00078850574590789253 0 0.0011059315749400488 -0.00054782473404174485 0 0.0012227520423712674 -0.00034591876635692228 0 0.0014543457564238959 -0.000787329238807865 0 0.0014753788173000964 -0.00080328351700096581 0 0.0014568866566173596 -0.00080479617334137509 0 0.0014753788173000964 -0.00080328351700096581 0 0.0014606683182532606 -0.00083454620361678676 0 0.0014568866566173596 -0.00080479617334137509 0 -0.00046934152885422676 -0.00047318715769015203 0 -0.00070368446677137643 -0.00044240184486612143 0 0.00010112537565547287 -0.00086739489401202517 0 0.00018255652060086806 -0.0007363259617154651 0 -9.7489424116630719e-05 -0.00067211196306392763 0 -0.00046934152885422676 -0.00047318715769015203 0 0.0011000505693741997 -0.00070429650807070181 0 0.0011000505693741997 -0.00070429650807070181 0 0.00062747013535250848 -0.0006330752226840668 0 0.00018255652060086806 -0.0007363259617154651 0 8.6974858318375993e-05 -0.00050843610050911538 0 -9.7489424116630719e-05 -0.00067211196306392763 0 0.001389451800066887 -0.00096949235017455165 0 0.0013464236737177181 -0.00087052541033520313 0 0.0014570841180512318 -0.00086609867631000565 0 0.0011000505693741997 -0.00070429650807070181 0 0.0020076719215924728 -0.001172220286216752 0 0.0014753788173000964 -0.00080328351700096581 0 0.0014694346356129361 -0.00084046522801178869 0 0.0014606683182532606 -0.00083454620361678676 0 0.0020076719215924728 -0.001172220286216752 0 0.0025164499979232879 -0.0013159858857732197 0 0.0015018925159880655 -0.00075985437445802797 0 0.0014896454727636038 -0.00076520638577955873 0 0.0014993091821673061 -0.00076765715494689401 0 0.0025164499979232879 -0.0013159858857732197 0 0.0014369144422628226 -0.0006968687475033085 0 0.0014848540777137893 -0.00077624432161622122 0 0.0014896454727636038 -0.00076520638577955873 0 0.0014993091821673061 -0.00076765715494689401 0 0.0015032127766846121 -0.00078136561799129953 0 0.0014993091821673061 -0.00076765715494689401 0 0.0015136131307737822 -0.00076335937398692782 0 0.0014534870442185217 -0.00071806367472165562 0 0.0025128410488725219 -0.00091476094335649202 0 0.0015018925159880655 -0.00075985437445802797 0 0.0014993091821673061 -0.00076765715494689401 0 0.0015136131307737822 -0.00076335937398692782 0 0.0025164499979232879 -0.0013159858857732197 0 0.0025128410488725219 -0.00091476094335649202 0 0.0038564650852290702 -0.001771543091859858 0 0.0044483319328780723 -0.0021384688609762952 0 0.0041777124615546531 -0.0016326359256923931 0 0.003746610464119407 -0.0013255664822361701 0 0.0025128410488725219 -0.00091476094335649202 0 0.0044483319328780723 -0.0021384688609762952 0 0.0041777124615546531 -0.0016326359256923931 0 0.0043709684667588419 -0.0016359698239306376 0 0.0044483319328780723 -0.0021384688609762952 0 0.0045333469508591134 -0.0017187699075481601 0 0.0043709684667588419 -0.0016359698239306376 0 0.0045937871348164967 -0.0017722208338746158 0 0.0044483319328780723 -0.0021384688609762952 0 0.0045333469508591134 -0.0017187699075481601 0 0.0045333469508591134 -0.0017187699075481601 0 0.0043709684667588419 -0.0016359698239306376 0 0.0045671990846923452 -0.0015577484829583205 0 0.0043709684667588419 -0.0016359698239306376 0 0.0045671990846923452 -0.0015577484829583205 0 0.004301403542718206 -0.0014200357184133356 0 0.0045723878553059795 -0.0015415301208412785 0 0.004505956012741767 -0.0010926528393919172 0 0.0045671990846923452 -0.0015577484829583205 0 0.004301403542718206 -0.0014200357184133356 0 0.0042879187149621719 -0.00096614557437221804 0 0.0041777124615546531 -0.0016326359256923931 0 0.0043709684667588419 -0.0016359698239306376 0 0.004301403542718206 -0.0014200357184133356 0 0.0041777124615546531 -0.0016326359256923931 0 0.004301403542718206 -0.0014200357184133356 0 0.0040835143815852962 -0.0014467496612692793 0 0.004301403542718206 -0.0014200357184133356 0 0.0040835143815852962 -0.0014467496612692793 0 0.0041681289411381163 -0.0012295502619768816 0 0.0026760855364550513 -0.0012834194715570871 0 0.0027039561247960034 -0.0013011202987596978 0 0.0027135995213395298 -0.0012276487198501775 0 0.0038564650852290702 -0.001771543091859858 0 0.0040835143815852962 -0.0014467496612692793 0 0.0038958848295902225 -0.0013400381091783018 0 0.0025613851579232056 -0.0017675667923522692 0 0.0027272410291626433 -0.0014918113697055663 0 0.0025115628331794995 -0.0014079803544092176 0 0.0025164499979232879 -0.0013159858857732197 0 0.0032915438515185814 -0.0013597810287060432 0 0.0020076719215924728 -0.001172220286216752 0 0.0032915438515185814 -0.0013597810287060432 0 0.0038564650852290702 -0.001771543091859858 0 0.0041777124615546531 -0.0016326359256923931 0 0.0040835143815852962 -0.0014467496612692793 0 0.0040835143815852962 -0.0014467496612692793 0 0.0038958848295902225 -0.0013400381091783018 0 0.0041681289411381163 -0.0012295502619768816 0 0.0027272410291626433 -0.0014918113697055663 0 0.0027274446668825551 -0.0011915837402581922 0 0.0029627398753766837 -0.00090801735029346037 0 0.0032915438515185814 -0.0013597810287060432 0 0.0033898927583287017 -0.00085117517629143644 0 0.0038958848295902225 -0.0013400381091783018 0 0.0041681289411381163 -0.0012295502619768816 0 0.0041062803596237044 -0.00083977163954324042 0 0.0032915438515185814 -0.0013597810287060432 0 0.0042340447961229022 -0.00082498539879424359 0 0.0037676831443370375 -0.0014111197977195579 0 0.0041062803596237044 -0.00083977163954324042 0 0.0038198264193783104 -0.00078247946990578679 0 0.0027272410291626433 -0.0014918113697055663 0 0.0027274446668825551 -0.0011915837402581922 0 0.0025115628331794995 -0.0014079803544092176 0 0.004301403542718206 -0.0014200357184133356 0 0.0041681289411381163 -0.0012295502619768816 0 0.0042879187149621719 -0.00096614557437221804 0 0.0041681289411381163 -0.0012295502619768816 0 0.0042879187149621719 -0.00096614557437221804 0 0.0041062803596237044 -0.00083977163954324042 0 0.0041062803596237044 -0.00083977163954324042 0 0.0038198264193783104 -0.00078247946990578679 0 0.0040424995270324461 -0.00042891156306584913 0 0.0042879187149621719 -0.00096614557437221804 0 0.0041062803596237044 -0.00083977163954324042 0 0.0040424995270324461 -0.00042891156306584913 0 0.0048311501921022666 -0.0011251523509212889 0 0.0047137275470828834 -0.0011588276885704848 0 0.004817082460393681 -0.0010632585076234635 0 0.004505956012741767 -0.0010926528393919172 0 0.0044306007842829344 -0.00071133214210804285 0 0.0047137275470828834 -0.0011588276885704848 0 0.004817082460393681 -0.0010632585076234635 0 0.0048456480006274297 -0.00098493359396262096 0 0.004817082460393681 -0.0010632585076234635 0 0.004863639737683674 -0.0010102447912692879 0 0.0048456480006274297 -0.00098493359396262096 0 0.0048638925284531006 -0.0010515145797707856 0 0.004817082460393681 -0.0010632585076234635 0 0.004863639737683674 -0.0010102447912692879 0 0.0027274446668825551 -0.0011915837402581922 0 0.0026293434515836378 -0.00065776440505278073 0 0.0024776082539225415 -0.00090477158798275663 0 0.0027274446668825551 -0.0011915837402581922 0 0.0029627398753766837 -0.00090801735029346037 0 0.0030888671167023274 -0.00057524608142606485 0 0.0027450119420103698 -0.0011699680562014985 0 0.0028624823105435479 -0.00067007776900575094 0 0.0026293434515836378 -0.00065776440505278073 0 0.0024464798979045468 -0.0005248629288139104 0 0.0024629405870658936 -0.0003498095728717596 0 0.003768127841392356 -0.00026606033949333463 0 0.0040424995270324461 -0.00042891156306584913 0 0.003750567040043562 6.9549528533428498e-05 0 0.0033326573352935318 -0.0003322784820516759 0 0.0030888671167023274 -0.00057524608142606485 0 0.003475256140960517 3.1072478907815155e-05 0 0.0038198264193783104 -0.00078247946990578679 0 0.003768127841392356 -0.00026606033949333463 0 0.0040424995270324461 -0.00042891156306584913 0 0.0029627398753766837 -0.00090801735029346037 0 0.0033326573352935318 -0.0003322784820516759 0 0.0030888671167023274 -0.00057524608142606485 0 0.0028624823105435479 -0.00067007776900575094 0 0.0029612170708086414 -2.4715365206585459e-05 0 0.0033898927583287017 -0.00085117517629143644 0 0.0035475533238871386 -0.00026342265716953084 0 0.0048927965801014049 -0.0009746795007786218 0 0.0048456480006274297 -0.00098493359396262096 0 0.0049132623333427716 -0.00095217603970586988 0 0.0048927965801014049 -0.0009746795007786218 0 0.004863639737683674 -0.0010102447912692879 0 0.0048456480006274297 -0.00098493359396262096 0 0.0021093742772542914 -0.00068063664235746548 0 0.0018806547818111996 -0.00084634941070709934 0 0.0018444683025066867 -0.0005998798929207767 0 0.0021093742772542914 -0.00068063664235746548 0 0.002040186391264636 -0.00044015592990009021 0 0.0018444683025066867 -0.0005998798929207767 0 0.0021093742772542914 -0.00068063664235746548 0 0.002040186391264636 -0.00044015592990009021 0 0.0023078813299713327 -0.00042543795667142364 0 0.0023078813299713327 -0.00042543795667142364 0 0.0024464798979045468 -0.0005248629288139104 0 0.0024629405870658936 -0.0003498095728717596 0 0.0023078813299713327 -0.00042543795667142364 0 0.0024464798979045468 -0.0005248629288139104 0 0.0023845502882734182 -0.00067508452857798472 0 0.0026293434515836378 -0.00065776440505278073 0 0.0024464798979045468 -0.0005248629288139104 0 0.0023845502882734182 -0.00067508452857798472 0 0.0021093742772542914 -0.00068063664235746548 0 0.0023078813299713327 -0.00042543795667142364 0 0.0023845502882734182 -0.00067508452857798472 0 0.0023845502882734182 -0.00067508452857798472 0 0.0024776082539225415 -0.00090477158798275663 0 0.0022663115000863062 -0.00090156132917681032 0 0.0021093742772542914 -0.00068063664235746548 0 0.0023845502882734182 -0.00067508452857798472 0 0.0022663115000863062 -0.00090156132917681032 0 0.0026293434515836378 -0.00065776440505278073 0 0.0023845502882734182 -0.00067508452857798472 0 0.0024776082539225415 -0.00090477158798275663 0 0.0024776082539225415 -0.00090477158798275663 0 0.0022663115000863062 -0.00090156132917681032 0 0.0023710166205623212 -0.0011782931729636544 0 0.0022663115000863062 -0.00090156132917681032 0 0.0020501205163656272 -0.00092098431864790018 0 0.0020824903218170068 -0.0011519357898143109 0 0.0021093742772542914 -0.00068063664235746548 0 0.0022663115000863062 -0.00090156132917681032 0 0.0020501205163656272 -0.00092098431864790018 0 0.0021093742772542914 -0.00068063664235746548 0 0.0020501205163656272 -0.00092098431864790018 0 0.0018806547818111996 -0.00084634941070709934 0 0.0020501205163656272 -0.00092098431864790018 0 0.001912130412461693 -0.0010329054855285965 0 0.0018806547818111996 -0.00084634941070709934 0 0.0020501205163656272 -0.00092098431864790018 0 0.001912130412461693 -0.0010329054855285965 0 0.0020824903218170068 -0.0011519357898143109 0 0.001912130412461693 -0.0010329054855285965 0 0.0020824903218170068 -0.0011519357898143109 0 0.0018428561240251577 -0.0012331702165431144 0 0.0020824903218170068 -0.0011519357898143109 0 0.0023710166205623212 -0.0011782931729636544 0 0.0022139063136417119 -0.0015469878868142671 0 0.0020824903218170068 -0.0011519357898143109 0 0.0022139063136417119 -0.0015469878868142671 0 0.0018756048459425282 -0.0013188525775594219 0 0.0020824903218170068 -0.0011519357898143109 0 0.0018428561240251577 -0.0012331702165431144 0 0.0018756048459425282 -0.0013188525775594219 0 0.0023710166205623212 -0.0011782931729636544 0 0.0025115628331794995 -0.0014079803544092176 0 0.0022139063136417119 -0.0015469878868142671 0 0.0027274446668825551 -0.0011915837402581922 0 0.0024776082539225415 -0.00090477158798275663 0 0.0023710166205623212 -0.0011782931729636544 0 0.0022663115000863062 -0.00090156132917681032 0 0.0020824903218170068 -0.0011519357898143109 0 0.0023710166205623212 -0.0011782931729636544 0 0.0027274446668825551 -0.0011915837402581922 0 0.0023710166205623212 -0.0011782931729636544 0 0.0025115628331794995 -0.0014079803544092176 0 0.0013464236737177181 -0.00087052541033520313 0 0.0014570841180512318 -0.00086609867631000565 0 0.0013798729981510953 -0.0008175598678841268 0 0.0020076719215924728 -0.001172220286216752 0 0.0018841661378503247 -0.0012396647673691755 0 0.0025613851579232056 -0.0017675667923522692 0 0.0025115628331794995 -0.0014079803544092176 0 0.0022139063136417119 -0.0015469878868142671 0 0.0013464236737177181 -0.00087052541033520313 0 0.0013798729981510953 -0.0008175598678841268 0 0.0012997137314088435 -0.00076930222608707433 0 0.0018841661378503247 -0.0012396647673691755 0 0.0011482504450921391 -0.00078450442045654414 0 0.00062747013535250848 -0.0006330752226840668 0 0.0011482504450921391 -0.00078450442045654414 0 8.6974858318375993e-05 -0.00050843610050911538 0 -0.0001088542052264251 -0.00042882379344273577 0 -8.2598084877766132e-06 -0.00026880535600741072 0 -0.0001088542052264251 -0.00042882379344273577 0 -0.00031021021924343233 -0.00046942549551533182 0 -0.00025179817057576517 -0.00011274426301061157 0 -0.00031021021924343233 -0.00046942549551533182 0 -0.00025179817057576517 -0.00011274426301061157 0 -0.00053189310477821299 -0.00025113902416356914 0 0.0014439046210230231 -0.0010743566512699955 0 0.0018428561240251577 -0.0012331702165431144 0 0.0017431386599202454 -0.00099704494632429095 0 0.00055213665301922913 -0.00058355456325625632 0 0.0011482504450921391 -0.00078450442045654414 0 0.0014439046210230231 -0.0010743566512699955 0 0.0018428561240251577 -0.0012331702165431144 0 0.0018796299007272908 -0.0013103464441870229 0 -0.0001088542052264251 -0.00042882379344273577 0 -0.00025179817057576517 -0.00011274426301061157 0 -8.2598084877766132e-06 -0.00026880535600741072 0 0.0013654006278081842 -0.001089413856009643 0 0.0011482504450921391 -0.00078450442045654414 0 0.001912130412461693 -0.0010329054855285965 0 0.0018428561240251577 -0.0012331702165431144 0 0.0017431386599202454 -0.00099704494632429095 0 0.001912130412461693 -0.0010329054855285965 0 0.0017431386599202454 -0.00099704494632429095 0 0.0018806547818111996 -0.00084634941070709934 0 0.0017431386599202454 -0.00099704494632429095 0 0.0018806547818111996 -0.00084634941070709934 0 0.0016754274591866921 -0.00081404896554716918 0 0.0018806547818111996 -0.00084634941070709934 0 0.0016754274591866921 -0.00081404896554716918 0 0.0018444683025066867 -0.0005998798929207767 0 0.0014439046210230231 -0.0010743566512699955 0 0.0017431386599202454 -0.00099704494632429095 0 0.0016754274591866921 -0.00081404896554716918 0 0.0014439046210230231 -0.0010743566512699955 0 0.0014848512006761052 -0.00051483266903064903 0 0.00088329395173212958 -0.00078728459729843691 0 0.0014439046210230231 -0.0010743566512699955 0 0.0016754274591866921 -0.00081404896554716918 0 0.0014848512006761052 -0.00051483266903064903 0 0.0014848512006761052 -0.00051483266903064903 0 0.0018444683025066867 -0.0005998798929207767 0 0.001840467833372337 -0.00032579914402617124 0 0.0016754274591866921 -0.00081404896554716918 0 0.0014848512006761052 -0.00051483266903064903 0 0.0018444683025066867 -0.0005998798929207767 0 0.002040186391264636 -0.00044015592990009021 0 0.0018444683025066867 -0.0005998798929207767 0 0.001840467833372337 -0.00032579914402617124 0 -0.00015478337735388176 -9.688066854934861e-08 0 0.00020155922340013731 -0.00036083596736786723 0 -0.00015307824406393487 -1.6589400704145015e-06 0 0.00088329395173212958 -0.00078728459729843691 0 0.0009708177056771761 -9.8434888165329477e-05 0 0.0014848512006761052 -0.00051483266903064903 0 0.00088329395173212958 -0.00078728459729843691 0 0.0009708177056771761 -9.8434888165329477e-05 0 -0.00025179817057576517 -0.00011274426301061157 0 -0.00050687396137314171 4.0097718816480926e-05 0 -0.00053189310477821299 -0.00025113902416356914 0 0.00055213665301922913 -0.00058355456325625632 0 0.00020155922340013731 -0.00036083596736786723 0 -0.00050687396137314171 4.0097718816480926e-05 0 -0.00075240944613924111 -1.1699599701870815e-07 0 -0.00053189310477821299 -0.00025113902416356914 0 -0.00015665881700240773 1.0576877773284618e-07 0 -0.00050687396137314171 4.0097718816480926e-05 0 -0.00075240944613924111 -1.1699599701870815e-07 0 -0.0013029635550230578 2.462989819108935e-07 0 -0.001507519405898499 2.0086784087358779e-05 0 -0.001534189989473645 4.1747646214906942e-05 0 -0.00075444737016223311 1.2620440447122314e-08 0 -0.0010070821823569254 -9.1514049842015936e-05 0 -0.00075511841074332113 -2.7310360490800749e-07 0 -0.0013029635550230578 2.462989819108935e-07 0 -0.001507519405898499 2.0086784087358779e-05 0 -0.00086105421578146885 -0.00026613134764715739 0 -0.0010070821823569254 -9.1514049842015936e-05 0 -0.0014086569479288928 -5.9126069664152847e-05 0 -0.001507519405898499 2.0086784087358779e-05 0 -0.0015162940134437967 -2.3857685444832294e-05 0 -0.001507519405898499 2.0086784087358779e-05 0 -0.0015162940134437967 -2.3857685444832294e-05 0 -0.001534189989473645 4.1747646214906942e-05 0 -0.0013029635550230578 2.462989819108935e-07 0 -0.001534189989473645 4.1747646214906942e-05 0 -0.0018510741179685716 -2.2841466578202531e-07 0 -0.0015162940134437967 -2.3857685444832294e-05 0 -0.001534189989473645 4.1747646214906942e-05 0 -0.0016072485068840136 -3.4198042514949352e-05 0 -0.001534189989473645 4.1747646214906942e-05 0 -0.0018510741179685716 -2.2841466578202531e-07 0 -0.0016072485068840136 -3.4198042514949352e-05 0 -0.0018537207331386068 8.3936993421828659e-07 0 -0.0019379559746456857 -8.3786756307119103e-07 0 -0.0018252441948017207 -8.0641411854831831e-05 0 -0.0018517581420707206 -1.1528985800719022e-08 0 -0.001676608185565214 -0.0001312555916641776 0 -0.0018510741179685716 -2.2841466578202531e-07 0 -0.0016072485068840136 -3.4198042514949352e-05 0 -0.0015210124566319451 -0.00019406401113414979 0 -0.001940010704381601 7.9420339284733683e-09 0 -0.0020833647808776294 -3.3738816174690279e-05 0 -0.0019404116264639202 -1.2524874483922882e-07 0 -0.0021475700477215868 -3.5376017643151101e-06 0 -0.0023837201985738767 2.8469860527701984e-05 0 -0.0019404116264639202 -1.2524874483922882e-07 0 -0.0021475700477215868 -3.5376017643151101e-06 0 -0.0027644107500407701 1.2273607364373056e-07 0 -0.0019379559746456857 -8.3786756307119103e-07 0 -0.0017961376394174731 -0.00012640653470591854 0 -0.0018252441948017207 -8.0641411854831831e-05 0 -0.0021475700477215868 -3.5376017643151101e-06 0 -0.002206597512470744 2.2263384347979641e-05 0 -0.0023837201985738767 2.8469860527701984e-05 0 -0.0016072485068840136 -3.4198042514949352e-05 0 -0.0015210124566319451 -0.00019406401113414979 0 -0.0015339735297082049 -8.5725194723594952e-05 0 -0.0015162940134437967 -2.3857685444832294e-05 0 -0.0016072485068840136 -3.4198042514949352e-05 0 -0.0015339735297082049 -8.5725194723594952e-05 0 -0.0024580936438389875 -6.5572565404330101e-05 0 -0.0026163525906010513 -3.4643486875741343e-05 0 -0.0021475700477215868 -3.5376017643151101e-06 0 -0.0027644107500407701 1.2273607364373056e-07 0 -0.0023830386228308503 -6.193712679275957e-06 0 -0.0027644107500407701 1.2273607364373056e-07 0 -0.0023830386228308503 -6.193712679275957e-06 0 -0.0030339955426429222 2.3431618224969366e-05 0 -0.002206597512470744 2.2263384347979641e-05 0 -0.0023837201985738767 2.8469860527701984e-05 0 -0.0023656801144699732 0.000155836355518071 0 -0.0030021291965205057 -0.00011073104657463493 0 -0.0030594626561676256 -1.7023454511515209e-05 0 -0.0030264504300192342 -2.1277860084900856e-05 0 -0.0026163525906010513 -3.4643486875741343e-05 0 -0.0029931777644627224 5.4370994130722515e-05 0 -0.0026163525906010513 -3.4643486875741343e-05 0 -0.0026472564020927126 8.818340493693135e-05 0 -0.0020833647808776294 -3.3738816174690279e-05 0 -0.0020142118719957179 -6.6308200114310162e-05 0 -0.0017961376394174731 -0.00012640653470591854 0 -0.0016019327784808505 -0.00020773338420796797 0 -0.0015242315385849009 -0.00029560411284949997 0 -0.001676608185565214 -0.0001312555916641776 0 -0.0015145103897311373 -0.00023916115995342577 0 -0.0014445098775585745 -0.00016706607571935128 0 -0.0015210124566319451 -0.00019406401113414979 0 -0.0014354002209682193 -0.00025284839558581873 0 -0.0017961376394174731 -0.00012640653470591854 0 -0.0018252441948017207 -8.0641411854831831e-05 0 -0.0016019327784808505 -0.00020773338420796797 0 -0.0014086569479288928 -5.9126069664152847e-05 0 -0.0015162940134437967 -2.3857685444832294e-05 0 -0.0014796245469682302 -0.00010445155496142666 0 -0.0014445098775585745 -0.00016706607571935128 0 -0.0015210124566319451 -0.00019406401113414979 0 -0.0014796245469682302 -0.00010445155496142666 0 -0.0015210124566319451 -0.00019406401113414979 0 -0.0015339735297082049 -8.5725194723594952e-05 0 -0.0014796245469682302 -0.00010445155496142666 0 -0.0015162940134437967 -2.3857685444832294e-05 0 -0.0015339735297082049 -8.5725194723594952e-05 0 -0.0014796245469682302 -0.00010445155496142666 0 -0.0014086569479288928 -5.9126069664152847e-05 0 -0.0014445098775585745 -0.00016706607571935128 0 -0.0014796245469682302 -0.00010445155496142666 0 -0.00086105421578146885 -0.00026613134764715739 0 -0.00070368446677137643 -0.00044240184486612143 0 -0.0014086569479288928 -5.9126069664152847e-05 0 -0.0013012378866883222 -0.00018460366828484381 0 -0.0013904561698467152 -0.00018830373551554822 0 -0.0014086569479288928 -5.9126069664152847e-05 0 -0.0014445098775585745 -0.00016706607571935128 0 -0.0013904561698467152 -0.00018830373551554822 0 -0.0001088542052264251 -0.00042882379344273577 0 -0.00031021021924343233 -0.00046942549551533182 0 -9.7489424116630719e-05 -0.00067211196306392763 0 8.6974858318375993e-05 -0.00050843610050911538 0 -0.0001088542052264251 -0.00042882379344273577 0 -9.7489424116630719e-05 -0.00067211196306392763 0 -0.0011668229125838874 -0.00030377333987789375 0 -0.0013012378866883222 -0.00018460366828484381 0 -0.0012728891695504554 -0.00029974049818903722 0 -0.0013012378866883222 -0.00018460366828484381 0 -0.0013564942528871843 -0.0002591974135600777 0 -0.0012728891695504554 -0.00029974049818903722 0 -0.0013012378866883222 -0.00018460366828484381 0 -0.0013564942528871843 -0.0002591974135600777 0 -0.0013904561698467152 -0.00018830373551554822 0 -0.0014445098775585745 -0.00016706607571935128 0 -0.0013904561698467152 -0.00018830373551554822 0 -0.0014354002209682193 -0.00025284839558581873 0 -0.0013564942528871843 -0.0002591974135600777 0 -0.0013904561698467152 -0.00018830373551554822 0 -0.0014354002209682193 -0.00025284839558581873 0 -0.0013564942528871843 -0.0002591974135600777 0 -0.0014354002209682193 -0.00025284839558581873 0 -0.0013695796848118573 -0.00036058283391470468 0 -0.0016019327784808505 -0.00020773338420796797 0 -0.0015242315385849009 -0.00029560411284949997 0 -0.0013695796848118573 -0.00036058283391470468 0 -0.0015145103897311373 -0.00023916115995342577 0 -0.0013782341905382452 -0.0003534593022682344 0 -0.0015242315385849009 -0.00029560411284949997 0 -0.0013695796848118573 -0.00036058283391470468 0 -0.0012773960845369144 -0.00048014161953463741 0 -0.0011781886208627598 -0.00032462731988016388 0 -0.0012715841618577968 -0.00036496814972665265 0 -0.0012773960845369144 -0.00048014161953463741 0 -0.0013564942528871843 -0.0002591974135600777 0 -0.0012728891695504554 -0.00029974049818903722 0 -0.0013695796848118573 -0.00036058283391470468 0 -0.0012728891695504554 -0.00029974049818903722 0 -0.0013695796848118573 -0.00036058283391470468 0 -0.0012715841618577968 -0.00036496814972665265 0 -0.0020142118719957179 -6.6308200114310162e-05 0 -0.0019446631260416627 -0.00018720660326135654 0 -0.002556971491792747 0.00027145803450043113 0 -0.0024949687480100816 0.00014722849195735667 0 -0.0025876128040117812 0.00023128292553640069 0 -0.0013695796848118573 -0.00036058283391470468 0 -0.0012715841618577968 -0.00036496814972665265 0 -0.0012773960845369144 -0.00048014161953463741 0 -0.0031299396787776591 -0.00025780694771617086 0 -0.0019446631260416627 -0.00018720660326135654 0 -0.0025728882881082033 -0.0004282951707532525 0 -0.0024058971243032267 -0.00023785941846884439 0 -0.0023744380377252339 -0.00037319672315525785 0 -0.0021422337787332401 -0.00048766914780614133 0 -0.0023744380377252339 -0.00037319672315525785 0 -0.0023346717461466752 -0.00030563827067690179 0 -0.0019446631260416627 -0.00018720660326135654 0 -0.0019069331450240414 -0.00045024944922104887 0 -0.0024058971243032267 -0.00023785941846884439 0 -0.0023744380377252339 -0.00037319672315525785 0 -0.0023343705887771279 -0.0003056830973070254 0 -0.0019701249884046747 -0.00046913740781677368 0 -0.0019069331450240414 -0.00045024944922104887 0 -0.002556971491792747 0.00027145803450043113 0 -0.0024949687480100816 0.00014722849195735667 0 -0.0024400562986179441 0.00026277489840402941 0 -0.0031299396787776591 -0.00025780694771617086 0 -0.003322950449436461 -7.1882609014119151e-05 0 -0.0031126516023068634 7.6443857957500156e-05 0 -0.0030479321239997048 6.8019950188141345e-05 0 -0.0030594626561676256 -1.7023454511515209e-05 0 -0.003322950449436461 -7.1882609014119151e-05 0 -0.0026472564020927126 8.818340493693135e-05 0 -0.003322950449436461 -7.1882609014119151e-05 0 -0.0037120990850650483 -0.00012325640726660914 0 -0.0042483063070199046 -0.00041048515378118552 0 -0.0042714338288898767 -0.00042514938610856574 0 -0.0042327033201802512 -0.00044056255213629553 0 -0.0034096719439501524 -4.0446374112395819e-05 0 -0.0035878827270720659 -1.3999248567556988e-07 0 -0.0030339955426429222 2.3431618224969366e-05 0 -0.0037120990850650483 -0.00012325640726660914 0 -0.0029931777644627224 5.4370994130722515e-05 0 -0.0039541881510758011 2.844603474972205e-05 0 -0.0040092973915164453 -7.7781405247620244e-05 0 -0.0035892587201660502 -4.028192963515724e-07 0 -0.0037120990850650483 -0.00012325640726660914 0 -0.0035887307288565411 -8.500484867733084e-08 0 -0.0030479321239997048 6.8019950188141345e-05 0 -0.0030594626561676256 -1.7023454511515209e-05 0 -0.0030264504300192342 -2.1277860084900856e-05 0 -0.0027644107500407701 1.2273607364373056e-07 0 -0.0035878827270720659 -1.3999248567556988e-07 0 -0.0030339955426429222 2.3431618224969366e-05 0 -0.0024949687480100816 0.00014722849195735667 0 -0.0024400562986179441 0.00026277489840402941 0 -0.0023656801144699732 0.000155836355518071 0 -0.0023837201985738767 2.8469860527701984e-05 0 -0.0024949687480100816 0.00014722849195735667 0 -0.0023656801144699732 0.000155836355518071 0 -0.00075017511844001621 0.0050848674008823029 0 -0.0003229503719291225 0.0053712743551269536 0 -0.00055785960130902857 0.0046600973315192211 0 -0.00075017511844001621 0.0050848674008823029 0 -0.0003229503719291225 0.0053712743551269536 0 -0.00089873776026786107 0.0054988129252195291 0 -0.0003229503719291225 0.0053712743551269536 0 -1.6484778944172087e-05 0.0046690550200340318 0 0.000266244710543998 0.0052109054450681482 0 0.0032623497081443954 0.0037665344303202063 0 0.0050627711281533245 0.0035211537891705357 0 0.0072510155769171265 0.0020898913310561508 0 0.0071761418723138076 0.0020349547642290575 0 0.0071022817998535291 0.0021617016103330951 0 -0.0003229503719291225 0.0053712743551269536 0 -1.6484778944172087e-05 0.0046690550200340318 0 -0.00055785960130902857 0.0046600973315192211 0 -0.00075017511844001621 0.0050848674008823029 0 -0.00055785960130902857 0.0046600973315192211 0 -0.0010172956812844951 0.0046977971049233678 0 -0.0010172956812844951 0.0046977971049233678 0 -0.001469393448489336 0.0048016297070980667 0 -0.0011439822280491807 0.0050694306192801989 0 -0.00075017511844001621 0.0050848674008823029 0 -0.0010172956812844951 0.0046977971049233678 0 -0.0011439822280491807 0.0050694306192801989 0 -0.001469393448489336 0.0048016297070980667 0 -0.0014785510431786807 0.0052368119780459447 0 -0.0017911851241305468 0.0050820317766921063 0 -0.001469393448489336 0.0048016297070980667 0 -0.0014785510431786807 0.0052368119780459447 0 -0.0011439822280491807 0.0050694306192801989 0 -0.0014785510431786807 0.0052368119780459447 0 -0.0011439822280491807 0.0050694306192801989 0 -0.00089873776026786107 0.0054988129252195291 0 -0.00075017511844001621 0.0050848674008823029 0 -0.0011439822280491807 0.0050694306192801989 0 -0.00089873776026786107 0.0054988129252195291 0 0.0029182199852979158 0.0038992025858130275 0 0.0046353516505226481 0.0025367625150146136 0 0.0073407940723928282 0.0020089297766559145 0 0.0073851475558581892 0.0018956036263552984 0 0.0073353853047534836 0.00191991159164851 0 0.0073407940723928282 0.0020089297766559145 0 0.0074232053276285515 0.001955903187325751 0 0.0073851475558581892 0.0018956036263552984 0 0.0046353516505226481 0.0025367625150146136 0 0.0080074766461916171 0.0022016553253064999 0 -0.0014785510431786807 0.0052368119780459447 0 -0.00089873776026786107 0.0054988129252195291 0 -0.0014089378832765752 0.0055875473452783935 0 0.0073811936471059585 0.0018014470799451597 0 0.0073971368011246973 0.0018242525649374767 0 0.0073167317883713664 0.0017577810036085784 0 0.0073811936471059585 0.0018014470799451597 0 0.0073971368011246973 0.0018242525649374767 0 0.0073851475558581892 0.0018956036263552984 0 0.0073971368011246973 0.0018242525649374767 0 0.0074062935385266447 0.0018316135872258883 0 0.0074087801986290171 0.0018146750504117481 0 0.0073971368011246973 0.0018242525649374767 0 0.0073902200202139124 0.0018045766065372957 0 0.0074087801986290171 0.0018146750504117481 0 0.0073851475558581892 0.0018956036263552984 0 0.0073794792291100976 0.0018693894768245013 0 0.0073353853047534836 0.00191991159164851 0 0.0073971368011246973 0.0018242525649374767 0 0.0073851475558581892 0.0018956036263552984 0 0.0074062935385266447 0.0018316135872258883 0 0.0073851475558581892 0.0018956036263552984 0 0.0073794792291100976 0.0018693894768245013 0 0.0074062935385266447 0.0018316135872258883 0 0.0073794792291100976 0.0018693894768245013 0 0.0073353853047534836 0.00191991159164851 0 0.0073820840256812719 0.0018338916208358656 0 0.0032623497081443954 0.0037665344303202063 0 0.0029182199852979158 0.0038992025858130275 0 0.0073407940723928282 0.0020089297766559145 0 0.0073353853047534836 0.00191991159164851 0 0.0072710446210615069 0.0020021750220399429 0 0.0072510155769171265 0.0020898913310561508 0 0.0073407940723928282 0.0020089297766559145 0 0.0072710446210615069 0.0020021750220399429 0 0.0072274981497670891 0.0021159618082133339 0 0.0073130910020544077 0.0018691299151006333 0 0.0072710446210615069 0.0020021750220399429 0 0.0072731784847559107 0.0019891663337876643 0 0.0071761418723138076 0.0020349547642290575 0 0.0072510155769171265 0.0020898913310561508 0 0.0072710446210615069 0.0020021750220399429 0 0.0071761418723138076 0.0020349547642290575 0 0.0073353853047534836 0.00191991159164851 0 0.0072710446210615069 0.0020021750220399429 0 0.0072731784847559107 0.0019891663337876643 0 0.0073353853047534836 0.00191991159164851 0 0.0072731784847559107 0.0019891663337876643 0 0.0073304783268753355 0.0018725285274731303 0 0.0072731784847559107 0.0019891663337876643 0 0.0071005415136976202 0.002057519414102699 0 0.0072612101390450512 0.0022769420551635956 0 0.0072731784847559107 0.0019891663337876643 0 0.0071005415136976202 0.002057519414102699 0 0.007244896520732993 0.0018837362759397095 0 0.0071005415136976202 0.002057519414102699 0 0.0068611880004895267 0.0021366887574337111 0 0.0069810572013125497 0.0022420365612841895 0 0.0071005415136976202 0.002057519414102699 0 0.006910192949759004 0.0019490611013115897 0 0.007091071919225294 0.0018718981145853283 0 0.0071005415136976202 0.002057519414102699 0 0.0068611880004895267 0.0021366887574337111 0 0.006910192949759004 0.0019490611013115897 0 0.0068611880004895267 0.0021366887574337111 0 0.0069810572013125497 0.0022420365612841895 0 0.0067722246147632736 0.0023600976743045009 0 0.0069810572013125497 0.0022420365612841895 0 0.0069025685522661178 0.0024135611875935265 0 0.0067722246147632736 0.0023600976743045009 0 0.0069810572013125497 0.0022420365612841895 0 0.0069025685522661178 0.0024135611875935265 0 0.0070181649429629745 0.0024653490819095468 0 0.0069810572013125497 0.0022420365612841895 0 0.0072612101390450512 0.0022769420551635956 0 0.0070181649429629745 0.0024653490819095468 0 0.0071005415136976202 0.002057519414102699 0 0.0069810572013125497 0.0022420365612841895 0 0.0072612101390450512 0.0022769420551635956 0 0.0064460804386055909 0.001945406095278557 0 0.0065456598304211907 0.0020586739086178238 0 0.0066497479752671866 0.001841139402135558 0 0.0065456598304211907 0.0020586739086178238 0 0.0067537132589453389 0.0020398847314323718 0 0.0066865218702276148 0.0021927777851517894 0 0.0065456598304211907 0.0020586739086178238 0 0.0067537132589453389 0.0020398847314323718 0 0.0067613355956787939 0.0019037270065225423 0 0.0067537132589453389 0.0020398847314323718 0 0.0067613355956787939 0.0019037270065225423 0 0.006910192949759004 0.0019490611013115897 0 0.0068611880004895267 0.0021366887574337111 0 0.0067537132589453389 0.0020398847314323718 0 0.006910192949759004 0.0019490611013115897 0 0.0068611880004895267 0.0021366887574337111 0 0.0067537132589453389 0.0020398847314323718 0 0.0066865218702276148 0.0021927777851517894 0 0.0067722246147632736 0.0023600976743045009 0 0.0066865218702276148 0.0021927777851517894 0 0.0065004785864871285 0.0024055066425040976 0 0.0068611880004895267 0.0021366887574337111 0 0.0067722246147632736 0.0023600976743045009 0 0.0066865218702276148 0.0021927777851517894 0 0.0065456598304211907 0.0020586739086178238 0 0.0066865218702276148 0.0021927777851517894 0 0.0065004785864871285 0.0024055066425040976 0 0.0063168734305265838 0.0023036275832938897 0 0.0065456598304211907 0.0020586739086178238 0 0.0065004785864871285 0.0024055066425040976 0 0.0060980834973222414 0.0026554757479292611 0 0.0063835909409040046 0.0026369094166291472 0 0.006257344402168262 0.0029217348592954131 0 0.0063168734305265838 0.0023036275832938897 0 0.0065004785864871285 0.0024055066425040976 0 0.0063835909409040046 0.0026369094166291472 0 0.0065004785864871285 0.0024055066425040976 0 0.0063835909409040046 0.0026369094166291472 0 0.0066201698385368107 0.0026045233002607656 0 0.0063835909409040046 0.0026369094166291472 0 0.0066201698385368107 0.0026045233002607656 0 0.0064650680160066622 0.0028131470619832599 0 0.0067722246147632736 0.0023600976743045009 0 0.0065004785864871285 0.0024055066425040976 0 0.0066201698385368107 0.0026045233002607656 0 0.0066201698385368107 0.0026045233002607656 0 0.0067074011512663709 0.0027254006867550944 0 0.0066006680663927971 0.0028638497373458453 0 0.0066201698385368107 0.0026045233002607656 0 0.0066006680663927971 0.0028638497373458453 0 0.0064650680160066622 0.0028131470619832599 0 0.0067722246147632736 0.0023600976743045009 0 0.0066201698385368107 0.0026045233002607656 0 0.0068361737435156103 0.0025981364444900359 0 0.0066201698385368107 0.0026045233002607656 0 0.0067074011512663709 0.0027254006867550944 0 0.0068361737435156103 0.0025981364444900359 0 0.0067074011512663709 0.0027254006867550944 0 0.0067206084197423696 0.0028683249772942219 0 0.0068361737435156103 0.0025981364444900359 0 0.0067074011512663709 0.0027254006867550944 0 0.0067206084197423696 0.0028683249772942219 0 0.0066006680663927971 0.0028638497373458453 0 0.0067206084197423696 0.0028683249772942219 0 0.0066317963970227798 0.0030643129272485883 0 0.006823931633369979 0.0030956844195118038 0 0.0067206084197423696 0.0028683249772942219 0 0.0066317963970227798 0.0030643129272485883 0 0.0066006680663927971 0.0028638497373458453 0 0.0066317963970227798 0.0030643129272485883 0 0.0066006680663927971 0.0028638497373458453 0 0.0064546452953109634 0.0030422049629345973 0 0.0066006680663927971 0.0028638497373458453 0 0.0064650680160066622 0.0028131470619832599 0 0.0064546452953109634 0.0030422049629345973 0 0.0063835909409040046 0.0026369094166291472 0 0.0064650680160066622 0.0028131470619832599 0 0.006257344402168262 0.0029217348592954131 0 0.0064650680160066622 0.0028131470619832599 0 0.0064546452953109634 0.0030422049629345973 0 0.006257344402168262 0.0029217348592954131 0 0.0064546452953109634 0.0030422049629345973 0 0.006257344402168262 0.0029217348592954131 0 0.0062792645094842548 0.0031642441062149644 0 0.0060366780057828475 0.0032674915287662478 0 0.006257344402168262 0.0029217348592954131 0 0.0062792645094842548 0.0031642441062149644 0 0.0072612101390450512 0.0022769420551635956 0 0.0071862038125280556 0.0025915782978448926 0 0.0070181649429629745 0.0024653490819095468 0 0.0073130910020544077 0.0018691299151006333 0 0.0050627711281533245 0.0035211537891705357 0 0.0050627711281533245 0.0035211537891705357 0 0.0075581139812008567 0.0025452374572342094 0 0.0069025685522661178 0.0024135611875935265 0 0.0067722246147632736 0.0023600976743045009 0 0.0068361737435156103 0.0025981364444900359 0 0.0069025685522661178 0.0024135611875935265 0 0.0070181649429629745 0.0024653490819095468 0 0.0068361737435156103 0.0025981364444900359 0 0.0068361737435156103 0.0025981364444900359 0 0.0069394709480916118 0.0026974395997130304 0 0.0069306727272046001 0.002871725820080898 0 0.0070181649429629745 0.0024653490819095468 0 0.0068361737435156103 0.0025981364444900359 0 0.0069394709480916118 0.0026974395997130304 0 0.0071862038125280556 0.0025915782978448926 0 0.0070181649429629745 0.0024653490819095468 0 0.0069394709480916118 0.0026974395997130304 0 0.0071782502314550935 0.0026242867315517228 0 0.0069394709480916118 0.0026974395997130304 0 0.0069306727272046001 0.002871725820080898 0 0.0068361737435156103 0.0025981364444900359 0 0.0069306727272046001 0.002871725820080898 0 0.0067801131364927398 0.0030848916301917783 0 0.0068027080202745912 0.00264655737719943 0 0.0069299017697998554 0.0030545163785056983 0 0.0071782502314550935 0.0026242867315517228 0 0.0069306727272046001 0.002871725820080898 0 0.0070096597700774503 0.0030939436885031859 0 0.0067206084197423696 0.0028683249772942219 0 0.0068361737435156103 0.0025981364444900359 0 0.006823931633369979 0.0030956844195118038 0 0.0069306727272046001 0.002871725820080898 0 0.0070096597700774503 0.0030939436885031859 0 0.0067801131364927398 0.0030848916301917783 0 0.0050627711281533245 0.0035211537891705357 0 0.0034126677432883916 0.0040382654571031783 0 -1.6484778944172087e-05 0.0046690550200340318 0 0.000266244710543998 0.0052109054450681482 0 0.00049814825028492149 0.0046129926590678869 0 -1.6484778944172087e-05 0.0046690550200340318 0 0.00049814825028492149 0.0046129926590678869 0 0.0002580424045322059 0.0041717091247925548 0 -1.6484778944172087e-05 0.0046690550200340318 0 0.0002580424045322059 0.0041717091247925548 0 -0.00024107169243774371 0.0039482920751372722 0 0.0070096597700774503 0.0030939436885031859 0 0.0067801131364927398 0.0030848916301917783 0 0.0067749876372491941 0.0036487986497771925 0 0.0034126677432883916 0.0040382654571031783 0 0.0053190761798964066 0.0037770423856335065 0 0.00049814825028492149 0.0046129926590678869 0 0.00078216730577448544 0.0039805671312534187 0 0.0002580424045322059 0.0041717091247925548 0 0.006823931633369979 0.0030956844195118038 0 0.0067600578111377879 0.0035461527790207341 0 0.0066446721405225726 0.003275493070705242 0 0.0069299017697998554 0.0030545163785056983 0 0.0053190761798964066 0.0037770423856335065 0 0.00078216730577448544 0.0039805671312534187 0 0.0002580424045322059 0.0041717091247925548 0 0.00025137744106694946 0.0035949112457935996 0 0.0002580424045322059 0.0041717091247925548 0 0.00025137744106694946 0.0035949112457935996 0 -0.00024107169243774371 0.0039482920751372722 0 0.0060366780057828475 0.0032674915287662478 0 0.0060555419743613809 0.0034805832673849508 0 0.0062591763717950149 0.0033546959153366793 0 0.0060366780057828475 0.0032674915287662478 0 0.0062591763717950149 0.0033546959153366793 0 0.0062792645094842548 0.0031642441062149644 0 0.0062591763717950149 0.0033546959153366793 0 0.0062792645094842548 0.0031642441062149644 0 0.006488356197303518 0.0032284587574634548 0 0.0064546452953109634 0.0030422049629345973 0 0.0062792645094842548 0.0031642441062149644 0 0.006488356197303518 0.0032284587574634548 0 0.0062591763717950149 0.0033546959153366793 0 0.006488356197303518 0.0032284587574634548 0 0.0064777730336884852 0.0034288160598252575 0 0.006488356197303518 0.0032284587574634548 0 0.0066446721405225726 0.003275493070705242 0 0.0064777730336884852 0.0034288160598252575 0 0.0066317963970227798 0.0030643129272485883 0 0.0064546452953109634 0.0030422049629345973 0 0.006488356197303518 0.0032284587574634548 0 0.0066317963970227798 0.0030643129272485883 0 0.006823931633369979 0.0030956844195118038 0 0.0066446721405225726 0.003275493070705242 0 0.0066317963970227798 0.0030643129272485883 0 0.006488356197303518 0.0032284587574634548 0 0.0066446721405225726 0.003275493070705242 0 0.0067600578111377879 0.0035461527790207341 0 0.0064345016377494353 0.0036399953673226259 0 0.0065785853326389716 0.0038304383989639377 0 0.0067600578111377879 0.0035461527790207341 0 0.0064345016377494353 0.0036399953673226259 0 0.0064777730336884852 0.0034288160598252575 0 0.0067600578111377879 0.0035461527790207341 0 0.0066446721405225726 0.003275493070705242 0 0.0064777730336884852 0.0034288160598252575 0 0.0064345016377494353 0.0036399953673226259 0 0.0064777730336884852 0.0034288160598252575 0 0.0062202828266960993 0.0035521787957709492 0 0.0062591763717950149 0.0033546959153366793 0 0.0064777730336884852 0.0034288160598252575 0 0.0062202828266960993 0.0035521787957709492 0 0.0064345016377494353 0.0036399953673226259 0 0.0062202828266960993 0.0035521787957709492 0 0.006150844114583838 0.0037395221185920957 0 0.0059393499727797908 0.0036743882750386761 0 0.0062202828266960993 0.0035521787957709492 0 0.006150844114583838 0.0037395221185920957 0 0.0060555419743613809 0.0034805832673849508 0 0.0062591763717950149 0.0033546959153366793 0 0.0062202828266960993 0.0035521787957709492 0 0.0058396667418200215 0.0038351100094623876 0 0.006150844114583838 0.0037395221185920957 0 0.0063388247291480083 0.003987558765516693 0 0.0064345016377494353 0.0036399953673226259 0 0.006150844114583838 0.0037395221185920957 0 0.0063832793034642983 0.0038008108241738385 0 0.006150844114583838 0.0037395221185920957 0 0.0063832793034642983 0.0038008108241738385 0 0.0063388247291480083 0.003987558765516693 0 0.0063832793034642983 0.0038008108241738385 0 0.0065785853326389716 0.0038304383989639377 0 0.0063388247291480083 0.003987558765516693 0 0.0064345016377494353 0.0036399953673226259 0 0.0063832793034642983 0.0038008108241738385 0 0.0065785853326389716 0.0038304383989639377 0 0.0041382879056162331 0.0030960447012757029 0 0.004755318084349403 0.003902371583488095 0 0.003455894664104715 0.0037048258566041653 0 0.0065785853326389716 0.0038304383989639377 0 0.0063388247291480083 0.003987558765516693 0 0.0066708327514092688 0.0040097982392026058 0 0.0059848737151772134 0.0040138689174443803 0 0.0030271287651669814 0.003341684897341924 0 0.0058396667418200215 0.0038351100094623876 0 0.0058415685612403165 0.0036950597791922429 0 0.004755318084349403 0.003902371583488095 0 0.0056267169525529345 0.0038349026539995423 0 0.0059848737151772134 0.0040138689174443803 0 0.0058415685612403165 0.0036950597791922429 0 0.0049719268078066182 0.0025463700676668214 0 0.004755318084349403 0.003902371583488095 0 0.00025137744106694946 0.0035949112457935996 0 0.00017167595158527326 0.0029459187314823726 0 -0.00021968761483662826 0.0033899285700334301 0 0.00078216730577448544 0.0039805671312534187 0 0.00025137744106694946 0.0035949112457935996 0 0.00075020557974267714 0.0030541492571270075 0 0.0066421831923251448 0.0036219515763109352 0 0.0065785853326389716 0.0038304383989639377 0 0.0066708327514092688 0.0040097982392026058 0 0.0053190761798964066 0.0037770423856335065 0 0.0066852960256164736 0.0035883093539100727 0 0.0053190761798964066 0.0037770423856335065 0 0.0030271287651669814 0.003341684897341924 0 0.0030271287651669814 0.003341684897341924 0 -0.00022991399802317622 0.0028863491893961735 0 0.00028509619870802669 0.0024691699088760692 0 0.00018865579914259517 0.002968598630216754 0 -0.00045129728387465829 0.0028455864715117162 0 0.00028509619870802669 0.0024691699088760692 0 0.00084777356864221927 0.0030878330034801739 0 0.00018865579914259517 0.002968598630216754 0 0.00025137744106694946 0.0035949112457935996 0 0.00075020557974267714 0.0030541492571270075 0 0.00017167595158527326 0.0029459187314823726 0 -0.00045129728387465829 0.0028455864715117162 0 -0.0010243850797400104 0.0034831163668616904 0 -0.00021968761483662826 0.0033899285700334301 0 0.00017167595158527326 0.0029459187314823726 0 -0.00045129728387465829 0.0028455864715117162 0 -0.00021968761483662826 0.0033899285700334301 0 -0.00022991399802317622 0.0028863491893961735 0 -0.00024279092649915501 0.0028824382150961928 0 -0.0011457073303941323 0.0025372135801464734 0 -0.00045129728387465829 0.0028455864715117162 0 -0.0010243850797400104 0.0034831163668616904 0 -0.00090643597669141864 0.0034953305569692082 0 -0.00029175000890552613 0.0039229433676445892 0 -0.0010243850797400104 0.0034831163668616904 0 -0.00021968761483662826 0.0033899285700334301 0 -0.00024107169243774371 0.0039482920751372722 0 0.00025137744106694946 0.0035949112457935996 0 -0.00021968761483662826 0.0033899285700334301 0 -0.00024107169243774371 0.0039482920751372722 0 -0.00080583398673826959 0.0035039066786190245 0 -0.00024107169243774371 0.0039482920751372722 0 -0.00086782307977967461 0.0041717058361611711 0 -0.00055785960130902857 0.0046600973315192211 0 -0.0010172956812844951 0.0046977971049233678 0 -0.00086782307977967461 0.0041717058361611711 0 -0.00055785960130902857 0.0046600973315192211 0 -0.00024107169243774371 0.0039482920751372722 0 -0.00086782307977967461 0.0041717058361611711 0 -1.6484778944172087e-05 0.0046690550200340318 0 -0.00055785960130902857 0.0046600973315192211 0 -0.00024107169243774371 0.0039482920751372722 0 -0.0016181786540646098 0.0044828119278531612 0 -0.0017759268482075729 0.0041629603433125158 0 -0.0019223366564683284 0.0045938178720619028 0 -0.0016181786540646098 0.0044828119278531612 0 -0.0012953041758231262 0.0043661925261134979 0 -0.0017759268482075729 0.0041629603433125158 0 -0.001469393448489336 0.0048016297070980667 0 -0.0016181786540646098 0.0044828119278531612 0 -0.0019223366564683284 0.0045938178720619028 0 -0.001469393448489336 0.0048016297070980667 0 -0.0016181786540646098 0.0044828119278531612 0 -0.0012953041758231262 0.0043661925261134979 0 -0.0010172956812844951 0.0046977971049233678 0 -0.001469393448489336 0.0048016297070980667 0 -0.0012953041758231262 0.0043661925261134979 0 -0.0010172956812844951 0.0046977971049233678 0 -0.00086782307977967461 0.0041717058361611711 0 -0.0012953041758231262 0.0043661925261134979 0 -0.00086782307977967461 0.0041717058361611711 0 -0.0012953041758231262 0.0043661925261134979 0 -0.0013332053541363397 0.0038311008756887308 0 -0.00080583398673826959 0.0035039066786190245 0 -0.00086782307977967461 0.0041717058361611711 0 -0.0013332053541363397 0.0038311008756887308 0 -0.0013332053541363397 0.0038311008756887308 0 -0.0017759268482075729 0.0041629603433125158 0 -0.0018850971578852451 0.0036817558043803099 0 -0.0012953041758231262 0.0043661925261134979 0 -0.0013332053541363397 0.0038311008756887308 0 -0.0017759268482075729 0.0041629603433125158 0 -0.0013332053541363397 0.0038311008756887308 0 -0.0018850971578852451 0.0036817558043803099 0 -0.0014665445441746873 0.0030276331524260744 0 -0.00080583398673826959 0.0035039066786190245 0 -0.0013332053541363397 0.0038311008756887308 0 -0.0014665445441746873 0.0030276331524260744 0 -0.0011457073303941323 0.0025372135801464734 0 -0.0010243850797400104 0.0034831163668616904 0 -0.0017826403505593524 0.00294596396886848 0 -0.00090643597669141864 0.0034953305569692082 0 -0.0016387400120905298 0.0029858577375571687 0 -0.0023973279102465174 0.0025041916189981 0 -0.0014665445441746873 0.0030276331524260744 0 -0.0021432883271894571 0.003068517328822348 0 -0.0018850971578852451 0.0036817558043803099 0 -0.0014665445441746873 0.0030276331524260744 0 -0.0021432883271894571 0.003068517328822348 0 -0.0025911116333934853 0.0026186197983802529 0 -0.0026550462250736107 0.003478951385346657 0 -0.0026011783302973671 0.0025950417154343283 0 -0.0021432883271894571 0.003068517328822348 0 -0.0023638830686847226 0.003437360327739327 0 -0.0031590690330213262 0.0029131753498014795 0 -0.0026011783302973671 0.0025950417154343283 0 -0.0029524867708290068 0.00358725276609033 0 -0.0018850971578852451 0.0036817558043803099 0 -0.0021432883271894571 0.003068517328822348 0 -0.0023638830686847226 0.003437360327739327 0 -0.0018850971578852451 0.0036817558043803099 0 -0.0023638830686847226 0.003437360327739327 0 -0.0022886330169695599 0.0041834653289402985 0 -0.0029524867708290068 0.00358725276609033 0 -0.003579393454368438 0.0038366914829455396 0 -0.0031357960210804817 0.0043081330291265601 0 -0.0029524867708290068 0.00358725276609033 0 -0.0037619901048300867 0.0032762289057146417 0 -0.003579393454368438 0.0038366914829455396 0 -0.0031590690330213262 0.0029131753498014795 0 -0.0029524867708290068 0.00358725276609033 0 -0.0037619901048300867 0.0032762289057146417 0 -0.0035333410027427741 0.0027650967323584103 0 -0.0031590690330213262 0.0029131753498014795 0 -0.0037619901048300867 0.0032762289057146417 0 -0.0037619901048300867 0.0032762289057146417 0 -0.0043962953179315757 0.0033608717799015679 0 -0.0040156934897923975 0.0037143941278834727 0 -0.0044284010788337496 0.0025890496012467984 0 -0.0037619901048300867 0.0032762289057146417 0 -0.0043962953179315757 0.0033608717799015679 0 -0.0043962953179315757 0.0033608717799015679 0 -0.0043391753872703423 0.0037353598603827383 0 -0.0040156934897923975 0.0037143941278834727 0 -0.0043391753872703423 0.0037353598603827383 0 -0.0040156934897923975 0.0037143941278834727 0 -0.0041140962367851343 0.0040084895834234116 0 -0.0037619901048300867 0.0032762289057146417 0 -0.0040156934897923975 0.0037143941278834727 0 -0.003579393454368438 0.0038366914829455396 0 -0.0040156934897923975 0.0037143941278834727 0 -0.003579393454368438 0.0038366914829455396 0 -0.0038394117038113972 0.0040188181574948023 0 -0.003579393454368438 0.0038366914829455396 0 -0.0038394117038113972 0.0040188181574948023 0 -0.00352532954079883 0.0042499578044717309 0 -0.0040156934897923975 0.0037143941278834727 0 -0.0038394117038113972 0.0040188181574948023 0 -0.0041140962367851343 0.0040084895834234116 0 -0.0038394117038113972 0.0040188181574948023 0 -0.0041140962367851343 0.0040084895834234116 0 -0.0038746411994741922 0.0043058450857537045 0 -0.0038394117038113972 0.0040188181574948023 0 -0.0038746411994741922 0.0043058450857537045 0 -0.00352532954079883 0.0042499578044717309 0 -0.0041140962367851343 0.0040084895834234116 0 -0.0043116304972553544 0.0041757843116588776 0 -0.0038746411994741922 0.0043058450857537045 0 -0.0043391753872703423 0.0037353598603827383 0 -0.0041140962367851343 0.0040084895834234116 0 -0.0043960535465297438 0.0039326885286800643 0 -0.0041140962367851343 0.0040084895834234116 0 -0.0043116304972553544 0.0041757843116588776 0 -0.0043960535465297438 0.0039326885286800643 0 -0.0043116304972553544 0.0041757843116588776 0 -0.0041235051583477763 0.0045706847402872527 0 -0.0038746411994741922 0.0043058450857537045 0 -0.00071212929184398717 0.003545197780396212 0 -0.0031337624062754738 0.0045989289450776242 0 -0.0041235051583477763 0.0045706847402872527 0 -0.0038746411994741922 0.0043058450857537045 0 -0.0036947810299018972 0.0045975068790772193 0 -0.00097912661346610179 0.0040583167288830756 0 -0.0020790751760642683 0.0040508579510627621 0 -0.0019139265122405445 0.0036544834298355509 0 -0.0036588702815322492 0.0046539216093076418 0 -0.0035295892630472347 0.0045913617643270075 0 -0.00352532954079883 0.0042499578044717309 0 -0.0038746411994741922 0.0043058450857537045 0 -0.0036947810299018972 0.0045975068790772193 0 -0.00352532954079883 0.0042499578044717309 0 -0.0031337624062754738 0.0045989289450776242 0 -0.0035364640846392683 0.004372872766755305 0 -0.00071212929184398717 0.003545197780396212 0 -0.0013641558807198737 0.0040700017681136796 0 -0.0031337624062754738 0.0045989289450776242 0 -0.0013641558807198737 0.0040700017681136796 0 -0.0036206761797323741 0.0047207315183820228 0 -0.0036588702815322492 0.0046539216093076418 0 -0.0037174207595286313 0.0048100123887316482 0 -0.0036588702815322492 0.0046539216093076418 0 -0.0035295892630472347 0.0045913617643270075 0 -0.0035443826257540497 0.0047041123219930536 0 -0.0036206761797323741 0.0047207315183820228 0 -0.0036588702815322492 0.0046539216093076418 0 -0.0035443826257540497 0.0047041123219930536 0 -0.0036206761797323741 0.0047207315183820228 0 -0.0035443826257540497 0.0047041123219930536 0 -0.0035783617136242443 0.0047729879613876754 0 -0.0035443826257540497 0.0047041123219930536 0 -0.0034907091327109844 0.0047816059575634682 0 -0.0035783617136242443 0.0047729879613876754 0 -0.0032933896441421692 0.0047097550906932302 0 -0.0031357960210804817 0.0043081330291265601 0 -0.0032433633232165195 0.0050252032750835087 0 -0.0027259459608949539 0.004231321427680324 0 -0.0026539348656572617 0.005019015516225498 0 -0.0035443826257540497 0.0047041123219930536 0 -0.0034526675652503838 0.0046797250688432272 0 -0.0034907091327109844 0.0047816059575634682 0 -0.0034197123073881758 0.0047492938004823418 0 -0.0034526675652503838 0.0046797250688432272 0 -0.0034907091327109844 0.0047816059575634682 0 -0.0034197123073881758 0.0047492938004823418 0 -0.0034526675652503838 0.0046797250688432272 0 -0.0033672846760951238 0.0046984733933914391 0 -0.0033672846760951238 0.0046984733933914391 0 -0.0032933896441421692 0.0047097550906932302 0 -0.0033690524313314358 0.0047807850585771675 0 -0.0034197123073881758 0.0047492938004823418 0 -0.0033672846760951238 0.0046984733933914391 0 -0.0033690524313314358 0.0047807850585771675 0 -0.0034526675652503838 0.0046797250688432272 0 -0.0033672846760951238 0.0046984733933914391 0 -0.0033353808576611693 0.0045838501258499186 0 -0.0033672846760951238 0.0046984733933914391 0 -0.0033353808576611693 0.0045838501258499186 0 -0.0032933896441421692 0.0047097550906932302 0 -0.0035295892630472347 0.0045913617643270075 0 -0.0034526675652503838 0.0046797250688432272 0 -0.0033353808576611693 0.0045838501258499186 0 -0.0035295892630472347 0.0045913617643270075 0 -0.0035443826257540497 0.0047041123219930536 0 -0.0034526675652503838 0.0046797250688432272 0 -0.0035295892630472347 0.0045913617643270075 0 -0.0033353808576611693 0.0045838501258499186 0 -0.0034298155203564959 0.0044313090098361289 0 -0.0035295892630472347 0.0045913617643270075 0 -0.0034298155203564959 0.0044313090098361289 0 -0.00352532954079883 0.0042499578044717309 0 -0.0033353808576611693 0.0045838501258499186 0 -0.0034298155203564959 0.0044313090098361289 0 -0.0031357960210804817 0.0043081330291265601 0 -0.0033353808576611693 0.0045838501258499186 0 -0.0032933896441421692 0.0047097550906932302 0 -0.0031357960210804817 0.0043081330291265601 0 -0.0019223366564683284 0.0045938178720619028 0 -0.0022886330169695599 0.0041834653289402985 0 -0.0023003277969702346 0.0049073907457812356 0 -0.0017759268482075729 0.0041629603433125158 0 -0.0019223366564683284 0.0045938178720619028 0 -0.0022886330169695599 0.0041834653289402985 0 -0.0017759268482075729 0.0041629603433125158 0 -0.0018850971578852451 0.0036817558043803099 0 -0.0022886330169695599 0.0041834653289402985 0 -0.0026550462250736107 0.003478951385346657 0 -0.0027259459608949539 0.004231321427680324 0 -0.003579393454368438 0.0038366914829455396 0 -0.00352532954079883 0.0042499578044717309 0 -0.0031357960210804817 0.0043081330291265601 0 -0.0034298155203564959 0.0044313090098361289 0 -0.00352532954079883 0.0042499578044717309 0 -0.0031357960210804817 0.0043081330291265601 0 -0.0054718631454994089 0.0037515870109856519 0 -0.0055569320635436908 0.0033923284158356138 0 -0.0051717965650368491 0.0035742298535796618 0 -0.0059223869348264792 0.0035544977256040588 0 -0.0054718631454994089 0.0037515870109856519 0 -0.0055569320635436908 0.0033923284158356138 0 -0.0048869511470982065 0.0023743974641627849 0 -0.0037680980904764086 0.0027437100062797913 0 -0.0059058623970853538 0.002917802392134186 0 -0.0055569320635436908 0.0033923284158356138 0 -0.0052961207931995673 0.0030728084894719367 0 -0.0055569320635436908 0.0033923284158356138 0 -0.0052961207931995673 0.0030728084894719367 0 -0.0051717965650368491 0.0035742298535796618 0 -0.0052961207931995673 0.0030728084894719367 0 -0.0051717965650368491 0.0035742298535796618 0 -0.0048333140166990519 0.0034403410277324162 0 -0.0051717965650368491 0.0035742298535796618 0 -0.0048458680247504445 0.003811490142574351 0 -0.0050657812705538745 0.0039457977794867269 0 -0.0054718631454994089 0.0037515870109856519 0 -0.0051717965650368491 0.0035742298535796618 0 -0.0050657812705538745 0.0039457977794867269 0 -0.0051717965650368491 0.0035742298535796618 0 -0.0048333140166990519 0.0034403410277324162 0 -0.0048458680247504445 0.003811490142574351 0 -0.0048333140166990519 0.0034403410277324162 0 -0.0046129392146107189 0.0036983263205942023 0 -0.0048458680247504445 0.003811490142574351 0 -0.0047888071861252072 0.0030027259327578062 0 -0.0052961207931995673 0.0030728084894719367 0 -0.0048333140166990519 0.0034403410277324162 0 -0.0052208908081891586 0.0029637156094474894 0 -0.0044516542555535178 0.0033423651190403903 0 -0.0047888071861252072 0.0030027259327578062 0 -0.0043962953179315757 0.0033608717799015679 0 -0.0048333140166990519 0.0034403410277324162 0 -0.0043962953179315757 0.0033608717799015679 0 -0.0043391753872703423 0.0037353598603827383 0 -0.0046129392146107189 0.0036983263205942023 0 -0.0043962953179315757 0.0033608717799015679 0 -0.0048333140166990519 0.0034403410277324162 0 -0.0046129392146107189 0.0036983263205942023 0 -0.0043391753872703423 0.0037353598603827383 0 -0.0046129392146107189 0.0036983263205942023 0 -0.0043960535465297438 0.0039326885286800643 0 -0.0043116304972553544 0.0041757843116588776 0 -0.0046242478162189507 0.0039752313448242092 0 -0.004745532018339626 0.0042481864929584051 0 -0.0043116304972553544 0.0041757843116588776 0 -0.0043960535465297438 0.0039326885286800643 0 -0.0046242478162189507 0.0039752313448242092 0 -0.0046129392146107189 0.0036983263205942023 0 -0.0043960535465297438 0.0039326885286800643 0 -0.0046242478162189507 0.0039752313448242092 0 -0.0046129392146107189 0.0036983263205942023 0 -0.0046242478162189507 0.0039752313448242092 0 -0.0048458680247504445 0.003811490142574351 0 -0.0042756770481121613 0.0043910332212668659 0 -0.0029164689524960484 0.0035904136128559715 0 -0.00091647627037754983 0.0033440122172537514 0 -0.00094061099339660514 0.0033284682282153427 0 -0.00093856797297742819 0.0033344831425093334 0 -0.00071212929184398717 0.003545197780396212 0 0.00081053695350532455 0.0026682261495699746 0 -0.0043116304972553544 0.0041757843116588776 0 -0.0041235051583477763 0.0045706847402872527 0 -0.004745532018339626 0.0042481864929584051 0 0.0024914121165872816 0.0022781350546176643 0 0.0028164029564188104 0.0021458846693272384 0 0.0035600407982411962 0.0022740191973437606 0 -0.00071212929184398717 0.003545197780396212 0 -0.0029164689524960484 0.0035904136128559715 0 -0.00037041285128700424 0.0025363379599929892 0 -0.00058328083606062051 0.0029850869548288658 0 -0.001155361943154681 0.0026119674862951367 0 -0.0029164689524960484 0.0035904136128559715 0 0.00081053695350532455 0.0026682261495699746 0 -0.0046949369926981253 0.0041380607298979761 0 -0.0048458680247504445 0.003811490142574351 0 -0.0050657812705538745 0.0039457977794867269 0 -0.00037041285128700424 0.0025363379599929892 0 -0.001226624046252948 0.0021354307701606638 0 -0.001155361943154681 0.0026119674862951367 0 -0.0029164689524960484 0.0035904136128559715 0 -0.0031071490699641578 0.0030352366080806542 0 -0.0046242478162189507 0.0039752313448242092 0 -0.0046949369926981253 0.0041380607298979761 0 -0.0048458680247504445 0.003811490142574351 0 -0.0021692541619182893 0.0016924066000262017 0 -0.0017047793351243408 0.0023945800589310943 0 -0.001226624046252948 0.0021354307701606638 0 -0.0037680980904764086 0.0027437100062797913 0 -0.0031071490699641578 0.0030352366080806542 0 -0.0017047793351243408 0.0023945800589310943 0 -0.001226624046252948 0.0021354307701606638 0 -0.001155361943154681 0.0026119674862951367 0 0.00081053695350532455 0.0026682261495699746 0 -0.0023011407215747463 0.0030820324763556096 0 -0.00058328083606062051 0.0029850869548288658 0 -0.001155361943154681 0.0026119674862951367 0 -0.0019209588013443077 0.0030074374925720773 0 0.00013442303248813926 0.0029559435623578443 0 -0.00050229971176691992 0.003306023612143908 0 -0.0019209588013443077 0.0030074374925720773 0 -0.0017047793351243408 0.0023945800589310943 0 -0.001155361943154681 0.0026119674862951367 0 -0.0019209588013443077 0.0030074374925720773 0 -0.00050229971176691992 0.003306023612143908 0 -0.0019209588013443077 0.0030074374925720773 0 -0.0010263487342408349 0.0034157602920363429 0 -0.0019209588013443077 0.0030074374925720773 0 -0.0014823243973574058 0.0034211568262898584 0 -0.0010263487342408349 0.0034157602920363429 0 -0.0022702785304895712 0.0030184113073094374 0 0.00045689322068184177 0.0025841404959965511 0 -0.0017047793351243408 0.0023945800589310943 0 -0.0019209588013443077 0.0030074374925720773 0 -0.0021999401502028307 0.00243746433629038 0 -0.0019209588013443077 0.0030074374925720773 0 -0.0025548767278144226 0.0029356504246957531 0 -0.0021999401502028307 0.00243746433629038 0 -0.0019209588013443077 0.0030074374925720773 0 -0.0025548767278144226 0.0029356504246957531 0 -0.0014823243973574058 0.0034211568262898584 0 -0.0015948510382583013 0.0021567672777588454 0 0.00016260401445116266 0.0032619430876253755 0 0.00081702193333319201 0.00326739665833633 0 -0.0036481728661273151 0.0045928483948143427 0 -0.0023173407712739728 0.0038004558650745024 0 -0.0009233368305111687 0.0046640188827031508 0 -0.0022702785304895712 0.0030184113073094374 0 0.001602613117890925 0.0023065201394258609 0 -0.0025548767278144226 0.0029356504246957531 0 -0.002649864256046183 0.0021755602042608899 0 -0.0021999401502028307 0.00243746433629038 0 -0.0031444162248689656 0.0012756214441384359 0 -0.0021692541619182893 0.0016924066000262017 0 -0.002649864256046183 0.0021755602042608899 0 -0.0021692541619182893 0.0016924066000262017 0 -0.0017047793351243408 0.0023945800589310943 0 -0.0021999401502028307 0.00243746433629038 0 -0.0021692541619182893 0.0016924066000262017 0 -0.002649864256046183 0.0021755602042608899 0 -0.0021999401502028307 0.00243746433629038 0 0.0045570534818003081 -0.00053825412250812783 0 0.0046267780931985598 -0.0004388114157957611 0 0.0047140685858077678 -0.00072081788406239903 0 0.0045570534818003081 -0.00053825412250812783 0 0.0045749230812975128 -0.00069941557015771867 0 0.0047140685858077678 -0.00072081788406239903 0 0.0045570534818003081 -0.00053825412250812783 0 0.0044621756737531762 -0.00058065994793957869 0 0.0045749230812975128 -0.00069941557015771867 0 0.0045570534818003081 -0.00053825412250812783 0 0.0046267780931985598 -0.0004388114157957611 0 0.0044946888335519351 -0.00039222950596802059 0 0.00030773042703282851 0.0022447629005243434 0 0.001602613117890925 0.0023065201394258609 0 0.0046984041021540758 -0.00033434133368052537 0 0.0046267780931985598 -0.0004388114157957611 0 0.0044738959592965913 -0.00026964837201497323 0 0.0046267780931985598 -0.0004388114157957611 0 0.0044738959592965913 -0.00026964837201497323 0 0.0044946888335519351 -0.00039222950596802059 0 0.0044946888335519351 -0.00039222950596802059 0 0.0043663863939976538 -0.00037176580713063162 0 0.0044007557861644973 -0.00046146668996065578 0 -0.0014636427703298427 0.0034104679961985897 0 -0.0010263487342408349 0.0034157602920363429 0 -0.0003241338824955353 0.0039273190910406423 0 0.0044946888335519351 -0.00039222950596802059 0 0.0043663863939976538 -0.00037176580713063162 0 0.0043910713981374083 -0.00029683451626699551 0 0.00045689322068184177 0.0025841404959965511 0 0.0026099609918514332 0.0016927152089050484 0 0.0043910713981374083 -0.00029683451626699551 0 0.004399612707022809 -0.0002463673965646148 0 0.0041738679335524952 -0.00033597267434392215 0 0.0044738959592965913 -0.00026964837201497323 0 0.0044946888335519351 -0.00039222950596802059 0 0.0043910713981374083 -0.00029683451626699551 0 0.00045689322068184177 0.0025841404959965511 0 -0.00080735992751347456 0.0028397993867360959 0 0.001602613117890925 0.0023065201394258609 0 0.00045689322068184177 0.0025841404959965511 0 0.0044373356167070784 -0.00023765558870586823 0 0.0043910713981374083 -0.00029683451626699551 0 0.004399612707022809 -0.0002463673965646148 0 0.001602613117890925 0.0023065201394258609 0 0.0029964370113407675 0.0016283325345757436 0 0.0043663863939976538 -0.00037176580713063162 0 0.0043910713981374083 -0.00029683451626699551 0 0.0041738679335524952 -0.00033597267434392215 0 0.0043663863939976538 -0.00037176580713063162 0 0.0044007557861644973 -0.00046146668996065578 0 0.0041738679335524952 -0.00033597267434392215 0 0.0042936545953808688 -0.00055453502017181245 0 0.0044007557861644973 -0.00046146668996065578 0 0.0041738679335524952 -0.00033597267434392215 0 0.0045570534818003081 -0.00053825412250812783 0 0.0044946888335519351 -0.00039222950596802059 0 0.0044007557861644973 -0.00046146668996065578 0 0.0045570534818003081 -0.00053825412250812783 0 0.0044007557861644973 -0.00046146668996065578 0 0.0044621756737531762 -0.00058065994793957869 0 0.0042936545953808688 -0.00055453502017181245 0 0.0044007557861644973 -0.00046146668996065578 0 0.0044621756737531762 -0.00058065994793957869 0 0.004446522850241357 -0.00064531609365454956 0 0.0044621756737531762 -0.00058065994793957869 0 0.0045749230812975128 -0.00069941557015771867 0 0.0042936545953808688 -0.00055453502017181245 0 0.004446522850241357 -0.00064531609365454956 0 0.0044621756737531762 -0.00058065994793957869 0 0.0042936545953808688 -0.00055453502017181245 0 0.004446522850241357 -0.00064531609365454956 0 0.0044518383076187348 -0.00074581488070574848 0 0.0043150059488399877 0.00015257219988493853 0 0.0047144755570224994 -0.00032865540266428556 0 0.0036433366056659398 0.0011948529029012789 0 0.0039319221675411034 0.0017753430097481591 0 0.0030058554874664266 0.0013591471480313329 0 0.0042097324367001612 0.0011936686262239567 0 0.0036433366056659398 0.0011948529029012789 0 0.0039490399934411788 0.00080182770508353536 0 0.0042097324367001612 0.0011936686262239567 0 0.0036433366056659398 0.0011948529029012789 0 0.0039319221675411034 0.0017753430097481591 0 0.0043150059488399877 0.00015257219988493853 0 0.0026099609918514332 0.0016927152089050484 0 0.0035600407982411962 0.0022740191973437606 0 0.0037956450582920217 0.0017823398069175211 0 0.0030848998727855781 0.0016823014344709303 0 -0.00050229971176691992 0.003306023612143908 0 -0.0010263487342408349 0.0034157602920363429 0 -0.0003241338824955353 0.0039273190910406423 0 0.00013442303248813926 0.0029559435623578443 0 -0.00050229971176691992 0.003306023612143908 0 -0.0003241338824955353 0.0039273190910406423 0 0.00081053695350532455 0.0026682261495699746 0 0.0026099609918514332 0.0016927152089050484 0 0.0028164029564188104 0.0021458846693272384 0 0.0035600407982411962 0.0022740191973437606 0 0.0030848998727855781 0.0016823014344709303 0 0.0037956450582920217 0.0017823398069175211 0 0.0030848998727855781 0.0016823014344709303 0 0.0030058554874664266 0.0013591471480313329 0 0.0026099609918514332 0.0016927152089050484 0 0.0035340163819541901 0.0014998894205038259 0 0.0036433366056659398 0.0011948529029012789 0 0.0030058554874664266 0.0013591471480313329 0 0.003206493421257668 0.00093406447023688423 0 0.0030058554874664266 0.0013591471480313329 0 0.003206493421257668 0.00093406447023688423 0 0.002589981989479369 0.00073680416072334498 0 0.0036433366056659398 0.0011948529029012789 0 0.003206493421257668 0.00093406447023688423 0 0.0035538432285995561 0.00068041800322794863 0 0.003206493421257668 0.00093406447023688423 0 0.0031205155097226208 0.00055694068553040763 0 0.002589981989479369 0.00073680416072334498 0 0.003206493421257668 0.00093406447023688423 0 0.0031205155097226208 0.00055694068553040763 0 0.0035538432285995561 0.00068041800322794863 0 0.0031205155097226208 0.00055694068553040763 0 0.0034025794712449721 0.00027996276899612272 0 0.0035538432285995561 0.00068041800322794863 0 0.0031205155097226208 0.00055694068553040763 0 0.0030521513317983374 5.6109874068493007e-05 0 0.0034025794712449721 0.00027996276899612272 0 0.0030521513317983374 5.6109874068493007e-05 0 0.0034025794712449721 0.00027996276899612272 0 0.0035517220606608763 -0.00010144110134593606 0 0.0035517220606608763 -0.00010144110134593606 0 0.0039688940402330692 -0.00018162870214578976 0 0.0038160410464495947 0.0003489634503083654 0 0.0039688940402330692 -0.00018162870214578976 0 0.0038160410464495947 0.0003489634503083654 0 0.0044766886378609814 0.00062631826905279421 0 0.0034025794712449721 0.00027996276899612272 0 0.0035517220606608763 -0.00010144110134593606 0 0.0038160410464495947 0.0003489634503083654 0 0.0038160410464495947 0.0003489634503083654 0 0.0039490399934411788 0.00080182770508353536 0 0.0044766886378609814 0.00062631826905279421 0 0.0034025794712449721 0.00027996276899612272 0 0.0038160410464495947 0.0003489634503083654 0 0.0035538432285995561 0.00068041800322794863 0 0.0036433366056659398 0.0011948529029012789 0 0.0035538432285995561 0.00068041800322794863 0 0.0039490399934411788 0.00080182770508353536 0 0.0038160410464495947 0.0003489634503083654 0 0.0035538432285995561 0.00068041800322794863 0 0.0039490399934411788 0.00080182770508353536 0 0.0042936545953808688 -0.00055453502017181245 0 0.0044518383076187348 -0.00074581488070574848 0 0.0044379097026966173 -0.0007699299816611439 0 0.0042097324367001612 0.0011936686262239567 0 0.0039490399934411788 0.00080182770508353536 0 0.0044766886378609814 0.00062631826905279421 0 0.004446522850241357 -0.00064531609365454956 0 0.0044518383076187348 -0.00074581488070574848 0 0.0045749230812975128 -0.00069941557015771867 0 0.0044518383076187348 -0.00074581488070574848 0 0.0044437475420897798 -0.00076827104635845923 0 0.0046215445380609768 -0.00080900746894993882 0 0.0046808390735035427 -0.00038284584847888891 0 0.0047144755570224994 -0.00032865540266428556 0 0.0047144755570224994 -0.00032865540266428556 0 0.0049116382109534078 -0.0011772915161802761 0 0.0050083218965209257 -0.001159691907013215 0 0.0050575432093926519 -0.0010583683952179481 0 0.0051011522350190332 -0.0011559727997399237 0 0.0044340768433426131 -0.0006895996737103303 0 0.0047144755570224994 -0.00032865540266428556 0 0.0048266560933290003 -0.00088323543671602848 0 0.0046667973441619076 -0.00099406962983793591 0 0.0046215445380609768 -0.00080900746894993882 0 0.0044437475420897798 -0.00076827104635845923 0 0.0046667973441619076 -0.00099406962983793591 0 0.0046215445380609768 -0.00080900746894993882 0 0.0048266560933290003 -0.00088323543671602848 0 0.0046215445380609768 -0.00080900746894993882 0 0.0047140685858077678 -0.00072081788406239903 0 0.0044518383076187348 -0.00074581488070574848 0 0.0046215445380609768 -0.00080900746894993882 0 0.0045749230812975128 -0.00069941557015771867 0 0.0046215445380609768 -0.00080900746894993882 0 0.0045749230812975128 -0.00069941557015771867 0 0.0047140685858077678 -0.00072081788406239903 0 0.0072589581275958309 0.0016789198370883831 0 0.0071154685698169486 0.0015993912939114669 0 0.0072258211633045265 0.0017234897513898029 0 -0.001902854174976939 0.0051861192132585865 0 -0.0018670988236648657 0.0051117280105034829 0 -0.0018858139580830164 0.0050868642484590484 0 0.0023424708264073711 0.0037343866380898576 0 0.0030585075904033974 0.0022032791335021133 0 -0.0014785510431786807 0.0052368119780459447 0 -0.001902854174976939 0.0051861192132585865 0 -0.0017911851241305468 0.0050820317766921063 0 -0.0014785510431786807 0.0052368119780459447 0 -0.0014089378832765752 0.0055875473452783935 0 -0.001902854174976939 0.0051861192132585865 0 -0.001902854174976939 0.0051861192132585865 0 -0.0017911851241305468 0.0050820317766921063 0 -0.0018670988236648657 0.0051117280105034829 0 -0.0019223366564683284 0.0045938178720619028 0 -0.0017911851241305468 0.0050820317766921063 0 -0.0023003277969702346 0.0049073907457812356 0 -0.001469393448489336 0.0048016297070980667 0 -0.0019223366564683284 0.0045938178720619028 0 -0.0017911851241305468 0.0050820317766921063 0 -0.0016824886384521661 0.005151439546788302 0 -0.0026539348656572617 0.005019015516225498 0 -0.0017911851241305468 0.0050820317766921063 0 -0.0018670988236648657 0.0051117280105034829 0 -0.0018858139580830164 0.0050868642484590484 0 -0.0026539348656572617 0.005019015516225498 0 -0.0013641558807198737 0.0040700017681136796 0 -0.001902854174976939 0.0051861192132585865 0 -0.0018846589881057387 0.0050864180068910794 0 -0.0018819603383802438 0.0050844315830866731 0 -0.001902854174976939 0.0051861192132585865 0 -0.0018662520708281089 0.0050537849865597085 0 -0.0018819603383802438 0.0050844315830866731 0 -0.0032933896441421692 0.0047097550906932302 0 -0.0032433633232165195 0.0050252032750835087 0 -0.0033200288731869 0.0048520531614187441 0 -0.001902854174976939 0.0051861192132585865 0 -0.0018858139580830164 0.0050868642484590484 0 -0.0018846589881057387 0.0050864180068910794 0 -0.0032433633232165195 0.0050252032750835087 0 -0.0035281280546243239 0.004842537404552867 0 -0.0037174207595286313 0.0048100123887316482 0 -0.0018858139580830164 0.0050868642484590484 0 -0.0018846589881057387 0.0050864180068910794 0 -0.0018745523362590361 0.0050700169384610121 0 -0.0032433633232165195 0.0050252032750835087 0 -0.0034199064893146902 0.0048735362660085662 0 -0.0035281280546243239 0.004842537404552867 0 -0.0032433633232165195 0.0050252032750835087 0 -0.0034199064893146902 0.0048735362660085662 0 -0.0033412379738681532 0.0049047230633145556 0 -0.0032433633232165195 0.0050252032750835087 0 -0.0033412379738681532 0.0049047230633145556 0 -0.0033200288731869 0.0048520531614187441 0 -0.0034199064893146902 0.0048735362660085662 0 -0.0033412379738681532 0.0049047230633145556 0 -0.0033772827291684822 0.0048447258745931126 0 -0.0032933896441421692 0.0047097550906932302 0 -0.0033200288731869 0.0048520531614187441 0 -0.0033690524313314358 0.0047807850585771675 0 -0.0033412379738681532 0.0049047230633145556 0 -0.0033200288731869 0.0048520531614187441 0 -0.0033772827291684822 0.0048447258745931126 0 -0.0033200288731869 0.0048520531614187441 0 -0.0033772827291684822 0.0048447258745931126 0 -0.0033690524313314358 0.0047807850585771675 0 -0.0033772827291684822 0.0048447258745931126 0 -0.0033690524313314358 0.0047807850585771675 0 -0.0034182385948733794 0.0048053730136630377 0 -0.0034197123073881758 0.0047492938004823418 0 -0.0033690524313314358 0.0047807850585771675 0 -0.0034182385948733794 0.0048053730136630377 0 -0.0034199064893146902 0.0048735362660085662 0 -0.0034907091327109844 0.0047816059575634682 0 -0.0035281280546243239 0.004842537404552867 0 -0.0034199064893146902 0.0048735362660085662 0 -0.0033772827291684822 0.0048447258745931126 0 -0.0034182385948733794 0.0048053730136630377 0 -0.0034199064893146902 0.0048735362660085662 0 -0.0034182385948733794 0.0048053730136630377 0 -0.0034907091327109844 0.0047816059575634682 0 -0.0034197123073881758 0.0047492938004823418 0 -0.0034182385948733794 0.0048053730136630377 0 -0.0034907091327109844 0.0047816059575634682 0 -0.0035783617136242443 0.0047729879613876754 0 -0.0035281280546243239 0.004842537404552867 0 -0.0037174207595286313 0.0048100123887316482 0 -0.0018846589881057387 0.0050864180068910794 0 -0.0018745523362590361 0.0050700169384610121 0 -0.0018819603383802438 0.0050844315830866731 0 -0.0034907091327109844 0.0047816059575634682 0 -0.0035783617136242443 0.0047729879613876754 0 -0.0035281280546243239 0.004842537404552867 0 -0.0018745523362590361 0.0050700169384610121 0 -0.0018662520708281089 0.0050537849865597085 0 -0.0018819603383802438 0.0050844315830866731 0 -0.0036206761797323741 0.0047207315183820228 0 -0.0035783617136242443 0.0047729879613876754 0 -0.0037174207595286313 0.0048100123887316482 0 -0.0013641558807198737 0.0040700017681136796 0 0.0030585075904033974 0.0022032791335021133 0 0.0024914121165872816 0.0022781350546176643 0 0.001915671064745381 0.0020512533040835989 0 0.0020631690966660399 0.0017147387081024184 0 0.0024156180963303339 0.0019141066549780493 0 0.0030585075904033974 0.0022032791335021133 0 0.0028164029564188104 0.0021458846693272384 0 0.0022006566064762105 0.0017313021351266188 0 0.0026304706073670657 0.0017387295605964493 0 0.0024914121165872816 0.0022781350546176643 0 0.0028164029564188104 0.0021458846693272384 0 0.0020631690966660399 0.0017147387081024184 0 0.0028164029564188104 0.0021458846693272384 0 0.0030848998727855781 0.0016823014344709303 0 0.0026304706073670657 0.0017387295605964493 0 0.0030848998727855781 0.0016823014344709303 0 0.0026304706073670657 0.0017387295605964493 0 0.0025726615785649854 0.00085950985288725827 0 0.0022006566064762105 0.0017313021351266188 0 0.0026304706073670657 0.0017387295605964493 0 0.0025726615785649854 0.00085950985288725827 0 0.0030848998727855781 0.0016823014344709303 0 0.0030058554874664266 0.0013591471480313329 0 0.002589981989479369 0.00073680416072334498 0 0.0030585075904033974 0.0022032791335021133 0 0.0050292259075225354 0.00080424435174226961 0 0.0023004443681447053 0.0014580649897627839 0 0.0050292259075225354 0.00080424435174226961 0 0.0071154685698169486 0.0015993912939114669 0 0.0071058214218765337 0.0017019075871913699 0 0.0072258211633045265 0.0017234897513898029 0 0.0071058214218765337 0.0017019075871913699 0 0.0072077222114065335 0.0017720331880450102 0 0.0072258211633045265 0.0017234897513898029 0 0.0031205155097226208 0.00055694068553040763 0 0.0030521513317983374 5.6109874068493007e-05 0 0.002589981989479369 0.00073680416072334498 0 0.0050292259075225354 0.00080424435174226961 0 0.0076069872847547874 0.0011470102128874691 0 0.0072174509557006924 0.00030865165064748105 0 0.0073081306936608791 6.0281495108345687e-05 0 0.0074638037375066614 0.00025854017062688472 0 0.0030521513317983374 5.6109874068493007e-05 0 0.003015647562568724 -0.0002123731805079043 0 0.002589981989479369 0.00073680416072334498 0 0.0072174509557006924 0.00030865165064748105 0 0.0074638037375066614 0.00025854017062688472 0 0.007432313140025763 0.00043044365297630874 0 0.0050845794703984065 -4.2319989999580855e-05 0 0.0050292259075225354 0.00080424435174226961 0 0.0072258211633045265 0.0017234897513898029 0 0.0073167317883713664 0.0017577810036085784 0 0.0073318268797598306 0.0017898743478131785 0 0.0072077222114065335 0.0017720331880450102 0 0.0072258211633045265 0.0017234897513898029 0 0.0073318268797598306 0.0017898743478131785 0 0.0072589581275958309 0.0016789198370883831 0 0.0072258211633045265 0.0017234897513898029 0 0.0073167317883713664 0.0017577810036085784 0 0.0046353516505226481 0.0025367625150146136 0 0.0023424708264073711 0.0037343866380898576 0 0.0073196627203086246 0.0017531849029169431 0 0.0072589581275958309 0.0016789198370883831 0 0.0073167317883713664 0.0017577810036085784 0 0.0046353516505226481 0.0025367625150146136 0 0.0083172858680992563 0.0014704948396350129 0 0.0073167317883713664 0.0017577810036085784 0 0.0073902200202139124 0.0018045766065372957 0 0.0073318268797598306 0.0017898743478131785 0 0.0073971368011246973 0.0018242525649374767 0 0.0073167317883713664 0.0017577810036085784 0 0.0073902200202139124 0.0018045766065372957 0 0.0073902200202139124 0.0018045766065372957 0 0.0073929892666320662 0.0017929759523139894 0 0.0073318268797598306 0.0017898743478131785 0 0.0073902200202139124 0.0018045766065372957 0 0.0073929892666320662 0.0017929759523139894 0 0.0074148020625921197 0.0017889048805945493 0 0.0074148020625921197 0.0017889048805945493 0 0.0074294478111181219 0.0017726384194064477 0 0.0074353759559832259 0.0017700601730376876 0 0.0073929892666320662 0.0017929759523139894 0 0.0074148020625921197 0.0017889048805945493 0 0.0074294478111181219 0.0017726384194064477 0 0.0073929892666320662 0.0017929759523139894 0 0.0074161603879174098 0.0017787361422838101 0 0.0074294478111181219 0.0017726384194064477 0 0.0073929892666320662 0.0017929759523139894 0 0.0074161603879174098 0.0017787361422838101 0 0.0073797734446616791 0.0017931790684009696 0 0.0074161603879174098 0.0017787361422838101 0 0.0074423082554635313 0.0017576134364715337 0 0.0074370430398427627 0.0017672692047841106 0 0.0074161603879174098 0.0017787361422838101 0 0.0073797734446616791 0.0017931790684009696 0 0.0074370430398427627 0.0017672692047841106 0 0.0074161603879174098 0.0017787361422838101 0 0.0074423082554635313 0.0017576134364715337 0 0.0074294478111181219 0.0017726384194064477 0 0.0074423082554635313 0.0017576134364715337 0 0.0074294478111181219 0.0017726384194064477 0 0.0074553384632843698 0.0017403949428896534 0 0.0076234230560087617 0.00046622035572069692 0 0.0075353814129762945 0.00059582307264904953 0 0.0077695852672484333 0.00069027888047439858 0 0.007431236591938623 0.0010892777100326913 0 0.0075976502453410514 0.0012552175825813322 0 0.0073797734446616791 0.0017931790684009696 0 0.0073251916003750648 0.0018062504649815905 0 0.0074370430398427627 0.0017672692047841106 0 0.0072077222114065335 0.0017720331880450102 0 0.0073251916003750648 0.0018062504649815905 0 0.0073318268797598306 0.0017898743478131785 0 0.0073929892666320662 0.0017929759523139894 0 0.0073797734446616791 0.0017931790684009696 0 0.0073318268797598306 0.0017898743478131785 0 0.0073797734446616791 0.0017931790684009696 0 0.0073251916003750648 0.0018062504649815905 0 0.0073318268797598306 0.0017898743478131785 0 0.0076069872847547874 0.0011470102128874691 0 0.007431236591938623 0.0010892777100326913 0 0.0074638037375066614 0.00025854017062688472 0 0.0076234230560087617 0.00046622035572069692 0 0.007432313140025763 0.00043044365297630874 0 0.0076234230560087617 0.00046622035572069692 0 0.007432313140025763 0.00043044365297630874 0 0.0075353814129762945 0.00059582307264904953 0 0.0072174509557006924 0.00030865165064748105 0 0.007432313140025763 0.00043044365297630874 0 0.0073275511546661582 0.00052811190833239026 0 0.0073275511546661582 0.00052811190833239026 0 0.0072651891456718609 0.000634054256139662 0 0.0074066564694314401 0.00068523476618847492 0 0.0073275511546661582 0.00052811190833239026 0 0.0075353814129762945 0.00059582307264904953 0 0.0074066564694314401 0.00068523476618847492 0 0.007432313140025763 0.00043044365297630874 0 0.0073275511546661582 0.00052811190833239026 0 0.0075353814129762945 0.00059582307264904953 0 0.0075353814129762945 0.00059582307264904953 0 0.007567892590442926 0.00074125810916274987 0 0.0074066564694314401 0.00068523476618847492 0 0.007567892590442926 0.00074125810916274987 0 0.0074938071783860758 0.00083690017393828946 0 0.0074066564694314401 0.00068523476618847492 0 0.007567892590442926 0.00074125810916274987 0 0.0074938071783860758 0.00083690017393828946 0 0.0076556694852104997 0.00084197637575785834 0 0.0074938071783860758 0.00083690017393828946 0 0.0074066564694314401 0.00068523476618847492 0 0.0072614908117143388 0.00079777391584357241 0 0.0072651891456718609 0.000634054256139662 0 0.0074066564694314401 0.00068523476618847492 0 0.0072614908117143388 0.00079777391584357241 0 0.0074938071783860758 0.00083690017393828946 0 0.0072614908117143388 0.00079777391584357241 0 0.0074265315975246392 0.0010347581520337341 0 0.006786238027895351 -0.00034980492263780692 0 0.0065522823093779169 0.00012986772794373782 0 0.007038680055350988 4.0357772285123628e-05 0 0.0071872497120980599 0.00030925015843503404 0 0.0071936207562553027 0.00049741088870999578 0 0.0075922824507705534 0.00094899066022120261 0 0.0076726231359072151 0.0010680270927448292 0 0.0074265315975246392 0.0010347581520337341 0 0.0074938071783860758 0.00083690017393828946 0 0.0075922824507705534 0.00094899066022120261 0 0.0074265315975246392 0.0010347581520337341 0 0.0074938071783860758 0.00083690017393828946 0 0.0075922824507705534 0.00094899066022120261 0 0.0076556694852104997 0.00084197637575785834 0 0.0075922824507705534 0.00094899066022120261 0 0.0077800971119685322 0.00095500582516452024 0 0.0076726231359072151 0.0010680270927448292 0 0.0075922824507705534 0.00094899066022120261 0 0.0077800971119685322 0.00095500582516452024 0 0.0076556694852104997 0.00084197637575785834 0 0.0077800971119685322 0.00095500582516452024 0 0.007969845108081049 0.00091555385693973461 0 0.0077679961089942027 0.00074440547924682794 0 0.0077800971119685322 0.00095500582516452024 0 0.0078999906458316494 0.0010116515314790846 0 0.007969845108081049 0.00091555385693973461 0 0.0077800971119685322 0.00095500582516452024 0 0.0078999906458316494 0.0010116515314790846 0 0.0078802636855337185 0.0011090600163743483 0 0.0078999906458316494 0.0010116515314790846 0 0.007969845108081049 0.00091555385693973461 0 0.0080359289739371127 0.0010653441291128564 0 0.0078481822791526389 0.0011299915847969566 0 0.0079858181971646583 0.0010443699294550057 0 0.0074966789071651933 0.0016815042741228357 0 0.0074634143085715371 0.001728558886745256 0 0.0074370430398427627 0.0017672692047841106 0 0.0079211864657208093 0.00093423436119326718 0 0.0077695852672484333 0.00069027888047439858 0 0.0077194335489295541 0.0007629525317568444 0 0.0078481822791526389 0.0011299915847969566 0 0.0077408301400759497 0.00073492187050525266 0 0.0078481822791526389 0.0011299915847969566 0 0.0075976502453410514 0.0012552175825813322 0 0.0074966789071651933 0.0016815042741228357 0 0.0074634143085715371 0.001728558886745256 0 0.0074756687311799824 0.0017056471816560379 0 0.0074423082554635313 0.0017576134364715337 0 0.0074634143085715371 0.001728558886745256 0 0.0074553384632843698 0.0017403949428896534 0 0.0074423082554635313 0.0017576134364715337 0 0.0074634143085715371 0.001728558886745256 0 0.0074370430398427627 0.0017672692047841106 0 0.0075353814129762945 0.00059582307264904953 0 0.0077695852672484333 0.00069027888047439858 0 0.0077194335489295541 0.0007629525317568444 0 0.0075353814129762945 0.00059582307264904953 0 0.007567892590442926 0.00074125810916274987 0 0.0077679961089942027 0.00074440547924682794 0 0.0075580296330039591 0.00061351931007172381 0 0.0077408301400759497 0.00073492187050525266 0 0.0077800971119685322 0.00095500582516452024 0 0.0077679961089942027 0.00074440547924682794 0 0.0076556694852104997 0.00084197637575785834 0 0.007567892590442926 0.00074125810916274987 0 0.0077679961089942027 0.00074440547924682794 0 0.0076556694852104997 0.00084197637575785834 0 0.0051263569873379261 -0.0012456365485664629 0 0.0050722913482711112 -0.0012147115386968589 0 0.0050820539628487777 -0.0012654272354787764 0 0.005118848439695913 -0.0013101331594592284 0 0.0051263569873379261 -0.0012456365485664629 0 0.005108197447674415 -0.0012952194960361115 0 0.0051263569873379261 -0.0012456365485664629 0 0.0050820539628487777 -0.0012654272354787764 0 0.005108197447674415 -0.0012952194960361115 0 0.0050820539628487777 -0.0012654272354787764 0 0.0050829402683696349 -0.0012981931287357629 0 0.005108197447674415 -0.0012952194960361115 0 0.0049707188445373323 -0.0010462568386755268 0 0.0046667973441619076 -0.00099406962983793591 0 0.004852588420817568 -0.001150263612259236 0 0.0049116382109534078 -0.0011772915161802761 0 0.0049816092003376203 -0.0011682041723161695 0 0.0051011522350190332 -0.0011559727997399237 0 0.0051263569873379261 -0.0012456365485664629 0 0.0050722913482711112 -0.0012147115386968589 0 0.0050083218965209257 -0.001159691907013215 0 0.0050722913482711112 -0.0012147115386968589 0 0.0050296390648783291 -0.0012371575246067476 0 0.0050083218965209257 -0.001159691907013215 0 0.0051011522350190332 -0.0011559727997399237 0 0.0050722913482711112 -0.0012147115386968589 0 0.0050820539628487777 -0.0012654272354787764 0 0.0050579799522470796 -0.0012831229964853402 0 0.0050296390648783291 -0.0012371575246067476 0 0.0050722913482711112 -0.0012147115386968589 0 0.0050820539628487777 -0.0012654272354787764 0 0.0050296390648783291 -0.0012371575246067476 0 0.0050579799522470796 -0.0012831229964853402 0 0.0050296390648783291 -0.0012371575246067476 0 0.0050289098428202518 -0.0012910869547538095 0 0.0050820539628487777 -0.0012654272354787764 0 0.0050579799522470796 -0.0012831229964853402 0 0.0050829402683696349 -0.0012981931287357629 0 0.0046898886191359766 -0.00098962267062312724 0 0.0059385380020849391 -0.00094794298871285964 0 0.0064745392102419442 -0.00081599878875532144 0 0.0065050818339486187 -0.00068887379369561564 0 0.0063081348579616453 -0.0003803651817730967 0 0.0050296390648783291 -0.0012371575246067476 0 0.0050114125613505076 -0.0012684190339400533 0 0.0050289098428202518 -0.0012910869547538095 0 0.0050114125613505076 -0.0012684190339400533 0 0.0049734300681612449 -0.0012411432212841252 0 0.0050191877211697954 -0.0013191855827403114 0 0.0050296390648783291 -0.0012371575246067476 0 0.0050114125613505076 -0.0012684190339400533 0 0.0049734300681612449 -0.0012411432212841252 0 0.0050083218965209257 -0.001159691907013215 0 0.0050296390648783291 -0.0012371575246067476 0 0.0049734300681612449 -0.0012411432212841252 0 0.0035517220606608763 -0.00010144110134593606 0 0.0039688940402330692 -0.00018162870214578976 0 0.0034831596915695399 -0.00097918789655383883 0 0.0044340768433426131 -0.0006895996737103303 0 0.0046898886191359766 -0.00098962267062312724 0 0.0027222976697290732 6.9922318846582071e-05 0 0.0046898886191359766 -0.00098962267062312724 0 0.0030521513317983374 5.6109874068493007e-05 0 0.0035517220606608763 -0.00010144110134593606 0 0.0034831596915695399 -0.00097918789655383883 0 0.0050845794703984065 -4.2319989999580855e-05 0 0.0055904188760037225 -0.00017762637934635227 0 0.0030521513317983374 5.6109874068493007e-05 0 0.003015647562568724 -0.0002123731805079043 0 0.0035853931809547942 -0.0010179772169409129 0 0.0072174509557006924 0.00030865165064748105 0 0.0073275511546661582 0.00052811190833239026 0 0.0071088639204848455 0.00056759886507607674 0 0.003015647562568724 -0.0002123731805079043 0 0.0035853931809547942 -0.0010179772169409129 0 0.0034960816931572437 -0.0011730645317025051 0 0.0073275511546661582 0.00052811190833239026 0 0.0072651891456718609 0.000634054256139662 0 0.0071088639204848455 0.00056759886507607674 0 0.0072651891456718609 0.000634054256139662 0 0.0072614908117143388 0.00079777391584357241 0 0.0071088639204848455 0.00056759886507607674 0 0.006786238027895351 -0.00034980492263780692 0 0.006525284875322895 -0.00074038649070895383 0 0.0065050818339486187 -0.00068887379369561564 0 0.0046898886191359766 -0.00098962267062312724 0 0.0055904188760037225 -0.00017762637934635227 0 0.0064745392102419442 -0.00081599878875532144 0 0.0065233913463206795 -0.00073971699036458967 0 0.0065050818339486187 -0.00068887379369561564 0 0.0055904188760037225 -0.00017762637934635227 0 0.0057264986085701266 -0.00037143278074605851 0 0.0065050818339486187 -0.00068887379369561564 0 0.0065478675061414558 -0.00044448489802404064 0 0.0063081348579616453 -0.0003803651817730967 0 0.0071872497120980599 0.00030925015843503404 0 0.0055904188760037225 -0.00017762637934635227 0 0.006786238027895351 -0.00034980492263780692 0 0.0065050818339486187 -0.00068887379369561564 0 0.0065478675061414558 -0.00044448489802404064 0 0.006786238027895351 -0.00034980492263780692 0 0.0065478675061414558 -0.00044448489802404064 0 0.0065522823093779169 0.00012986772794373782 0 0.0065478675061414558 -0.00044448489802404064 0 0.0063081348579616453 -0.0003803651817730967 0 0.0065522823093779169 0.00012986772794373782 0 0.006575563248101015 -0.00094498766719152316 0 0.0066124025281003715 -0.0010482382402115435 0 0.0066916295990392905 -0.00090057496590291029 0 0.0058268753025596514 -0.0012019928656077038 0 0.0059385380020849391 -0.00094794298871285964 0 0.0050594576975918903 -0.0013630111344913739 0 0.0050267046243375156 -0.001314370516154754 0 0.0050594426563324033 -0.0013172362809551552 0 0.0059385380020849391 -0.00094794298871285964 0 0.0066262271562278494 -0.00025056911163697291 0 0.0050114125613505076 -0.0012684190339400533 0 0.0050191877211697954 -0.0013191855827403114 0 0.0050289098428202518 -0.0012910869547538095 0 0.0059385380020849391 -0.00094794298871285964 0 0.0052990304114569732 -0.0014548802147425982 0 0.0050267046243375156 -0.001314370516154754 0 0.0050289098428202518 -0.0012910869547538095 0 0.0050594426563324033 -0.0013172362809551552 0 0.0050579799522470796 -0.0012831229964853402 0 0.0050289098428202518 -0.0012910869547538095 0 0.0050594426563324033 -0.0013172362809551552 0 0.0050579799522470796 -0.0012831229964853402 0 0.0050829402683696349 -0.0012981931287357629 0 0.0050594426563324033 -0.0013172362809551552 0 0.0050829402683696349 -0.0012981931287357629 0 0.0050594426563324033 -0.0013172362809551552 0 0.0050969410525212294 -0.00132727270921699 0 0.0050594426563324033 -0.0013172362809551552 0 0.0050798615734909272 -0.0013444933590016821 0 0.0050969410525212294 -0.00132727270921699 0 0.0050798615734909272 -0.0013444933590016821 0 0.0050969410525212294 -0.00132727270921699 0 0.0051028196519477924 -0.0013697885440334052 0 0.0050594576975918903 -0.0013630111344913739 0 0.0050798615734909272 -0.0013444933590016821 0 0.0051028196519477924 -0.0013697885440334052 0 0.0050594576975918903 -0.0013630111344913739 0 0.0050594426563324033 -0.0013172362809551552 0 0.0050798615734909272 -0.0013444933590016821 0 0.0051220666148167095 -0.0013472744145406363 0 0.0050969410525212294 -0.00132727270921699 0 0.0051028196519477924 -0.0013697885440334052 0 0.0051425615868105571 -0.0013810370055218101 0 0.0051220666148167095 -0.0013472744145406363 0 0.0051028196519477924 -0.0013697885440334052 0 0.0051165735102968197 -0.0013190727397411081 0 0.0050969410525212294 -0.00132727270921699 0 0.005108197447674415 -0.0012952194960361115 0 0.0051220666148167095 -0.0013472744145406363 0 0.0051165735102968197 -0.0013190727397411081 0 0.0050969410525212294 -0.00132727270921699 0 0.0050829402683696349 -0.0012981931287357629 0 0.0050969410525212294 -0.00132727270921699 0 0.005108197447674415 -0.0012952194960361115 0 0.0051425615868105571 -0.0013810370055218101 0 0.0051219531039873433 -0.0014107906352033509 0 0.0051427573408392097 -0.00142820846339273 0 0.0051219531039873433 -0.0014107906352033509 0 0.0051397981532895522 -0.0014310922167600592 0 0.0051427573408392097 -0.00142820846339273 0 0.0051219531039873433 -0.0014107906352033509 0 0.0051217236272268008 -0.0014327043172229249 0 0.0051397981532895522 -0.0014310922167600592 0 0.0051425615868105571 -0.0013810370055218101 0 0.0051219531039873433 -0.0014107906352033509 0 0.0051028196519477924 -0.0013697885440334052 0 0.0058268753025596514 -0.0012019928656077038 0 0.0057712439246437727 -0.0010410428898319673 0 0.0051219531039873433 -0.0014107906352033509 0 0.0051028196519477924 -0.0013697885440334052 0 0.005091523349734779 -0.0014013414324931155 0 0.0050594576975918903 -0.0013630111344913739 0 0.0051028196519477924 -0.0013697885440334052 0 0.005091523349734779 -0.0014013414324931155 0 0.0051219531039873433 -0.0014107906352033509 0 0.005091523349734779 -0.0014013414324931155 0 0.0051217236272268008 -0.0014327043172229249 0 0.0065352149305076181 -0.00084246786244737367 0 0.0066306820742405978 -0.00074386059456270565 0 0.0064918556115044056 -0.00074076376116926431 0 0.0057712439246437727 -0.0010410428898319673 0 0.0061324800543563224 -0.0014166673598803427 0 0.0065352149305076181 -0.00084246786244737367 0 0.0066299371625854519 -0.00083511051448440518 0 0.0066306820742405978 -0.00074386059456270565 0 0.006575563248101015 -0.00094498766719152316 0 0.0065352149305076181 -0.00084246786244737367 0 0.0066299371625854519 -0.00083511051448440518 0 0.006575563248101015 -0.00094498766719152316 0 0.0066299371625854519 -0.00083511051448440518 0 0.0066916295990392905 -0.00090057496590291029 0 0.0066299371625854519 -0.00083511051448440518 0 0.0066306820742405978 -0.00074386059456270565 0 0.0067726056558051499 -0.00074792399381605967 0 0.0066299371625854519 -0.00083511051448440518 0 0.0066916295990392905 -0.00090057496590291029 0 0.0067726056558051499 -0.00074792399381605967 0 0.0066262271562278494 -0.00025056911163697291 0 0.0074125089446201511 -0.00049977663902500127 0 0.0082758370817774957 -0.0016277191670487361 0 0.0077673769630547829 -0.0020826516092781384 0 0.0085366477793404304 -0.0021220727227804956 0 0.0073755567173964575 -0.0015019377745305641 0 0.0074125089446201511 -0.00049977663902500127 0 0.0082758370817774957 -0.0016277191670487361 0 0.0084428416228088266 -0.0012332012596299841 0 0.0087571955928326499 -0.0016443183178309416 0 0.0084428416228088266 -0.0012332012596299841 0 0.0080374770630128149 -0.001265260068675703 0 0.0081323374594700695 -0.00091545754816580545 0 0.0082758370817774957 -0.0016277191670487361 0 0.0084428416228088266 -0.0012332012596299841 0 0.0080374770630128149 -0.001265260068675703 0 0.0082758370817774957 -0.0016277191670487361 0 0.0080374770630128149 -0.001265260068675703 0 0.0078491660219165895 -0.0015865903014083459 0 0.0080374770630128149 -0.001265260068675703 0 0.0076549929753376173 -0.0012936328408288487 0 0.0078280575842978282 -0.0010006921886254055 0 0.0080374770630128149 -0.001265260068675703 0 0.0078491660219165895 -0.0015865903014083459 0 0.0076549929753376173 -0.0012936328408288487 0 0.0076549929753376173 -0.0012936328408288487 0 0.0072896250814140128 -0.0012801076254424677 0 0.0075264489998927431 -0.0010185649515769796 0 0.0078491660219165895 -0.0015865903014083459 0 0.0076549929753376173 -0.0012936328408288487 0 0.0073896990778151437 -0.0016146955140158433 0 0.0078491660219165895 -0.0015865903014083459 0 0.0077673769630547829 -0.0020826516092781384 0 0.0073896990778151437 -0.0016146955140158433 0 0.0082758370817774957 -0.0016277191670487361 0 0.0078491660219165895 -0.0015865903014083459 0 0.0077673769630547829 -0.0020826516092781384 0 0.0073755567173964575 -0.0015019377745305641 0 0.0061324800543563224 -0.0014166673598803427 0 0.0077673769630547829 -0.0020826516092781384 0 0.0069780645367244565 -0.0020436251144641672 0 0.0073896990778151437 -0.0016146955140158433 0 0.0069780645367244565 -0.0020436251144641672 0 0.0073896990778151437 -0.0016146955140158433 0 0.0070027857863378187 -0.0015805328232663643 0 0.0076549929753376173 -0.0012936328408288487 0 0.0073896990778151437 -0.0016146955140158433 0 0.0072896250814140128 -0.0012801076254424677 0 0.0073896990778151437 -0.0016146955140158433 0 0.0072896250814140128 -0.0012801076254424677 0 0.0070985344934033408 -0.0014162363738848772 0 0.0072896250814140128 -0.0012801076254424677 0 0.0070052626901424379 -0.0012534963046308102 0 0.0070985344934033408 -0.0014162363738848772 0 0.0070052626901424379 -0.0012534963046308102 0 0.0070985344934033408 -0.0014162363738848772 0 0.0068122299484580408 -0.0012630820682043538 0 0.0072896250814140128 -0.0012801076254424677 0 0.007227043881642351 -0.0010125878160789192 0 0.0070774727632117946 -0.0011207864115262785 0 0.0072896250814140128 -0.0012801076254424677 0 0.0070052626901424379 -0.0012534963046308102 0 0.0070774727632117946 -0.0011207864115262785 0 0.0070052626901424379 -0.0012534963046308102 0 0.0068760722894145084 -0.001086300276244188 0 0.0070774727632117946 -0.0011207864115262785 0 0.0070027857863378187 -0.0015805328232663643 0 0.0070985344934033408 -0.0014162363738848772 0 0.0068122299484580408 -0.0012630820682043538 0 0.0073896990778151437 -0.0016146955140158433 0 0.0070027857863378187 -0.0015805328232663643 0 0.0070985344934033408 -0.0014162363738848772 0 0.0061324800543563224 -0.0014166673598803427 0 0.0059566398182428083 -0.0013106889242260316 0 0.0069780645367244565 -0.0020436251144641672 0 0.0070027857863378187 -0.0015805328232663643 0 0.0066262629997970932 -0.0012693814572496108 0 0.006351357278680944 -0.0010805007317643348 0 0.0061795331721094075 -0.001151432549227955 0 0.005908365701282739 -0.0013683630865902702 0 0.0070027857863378187 -0.0015805328232663643 0 0.0068122299484580408 -0.0012630820682043538 0 0.0066262629997970932 -0.0012693814572496108 0 0.0067048277644725365 -0.0012148079665622443 0 0.0067537056967095126 -0.0011465698893687269 0 0.0068122299484580408 -0.0012630820682043538 0 0.0067048277644725365 -0.0012148079665622443 0 0.0068122299484580408 -0.0012630820682043538 0 0.0066262629997970932 -0.0012693814572496108 0 0.0067048277644725365 -0.0012148079665622443 0 0.0066259155017077773 -0.0011707217742993727 0 0.0066262629997970932 -0.0012693814572496108 0 0.0067048277644725365 -0.0012148079665622443 0 0.0067537056967095126 -0.0011465698893687269 0 0.0066259155017077773 -0.0011707217742993727 0 0.0067537056967095126 -0.0011465698893687269 0 0.0068122299484580408 -0.0012630820682043538 0 0.0068760722894145084 -0.001086300276244188 0 0.0070052626901424379 -0.0012534963046308102 0 0.0068122299484580408 -0.0012630820682043538 0 0.0068760722894145084 -0.001086300276244188 0 0.0061539811234844043 -0.0010746078414877727 0 0.0062981189944413332 -0.0010519926821458889 0 0.0062751869221497926 -0.0010897375508469608 0 0.0062981189944413332 -0.0010519926821458889 0 0.0063503861089365963 -0.0010597578999222191 0 0.0062751869221497926 -0.0010897375508469608 0 0.0062981189944413332 -0.0010519926821458889 0 0.0063503861089365963 -0.0010597578999222191 0 0.0064480576547672926 -0.0010195820640381539 0 0.006351357278680944 -0.0010805007317643348 0 0.0063503861089365963 -0.0010597578999222191 0 0.0062751869221497926 -0.0010897375508469608 0 0.006351357278680944 -0.0010805007317643348 0 0.0063503861089365963 -0.0010597578999222191 0 0.0064480576547672926 -0.0010195820640381539 0 0.0066259155017077773 -0.0011707217742993727 0 0.0065876333212768409 -0.0013393529032938126 0 0.0064480576547672926 -0.0010195820640381539 0 0.0059566398182428083 -0.0013106889242260316 0 0.0060867010327901178 -0.0012200784676374243 0 0.0060212827587448553 -0.001254107456049423 0 0.0059566398182428083 -0.0013106889242260316 0 0.006351357278680944 -0.0010805007317643348 0 0.0062751869221497926 -0.0010897375508469608 0 0.0061795331721094075 -0.001151432549227955 0 0.0061539811234844043 -0.0010746078414877727 0 0.0062751869221497926 -0.0010897375508469608 0 0.0061795331721094075 -0.001151432549227955 0 0.0059566398182428083 -0.0013106889242260316 0 0.005505169522196502 -0.0013696741635150235 0 0.0051433544195141215 -0.0014310053542563009 0 0.0051508986464288723 -0.0014327948783693057 0 0.0051397981532895522 -0.0014310922167600592 0 0.0051508986464288723 -0.0014327948783693057 0 0.0051397981532895522 -0.0014310922167600592 0 0.0051427573408392097 -0.00142820846339273 0 0.0061324800543563224 -0.0014166673598803427 0 0.0052052275712848343 -0.0013873769258117197 0 0.0082214312264483926 0.0012501398532606726 0 0.0078663520674732545 0.00071135282627593141 0 0.0077638951341133912 0.0011969607417601643 0 0.0078780237121694689 0.0012927908397418223 0 0.0078802636855337185 0.0011090600163743483 0 0.0077638951341133912 0.0011969607417601643 0 0.0078780237121694689 0.0012927908397418223 0 0.0076187524410374925 0.0013167864325707909 0 0.0078780237121694689 0.0012927908397418223 0 0.008131933628522027 0.0011816582160261518 0 0.0080273244553093048 0.0011471611864461884 0 0.0078780237121694689 0.0012927908397418223 0 0.0078802636855337185 0.0011090600163743483 0 0.0080273244553093048 0.0011471611864461884 0 0.0082214312264483926 0.0012501398532606726 0 0.0081006787201817546 0.0011782726869585113 0 0.0078802636855337185 0.0011090600163743483 0 0.0080273244553093048 0.0011471611864461884 0 0.0080359289739371127 0.0010653441291128564 0 0.0078999906458316494 0.0010116515314790846 0 0.0078802636855337185 0.0011090600163743483 0 0.0080359289739371127 0.0010653441291128564 0 0.0077638951341133912 0.0011969607417601643 0 0.0078802636855337185 0.0011090600163743483 0 0.0076726231359072151 0.0010680270927448292 0 0.0077638951341133912 0.0011969607417601643 0 0.0076726231359072151 0.0010680270927448292 0 0.0076467696500337233 0.0012275002220548054 0 0.0077800971119685322 0.00095500582516452024 0 0.0078802636855337185 0.0011090600163743483 0 0.0076726231359072151 0.0010680270927448292 0 0.007038680055350988 4.0357772285123628e-05 0 0.0069861749509263363 0.00038914769315341987 0 0.007290395627046811 0.00043061461524288947 0 0.0071936207562553027 0.00049741088870999578 0 0.0075295562080263936 0.00093924387734864326 0 0.0076467940056959968 0.0011790796337559392 0 0.0075295562080263936 0.00093924387734864326 0 0.0076726231359072151 0.0010680270927448292 0 0.0074265315975246392 0.0010347581520337341 0 0.0075985108875731931 0.0012909324598931445 0 0.0065522823093779169 0.00012986772794373782 0 0.007038680055350988 4.0357772285123628e-05 0 0.0069861749509263363 0.00038914769315341987 0 0.0065522823093779169 0.00012986772794373782 0 0.0069861749509263363 0.00038914769315341987 0 0.0067932881641907779 0.00063339565588700685 0 0.0078663520674732545 0.00071135282627593141 0 0.0074125089446201511 -0.00049977663902500127 0 0.0069861749509263363 0.00038914769315341987 0 0.0072347513216071335 0.00060701740457367508 0 0.0067932881641907779 0.00063339565588700685 0 0.0069861749509263363 0.00038914769315341987 0 0.007290395627046811 0.00043061461524288947 0 0.0072347513216071335 0.00060701740457367508 0 0.0077638951341133912 0.0011969607417601643 0 0.0076467696500337233 0.0012275002220548054 0 0.0076187524410374925 0.0013167864325707909 0 0.0075295562080263936 0.00093924387734864326 0 0.0078663520674732545 0.00071135282627593141 0 0.0087197876027072154 0.0010725251147373296 0 0.0087748200865456379 0.00088840901889084207 0 0.0085873662030545236 0.00093606558446646408 0 0.0078663520674732545 0.00071135282627593141 0 0.0083541373470359948 0.00041186416183101724 0 0.007954691295238292 -7.6708836328710534e-05 0 0.0079976426050718009 -4.3901146605269942e-05 0 0.0079843135445080027 -8.1563808867824965e-05 0 0.0079389366556447925 -3.2440873773705009e-05 0 0.007954691295238292 -7.6708836328710534e-05 0 0.0079976426050718009 -4.3901146605269942e-05 0 0.0082758370817774957 -0.0016277191670487361 0 0.0085366477793404304 -0.0021220727227804956 0 0.0087571955928326499 -0.0016443183178309416 0 0.0074125089446201511 -0.00049977663902500127 0 0.0082954252482820724 -0.00095307744389057001 0 0.0084428416228088266 -0.0012332012596299841 0 0.0087571955928326499 -0.0016443183178309416 0 0.0089780766989186467 -0.0011628001466684342 0 0.007954691295238292 -7.6708836328710534e-05 0 0.0079843135445080027 -8.1563808867824965e-05 0 0.0079732463541220353 -0.00011892115677729008 0 0.0082954252482820724 -0.00095307744389057001 0 0.0085523931228981311 -6.9719450671978131e-05 0 0.0087748200865456379 0.00088840901889084207 0 0.0085527214778219132 0.0007328484515639693 0 0.0085873662030545236 0.00093606558446646408 0 0.0087748200865456379 0.00088840901889084207 0 0.0085527214778219132 0.0007328484515639693 0 0.0086566132629026325 0.00060642935538553037 0 0.0087748200865456379 0.00088840901889084207 0 0.0088300503389547834 0.00067707122259004807 0 0.0086566132629026325 0.00060642935538553037 0 0.0083541373470359948 0.00041186416183101724 0 0.0085523931228981311 -6.9719450671978131e-05 0 0.0085527214778219132 0.0007328484515639693 0 0.0085873662030545236 0.00093606558446646408 0 0.0084408401836127064 0.0008748774592739003 0 0.0084470608557784977 0.0011158017564258035 0 0.0085873662030545236 0.00093606558446646408 0 0.0084408401836127064 0.0008748774592739003 0 0.0084470608557784977 0.0011158017564258035 0 0.0087197876027072154 0.0010725251147373296 0 0.0085873662030545236 0.00093606558446646408 0 0.0084470608557784977 0.0011158017564258035 0 0.0084408401836127064 0.0008748774592739003 0 0.0082290563053584072 0.00092477885364564073 0 0.0084408401836127064 0.0008748774592739003 0 0.0082290563053584072 0.00092477885364564073 0 0.0083944251877112654 0.00068216923963048705 0 0.0085527214778219132 0.0007328484515639693 0 0.0084408401836127064 0.0008748774592739003 0 0.0083944251877112654 0.00068216923963048705 0 0.0082290563053584072 0.00092477885364564073 0 0.0080590182029953092 0.00087307541728787056 0 0.0080185747741376677 0.0010609509593233377 0 0.0082290563053584072 0.00092477885364564073 0 0.0080590182029953092 0.00087307541728787056 0 0.008172966338990879 0.00065219273062621015 0 0.0082290563053584072 0.00092477885364564073 0 0.0080185747741376677 0.0010609509593233377 0 0.008131933628522027 0.0011816582160261518 0 0.0084470608557784977 0.0011158017564258035 0 0.0082290563053584072 0.00092477885364564073 0 0.008131933628522027 0.0011816582160261518 0 0.0077536677042167558 0.00089221385949307284 0 0.0078855700728844291 0.00094055810904477373 0 0.0079116860238298194 0.00076734824850006541 0 0.0077536677042167558 0.00089221385949307284 0 0.0078855700728844291 0.00094055810904477373 0 0.0076952764928613342 0.001160753964434668 0 0.0080590182029953092 0.00087307541728787056 0 0.0080185747741376677 0.0010609509593233377 0 0.0078855700728844291 0.00094055810904477373 0 0.0080590182029953092 0.00087307541728787056 0 0.0078855700728844291 0.00094055810904477373 0 0.0079116860238298194 0.00076734824850006541 0 0.0080185747741376677 0.0010609509593233377 0 0.0076952764928613342 0.001160753964434668 0 0.0079895242097856433 0.0012184982425714715 0 0.0080185747741376677 0.0010609509593233377 0 0.0078855700728844291 0.00094055810904477373 0 0.0076952764928613342 0.001160753964434668 0 0.0076952764928613342 0.001160753964434668 0 0.0075465375932675547 0.0013860719634431809 0 0.0075427318462620695 0.0012403164041619071 0 0.0076952764928613342 0.001160753964434668 0 0.0075465375932675547 0.0013860719634431809 0 0.0075903272966707618 0.0014332163876932685 0 0.0075465375932675547 0.0013860719634431809 0 0.0075903272966707618 0.0014332163876932685 0 0.0075257107931021418 0.0014955096362594736 0 0.0076788351075847763 0.001166871544920368 0 0.007776021655969724 0.0013023273266336494 0 0.0075903272966707618 0.0014332163876932685 0 0.0075257107931021418 0.0014955096362594736 0 0.0075247087939662779 0.0015537571028812118 0 0.0075257107931021418 0.0014955096362594736 0 0.0075247087939662779 0.0015537571028812118 0 0.0074698785878010588 0.0015804352811117771 0 0.0075465375932675547 0.0013860719634431809 0 0.0075257107931021418 0.0014955096362594736 0 0.0074766432117858144 0.0014998332751538063 0 0.0075257107931021418 0.0014955096362594736 0 0.0074766432117858144 0.0014998332751538063 0 0.0074698785878010588 0.0015804352811117771 0 0.0074766432117858144 0.0014998332751538063 0 0.0074049021586854126 0.0015705352257042277 0 0.0074262491259834756 0.0014792561345320933 0 0.0075465375932675547 0.0013860719634431809 0 0.0074766432117858144 0.0014998332751538063 0 0.0074262491259834756 0.0014792561345320933 0 0.0080185747741376677 0.0010609509593233377 0 0.0079895242097856433 0.0012184982425714715 0 0.008131933628522027 0.0011816582160261518 0 0.0079895242097856433 0.0012184982425714715 0 0.008131933628522027 0.0011816582160261518 0 0.0081002535815697888 0.0011415088528819338 0 0.007776021655969724 0.0013023273266336494 0 0.0077962325143644323 0.0013756428912271037 0 0.0075903272966707618 0.0014332163876932685 0 0.0075247087939662779 0.0015537571028812118 0 0.0075292096097590092 0.0015807962935157308 0 0.0075247087939662779 0.0015537571028812118 0 0.0075292096097590092 0.0015807962935157308 0 0.0075073577874156311 0.0016064897478772775 0 0.008131933628522027 0.0011816582160261518 0 0.0081002535815697888 0.0011415088528819338 0 0.0080273244553093048 0.0011471611864461884 0 0.0081002535815697888 0.0011415088528819338 0 0.0080273244553093048 0.0011471611864461884 0 0.0080359289739371127 0.0010653441291128564 0 0.0074966789071651933 0.0016815042741228357 0 0.0075292096097590092 0.0015807962935157308 0 0.0074886106171488569 0.0016668554624841079 0 0.0074966789071651933 0.0016815042741228357 0 0.0074886106171488569 0.0016668554624841079 0 0.0074756687311799824 0.0017056471816560379 0 0.0080024330629844542 0.00095872896455567638 0 0.0081002535815697888 0.0011415088528819338 0 0.0080359289739371127 0.0010653441291128564 0 0.0078481822791526389 0.0011299915847969566 0 0.0077962325143644323 0.0013756428912271037 0 0.0074886106171488569 0.0016668554624841079 0 0.0074756687311799824 0.0017056471816560379 0 0.0074682397689296437 0.0017098688703044605 0 0.0074682397689296437 0.0017098688703044605 0 0.0074553384632843698 0.0017403949428896534 0 0.0074435627174684509 0.0017557336406886688 0 0.0074634143085715371 0.001728558886745256 0 0.0074756687311799824 0.0017056471816560379 0 0.0074553384632843698 0.0017403949428896534 0 0.0074756687311799824 0.0017056471816560379 0 0.0074682397689296437 0.0017098688703044605 0 0.0074553384632843698 0.0017403949428896534 0 0.0074607614423393585 0.001701693508895148 0 0.0074825817476203912 0.0016283908311655799 0 0.0074340600713974523 0.0016740852472677716 0 0.0074886106171488569 0.0016668554624841079 0 0.0074607614423393585 0.001701693508895148 0 0.0074825817476203912 0.0016283908311655799 0 0.0074682397689296437 0.0017098688703044605 0 0.0074607614423393585 0.001701693508895148 0 0.0074435627174684509 0.0017557336406886688 0 0.0074886106171488569 0.0016668554624841079 0 0.0074682397689296437 0.0017098688703044605 0 0.0074607614423393585 0.001701693508895148 0 0.0075292096097590092 0.0015807962935157308 0 0.0074886106171488569 0.0016668554624841079 0 0.0075073577874156311 0.0016064897478772775 0 0.0074886106171488569 0.0016668554624841079 0 0.0074825817476203912 0.0016283908311655799 0 0.0075073577874156311 0.0016064897478772775 0 0.0075247087939662779 0.0015537571028812118 0 0.0074825817476203912 0.0016283908311655799 0 0.0075073577874156311 0.0016064897478772775 0 0.0074698785878010588 0.0015804352811117771 0 0.0073907761529769219 0.0016449310476360833 0 0.0074340600713974523 0.0016740852472677716 0 0.0074825817476203912 0.0016283908311655799 0 0.0074698785878010588 0.0015804352811117771 0 0.0074340600713974523 0.0016740852472677716 0 0.0075247087939662779 0.0015537571028812118 0 0.0074825817476203912 0.0016283908311655799 0 0.0074698785878010588 0.0015804352811117771 0 0.0074698785878010588 0.0015804352811117771 0 0.0074049021586854126 0.0015705352257042277 0 0.0073907761529769219 0.0016449310476360833 0 0.0074766432117858144 0.0014998332751538063 0 0.0074698785878010588 0.0015804352811117771 0 0.0074049021586854126 0.0015705352257042277 0 0.0074049021586854126 0.0015705352257042277 0 0.0073907761529769219 0.0016449310476360833 0 0.0073324377453453339 0.0016341642118362035 0 0.0073907761529769219 0.0016449310476360833 0 0.0073093158003356539 0.0016858173298991818 0 0.0073324377453453339 0.0016341642118362035 0 0.0073907761529769219 0.0016449310476360833 0 0.0073866602205020339 0.0016922860481050389 0 0.0074340600713974523 0.0016740852472677716 0 0.0073907761529769219 0.0016449310476360833 0 0.0073866602205020339 0.0016922860481050389 0 0.0073370242583357826 0.0017164659319793974 0 0.0073907761529769219 0.0016449310476360833 0 0.0073370242583357826 0.0017164659319793974 0 0.0073093158003356539 0.0016858173298991818 0 0.0074607614423393585 0.001701693508895148 0 0.0074340600713974523 0.0016740852472677716 0 0.007425365380802235 0.0017359177591329165 0 0.0074340600713974523 0.0016740852472677716 0 0.007425365380802235 0.0017359177591329165 0 0.0073811804043968175 0.0017417819297791868 0 0.0073866602205020339 0.0016922860481050389 0 0.0074340600713974523 0.0016740852472677716 0 0.0073811804043968175 0.0017417819297791868 0 0.007425365380802235 0.0017359177591329165 0 0.0073811804043968175 0.0017417819297791868 0 0.0073779352349655171 0.0017960331628958295 0 0.007425365380802235 0.0017359177591329165 0 0.0073779352349655171 0.0017960331628958295 0 0.00741313967983413 0.001790373558923954 0 0.0073866602205020339 0.0016922860481050389 0 0.0073811804043968175 0.0017417819297791868 0 0.0073370242583357826 0.0017164659319793974 0 0.0073811804043968175 0.0017417819297791868 0 0.0073370242583357826 0.0017164659319793974 0 0.0073209749539978374 0.0018012006412650799 0 0.0073811804043968175 0.0017417819297791868 0 0.0073779352349655171 0.0017960331628958295 0 0.0073209749539978374 0.0018012006412650799 0 0.0073370242583357826 0.0017164659319793974 0 0.0073209749539978374 0.0018012006412650799 0 0.0072657662552534771 0.0017690567252589295 0 0.0073209749539978374 0.0018012006412650799 0 0.007244896520732993 0.0018837362759397095 0 0.0072657662552534771 0.0017690567252589295 0 0.0073209749539978374 0.0018012006412650799 0 0.0073304783268753355 0.0018725285274731303 0 0.007244896520732993 0.0018837362759397095 0 0.0073779352349655171 0.0017960331628958295 0 0.0073209749539978374 0.0018012006412650799 0 0.0073304783268753355 0.0018725285274731303 0 0.0072731784847559107 0.0019891663337876643 0 0.0073304783268753355 0.0018725285274731303 0 0.007244896520732993 0.0018837362759397095 0 0.0073353853047534836 0.00191991159164851 0 0.0073304783268753355 0.0018725285274731303 0 0.0073820840256812719 0.0018338916208358656 0 0.0073779352349655171 0.0017960331628958295 0 0.0073820840256812719 0.0018338916208358656 0 0.00741313967983413 0.001790373558923954 0 0.0073779352349655171 0.0017960331628958295 0 0.0073304783268753355 0.0018725285274731303 0 0.0073820840256812719 0.0018338916208358656 0 0.0073794792291100976 0.0018693894768245013 0 0.0073820840256812719 0.0018338916208358656 0 0.0074062935385266447 0.0018316135872258883 0 0.0073820840256812719 0.0018338916208358656 0 0.0074062935385266447 0.0018316135872258883 0 0.00741313967983413 0.001790373558923954 0 0.0074212599218377636 0.0017969420507169328 0 0.0074062935385266447 0.0018316135872258883 0 0.00741313967983413 0.001790373558923954 0 0.0074212599218377636 0.0017969420507169328 0 0.0074062935385266447 0.0018316135872258883 0 0.0074087801986290171 0.0018146750504117481 0 0.0073902200202139124 0.0018045766065372957 0 0.0074087801986290171 0.0018146750504117481 0 0.0074201333746248231 0.0017956751800398724 0 0.0073902200202139124 0.0018045766065372957 0 0.0074148020625921197 0.0017889048805945493 0 0.0074201333746248231 0.0017956751800398724 0 0.0074212599218377636 0.0017969420507169328 0 0.0074087801986290171 0.0018146750504117481 0 0.0074201333746248231 0.0017956751800398724 0 0.0074201333746248231 0.0017956751800398724 0 0.0074353759559832259 0.0017700601730376876 0 0.0074435627174684509 0.0017557336406886688 0 0.0074212599218377636 0.0017969420507169328 0 0.0074201333746248231 0.0017956751800398724 0 0.0074435627174684509 0.0017557336406886688 0 0.0074148020625921197 0.0017889048805945493 0 0.0074201333746248231 0.0017956751800398724 0 0.0074353759559832259 0.0017700601730376876 0 0.0074553384632843698 0.0017403949428896534 0 0.0074353759559832259 0.0017700601730376876 0 0.0074435627174684509 0.0017557336406886688 0 0.0074294478111181219 0.0017726384194064477 0 0.0074553384632843698 0.0017403949428896534 0 0.0074353759559832259 0.0017700601730376876 0 0.0074607614423393585 0.001701693508895148 0 0.007425365380802235 0.0017359177591329165 0 0.0074435627174684509 0.0017557336406886688 0 0.007425365380802235 0.0017359177591329165 0 0.0074435627174684509 0.0017557336406886688 0 0.00741313967983413 0.001790373558923954 0 0.0074212599218377636 0.0017969420507169328 0 0.0074435627174684509 0.0017557336406886688 0 0.00741313967983413 0.001790373558923954 0 0.00677715659568564 0.0017970441892563411 0 0.0068628716826849533 0.001693332489529238 0 0.0068949937229116302 0.0018103737430645445 0 0.00677715659568564 0.0017970441892563411 0 0.0068628716826849533 0.001693332489529238 0 0.0067194631587123993 0.001754703029600515 0 0.0068628716826849533 0.001693332489529238 0 0.0068949937229116302 0.0018103737430645445 0 0.0069775200961959636 0.0017201678274391288 0 0.0068628716826849533 0.001693332489529238 0 0.0069775200961959636 0.0017201678274391288 0 0.0069875496144427736 0.0016308130136310594 0 0.0068628716826849533 0.001693332489529238 0 0.0067194631587123993 0.001754703029600515 0 0.0067607057482462181 0.0016883174105356562 0 0.0066706970112645082 0.001723886422065573 0 0.0067194631587123993 0.001754703029600515 0 0.0067607057482462181 0.0016883174105356562 0 0.0065786607500083923 0.0018091083396519162 0 0.0066706970112645082 0.001723886422065573 0 0.0067194631587123993 0.001754703029600515 0 0.0065786607500083923 0.0018091083396519162 0 0.0067194631587123993 0.001754703029600515 0 0.0066497479752671866 0.001841139402135558 0 0.00677715659568564 0.0017970441892563411 0 0.0067194631587123993 0.001754703029600515 0 0.0066497479752671866 0.001841139402135558 0 0.00677715659568564 0.0017970441892563411 0 0.0066497479752671866 0.001841139402135558 0 0.0067613355956787939 0.0019037270065225423 0 0.0065786607500083923 0.0018091083396519162 0 0.0064460804386055909 0.001945406095278557 0 0.0066497479752671866 0.001841139402135558 0 0.0065456598304211907 0.0020586739086178238 0 0.0066497479752671866 0.001841139402135558 0 0.0067613355956787939 0.0019037270065225423 0 0.00677715659568564 0.0017970441892563411 0 0.0067613355956787939 0.0019037270065225423 0 0.0068949937229116302 0.0018103737430645445 0 0.0067613355956787939 0.0019037270065225423 0 0.0068949937229116302 0.0018103737430645445 0 0.006910192949759004 0.0019490611013115897 0 0.0068949937229116302 0.0018103737430645445 0 0.006910192949759004 0.0019490611013115897 0 0.007091071919225294 0.0018718981145853283 0 0.0071005415136976202 0.002057519414102699 0 0.007091071919225294 0.0018718981145853283 0 0.007244896520732993 0.0018837362759397095 0 0.007091071919225294 0.0018718981145853283 0 0.007244896520732993 0.0018837362759397095 0 0.0072657662552534771 0.0017690567252589295 0 0.007091071919225294 0.0018718981145853283 0 0.0072657662552534771 0.0017690567252589295 0 0.0072485593360512891 0.0017002024898199696 0 0.0072657662552534771 0.0017690567252589295 0 0.0073093158003356539 0.0016858173298991818 0 0.0072485593360512891 0.0017002024898199696 0 0.0073370242583357826 0.0017164659319793974 0 0.0072657662552534771 0.0017690567252589295 0 0.0073093158003356539 0.0016858173298991818 0 0.0071003088016900811 0.0018684528931897288 0 0.0071440397504470782 0.0016583848836171748 0 0.0068949937229116302 0.0018103737430645445 0 0.007091071919225294 0.0018718981145853283 0 0.0069775200961959636 0.0017201678274391288 0 0.007091071919225294 0.0018718981145853283 0 0.0072193628412621311 0.0016690308012790036 0 0.0072485593360512891 0.0017002024898199696 0 0.007091071919225294 0.0018718981145853283 0 0.0069775200961959636 0.0017201678274391288 0 0.0070664110929680264 0.0016336406283597117 0 0.0069775200961959636 0.0017201678274391288 0 0.0069875496144427736 0.0016308130136310594 0 0.0070664110929680264 0.0016336406283597117 0 0.0070664110929680264 0.0016336406283597117 0 0.00703579759375719 0.0015922064935894149 0 0.0070800855102098482 0.0015363185045446973 0 0.0069875496144427736 0.0016308130136310594 0 0.0070664110929680264 0.0016336406283597117 0 0.00703579759375719 0.0015922064935894149 0 0.0069875496144427736 0.0016308130136310594 0 0.00703579759375719 0.0015922064935894149 0 0.0070067219925104788 0.0015663571953330258 0 0.0072650466969664557 0.0016897697375709789 0 0.0073283944874506304 0.0015469845267603371 0 0.0072193628412621311 0.0016690308012790036 0 0.0072485593360512891 0.0017002024898199696 0 0.0073407451428151825 0.0015248279126721844 0 0.0072485593360512891 0.0017002024898199696 0 0.0073324377453453339 0.0016341642118362035 0 0.0073209299789982517 0.0015678387615515553 0 0.0073093158003356539 0.0016858173298991818 0 0.0072485593360512891 0.0017002024898199696 0 0.0073324377453453339 0.0016341642118362035 0 0.0074049021586854126 0.0015705352257042277 0 0.0073324377453453339 0.0016341642118362035 0 0.0073209299789982517 0.0015678387615515553 0 0.0074049021586854126 0.0015705352257042277 0 0.0073209299789982517 0.0015678387615515553 0 0.0074262491259834756 0.0014792561345320933 0 0.0072193628412621311 0.0016690308012790036 0 0.0073407451428151825 0.0015248279126721844 0 0.0073057614231569132 0.0014552328197509371 0 0.0070664110929680264 0.0016336406283597117 0 0.0070800855102098482 0.0015363185045446973 0 0.0071675237720237256 0.0014470491876924887 0 0.0071440397504470782 0.0016583848836171748 0 0.0072420819416284194 0.0014419159779730274 0 0.0070800855102098482 0.0015363185045446973 0 0.0070392695147748529 0.0014941900229440126 0 0.0070067219925104788 0.0015663571953330258 0 0.00703579759375719 0.0015922064935894149 0 0.0070800855102098482 0.0015363185045446973 0 0.0070067219925104788 0.0015663571953330258 0 0.0070800855102098482 0.0015363185045446973 0 0.0070392695147748529 0.0014941900229440126 0 0.0071675237720237256 0.0014470491876924887 0 0.0070392695147748529 0.0014941900229440126 0 0.0069555380041757108 0.0015349793686620717 0 0.0069361990229722652 0.0014720647966938742 0 0.0069555380041757108 0.0015349793686620717 0 0.006871051641889692 0.0015524235126305836 0 0.0069361990229722652 0.0014720647966938742 0 0.0069555380041757108 0.0015349793686620717 0 0.0069199798054754725 0.0016050791104471936 0 0.006871051641889692 0.0015524235126305836 0 0.0070392695147748529 0.0014941900229440126 0 0.0069555380041757108 0.0015349793686620717 0 0.0070067219925104788 0.0015663571953330258 0 0.0069555380041757108 0.0015349793686620717 0 0.0070067219925104788 0.0015663571953330258 0 0.0069199798054754725 0.0016050791104471936 0 0.0069875496144427736 0.0016308130136310594 0 0.0070067219925104788 0.0015663571953330258 0 0.0069199798054754725 0.0016050791104471936 0 0.0069199798054754725 0.0016050791104471936 0 0.0068244782231535791 0.0016311483582008973 0 0.006871051641889692 0.0015524235126305836 0 0.0068628716826849533 0.001693332489529238 0 0.0069199798054754725 0.0016050791104471936 0 0.0068244782231535791 0.0016311483582008973 0 0.0068628716826849533 0.001693332489529238 0 0.0069875496144427736 0.0016308130136310594 0 0.0069199798054754725 0.0016050791104471936 0 0.0066706970112645082 0.001723886422065573 0 0.0067074742493543858 0.0016626460102529285 0 0.0067607057482462181 0.0016883174105356562 0 0.0068628716826849533 0.001693332489529238 0 0.0067607057482462181 0.0016883174105356562 0 0.0068244782231535791 0.0016311483582008973 0 0.0067074742493543858 0.0016626460102529285 0 0.0067607057482462181 0.0016883174105356562 0 0.0068244782231535791 0.0016311483582008973 0 0.0068244782231535791 0.0016311483582008973 0 0.0067868917631129502 0.0015916929097113831 0 0.006871051641889692 0.0015524235126305836 0 0.0067074742493543858 0.0016626460102529285 0 0.0068244782231535791 0.0016311483582008973 0 0.0067868917631129502 0.0015916929097113831 0 0.0066977570569687426 0.0015999745356921565 0 0.0067074742493543858 0.0016626460102529285 0 0.0067868917631129502 0.0015916929097113831 0 0.0067868917631129502 0.0015916929097113831 0 0.006871051641889692 0.0015524235126305836 0 0.0067887826686950578 0.0015141969370902634 0 0.0066977570569687426 0.0015999745356921565 0 0.0067868917631129502 0.0015916929097113831 0 0.0067887826686950578 0.0015141969370902634 0 0.006871051641889692 0.0015524235126305836 0 0.0067887826686950578 0.0015141969370902634 0 0.0069361990229722652 0.0014720647966938742 0 0.0067887826686950578 0.0015141969370902634 0 0.0068440717876315687 0.0014204470867076051 0 0.0069361990229722652 0.0014720647966938742 0 0.0068440717876315687 0.0014204470867076051 0 0.0069361990229722652 0.0014720647966938742 0 0.0070028660818298397 0.0013487874123752212 0 0.0069361990229722652 0.0014720647966938742 0 0.0070685471945081194 0.0014190783021647863 0 0.0070028660818298397 0.0013487874123752212 0 0.0070392695147748529 0.0014941900229440126 0 0.0069361990229722652 0.0014720647966938742 0 0.0070685471945081194 0.0014190783021647863 0 0.0070685471945081194 0.0014190783021647863 0 0.0071732222737418208 0.001318290324077178 0 0.0070028660818298397 0.0013487874123752212 0 0.0071732222737418208 0.001318290324077178 0 0.0073659878271286521 0.0011776920886497264 0 0.0071611164554084908 0.0011684833008973211 0 0.0071732222737418208 0.001318290324077178 0 0.0070028660818298397 0.0013487874123752212 0 0.0071611164554084908 0.0011684833008973211 0 0.0068190454696438127 0.0012590397129584627 0 0.0070028660818298397 0.0013487874123752212 0 0.0071611164554084908 0.0011684833008973211 0 0.0068190454696438127 0.0012590397129584627 0 0.0068440717876315687 0.0014204470867076051 0 0.0070028660818298397 0.0013487874123752212 0 0.0073407451428151825 0.0015248279126721844 0 0.0073057614231569132 0.0014552328197509371 0 0.0074289002602459953 0.0013141591312701003 0 0.0073209299789982517 0.0015678387615515553 0 0.0074262491259834756 0.0014792561345320933 0 0.0073963902094443873 0.0013584358244127972 0 0.0075465375932675547 0.0013860719634431809 0 0.0074262491259834756 0.0014792561345320933 0 0.0073963902094443873 0.0013584358244127972 0 0.0073283944874506304 0.0015469845267603371 0 0.0074191572812263842 0.001330355276204373 0 0.0070392695147748529 0.0014941900229440126 0 0.0070685471945081194 0.0014190783021647863 0 0.0071675237720237256 0.0014470491876924887 0 0.0070685471945081194 0.0014190783021647863 0 0.0071732222737418208 0.001318290324077178 0 0.0071675237720237256 0.0014470491876924887 0 0.0072420819416284194 0.0014419159779730274 0 0.0073435666899236635 0.0011854890239470636 0 0.0073057614231569132 0.0014552328197509371 0 0.0074289002602459953 0.0013141591312701003 0 0.0073659878271286521 0.0011776920886497264 0 0.0071732222737418208 0.001318290324077178 0 0.0071675237720237256 0.0014470491876924887 0 0.0073659878271286521 0.0011776920886497264 0 0.0075465375932675547 0.0013860719634431809 0 0.0073963902094443873 0.0013584358244127972 0 0.0075427318462620695 0.0012403164041619071 0 0.0074191572812263842 0.001330355276204373 0 0.0075067431320989704 0.0010689559206032886 0 0.0073963902094443873 0.0013584358244127972 0 0.0075427318462620695 0.0012403164041619071 0 0.0075313684388643521 0.0010479411443770821 0 0.0076952764928613342 0.001160753964434668 0 0.0075427318462620695 0.0012403164041619071 0 0.0075313684388643521 0.0010479411443770821 0 0.0074289002602459953 0.0013141591312701003 0 0.0075313684388643521 0.0010479411443770821 0 0.0073659878271286521 0.0011776920886497264 0 0.0073659878271286521 0.0011776920886497264 0 0.0074200027248624047 0.0010341294712960963 0 0.0071611164554084908 0.0011684833008973211 0 0.0075313684388643521 0.0010479411443770821 0 0.0073659878271286521 0.0011776920886497264 0 0.0074200027248624047 0.0010341294712960963 0 0.0075313684388643521 0.0010479411443770821 0 0.0076098342288231586 0.00088209451727228592 0 0.0074200027248624047 0.0010341294712960963 0 0.0076098342288231586 0.00088209451727228592 0 0.0074200027248624047 0.0010341294712960963 0 0.0073986660910445841 0.00091666930297772684 0 0.0077536677042167558 0.00089221385949307284 0 0.0076952764928613342 0.001160753964434668 0 0.0075313684388643521 0.0010479411443770821 0 0.0077536677042167558 0.00089221385949307284 0 0.0075313684388643521 0.0010479411443770821 0 0.0076098342288231586 0.00088209451727228592 0 0.0068190454696438127 0.0012590397129584627 0 0.0071611164554084908 0.0011684833008973211 0 0.0069044446217220775 0.00099095150485035586 0 0.0071611164554084908 0.0011684833008973211 0 0.0073986660910445841 0.00091666930297772684 0 0.0069044446217220775 0.00099095150485035586 0 0.0074200027248624047 0.0010341294712960963 0 0.0071611164554084908 0.0011684833008973211 0 0.0073986660910445841 0.00091666930297772684 0 0.0073732296233008443 0.00092428283010660976 0 0.0070968012732804727 0.0010145361029965845 0 0.0073986660910445841 0.00091666930297772684 0 0.0072863829447642053 0.0010300164337621006 0 0.0073618286223834069 0.00078098922405663604 0 0.0073986660910445841 0.00091666930297772684 0 0.0075436945885006632 0.00067703318499658365 0 0.0076516264359925024 0.00075154782130688869 0 0.0073986660910445841 0.00091666930297772684 0 0.0073618286223834069 0.00078098922405663604 0 0.0075436945885006632 0.00067703318499658365 0 0.0073618286223834069 0.00078098922405663604 0 0.0074664487138533693 0.00054205896663821987 0 0.0072502675501119902 0.00060456192263804354 0 0.0073618286223834069 0.00078098922405663604 0 0.0075436945885006632 0.00067703318499658365 0 0.0074664487138533693 0.00054205896663821987 0 0.0077536677042167558 0.00089221385949307284 0 0.0076098342288231586 0.00088209451727228592 0 0.0078594224326244775 0.00072317520369810922 0 0.0076098342288231586 0.00088209451727228592 0 0.0076516264359925024 0.00075154782130688869 0 0.0078594224326244775 0.00072317520369810922 0 0.0076098342288231586 0.00088209451727228592 0 0.0073986660910445841 0.00091666930297772684 0 0.0076516264359925024 0.00075154782130688869 0 0.0075436945885006632 0.00067703318499658365 0 0.0076516264359925024 0.00075154782130688869 0 0.0078530191995422032 0.00052753197852562069 0 0.0076516264359925024 0.00075154782130688869 0 0.0078594224326244775 0.00072317520369810922 0 0.0078530191995422032 0.00052753197852562069 0 0.0078594224326244775 0.00072317520369810922 0 0.0078530191995422032 0.00052753197852562069 0 0.0081232355665109383 0.00050378558124736347 0 0.0078530191995422032 0.00052753197852562069 0 0.0081795940079782865 0.00033939957566971746 0 0.0081232355665109383 0.00050378558124736347 0 0.0078530191995422032 0.00052753197852562069 0 0.0080461742625988989 0.00030022913165653697 0 0.007750756454573746 0.00036250873418080853 0 0.0078530191995422032 0.00052753197852562069 0 0.0080461742625988989 0.00030022913165653697 0 0.0081795940079782865 0.00033939957566971746 0 0.0074664487138533693 0.00054205896663821987 0 0.0074307209727074277 0.00036007866843144822 0 0.0072502675501119902 0.00060456192263804354 0 0.0075436945885006632 0.00067703318499658365 0 0.0078530191995422032 0.00052753197852562069 0 0.007750756454573746 0.00036250873418080853 0 0.0075436945885006632 0.00067703318499658365 0 0.0074664487138533693 0.00054205896663821987 0 0.007750756454573746 0.00036250873418080853 0 0.007750756454573746 0.00036250873418080853 0 0.0074307209727074277 0.00036007866843144822 0 0.0076528600967277196 0.00018015477622006993 0 0.0074664487138533693 0.00054205896663821987 0 0.007750756454573746 0.00036250873418080853 0 0.0074307209727074277 0.00036007866843144822 0 0.0074307209727074277 0.00036007866843144822 0 0.0076528600967277196 0.00018015477622006993 0 0.0074693448707593962 0.00015449844166090111 0 0.0076528600967277196 0.00018015477622006993 0 0.0074693448707593962 0.00015449844166090111 0 0.0076677821064708241 -0.00010880574848381459 0 0.0076528600967277196 0.00018015477622006993 0 0.0076677821064708241 -0.00010880574848381459 0 0.007929661426647824 7.9745042170892459e-05 0 0.0074693448707593962 0.00015449844166090111 0 0.0076677821064708241 -0.00010880574848381459 0 0.0072968056955710599 6.7111922356956452e-05 0 0.0076677821064708241 -0.00010880574848381459 0 0.007929661426647824 7.9745042170892459e-05 0 0.0083261460386939087 -0.00012020744995916595 0 0.007750756454573746 0.00036250873418080853 0 0.0076528600967277196 0.00018015477622006993 0 0.007929661426647824 7.9745042170892459e-05 0 0.007750756454573746 0.00036250873418080853 0 0.007929661426647824 7.9745042170892459e-05 0 0.0081456960215543963 0.00012703761243374663 0 0.0080461742625988989 0.00030022913165653697 0 0.007750756454573746 0.00036250873418080853 0 0.0081456960215543963 0.00012703761243374663 0 0.0080461742625988989 0.00030022913165653697 0 0.0081795940079782865 0.00033939957566971746 0 0.0083321509613415376 0.00016766414760280442 0 0.0080461742625988989 0.00030022913165653697 0 0.0081456960215543963 0.00012703761243374663 0 0.0083321509613415376 0.00016766414760280442 0 0.0081456960215543963 0.00012703761243374663 0 0.0083321509613415376 0.00016766414760280442 0 0.0084630727476134714 -4.3612459324739819e-06 0 0.0081456960215543963 0.00012703761243374663 0 0.0083261460386939087 -0.00012020744995916595 0 0.0084630727476134714 -4.3612459324739819e-06 0 0.007929661426647824 7.9745042170892459e-05 0 0.0081456960215543963 0.00012703761243374663 0 0.0083261460386939087 -0.00012020744995916595 0 0.0083261460386939087 -0.00012020744995916595 0 0.0084630727476134714 -4.3612459324739819e-06 0 0.0085589964268481585 -0.00012892955304093484 0 0.0084630727476134714 -4.3612459324739819e-06 0 0.0085589964268481585 -0.00012892955304093484 0 0.0086319494060070161 -0.00010428468557415161 0 0.0083261460386939087 -0.00012020744995916595 0 0.0085589964268481585 -0.00012892955304093484 0 0.0085933145999889781 -0.0001745016056699099 0 0.0083261460386939087 -0.00012020744995916595 0 0.0084185918368223228 -0.00014262784362337072 0 0.0085933145999889781 -0.0001745016056699099 0 0.0084185918368223228 -0.00014262784362337072 0 0.0083193163155545532 -0.00013144578747835306 0 0.0083381398892469049 -0.00025500062593102535 0 0.0083596879974380464 -6.1085314924589176e-05 0 0.0083193163155545532 -0.00013144578747835306 0 0.0082795682859018484 -8.226453737265432e-05 0 0.0083596879974380464 -6.1085314924589176e-05 0 0.0084185918368223228 -0.00014262784362337072 0 0.0083193163155545532 -0.00013144578747835306 0 0.0083596879974380464 -6.1085314924589176e-05 0 0.0083261460386939087 -0.00012020744995916595 0 0.0084185918368223228 -0.00014262784362337072 0 0.0080512656462154737 -7.9580789826733036e-05 0 0.008266551880792632 -0.00011764502013765909 0 0.0086906362495776397 0.0001010243318215361 0 0.0087430213351013739 0.0001479596287055089 0 0.0086810965299645975 0.00021490824148600603 0 0.0087430213351013739 0.0001479596287055089 0 0.0086810965299645975 0.00021490824148600603 0 0.0087109074787629533 0.00023205722001017507 0 0.0087430213351013739 0.0001479596287055089 0 0.0088000454809115409 0.00013406320158780921 0 0.0088537288618737754 -1.1625673669973805e-05 0 0.0086906362495776397 0.0001010243318215361 0 0.0086488123500204229 2.8291288158599233e-06 0 0.0088537288618737754 -1.1625673669973805e-05 0 0.0086906362495776397 0.0001010243318215361 0 0.0087430213351013739 0.0001479596287055089 0 0.0088537288618737754 -1.1625673669973805e-05 0 0.0086488123500204229 2.8291288158599233e-06 0 0.0086319494060070161 -0.00010428468557415161 0 0.0086979645700485282 -7.8803441311559193e-05 0 0.0084630727476134714 -4.3612459324739819e-06 0 0.0086488123500204229 2.8291288158599233e-06 0 0.0086319494060070161 -0.00010428468557415161 0 0.0084630727476134714 -4.3612459324739819e-06 0 0.0086488123500204229 2.8291288158599233e-06 0 0.0085682070996073775 0.00014413600974362873 0 0.0086906362495776397 0.0001010243318215361 0 0.0086488123500204229 2.8291288158599233e-06 0 0.0085682070996073775 0.00014413600974362873 0 0.0083321509613415376 0.00016766414760280442 0 0.0084630727476134714 -4.3612459324739819e-06 0 0.0085682070996073775 0.00014413600974362873 0 0.0083321509613415376 0.00016766414760280442 0 0.0085682070996073775 0.00014413600974362873 0 0.0084600247732596872 0.00031545856865425375 0 0.0085682070996073775 0.00014413600974362873 0 0.0086173283761212093 0.00025564335581500415 0 0.0084600247732596872 0.00031545856865425375 0 0.0085682070996073775 0.00014413600974362873 0 0.0086173283761212093 0.00025564335581500415 0 0.0086810965299645975 0.00021490824148600603 0 0.0086906362495776397 0.0001010243318215361 0 0.0085682070996073775 0.00014413600974362873 0 0.0086810965299645975 0.00021490824148600603 0 0.0086173283761212093 0.00025564335581500415 0 0.0085948481158107243 0.00033593667370063451 0 0.0086432096933554883 0.00030160732665592005 0 0.0086173283761212093 0.00025564335581500415 0 0.0086810965299645975 0.00021490824148600603 0 0.0086432096933554883 0.00030160732665592005 0 0.0085948481158107243 0.00033593667370063451 0 0.0085502412462785324 0.00032059278815443725 0 0.0086432096933554883 0.00030160732665592005 0 0.0086173283761212093 0.00025564335581500415 0 0.0085948481158107243 0.00033593667370063451 0 0.0084600247732596872 0.00031545856865425375 0 0.0085948481158107243 0.00033593667370063451 0 0.0085781303260130375 0.00043608779924917687 0 0.0084600247732596872 0.00031545856865425375 0 0.0083787660145669199 0.00042660005766722838 0 0.0085329030677094887 0.00033298460264175197 0 0.0085948481158107243 0.00033593667370063451 0 0.0085781303260130375 0.00043608779924917687 0 0.0085502412462785324 0.00032059278815443725 0 0.0081847207876347122 0.00040696961970558131 0 0.0084179439100030857 0.00049420868728039026 0 0.0085502412462785324 0.00032059278815443725 0 0.0081795940079782865 0.00033939957566971746 0 0.0084600247732596872 0.00031545856865425375 0 0.0081232355665109383 0.00050378558124736347 0 0.0081795940079782865 0.00033939957566971746 0 0.0083321509613415376 0.00016766414760280442 0 0.0084600247732596872 0.00031545856865425375 0 0.0083787660145669199 0.00042660005766722838 0 0.0081419725557310384 0.00058744694950303873 0 0.0085781303260130375 0.00043608779924917687 0 0.0084600247732596872 0.00031545856865425375 0 0.0083594510578189306 0.0006039838168923966 0 0.0084600247732596872 0.00031545856865425375 0 0.0081232355665109383 0.00050378558124736347 0 0.0083594510578189306 0.0006039838168923966 0 0.0078861812707282514 0.00071038043898911073 0 0.0081419725557310384 0.00058744694950303873 0 0.0078594224326244775 0.00072317520369810922 0 0.0081232355665109383 0.00050378558124736347 0 0.0083594510578189306 0.0006039838168923966 0 0.0078594224326244775 0.00072317520369810922 0 0.0079285956286639665 0.00058064982827169356 0 0.0079116860238298194 0.00076734824850006541 0 0.0079285956286639665 0.00058064982827169356 0 0.0079116860238298194 0.00076734824850006541 0 0.008172966338990879 0.00065219273062621015 0 0.0077536677042167558 0.00089221385949307284 0 0.0078594224326244775 0.00072317520369810922 0 0.0079116860238298194 0.00076734824850006541 0 0.0081847207876347122 0.00040696961970558131 0 0.008172966338990879 0.00065219273062621015 0 0.0084179439100030857 0.00049420868728039026 0 0.0081847207876347122 0.00040696961970558131 0 0.0079285956286639665 0.00058064982827169356 0 0.008172966338990879 0.00065219273062621015 0 0.0080590182029953092 0.00087307541728787056 0 0.0079116860238298194 0.00076734824850006541 0 0.008172966338990879 0.00065219273062621015 0 0.0082290563053584072 0.00092477885364564073 0 0.008172966338990879 0.00065219273062621015 0 0.0083944251877112654 0.00068216923963048705 0 0.008172966338990879 0.00065219273062621015 0 0.0083944251877112654 0.00068216923963048705 0 0.0084179439100030857 0.00049420868728039026 0 0.0083944251877112654 0.00068216923963048705 0 0.0084179439100030857 0.00049420868728039026 0 0.0085292758954529542 0.00053411466420520627 0 0.0084179439100030857 0.00049420868728039026 0 0.0085292758954529542 0.00053411466420520627 0 0.0085710103545773263 0.00038091739812462738 0 0.0085292758954529542 0.00053411466420520627 0 0.0086203627995876126 0.00039400687744120739 0 0.0085710103545773263 0.00038091739812462738 0 0.0085527214778219132 0.0007328484515639693 0 0.0085292758954529542 0.00053411466420520627 0 0.0086566132629026325 0.00060642935538553037 0 0.0085292758954529542 0.00053411466420520627 0 0.0086566132629026325 0.00060642935538553037 0 0.0086203627995876126 0.00039400687744120739 0 0.0085527214778219132 0.0007328484515639693 0 0.0083944251877112654 0.00068216923963048705 0 0.0085292758954529542 0.00053411466420520627 0 0.0086566132629026325 0.00060642935538553037 0 0.0086894474351669262 0.00045502119851862429 0 0.0086203627995876126 0.00039400687744120739 0 0.0088300503389547834 0.00067707122259004807 0 0.0086566132629026325 0.00060642935538553037 0 0.0086894474351669262 0.00045502119851862429 0 0.0085523931228981311 -6.9719450671978131e-05 0 0.0087939018148441607 0.0006629679607402573 0 0.0086994274735705032 0.00046815602787588889 0 0.0086894474351669262 0.00045502119851862429 0 0.008704248323841585 0.00039376426426563515 0 0.0085523931228981311 -6.9719450671978131e-05 0 0.008760255850168876 -0.0001371059091783892 0 0.0089780766989186467 -0.0011628001466684342 0 0.0087978444390343236 -0.00055257902230429999 0 0.008499745599163144 -0.00079779045900767761 0 0.0084428416228088266 -0.0012332012596299841 0 0.0089780766989186467 -0.0011628001466684342 0 0.008499745599163144 -0.00079779045900767761 0 0.0087978444390343236 -0.00055257902230429999 0 0.008571746905038426 0.00013655707292522392 0 0.0084158716144311051 -0.00038489305464187341 0 0.008704248323841585 0.00039376426426563515 0 0.0086354245149204804 0.00029019624730909085 0 0.008571746905038426 0.00013655707292522392 0 0.008760255850168876 -0.0001371059091783892 0 0.0085962995450131145 0.00016009760364433211 0 0.0087978444390343236 -0.00055257902230429999 0 0.008499745599163144 -0.00079779045900767761 0 0.0084158716144311051 -0.00038489305464187341 0 0.0086894474351669262 0.00045502119851862429 0 0.0086203627995876126 0.00039400687744120739 0 0.0086354245149204804 0.00029019624730909085 0 0.0086894474351669262 0.00045502119851862429 0 0.008704248323841585 0.00039376426426563515 0 0.0086354245149204804 0.00029019624730909085 0 0.0086203627995876126 0.00039400687744120739 0 0.0086354245149204804 0.00029019624730909085 0 0.0086299955279527767 0.00032140189385168556 0 0.0086354245149204804 0.00029019624730909085 0 0.0086299955279527767 0.00032140189385168556 0 0.0086163287020217562 0.00032142317420588235 0 0.0086354245149204804 0.00029019624730909085 0 0.008571746905038426 0.00013655707292522392 0 0.0086163287020217562 0.00032142317420588235 0 0.008571746905038426 0.00013655707292522392 0 0.0086163287020217562 0.00032142317420588235 0 0.0084695234878556808 0.00033182060824460071 0 0.0086163287020217562 0.00032142317420588235 0 0.0084695234878556808 0.00033182060824460071 0 0.0085616275598368527 0.00040329288100109491 0 0.0086299955279527767 0.00032140189385168556 0 0.0086421932171194902 0.00033401306684287458 0 0.0086163287020217562 0.00032142317420588235 0 0.0086421932171194902 0.00033401306684287458 0 0.0086143239041489763 0.00031840512610055151 0 0.0086432096933554883 0.00030160732665592005 0 0.0086299955279527767 0.00032140189385168556 0 0.0086421932171194902 0.00033401306684287458 0 0.0086143239041489763 0.00031840512610055151 0 0.0086143239041489763 0.00031840512610055151 0 0.0085502412462785324 0.00032059278815443725 0 0.0086432096933554883 0.00030160732665592005 0 0.0086143239041489763 0.00031840512610055151 0 0.0085502412462785324 0.00032059278815443725 0 0.0085710103545773263 0.00038091739812462738 0 0.0084179439100030857 0.00049420868728039026 0 0.0085502412462785324 0.00032059278815443725 0 0.0085710103545773263 0.00038091739812462738 0 0.0086299955279527767 0.00032140189385168556 0 0.0086143239041489763 0.00031840512610055151 0 0.0085710103545773263 0.00038091739812462738 0 0.0086203627995876126 0.00039400687744120739 0 0.0086299955279527767 0.00032140189385168556 0 0.0085710103545773263 0.00038091739812462738 0 0.0066830473839627428 -0.00026816116864138276 0 0.0067722280403585185 -0.00061479133276972969 0 0.0070547759922298678 -0.00036160354210321312 0 0.0066830473839627428 -0.00026816116864138276 0 0.0070547759922298678 -0.00036160354210321312 0 0.0070429404039857695 -0.00011501370327328992 0 0.0067722280403585185 -0.00061479133276972969 0 0.0071180933096547305 -0.00064270903696506284 0 0.0070547759922298678 -0.00036160354210321312 0 0.0066830473839627428 -0.00026816116864138276 0 0.0067722280403585185 -0.00061479133276972969 0 0.0064537491836068796 -0.00062428214445245454 0 0.0067722280403585185 -0.00061479133276972969 0 0.0064537491836068796 -0.00062428214445245454 0 0.0064760911750153718 -0.000806606633117635 0 0.0067722280403585185 -0.00061479133276972969 0 0.0064760911750153718 -0.000806606633117635 0 0.0067062534084711177 -0.00082733037615069678 0 0.0064760911750153718 -0.000806606633117635 0 0.0065140968067822422 -0.00092175935891067144 0 0.0063127484380360848 -0.00096428605706276984 0 0.0064760911750153718 -0.000806606633117635 0 0.0065140968067822422 -0.00092175935891067144 0 0.0067062534084711177 -0.00082733037615069678 0 0.0065140968067822422 -0.00092175935891067144 0 0.0064480576547672926 -0.0010195820640381539 0 0.006692045740206775 -0.0010015766183604615 0 0.0066259155017077773 -0.0011707217742993727 0 0.0064480576547672926 -0.0010195820640381539 0 0.006692045740206775 -0.0010015766183604615 0 0.0062981189944413332 -0.0010519926821458889 0 0.0064480576547672926 -0.0010195820640381539 0 0.0063127484380360848 -0.00096428605706276984 0 0.0065140968067822422 -0.00092175935891067144 0 0.0064480576547672926 -0.0010195820640381539 0 0.0063127484380360848 -0.00096428605706276984 0 0.0068760722894145084 -0.001086300276244188 0 0.006692045740206775 -0.0010015766183604615 0 0.006864711762995023 -0.00089522034999689134 0 0.0067537056967095126 -0.0011465698893687269 0 0.0068760722894145084 -0.001086300276244188 0 0.006692045740206775 -0.0010015766183604615 0 0.0067537056967095126 -0.0011465698893687269 0 0.0066259155017077773 -0.0011707217742993727 0 0.006692045740206775 -0.0010015766183604615 0 0.0065140968067822422 -0.00092175935891067144 0 0.006692045740206775 -0.0010015766183604615 0 0.0067062534084711177 -0.00082733037615069678 0 0.006692045740206775 -0.0010015766183604615 0 0.006864711762995023 -0.00089522034999689134 0 0.0067062534084711177 -0.00082733037615069678 0 0.0068760722894145084 -0.001086300276244188 0 0.006864711762995023 -0.00089522034999689134 0 0.0070258594836780219 -0.00099193010089439811 0 0.006864711762995023 -0.00089522034999689134 0 0.0069005921108860283 -0.00076523851074535628 0 0.0070739620039147284 -0.00084431830535986656 0 0.0067722280403585185 -0.00061479133276972969 0 0.0069005921108860283 -0.00076523851074535628 0 0.0071180933096547305 -0.00064270903696506284 0 0.006864711762995023 -0.00089522034999689134 0 0.0069005921108860283 -0.00076523851074535628 0 0.0067062534084711177 -0.00082733037615069678 0 0.0067722280403585185 -0.00061479133276972969 0 0.0069005921108860283 -0.00076523851074535628 0 0.0067062534084711177 -0.00082733037615069678 0 0.0071180933096547305 -0.00064270903696506284 0 0.0070739620039147284 -0.00084431830535986656 0 0.0073864480880046178 -0.0007774809621999201 0 0.0069005921108860283 -0.00076523851074535628 0 0.0071180933096547305 -0.00064270903696506284 0 0.0070739620039147284 -0.00084431830535986656 0 0.006864711762995023 -0.00089522034999689134 0 0.0070739620039147284 -0.00084431830535986656 0 0.0070258594836780219 -0.00099193010089439811 0 0.0070739620039147284 -0.00084431830535986656 0 0.007227043881642351 -0.0010125878160789192 0 0.0073864480880046178 -0.0007774809621999201 0 0.0070739620039147284 -0.00084431830535986656 0 0.0070258594836780219 -0.00099193010089439811 0 0.007227043881642351 -0.0010125878160789192 0 0.0070258594836780219 -0.00099193010089439811 0 0.007227043881642351 -0.0010125878160789192 0 0.0070774727632117946 -0.0011207864115262785 0 0.0068760722894145084 -0.001086300276244188 0 0.0070258594836780219 -0.00099193010089439811 0 0.0070774727632117946 -0.0011207864115262785 0 0.0072896250814140128 -0.0012801076254424677 0 0.007227043881642351 -0.0010125878160789192 0 0.0075264489998927431 -0.0010185649515769796 0 0.007227043881642351 -0.0010125878160789192 0 0.0073864480880046178 -0.0007774809621999201 0 0.0075264489998927431 -0.0010185649515769796 0 0.0071180933096547305 -0.00064270903696506284 0 0.0073864480880046178 -0.0007774809621999201 0 0.0073391799514121881 -0.000594117543615006 0 0.0073864480880046178 -0.0007774809621999201 0 0.0073391799514121881 -0.000594117543615006 0 0.0076163046762702741 -0.00054166239758119262 0 0.0073429553151292673 -0.00041468540708278993 0 0.0073391799514121881 -0.000594117543615006 0 0.0076163046762702741 -0.00054166239758119262 0 0.0071180933096547305 -0.00064270903696506284 0 0.0073429553151292673 -0.00041468540708278993 0 0.0073391799514121881 -0.000594117543615006 0 0.0071180933096547305 -0.00064270903696506284 0 0.0073429553151292673 -0.00041468540708278993 0 0.0070547759922298678 -0.00036160354210321312 0 0.0073429553151292673 -0.00041468540708278993 0 0.0070547759922298678 -0.00036160354210321312 0 0.0073643104782212211 -0.00013941151581349672 0 0.0073429553151292673 -0.00041468540708278993 0 0.0077215341148062482 -0.00018682534482918398 0 0.0073643104782212211 -0.00013941151581349672 0 0.0077215341148062482 -0.00018682534482918398 0 0.0078962372007133179 -0.00041850008360401573 0 0.0076163046762702741 -0.00054166239758119262 0 0.0073429553151292673 -0.00041468540708278993 0 0.0077215341148062482 -0.00018682534482918398 0 0.0076163046762702741 -0.00054166239758119262 0 0.0077215341148062482 -0.00018682534482918398 0 0.0078962372007133179 -0.00041850008360401573 0 0.0081084117036116041 -0.00017049636807602657 0 0.0078962372007133179 -0.00041850008360401573 0 0.0076163046762702741 -0.00054166239758119262 0 0.0078967470876203094 -0.00067621261360715417 0 0.0078962372007133179 -0.00041850008360401573 0 0.0078967470876203094 -0.00067621261360715417 0 0.0081540809629846167 -0.000537936693801984 0 0.0073864480880046178 -0.0007774809621999201 0 0.0076163046762702741 -0.00054166239758119262 0 0.0076511449861261308 -0.00080102326831005461 0 0.0076163046762702741 -0.00054166239758119262 0 0.0076511449861261308 -0.00080102326831005461 0 0.0078967470876203094 -0.00067621261360715417 0 0.0073864480880046178 -0.0007774809621999201 0 0.0076511449861261308 -0.00080102326831005461 0 0.0075264489998927431 -0.0010185649515769796 0 0.0076549929753376173 -0.0012936328408288487 0 0.0075264489998927431 -0.0010185649515769796 0 0.0078280575842978282 -0.0010006921886254055 0 0.0076511449861261308 -0.00080102326831005461 0 0.0075264489998927431 -0.0010185649515769796 0 0.0078280575842978282 -0.0010006921886254055 0 0.0080374770630128149 -0.001265260068675703 0 0.0078280575842978282 -0.0010006921886254055 0 0.0081323374594700695 -0.00091545754816580545 0 0.0078280575842978282 -0.0010006921886254055 0 0.0078967470876203094 -0.00067621261360715417 0 0.0081323374594700695 -0.00091545754816580545 0 0.0076511449861261308 -0.00080102326831005461 0 0.0078280575842978282 -0.0010006921886254055 0 0.0078967470876203094 -0.00067621261360715417 0 0.0081323374594700695 -0.00091545754816580545 0 0.008499745599163144 -0.00079779045900767761 0 0.0081540809629846167 -0.000537936693801984 0 0.0078967470876203094 -0.00067621261360715417 0 0.0081323374594700695 -0.00091545754816580545 0 0.0081540809629846167 -0.000537936693801984 0 0.0084428416228088266 -0.0012332012596299841 0 0.0081323374594700695 -0.00091545754816580545 0 0.008499745599163144 -0.00079779045900767761 0 0.008499745599163144 -0.00079779045900767761 0 0.0084158716144311051 -0.00038489305464187341 0 0.0081540809629846167 -0.000537936693801984 0 0.0084158716144311051 -0.00038489305464187341 0 0.0081540809629846167 -0.000537936693801984 0 0.0081084117036116041 -0.00017049636807602657 0 0.0078962372007133179 -0.00041850008360401573 0 0.0081540809629846167 -0.000537936693801984 0 0.0081084117036116041 -0.00017049636807602657 0 0.008571746905038426 0.00013655707292522392 0 0.0084158716144311051 -0.00038489305464187341 0 0.0081084117036116041 -0.00017049636807602657 0 0.008571746905038426 0.00013655707292522392 0 0.0081084117036116041 -0.00017049636807602657 0 0.0080458098573826763 0.00017640085913107908 0 0.008571746905038426 0.00013655707292522392 0 0.0084695234878556808 0.00033182060824460071 0 0.0080458098573826763 0.00017640085913107908 0 0.0084695234878556808 0.00033182060824460071 0 0.0082228509295871784 0.00043157005322799606 0 0.0080458098573826763 0.00017640085913107908 0 0.0084695234878556808 0.00033182060824460071 0 0.0082228509295871784 0.00043157005322799606 0 0.0084489361521366355 0.00047033579483218358 0 0.0082228509295871784 0.00043157005322799606 0 0.0078705048460924396 0.00040140377892809378 0 0.0080458098573826763 0.00017640085913107908 0 0.0082228509295871784 0.00043157005322799606 0 0.0078705048460924396 0.00040140377892809378 0 0.0080025772980251153 0.00066973561969327052 0 0.0078705048460924396 0.00040140377892809378 0 0.0080458098573826763 0.00017640085913107908 0 0.0076249823936318847 0.00012877428721584606 0 0.0077215341148062482 -0.00018682534482918398 0 0.0080458098573826763 0.00017640085913107908 0 0.0076249823936318847 0.00012877428721584606 0 0.0077215341148062482 -0.00018682534482918398 0 0.0081084117036116041 -0.00017049636807602657 0 0.0080458098573826763 0.00017640085913107908 0 0.0077215341148062482 -0.00018682534482918398 0 0.0073643104782212211 -0.00013941151581349672 0 0.0076249823936318847 0.00012877428721584606 0 0.0073643104782212211 -0.00013941151581349672 0 0.007182697750961079 0.00011528323292727025 0 0.0070429404039857695 -0.00011501370327328992 0 0.0070547759922298678 -0.00036160354210321312 0 0.0073643104782212211 -0.00013941151581349672 0 0.0070429404039857695 -0.00011501370327328992 0 0.0073643104782212211 -0.00013941151581349672 0 0.007182697750961079 0.00011528323292727025 0 0.0076249823936318847 0.00012877428721584606 0 0.0078705048460924396 0.00040140377892809378 0 0.0076249823936318847 0.00012877428721584606 0 0.007462479074280058 0.00037698780952057841 0 0.007182697750961079 0.00011528323292727025 0 0.0076249823936318847 0.00012877428721584606 0 0.007462479074280058 0.00037698780952057841 0 0.0078705048460924396 0.00040140377892809378 0 0.007462479074280058 0.00037698780952057841 0 0.0075282653536545962 0.00067618807009374351 0 0.007462479074280058 0.00037698780952057841 0 0.0071677639486254592 0.00055937421765591322 0 0.0071231832895701976 0.0003412173724202711 0 0.007462479074280058 0.00037698780952057841 0 0.0071677639486254592 0.00055937421765591322 0 0.0075282653536545962 0.00067618807009374351 0 0.007182697750961079 0.00011528323292727025 0 0.007462479074280058 0.00037698780952057841 0 0.0071231832895701976 0.0003412173724202711 0 0.007182697750961079 0.00011528323292727025 0 0.0071231832895701976 0.0003412173724202711 0 0.0068381610559959108 0.00022866382496663284 0 0.0071231832895701976 0.0003412173724202711 0 0.0068801024495535957 0.00047522537385802247 0 0.0068381610559959108 0.00022866382496663284 0 0.0071677639486254592 0.00055937421765591322 0 0.0071231832895701976 0.0003412173724202711 0 0.0068801024495535957 0.00047522537385802247 0 0.0071677639486254592 0.00055937421765591322 0 0.0068801024495535957 0.00047522537385802247 0 0.0069251557760095402 0.00066497717301053816 0 0.0068801024495535957 0.00047522537385802247 0 0.0066886460050795925 0.00060303025124894781 0 0.006546433767024123 0.0003791672593212147 0 0.0068801024495535957 0.00047522537385802247 0 0.0066886460050795925 0.00060303025124894781 0 0.0069251557760095402 0.00066497717301053816 0 0.0068801024495535957 0.00047522537385802247 0 0.0068381610559959108 0.00022866382496663284 0 0.006546433767024123 0.0003791672593212147 0 0.0068381610559959108 0.00022866382496663284 0 0.0064649431211348217 4.040301317260494e-05 0 0.006546433767024123 0.0003791672593212147 0 0.0068381610559959108 0.00022866382496663284 0 0.0068196452323078379 -7.4636218355863125e-06 0 0.0064649431211348217 4.040301317260494e-05 0 0.007182697750961079 0.00011528323292727025 0 0.0068196452323078379 -7.4636218355863125e-06 0 0.0070429404039857695 -0.00011501370327328992 0 0.007182697750961079 0.00011528323292727025 0 0.0068381610559959108 0.00022866382496663284 0 0.0068196452323078379 -7.4636218355863125e-06 0 0.0066830473839627428 -0.00026816116864138276 0 0.0068196452323078379 -7.4636218355863125e-06 0 0.0070429404039857695 -0.00011501370327328992 0 0.0066830473839627428 -0.00026816116864138276 0 0.0068196452323078379 -7.4636218355863125e-06 0 0.0064649431211348217 4.040301317260494e-05 0 0.0079801287133418226 0.00031292796029410726 0 0.0079881645598253101 0.00045054900539364041 0 0.0079303089072299115 0.00038162466544603183 0 0.0079801287133418226 0.00031292796029410726 0 0.0080844312360019779 0.0003632140395324267 0 0.0079881645598253101 0.00045054900539364041 0 0.0068197654014174923 0.00085647042373571093 0 0.0070660502881185212 0.00082909715301724123 0 0.0075615262270775242 0.0011515280321883672 0 0.0066886460050795925 0.00060303025124894781 0 0.006827852824804562 0.00086653165507736857 0 0.0069251557760095402 0.00066497717301053816 0 0.0071677639486254592 0.00055937421765591322 0 0.0069251557760095402 0.00066497717301053816 0 0.0070660502881185212 0.00082909715301724123 0 0.0071263497199439297 0.00070994595736495643 0 0.0070037673272981297 0.00076145733237487751 0 0.006827852824804562 0.00086653165507736857 0 0.0069251557760095402 0.00066497717301053816 0 0.0070660502881185212 0.00082909715301724123 0 0.0070660502881185212 0.00082909715301724123 0 0.0075282653536545962 0.00067618807009374351 0 0.0075615262270775242 0.0011515280321883672 0 0.0071263497199439297 0.00070994595736495643 0 0.0081762464525988593 0.00062830147858425605 0 0.0071677639486254592 0.00055937421765591322 0 0.0070660502881185212 0.00082909715301724123 0 0.0075282653536545962 0.00067618807009374351 0 0.0075282653536545962 0.00067618807009374351 0 0.0075615262270775242 0.0011515280321883672 0 0.0080025772980251153 0.00066973561969327052 0 0.0081762464525988593 0.00062830147858425605 0 0.0085390296024686375 0.00051730126976772082 0 0.0088589467464949244 0.00073632698460163203 0 0.0088829522376800522 0.00064223098957721285 0 0.0089776434575887937 0.00063996408582563862 0 0.0088589467464949244 0.00073632698460163203 0 0.0087759917045176668 0.0006684421071257578 0 0.0088829522376800522 0.00064223098957721285 0 0.0080282976316538301 0.00066314783217901656 0 0.0081691067889930694 0.00070176811625326425 0 0.0081082834209559897 0.00065509398703693465 0 0.0081762464525988593 0.00062830147858425605 0 0.0085029401395265783 0.00068766286110943193 0 0.0088589467464949244 0.00073632698460163203 0 0.0087759917045176668 0.0006684421071257578 0 0.0087374358952315729 0.00068075304048640099 0 0.0087759917045176668 0.0006684421071257578 0 0.0087374358952315729 0.00068075304048640099 0 0.0086938138411683866 0.0005568570091846537 0 0.0081691067889930694 0.00070176811625326425 0 0.0082171840698190592 0.0006394194615240603 0 0.0081082834209559897 0.00065509398703693465 0 0.0081691067889930694 0.00070176811625326425 0 0.0082171840698190592 0.0006394194615240603 0 0.0083538819930747722 0.00060358462663233001 0 0.0082171840698190592 0.0006394194615240603 0 0.0081082834209559897 0.00065509398703693465 0 0.0082045811259158913 0.00061101872917896207 0 0.0081762464525988593 0.00062830147858425605 0 0.0078827431055466749 0.00080693880552812618 0 0.0080282976316538301 0.00066314783217901656 0 0.0081082834209559897 0.00065509398703693465 0 0.0080025772980251153 0.00066973561969327052 0 0.0078705048460924396 0.00040140377892809378 0 0.0075282653536545962 0.00067618807009374351 0 0.0080025772980251153 0.00066973561969327052 0 0.0082228509295871784 0.00043157005322799606 0 0.0080025772980251153 0.00066973561969327052 0 0.008284079231573524 0.00053059250251238856 0 0.0081082834209559897 0.00065509398703693465 0 0.0080025772980251153 0.00066973561969327052 0 0.0082045811259158913 0.00061101872917896207 0 0.0080025772980251153 0.00066973561969327052 0 0.0082045811259158913 0.00061101872917896207 0 0.008284079231573524 0.00053059250251238856 0 0.0082045811259158913 0.00061101872917896207 0 0.008284079231573524 0.00053059250251238856 0 0.0084138837520946561 0.0005423195533971793 0 0.0082228509295871784 0.00043157005322799606 0 0.008284079231573524 0.00053059250251238856 0 0.0084489361521366355 0.00047033579483218358 0 0.008284079231573524 0.00053059250251238856 0 0.0084489361521366355 0.00047033579483218358 0 0.0084138837520946561 0.0005423195533971793 0 0.0081691067889930694 0.00070176811625326425 0 0.0083538819930747722 0.00060358462663233001 0 0.0085743881343177016 0.00057375907102055963 0 0.0085029401395265783 0.00068766286110943193 0 0.0085111158993292375 0.00060083464660034864 0 0.0084138837520946561 0.0005423195533971793 0 0.0083538819930747722 0.00060358462663233001 0 0.0085242956818228997 0.00055028681734474699 0 0.0082045811259158913 0.00061101872917896207 0 0.0084138837520946561 0.0005423195533971793 0 0.0083538819930747722 0.00060358462663233001 0 0.0082171840698190592 0.0006394194615240603 0 0.0082045811259158913 0.00061101872917896207 0 0.0083538819930747722 0.00060358462663233001 0 0.0083538819930747722 0.00060358462663233001 0 0.0085242956818228997 0.00055028681734474699 0 0.0085743881343177016 0.00057375907102055963 0 0.0087374358952315729 0.00068075304048640099 0 0.0085743881343177016 0.00057375907102055963 0 0.0086938138411683866 0.0005568570091846537 0 0.0085743881343177016 0.00057375907102055963 0 0.0086466512683117721 0.00046374202636782628 0 0.0086938138411683866 0.0005568570091846537 0 0.0085743881343177016 0.00057375907102055963 0 0.0086466512683117721 0.00046374202636782628 0 0.0086268578024558673 0.00050074936437045111 0 0.0086466512683117721 0.00046374202636782628 0 0.0087815262495040975 0.00047570607742387759 0 0.008743269650135374 0.00042522158751311291 0 0.0086466512683117721 0.00046374202636782628 0 0.0087815262495040975 0.00047570607742387759 0 0.0086938138411683866 0.0005568570091846537 0 0.0087791528387181645 0.00066394173953025868 0 0.0088146366905991549 0.00051745800631492606 0 0.0087759917045176668 0.0006684421071257578 0 0.0088483561575199241 0.00054852522861917503 0 0.0088829522376800522 0.00064223098957721285 0 0.0087759917045176668 0.0006684421071257578 0 0.0087815262495040975 0.00047570607742387759 0 0.0086938138411683866 0.0005568570091846537 0 0.0088483561575199241 0.00054852522861917503 0 0.0088829522376800522 0.00064223098957721285 0 0.0089367753265608592 0.00058506632619964051 0 0.0088483561575199241 0.00054852522861917503 0 0.0089690746581129396 0.00052730413300094536 0 0.0089367753265608592 0.00058506632619964051 0 0.0089690746581129396 0.00052730413300094536 0 0.0090091046793956426 0.00057408884707271367 0 0.0089367753265608592 0.00058506632619964051 0 0.0089690746581129396 0.00052730413300094536 0 0.0090091046793956426 0.00057408884707271367 0 0.009028630055233482 0.00052122309732151892 0 0.0090091046793956426 0.00057408884707271367 0 0.0089367753265608592 0.00058506632619964051 0 0.0089776434575887937 0.00063996408582563862 0 0.0088829522376800522 0.00064223098957721285 0 0.0089367753265608592 0.00058506632619964051 0 0.0089776434575887937 0.00063996408582563862 0 0.0086680713814516093 0.00034193679927597292 0 0.0086803720481039223 0.00028361978735732098 0 0.0086946629502994404 0.00030220046585526943 0 0.0086680713814516093 0.00034193679927597292 0 0.008660642569503163 0.00040045417606904607 0 0.0086946629502994404 0.00030220046585526943 0 0.0086810965299645975 0.00021490824148600603 0 0.0086803720481039223 0.00028361978735732098 0 0.0087109074787629533 0.00023205722001017507 0 0.0086810965299645975 0.00021490824148600603 0 0.0086803720481039223 0.00028361978735732098 0 0.0086432096933554883 0.00030160732665592005 0 0.0086803720481039223 0.00028361978735732098 0 0.0086946629502994404 0.00030220046585526943 0 0.0087109074787629533 0.00023205722001017507 0 0.0086421932171194902 0.00033401306684287458 0 0.0086680713814516093 0.00034193679927597292 0 0.0086432096933554883 0.00030160732665592005 0 0.0086680713814516093 0.00034193679927597292 0 0.0086803720481039223 0.00028361978735732098 0 0.0086432096933554883 0.00030160732665592005 0 0.0086421932171194902 0.00033401306684287458 0 0.0086163287020217562 0.00032142317420588235 0 0.008628406142607745 0.00039230142620678141 0 0.0086421932171194902 0.00033401306684287458 0 0.0086680713814516093 0.00034193679927597292 0 0.008628406142607745 0.00039230142620678141 0 0.0086163287020217562 0.00032142317420588235 0 0.008628406142607745 0.00039230142620678141 0 0.0085616275598368527 0.00040329288100109491 0 0.0084695234878556808 0.00033182060824460071 0 0.0084489361521366355 0.00047033579483218358 0 0.0085616275598368527 0.00040329288100109491 0 0.008628406142607745 0.00039230142620678141 0 0.0085616275598368527 0.00040329288100109491 0 0.0085727572968168804 0.00048157646616387757 0 0.0084489361521366355 0.00047033579483218358 0 0.0085616275598368527 0.00040329288100109491 0 0.0085727572968168804 0.00048157646616387757 0 0.0084489361521366355 0.00047033579483218358 0 0.0084138837520946561 0.0005423195533971793 0 0.0085727572968168804 0.00048157646616387757 0 0.0085242956818228997 0.00055028681734474699 0 0.0085727572968168804 0.00048157646616387757 0 0.0086268578024558673 0.00050074936437045111 0 0.0085727572968168804 0.00048157646616387757 0 0.008660642569503163 0.00040045417606904607 0 0.0086268578024558673 0.00050074936437045111 0 0.0084138837520946561 0.0005423195533971793 0 0.0085242956818228997 0.00055028681734474699 0 0.0085727572968168804 0.00048157646616387757 0 0.0085242956818228997 0.00055028681734474699 0 0.0085743881343177016 0.00057375907102055963 0 0.0086268578024558673 0.00050074936437045111 0 0.0086680713814516093 0.00034193679927597292 0 0.008628406142607745 0.00039230142620678141 0 0.008660642569503163 0.00040045417606904607 0 0.008628406142607745 0.00039230142620678141 0 0.0085727572968168804 0.00048157646616387757 0 0.008660642569503163 0.00040045417606904607 0 0.0086707517232432908 0.00039346149271148972 0 0.0087055912010138292 0.00033382267022747438 0 0.0087058191720810092 0.00030019918488698725 0 0.008660642569503163 0.00040045417606904607 0 0.0086707517232432908 0.00039346149271148972 0 0.0087058191720810092 0.00030019918488698725 0 0.008660642569503163 0.00040045417606904607 0 0.0087058191720810092 0.00030019918488698725 0 0.0086946629502994404 0.00030220046585526943 0 0.0086707517232432908 0.00039346149271148972 0 0.0086268578024558673 0.00050074936437045111 0 0.0087055912010138292 0.00033382267022747438 0 0.0087238023630304539 0.00038524306453627927 0 0.0086400154554320402 0.00049125827353305607 0 0.008660642569503163 0.00040045417606904607 0 0.0086707517232432908 0.00039346149271148972 0 0.0086268578024558673 0.00050074936437045111 0 0.0088085050659132968 0.00030310049289012893 0 0.0087055912010138292 0.00033382267022747438 0 0.0087886906120245769 0.0002665011027172441 0 0.0088085050659132968 0.00030310049289012893 0 0.0086268578024558673 0.00050074936437045111 0 0.0087055912010138292 0.00033382267022747438 0 0.0087055912010138292 0.00033382267022747438 0 0.0087058191720810092 0.00030019918488698725 0 0.0087509518191123386 0.000258344039461991 0 0.0087058191720810092 0.00030019918488698725 0 0.0087417053882598069 0.00021671131428729006 0 0.0087770196682750469 0.00020004592095119198 0 0.0087058191720810092 0.00030019918488698725 0 0.0086946629502994404 0.00030220046585526943 0 0.0087417053882598069 0.00021671131428729006 0 0.0086946629502994404 0.00030220046585526943 0 0.0087109074787629533 0.00023205722001017507 0 0.0087417053882598069 0.00021671131428729006 0 0.0087430213351013739 0.0001479596287055089 0 0.0087109074787629533 0.00023205722001017507 0 0.0087417053882598069 0.00021671131428729006 0 0.0087430213351013739 0.0001479596287055089 0 0.0087417053882598069 0.00021671131428729006 0 0.0088000454809115409 0.00013406320158780921 0 0.0088000454809115409 0.00013406320158780921 0 0.0088765759299376072 0.00012669835146713845 0 0.0087770196682750469 0.00020004592095119198 0 0.0087417053882598069 0.00021671131428729006 0 0.0088000454809115409 0.00013406320158780921 0 0.0087770196682750469 0.00020004592095119198 0 0.0087770196682750469 0.00020004592095119198 0 0.0087816979817808144 0.00023439580887843042 0 0.0088114101488009997 0.00022352743026019876 0 0.0088765759299376072 0.00012669835146713845 0 0.0087770196682750469 0.00020004592095119198 0 0.0088114101488009997 0.00022352743026019876 0 0.0087058191720810092 0.00030019918488698725 0 0.0087770196682750469 0.00020004592095119198 0 0.0087509518191123386 0.000258344039461991 0 0.0087770196682750469 0.00020004592095119198 0 0.0087509518191123386 0.000258344039461991 0 0.0087816979817808144 0.00023439580887843042 0 0.0087509518191123386 0.000258344039461991 0 0.0087880337375493573 0.00025171555522245472 0 0.0087816979817808144 0.00023439580887843042 0 0.0087055912010138292 0.00033382267022747438 0 0.0087509518191123386 0.000258344039461991 0 0.0087886906120245769 0.0002665011027172441 0 0.0087509518191123386 0.000258344039461991 0 0.0087886906120245769 0.0002665011027172441 0 0.0087880337375493573 0.00025171555522245472 0 0.0087886906120245769 0.0002665011027172441 0 0.0087880337375493573 0.00025171555522245472 0 0.0088074965410522496 0.00026419311470516282 0 0.0087880337375493573 0.00025171555522245472 0 0.0087816979817808144 0.00023439580887843042 0 0.0087973927072482177 0.00025850137228191332 0 0.0087880337375493573 0.00025171555522245472 0 0.0087973927072482177 0.00025850137228191332 0 0.0088074965410522496 0.00026419311470516282 0 0.0087816979817808144 0.00023439580887843042 0 0.0087973927072482177 0.00025850137228191332 0 0.0088114101488009997 0.00022352743026019876 0 0.0087973927072482177 0.00025850137228191332 0 0.0088022471165536097 0.00027858350715471829 0 0.0088114101488009997 0.00022352743026019876 0 0.0087973927072482177 0.00025850137228191332 0 0.0088022471165536097 0.00027858350715471829 0 0.0088196861393494471 0.00027909311846464804 0 0.0087973927072482177 0.00025850137228191332 0 0.0088074965410522496 0.00026419311470516282 0 0.0088254945064127881 0.00027843841000942257 0 0.0087973927072482177 0.00025850137228191332 0 0.0088254945064127881 0.00027843841000942257 0 0.0088196861393494471 0.00027909311846464804 0 0.0088022471165536097 0.00027858350715471829 0 0.0088192172838711565 0.00028724794812121231 0 0.0088050608316181042 0.00032022939275053571 0 0.0088022471165536097 0.00027858350715471829 0 0.0088192172838711565 0.00028724794812121231 0 0.0088196861393494471 0.00027909311846464804 0 0.0088022471165536097 0.00027858350715471829 0 0.0088252272505411691 0.00031205860834116112 0 0.0088050608316181042 0.00032022939275053571 0 0.0088022471165536097 0.00027858350715471829 0 0.0088252272505411691 0.00031205860834116112 0 0.0088114101488009997 0.00022352743026019876 0 0.0088252272505411691 0.00031205860834116112 0 0.0089524471633298328 0.00022771737677321387 0 0.0088114101488009997 0.00022352743026019876 0 0.0088252272505411691 0.00031205860834116112 0 0.0089524471633298328 0.00022771737677321387 0 0.009008922703577343 0.00047068664902630145 0 0.0088765759299376072 0.00012669835146713845 0 0.0089524471633298328 0.00022771737677321387 0 0.0088114101488009997 0.00022352743026019876 0 0.0090104153050986086 0.00039729259703469338 0 0.0089578336182565017 0.00039823669628737362 0 0.0089851047483242678 0.0003606798532965392 0 0.0090104153050986086 0.00039729259703469338 0 0.0089586130939164101 0.00046137486895411138 0 0.0089578336182565017 0.00039823669628737362 0 0.0090104153050986086 0.00039729259703469338 0 0.0089586130939164101 0.00046137486895411138 0 0.0090354337744329993 0.00043723645325569613 0 0.0090087789350123872 0.00048441168200485512 0 0.0089586130939164101 0.00046137486895411138 0 0.0090354337744329993 0.00043723645325569613 0 0.0089690746581129396 0.00052730413300094536 0 0.0090087789350123872 0.00048441168200485512 0 0.009028630055233482 0.00052122309732151892 0 0.0089690746581129396 0.00052730413300094536 0 0.0090087789350123872 0.00048441168200485512 0 0.0089586130939164101 0.00046137486895411138 0 0.0088483561575199241 0.00054852522861917503 0 0.0089690746581129396 0.00052730413300094536 0 0.0089586130939164101 0.00046137486895411138 0 0.0088483561575199241 0.00054852522861917503 0 0.0089586130939164101 0.00046137486895411138 0 0.0088902279172968883 0.00043849059192782738 0 0.0088902279172968883 0.00043849059192782738 0 0.0089578336182565017 0.00039823669628737362 0 0.0089450354729445243 0.00036461143191427961 0 0.0089586130939164101 0.00046137486895411138 0 0.0088902279172968883 0.00043849059192782738 0 0.0089578336182565017 0.00039823669628737362 0 0.0088280282747902027 0.00036960454076656 0 0.0087568767295176323 0.00035922995550726221 0 0.0088677174340301614 0.00030171426614242588 0 0.0087815262495040975 0.00047570607742387759 0 0.0088280282747902027 0.00036960454076656 0 0.008743269650135374 0.00042522158751311291 0 0.0088280282747902027 0.00036960454076656 0 0.0087568767295176323 0.00035922995550726221 0 0.008743269650135374 0.00042522158751311291 0 0.0088146366905991549 0.00051745800631492606 0 0.0088615279086579502 0.00040054624282840219 0 0.0086466512683117721 0.00046374202636782628 0 0.0087568767295176323 0.00035922995550726221 0 0.008743269650135374 0.00042522158751311291 0 0.0088085050659132968 0.00030310049289012893 0 0.0087886906120245769 0.0002665011027172441 0 0.0088246616612894964 0.00027078028237951336 0 0.0087238023630304539 0.00038524306453627927 0 0.0087942204628920842 0.00031934099200516664 0 0.0087886906120245769 0.0002665011027172441 0 0.0088246616612894964 0.00027078028237951336 0 0.0088074965410522496 0.00026419311470516282 0 0.0088246616612894964 0.00027078028237951336 0 0.0088074965410522496 0.00026419311470516282 0 0.0088254945064127881 0.00027843841000942257 0 0.0088246616612894964 0.00027078028237951336 0 0.0088254945064127881 0.00027843841000942257 0 0.0088467643037299006 0.00028812400944281031 0 0.0088254945064127881 0.00027843841000942257 0 0.0088196861393494471 0.00027909311846464804 0 0.0088478948719559174 0.00028374222427060477 0 0.0088254945064127881 0.00027843841000942257 0 0.0088478948719559174 0.00028374222427060477 0 0.0088467643037299006 0.00028812400944281031 0 0.0088192172838711565 0.00028724794812121231 0 0.0088196861393494471 0.00027909311846464804 0 0.0088478948719559174 0.00028374222427060477 0 0.0088192172838711565 0.00028724794812121231 0 0.0088478948719559174 0.00028374222427060477 0 0.0088426682212169247 0.00027642350609018352 0 0.0088478948719559174 0.00028374222427060477 0 0.0088669260085649324 0.00028896348466774641 0 0.0088467643037299006 0.00028812400944281031 0 0.0088478948719559174 0.00028374222427060477 0 0.0088669260085649324 0.00028896348466774641 0 0.0088808004837198536 0.00027553748071735602 0 0.0088478948719559174 0.00028374222427060477 0 0.0088808004837198536 0.00027553748071735602 0 0.0088862258759332714 0.00025702411540158934 0 0.0088808004837198536 0.00027553748071735602 0 0.0088940761220555106 0.00028526859099882554 0 0.0089135595510281898 0.00026183033191986562 0 0.0088669260085649324 0.00028896348466774641 0 0.0088940761220555106 0.00028526859099882554 0 0.0088677174340301614 0.00030171426614242588 0 0.0088940761220555106 0.00028526859099882554 0 0.0088677174340301614 0.00030171426614242588 0 0.0089140091632851741 0.00030761855905899599 0 0.0088669260085649324 0.00028896348466774641 0 0.0088808004837198536 0.00027553748071735602 0 0.0088940761220555106 0.00028526859099882554 0 0.0087942204628920842 0.00031934099200516664 0 0.008855208854241103 0.00029889000104165765 0 0.0088246616612894964 0.00027078028237951336 0 0.0088677174340301614 0.00030171426614242588 0 0.0088467643037299006 0.00028812400944281031 0 0.0088669260085649324 0.00028896348466774641 0 0.0088677174340301614 0.00030171426614242588 0 0.0088467643037299006 0.00028812400944281031 0 0.0088902279172968883 0.00043849059192782738 0 0.0089450354729445243 0.00036461143191427961 0 0.0089140091632851741 0.00030761855905899599 0 0.0088615279086579502 0.00040054624282840219 0 0.0089066574296815769 0.00030843686710527857 0 0.0088280282747902027 0.00036960454076656 0 0.0088677174340301614 0.00030171426614242588 0 0.0089140091632851741 0.00030761855905899599 0 0.0089578336182565017 0.00039823669628737362 0 0.0089450354729445243 0.00036461143191427961 0 0.0089851047483242678 0.0003606798532965392 0 0.0089140091632851741 0.00030761855905899599 0 0.0089560024018763024 0.00029568847131129019 0 0.008979086612319484 0.0003200332399941372 0 0.0089450354729445243 0.00036461143191427961 0 0.0089140091632851741 0.00030761855905899599 0 0.008979086612319484 0.0003200332399941372 0 0.0088940761220555106 0.00028526859099882554 0 0.0089140091632851741 0.00030761855905899599 0 0.0089430593718667177 0.00027608792059607767 0 0.0088940761220555106 0.00028526859099882554 0 0.0089430593718667177 0.00027608792059607767 0 0.0089135595510281898 0.00026183033191986562 0 0.0089430593718667177 0.00027608792059607767 0 0.0089909276941115054 0.00028313627454405228 0 0.0089956009952667799 0.00024792338876901355 0 0.0089560024018763024 0.00029568847131129019 0 0.0089909276941115054 0.00028313627454405228 0 0.008979086612319484 0.0003200332399941372 0 0.0089430593718667177 0.00027608792059607767 0 0.0089560024018763024 0.00029568847131129019 0 0.0089909276941115054 0.00028313627454405228 0 0.0089140091632851741 0.00030761855905899599 0 0.0089430593718667177 0.00027608792059607767 0 0.0089560024018763024 0.00029568847131129019 0 0.0089909276941115054 0.00028313627454405228 0 0.0090350473074041864 0.00029861946123156327 0 0.008979086612319484 0.0003200332399941372 0 0.0089909276941115054 0.00028313627454405228 0 0.0090490053602731366 0.00025712952435652514 0 0.0089956009952667799 0.00024792338876901355 0 0.0090350473074041864 0.00029861946123156327 0 0.0090490053602731366 0.00025712952435652514 0 0.009091661357343437 0.0002703282445458339 0 0.0089909276941115054 0.00028313627454405228 0 0.0090350473074041864 0.00029861946123156327 0 0.0090490053602731366 0.00025712952435652514 0 0.0090350473074041864 0.00029861946123156327 0 0.0090244233632806158 0.00034613405287156911 0 0.0090741076766807337 0.00031720923817279284 0 0.0090244233632806158 0.00034613405287156911 0 0.008979086612319484 0.0003200332399941372 0 0.0089851047483242678 0.0003606798532965392 0 0.0090350473074041864 0.00029861946123156327 0 0.0090244233632806158 0.00034613405287156911 0 0.008979086612319484 0.0003200332399941372 0 0.0089450354729445243 0.00036461143191427961 0 0.008979086612319484 0.0003200332399941372 0 0.0089851047483242678 0.0003606798532965392 0 0.0090104153050986086 0.00039729259703469338 0 0.0090244233632806158 0.00034613405287156911 0 0.0090446763881216648 0.00037523620855300487 0 0.0090104153050986086 0.00039729259703469338 0 0.0090244233632806158 0.00034613405287156911 0 0.0089851047483242678 0.0003606798532965392 0 0.0090887546949206047 0.0001834384346669327 0 0.0090324382796163512 0.00016238834207230594 0 0.0091001087774780828 0.00013546682307738128 0 0.0090336873227774232 0.00020036004666606683 0 0.0090887546949206047 0.0001834384346669327 0 0.0090324382796163512 0.00016238834207230594 0 0.0090336873227774232 0.00020036004666606683 0 0.0090887546949206047 0.0001834384346669327 0 0.0090578934378598899 0.00022204694838187422 0 0.0090578934378598899 0.00022204694838187422 0 0.0090490053602731366 0.00025712952435652514 0 0.0091232204533847495 0.00022003970710786881 0 0.0090578934378598899 0.00022204694838187422 0 0.0090490053602731366 0.00025712952435652514 0 0.0089956009952667799 0.00024792338876901355 0 0.0090336873227774232 0.00020036004666606683 0 0.0090578934378598899 0.00022204694838187422 0 0.0089956009952667799 0.00024792338876901355 0 0.0089956009952667799 0.00024792338876901355 0 0.0089521934288987193 0.00025171448144661071 0 0.0089809223431415938 0.00021802562419455485 0 0.0090336873227774232 0.00020036004666606683 0 0.0089956009952667799 0.00024792338876901355 0 0.0089809223431415938 0.00021802562419455485 0 0.0089430593718667177 0.00027608792059607767 0 0.0089956009952667799 0.00024792338876901355 0 0.0089521934288987193 0.00025171448144661071 0 0.0089521934288987193 0.00025171448144661071 0 0.0089323407865897694 0.00023916104479200661 0 0.0089135595510281898 0.00026183033191986562 0 0.0089430593718667177 0.00027608792059607767 0 0.0089521934288987193 0.00025171448144661071 0 0.0089135595510281898 0.00026183033191986562 0 0.0089521934288987193 0.00025171448144661071 0 0.0089809223431415938 0.00021802562419455485 0 0.0089323407865897694 0.00023916104479200661 0 0.0089809223431415938 0.00021802562419455485 0 0.0090324382796163512 0.00016238834207230594 0 0.0089808970219795396 0.00016184951664636668 0 0.0089809223431415938 0.00021802562419455485 0 0.008928609231354202 0.00020995460741235895 0 0.0089808970219795396 0.00016184951664636668 0 0.0090336873227774232 0.00020036004666606683 0 0.0089809223431415938 0.00021802562419455485 0 0.0090324382796163512 0.00016238834207230594 0 0.008928609231354202 0.00020995460741235895 0 0.0088708184134328617 0.00022535267696258208 0 0.0089307188395497637 0.00016123713129623517 0 0.0089809223431415938 0.00021802562419455485 0 0.008928609231354202 0.00020995460741235895 0 0.0089323407865897694 0.00023916104479200661 0 0.008928609231354202 0.00020995460741235895 0 0.0089323407865897694 0.00023916104479200661 0 0.0088862258759332714 0.00025702411540158934 0 0.0089323407865897694 0.00023916104479200661 0 0.0089135595510281898 0.00026183033191986562 0 0.0088862258759332714 0.00025702411540158934 0 0.0088808004837198536 0.00027553748071735602 0 0.0089135595510281898 0.00026183033191986562 0 0.0088862258759332714 0.00025702411540158934 0 0.0088478948719559174 0.00028374222427060477 0 0.0088862258759332714 0.00025702411540158934 0 0.0088426682212169247 0.00027642350609018352 0 0.0088862258759332714 0.00025702411540158934 0 0.0088426682212169247 0.00027642350609018352 0 0.0088708184134328617 0.00022535267696258208 0 0.008928609231354202 0.00020995460741235895 0 0.0088862258759332714 0.00025702411540158934 0 0.0088708184134328617 0.00022535267696258208 0 0.0088708184134328617 0.00022535267696258208 0 0.0088913491795396555 0.00015205915116756489 0 0.0089307188395497637 0.00016123713129623517 0 0.0088913491795396555 0.00015205915116756489 0 0.0089298822066770471 8.4320132682855079e-05 0 0.0089307188395497637 0.00016123713129623517 0 0.0088708184134328617 0.00022535267696258208 0 0.0088913491795396555 0.00015205915116756489 0 0.0088510364438375688 0.00016343614013148439 0 0.0089298822066770471 8.4320132682855079e-05 0 0.0088479079568525368 8.527154249696699e-05 0 0.008922425184182757 7.1150615879937801e-06 0 0.0088913491795396555 0.00015205915116756489 0 0.0089298822066770471 8.4320132682855079e-05 0 0.0088479079568525368 8.527154249696699e-05 0 0.0089298822066770471 8.4320132682855079e-05 0 0.0089307188395497637 0.00016123713129623517 0 0.0090012750299977764 9.0973775228359504e-05 0 0.0089298822066770471 8.4320132682855079e-05 0 0.0090012750299977764 9.0973775228359504e-05 0 0.0089869911224266293 2.1739332561254725e-05 0 0.0089307188395497637 0.00016123713129623517 0 0.0089808970219795396 0.00016184951664636668 0 0.0090012750299977764 9.0973775228359504e-05 0 0.008928609231354202 0.00020995460741235895 0 0.0089307188395497637 0.00016123713129623517 0 0.0089808970219795396 0.00016184951664636668 0 0.0089808970219795396 0.00016184951664636668 0 0.0090012750299977764 9.0973775228359504e-05 0 0.0090514038386128887 0.00011375713241426193 0 0.0090324382796163512 0.00016238834207230594 0 0.0089808970219795396 0.00016184951664636668 0 0.0090514038386128887 0.00011375713241426193 0 0.0090012750299977764 9.0973775228359504e-05 0 0.0090716185690402663 8.1297321645658947e-06 0 0.0089869911224266293 2.1739332561254725e-05 0 0.0090012750299977764 9.0973775228359504e-05 0 0.0090803057414557721 6.6286102576423221e-05 0 0.0090716185690402663 8.1297321645658947e-06 0 0.0090012750299977764 9.0973775228359504e-05 0 0.0090803057414557721 6.6286102576423221e-05 0 0.0090514038386128887 0.00011375713241426193 0 0.0090803057414557721 6.6286102576423221e-05 0 0.0091179984920865143 8.2783741229011651e-05 0 0.0090514038386128887 0.00011375713241426193 0 0.0090803057414557721 6.6286102576423221e-05 0 0.0091304649203028752 2.7916847884399845e-05 0 0.0090716185690402663 8.1297321645658947e-06 0 0.0091304649203028752 2.7916847884399845e-05 0 0.0091179984920865143 8.2783741229011651e-05 0 0.0091778537806308739 3.6297380828957895e-05 0 0.0090803057414557721 6.6286102576423221e-05 0 0.0091304649203028752 2.7916847884399845e-05 0 0.0091179984920865143 8.2783741229011651e-05 0 0.0091179984920865143 8.2783741229011651e-05 0 0.0090514038386128887 0.00011375713241426193 0 0.0091001087774780828 0.00013546682307738128 0 0.0090324382796163512 0.00016238834207230594 0 0.0090514038386128887 0.00011375713241426193 0 0.0091001087774780828 0.00013546682307738128 0 0.0088057879918287257 0.00042070113079753437 0 0.0088883446886772917 0.0006479454860199344 0 0.0087352066772627013 0.00079463556386569234 0 0.0086705825131931594 0.00057807463148864451 0 0.0093509742492914674 0.00019864899800606437 0 0.0088057879918287257 0.00042070113079753437 0 0.0088883446886772917 0.0006479454860199344 0 0.009008922703577343 0.00047068664902630145 0 0.0088883446886772917 0.0006479454860199344 0 0.009008922703577343 0.00047068664902630145 0 0.0091229045430971083 0.00077275864672802857 0 0.0088252272505411691 0.00031205860834116112 0 0.0088057879918287257 0.00042070113079753437 0 0.009008922703577343 0.00047068664902630145 0 0.0088252272505411691 0.00031205860834116112 0 0.0088057879918287257 0.00042070113079753437 0 0.0088050608316181042 0.00032022939275053571 0 0.0088426682212169247 0.00027642350609018352 0 0.0088050608316181042 0.00032022939275053571 0 0.0088346862928744292 0.00027064909094935572 0 0.0088192172838711565 0.00028724794812121231 0 0.0088426682212169247 0.00027642350609018352 0 0.0088050608316181042 0.00032022939275053571 0 0.0088050608316181042 0.00032022939275053571 0 0.0088346862928744292 0.00027064909094935572 0 0.0088207483637682705 0.0002563582697625196 0 0.0088426682212169247 0.00027642350609018352 0 0.0088708184134328617 0.00022535267696258208 0 0.0088346862928744292 0.00027064909094935572 0 0.0088708184134328617 0.00022535267696258208 0 0.0088346862928744292 0.00027064909094935572 0 0.0088207483637682705 0.0002563582697625196 0 0.0088057879918287257 0.00042070113079753437 0 0.0088050608316181042 0.00032022939275053571 0 0.0088207483637682705 0.0002563582697625196 0 0.0088057879918287257 0.00042070113079753437 0 0.0088207483637682705 0.0002563582697625196 0 0.00878101616949091 0.00025936326049850539 0 0.0088207483637682705 0.0002563582697625196 0 0.008801209602965588 0.00016464060083270596 0 0.0087320674642220476 0.00018766122001355459 0 0.0086437064574531666 0.00018654243376029804 0 0.0093509742492914674 0.00019864899800606437 0 0.008801209602965588 0.00016464060083270596 0 0.0087465811805582921 0.00014439501373116474 0 0.0087320674642220476 0.00018766122001355459 0 0.0088708184134328617 0.00022535267696258208 0 0.0088207483637682705 0.0002563582697625196 0 0.0088510364438375688 0.00016343614013148439 0 0.0088207483637682705 0.0002563582697625196 0 0.008801209602965588 0.00016464060083270596 0 0.0088510364438375688 0.00016343614013148439 0 0.0088913491795396555 0.00015205915116756489 0 0.0088510364438375688 0.00016343614013148439 0 0.0088479079568525368 8.527154249696699e-05 0 0.008801209602965588 0.00016464060083270596 0 0.0088510364438375688 0.00016343614013148439 0 0.0088479079568525368 8.527154249696699e-05 0 0.010065396467924998 -0.00058261009912998212 0 0.01065104838569088 -0.00050400835792287278 0 0.01065104838569088 -0.00050400835792287278 0 0.011944769277203634 -0.00098637022449229138 0 0.01141258040322468 -0.0012386148985481878 0 0.0118923051154724 -0.001420516323345482 0 0.011821527471277214 -0.00097181906774175509 0 0.008801209602965588 0.00016464060083270596 0 0.0088479079568525368 8.527154249696699e-05 0 0.0087465811805582921 0.00014439501373116474 0 0.011864599694155303 -0.00071206248923936393 0 0.01187913766244483 -0.00070816489005362765 0 0.011850955299247609 -0.00071713179080064857 0 0.011864599694155303 -0.00071206248923936393 0 0.011871030173488154 -0.00070857494887762568 0 0.01187913766244483 -0.00070816489005362765 0 0.01065104838569088 -0.00050400835792287278 0 0.010946670938406943 -1.4796357319385074e-05 0 0.010215958939239583 -6.4225896080814335e-06 0 0.01023359085293969 -0.0001030671545781277 0 0.010333378893007292 -5.4694193885619841e-05 0 0.0093509742492914674 0.00019864899800606437 0 0.010946670938406943 -1.4796357319385074e-05 0 0.01065104838569088 -0.00050400835792287278 0 0.0093509742492914674 0.00019864899800606437 0 0.0088883446886772917 0.0006479454860199344 0 0.0087352066772627013 0.00079463556386569234 0 0.0088564049775793664 0.00084248938197715225 0 0.010946670938406943 -1.4796357319385074e-05 0 0.010600830424508559 0.00046323331204260808 0 0.0088883446886772917 0.0006479454860199344 0 0.0088564049775793664 0.00084248938197715225 0 0.0091229045430971083 0.00077275864672802857 0 0.012694225231336852 -0.00020964755505451904 0 0.012164691145625644 -0.00049675170117809424 0 0.012169357554162418 4.2684808155096331e-05 0 0.010946670938406943 -1.4796357319385074e-05 0 0.012259890470597903 -0.00058515363336925324 0 0.011871030173488154 -0.00070857494887762568 0 0.01187899517158115 -0.00068749455737330655 0 0.01187913766244483 -0.00070816489005362765 0 0.012259890470597903 -0.00058515363336925324 0 0.01165741930045636 -0.00075162397692732125 0 0.012164691145625644 -0.00049675170117809424 0 0.011630802103276128 -0.00032284462910807171 0 0.011731400529628223 -0.00073700921757614 0 0.011630802103276128 -0.00032284462910807171 0 0.011523574490267975 -0.00074842297570602455 0 0.011731400529628223 -0.00073700921757614 0 0.011630802103276128 -0.00032284462910807171 0 0.011227981460678502 -0.00033873396203750703 0 0.011523574490267975 -0.00074842297570602455 0 0.011630802103276128 -0.00032284462910807171 0 0.011490910114156158 0.00042347069411606672 0 0.011048733463128534 4.9752720597810433e-05 0 0.011630802103276128 -0.00032284462910807171 0 0.012169357554162418 4.2684808155096331e-05 0 0.011490910114156158 0.00042347069411606672 0 0.011630802103276128 -0.00032284462910807171 0 0.011048733463128534 4.9752720597810433e-05 0 0.011227981460678502 -0.00033873396203750703 0 0.012164691145625644 -0.00049675170117809424 0 0.011630802103276128 -0.00032284462910807171 0 0.012169357554162418 4.2684808155096331e-05 0 0.010600830424508559 0.00046323331204260808 0 0.010478111343507124 0.00057368165515634631 0 0.009008922703577343 0.00047068664902630145 0 0.0091229045430971083 0.00077275864672802857 0 0.0094427471991838791 0.00078470797675731483 0 0.0094427471991838791 0.00078470797675731483 0 0.0096953396254510476 0.00048289576871115929 0 0.0092537922607758959 0.00032121243635815038 0 0.009008922703577343 0.00047068664902630145 0 0.0094427471991838791 0.00078470797675731483 0 0.0092537922607758959 0.00032121243635815038 0 0.0088503496194863775 0.00074227104260205878 0 0.0089997836632755308 0.00050789232269612939 0 0.0086747806013695132 0.00038514921905898048 0 0.010174083467226553 0.0006531098922711757 0 0.010119298339705016 0.0005549018590779956 0 0.010014455260056837 0.00044950897518240867 0 0.010241669985395959 7.7462177075177341e-05 0 0.0092479667430803332 0.00051733417818902911 0 0.0096953396254510476 0.00048289576871115929 0 0.010174083467226553 0.0006531098922711757 0 0.010014455260056837 0.00044950897518240867 0 0.010174083467226553 0.0006531098922711757 0 0.010439938943056762 0.00029573686990117323 0 0.011048733463128534 4.9752720597810433e-05 0 0.0094427471991838791 0.00078470797675731483 0 0.0096953396254510476 0.00048289576871115929 0 0.010174083467226553 0.0006531098922711757 0 0.011490910114156158 0.00042347069411606672 0 0.010174083467226553 0.0006531098922711757 0 0.011048733463128534 4.9752720597810433e-05 0 0.010478111343507124 0.00057368165515634631 0 0.010221306425202087 0.00065346435148994422 0 0.010174083467226553 0.0006531098922711757 0 0.010439938943056762 0.00029573686990117323 0 0.010119298339705016 0.0005549018590779956 0 0.011623154761711092 -0.00069705171365397724 0 0.011616381455852715 -0.0007081419449129398 0 0.01163351427031197 -0.0007844256937769538 0 0.011636104968341757 -0.0006829982723415216 0 0.011616381455852715 -0.0007081419449129398 0 0.011584151949670647 -0.00069350413116563234 0 0.010241669985395959 7.7462177075177341e-05 0 0.010291201471281104 3.4251571388381591e-05 0 0.011623154761711092 -0.00069705171365397724 0 0.01163351427031197 -0.0007844256937769538 0 0.011660025534640675 -0.00082824329846447697 0 0.010241669985395959 7.7462177075177341e-05 0 0.01120507529443888 -0.00054114214050496204 0 0.011616381455852715 -0.0007081419449129398 0 0.01163351427031197 -0.0007844256937769538 0 0.011562592551885582 -0.00073700446091828551 0 0.01163351427031197 -0.0007844256937769538 0 0.011660025534640675 -0.00082824329846447697 0 0.011653938775985166 -0.00080396060694313382 0 0.010439938943056762 0.00029573686990117323 0 0.010119298339705016 0.0005549018590779956 0 0.010531812407529085 -0.000179440732006852 0 0.010439938943056762 0.00029573686990117323 0 0.010531812407529085 -0.000179440732006852 0 0.011048733463128534 4.9752720597810433e-05 0 0.010531812407529085 -0.000179440732006852 0 0.011048733463128534 4.9752720597810433e-05 0 0.011227981460678502 -0.00033873396203750703 0 0.010531812407529085 -0.000179440732006852 0 0.011227981460678502 -0.00033873396203750703 0 0.011523574490267975 -0.00074842297570602455 0 0.01120507529443888 -0.00054114214050496204 0 0.011409848532459797 -0.00068838678627503166 0 0.011660025534640675 -0.00082824329846447697 0 0.011653938775985166 -0.00080396060694313382 0 0.011732913546015137 -0.00079142992737512316 0 0.011660025534640675 -0.00082824329846447697 0 0.011732913546015137 -0.00079142992737512316 0 0.011523574490267975 -0.00074842297570602455 0 0.011653938775985166 -0.00080396060694313382 0 0.011655489161544344 -0.00080398701628821333 0 0.011571275380539552 -0.00078677426549396325 0 0.011653938775985166 -0.00080396060694313382 0 0.011655489161544344 -0.00080398701628821333 0 0.011732913546015137 -0.00079142992737512316 0 0.011655489161544344 -0.00080398701628821333 0 0.011490683936308328 -0.00078478652571206729 0 0.011695429984097934 -0.00079040629405045413 0 0.011490683936308328 -0.00078478652571206729 0 0.011571275380539552 -0.00078677426549396325 0 0.011435753963411182 -0.00072544058626854353 0 0.011490683936308328 -0.00078478652571206729 0 0.011435753963411182 -0.00072544058626854353 0 0.011285354305935106 -0.00071507153268490775 0 0.011655489161544344 -0.00080398701628821333 0 0.011490683936308328 -0.00078478652571206729 0 0.011571275380539552 -0.00078677426549396325 0 0.011571275380539552 -0.00078677426549396325 0 0.011562592551885582 -0.00073700446091828551 0 0.011435753963411182 -0.00072544058626854353 0 0.01163351427031197 -0.0007844256937769538 0 0.011571275380539552 -0.00078677426549396325 0 0.011562592551885582 -0.00073700446091828551 0 0.01163351427031197 -0.0007844256937769538 0 0.011653938775985166 -0.00080396060694313382 0 0.011571275380539552 -0.00078677426549396325 0 0.010966452959241242 -0.00091617696979633253 0 0.010953993597014433 -0.001225942136812243 0 0.011441318753415553 -0.00079338977054064792 0 0.011695429984097934 -0.00079040629405045413 0 0.011773096880704688 -0.00078831385184461482 0 0.011490683936308328 -0.00078478652571206729 0 0.011441318753415553 -0.00079338977054064792 0 0.011695429984097934 -0.00079040629405045413 0 0.011490683936308328 -0.00078478652571206729 0 0.011441318753415553 -0.00079338977054064792 0 0.011285354305935106 -0.00071507153268490775 0 0.010498463510765181 -0.0011201193022052853 0 0.010149838432133997 -0.0016646336077117171 0 0.0098113988846581825 -0.0011448588095660302 0 0.010858210540588066 -0.00053206140780961693 0 0.010439325407397726 -0.00017848954963960587 0 0.010004502174817213 -0.00055715070364894517 0 0.010498463510765181 -0.0011201193022052853 0 0.010858210540588066 -0.00053206140780961693 0 0.010004502174817213 -0.00055715070364894517 0 0.010966452959241242 -0.00091617696979633253 0 0.01090810740689618 -0.0005356932767012864 0 0.011441318753415553 -0.00079338977054064792 0 0.010858210540588066 -0.00053206140780961693 0 0.011285354305935106 -0.00071507153268490775 0 0.011636104968341757 -0.0006829982723415216 0 0.01153429067863042 -0.0006588385677372586 0 0.011402097544740773 -0.00041731174753456546 0 0.011385260447345572 -0.00059247263976023234 0 0.01153429067863042 -0.0006588385677372586 0 0.011435753963411182 -0.00072544058626854353 0 0.011636104968341757 -0.0006829982723415216 0 0.01153429067863042 -0.0006588385677372586 0 0.011584151949670647 -0.00069350413116563234 0 0.01153429067863042 -0.0006588385677372586 0 0.011584151949670647 -0.00069350413116563234 0 0.011562592551885582 -0.00073700446091828551 0 0.011616381455852715 -0.0007081419449129398 0 0.011584151949670647 -0.00069350413116563234 0 0.011562592551885582 -0.00073700446091828551 0 0.01153429067863042 -0.0006588385677372586 0 0.011562592551885582 -0.00073700446091828551 0 0.011435753963411182 -0.00072544058626854353 0 0.010858210540588066 -0.00053206140780961693 0 0.011285354305935106 -0.00071507153268490775 0 0.011189116116726371 -0.00053838404646267489 0 0.011385260447345572 -0.00059247263976023234 0 0.011435753963411182 -0.00072544058626854353 0 0.011189116116726371 -0.00053838404646267489 0 0.011435753963411182 -0.00072544058626854353 0 0.011285354305935106 -0.00071507153268490775 0 0.011189116116726371 -0.00053838404646267489 0 0.010858210540588066 -0.00053206140780961693 0 0.011189116116726371 -0.00053838404646267489 0 0.010894971981310958 -8.183576352600939e-05 0 0.011189116116726371 -0.00053838404646267489 0 0.011402097544740773 -0.00041731174753456546 0 0.010894971981310958 -8.183576352600939e-05 0 0.010241669985395959 7.7462177075177341e-05 0 0.010201667262920626 3.4801973604692487e-05 0 0.011385260447345572 -0.00059247263976023234 0 0.01153429067863042 -0.0006588385677372586 0 0.011402097544740773 -0.00041731174753456546 0 0.011385260447345572 -0.00059247263976023234 0 0.011189116116726371 -0.00053838404646267489 0 0.011402097544740773 -0.00041731174753456546 0 0.010201667262920626 3.4801973604692487e-05 0 0.010082559832004631 9.2014913092794344e-05 0 0.0089997836632755308 0.00050789232269612939 0 0.0088748799281787305 0.00031625479640619807 0 0.0092303193560514633 0.00037126970728581349 0 0.0088748799281787305 0.00031625479640619807 0 0.0092303193560514633 0.00037126970728581349 0 0.0089694594117444345 8.1963608259968219e-05 0 0.010082559832004631 9.2014913092794344e-05 0 0.010057812176698839 -4.650463861111899e-05 0 0.0092303193560514633 0.00037126970728581349 0 0.0089694594117444345 8.1963608259968219e-05 0 0.0099935950305064438 -1.32162959540522e-05 0 0.0089694594117444345 8.1963608259968219e-05 0 0.0099935950305064438 -1.32162959540522e-05 0 0.0090997305660788421 -0.00028968709638611551 0 0.0088748799281787305 0.00031625479640619807 0 0.0089694594117444345 8.1963608259968219e-05 0 0.0087726545422911438 0.00010549066914822081 0 0.0089694594117444345 8.1963608259968219e-05 0 0.0087583099545938004 -0.00012276447662052463 0 0.0087726545422911438 0.00010549066914822081 0 0.010439325407397726 -0.00017848954963960587 0 0.010387851456686194 -6.2716696925819328e-05 0 0.010229041832547772 -0.00010741879282880526 0 0.010439325407397726 -0.00017848954963960587 0 0.01048439531005438 -5.4699147413051918e-05 0 0.010387851456686194 -6.2716696925819328e-05 0 0.010858210540588066 -0.00053206140780961693 0 0.010439325407397726 -0.00017848954963960587 0 0.01048439531005438 -5.4699147413051918e-05 0 0.010858210540588066 -0.00053206140780961693 0 0.010894971981310958 -8.183576352600939e-05 0 0.01048439531005438 -5.4699147413051918e-05 0 0.010894971981310958 -8.183576352600939e-05 0 0.01048439531005438 -5.4699147413051918e-05 0 0.0099935950305064438 -1.32162959540522e-05 0 0.01048439531005438 -5.4699147413051918e-05 0 0.0099935950305064438 -1.32162959540522e-05 0 0.010354244363509778 -4.535424755202515e-05 0 0.0099935950305064438 -1.32162959540522e-05 0 0.010354244363509778 -4.535424755202515e-05 0 0.010377314502240671 -0.0002355024335651253 0 0.010354244363509778 -4.535424755202515e-05 0 0.010390799768574249 -9.5234099269016635e-05 0 0.010377314502240671 -0.0002355024335651253 0 0.01048439531005438 -5.4699147413051918e-05 0 0.010354244363509778 -4.535424755202515e-05 0 0.010387851456686194 -6.2716696925819328e-05 0 0.010387851456686194 -6.2716696925819328e-05 0 0.010385440233816124 -4.7966935256115765e-05 0 0.010229041832547772 -0.00010741879282880526 0 0.010387851456686194 -6.2716696925819328e-05 0 0.010390799768574249 -9.5234099269016635e-05 0 0.010385440233816124 -4.7966935256115765e-05 0 0.010354244363509778 -4.535424755202515e-05 0 0.010387851456686194 -6.2716696925819328e-05 0 0.010390799768574249 -9.5234099269016635e-05 0 0.0093890967511300587 -5.6113187597697403e-05 0 0.0094016048807766452 -0.00033705909485875487 0 0.0083064646986763992 -0.0004451905470687817 0 0.0085295538249875475 -0.00045137221209496015 0 0.0084241503634746532 -0.0003293831702454307 0 0.010390799768574249 -9.5234099269016635e-05 0 0.010385440233816124 -4.7966935256115765e-05 0 0.010377314502240671 -0.0002355024335651253 0 0.0083064646986763992 -0.0004451905470687817 0 0.0083016271462076612 -0.00047802967357760254 0 0.0085295538249875475 -0.00045137221209496015 0 0.0083064646986763992 -0.0004451905470687817 0 0.0084241503634746532 -0.0003293831702454307 0 0.008340553364652642 -0.00035499759149750025 0 0.0083064646986763992 -0.0004451905470687817 0 0.008340553364652642 -0.00035499759149750025 0 0.0082743940014042613 -0.00037377688916515696 0 0.0092620467603083158 -0.00022385833829593641 0 0.0093890967511300587 -5.6113187597697403e-05 0 0.0099935950305064438 -1.32162959540522e-05 0 0.010377314502240671 -0.0002355024335651253 0 0.0090997305660788421 -0.00028968709638611551 0 0.0085295538249875475 -0.00045137221209496015 0 0.0085608285792846319 -0.00027813873723123964 0 0.0084241503634746532 -0.0003293831702454307 0 0.0085295538249875475 -0.00045137221209496015 0 0.0085608285792846319 -0.00027813873723123964 0 0.0087564140182117122 -0.0002464867197259831 0 0.0085608285792846319 -0.00027813873723123964 0 0.0087564140182117122 -0.0002464867197259831 0 0.0085933145999889781 -0.0001745016056699099 0 0.0084785047038542574 -0.00022276645471589737 0 0.0085608285792846319 -0.00027813873723123964 0 0.0085933145999889781 -0.0001745016056699099 0 0.0084185918368223228 -0.00014262784362337072 0 0.0084785047038542574 -0.00022276645471589737 0 0.0085933145999889781 -0.0001745016056699099 0 0.0084785047038542574 -0.00022276645471589737 0 0.0085608285792846319 -0.00027813873723123964 0 0.0084241503634746532 -0.0003293831702454307 0 0.0084185918368223228 -0.00014262784362337072 0 0.0084785047038542574 -0.00022276645471589737 0 0.0083381398892469049 -0.00025500062593102535 0 0.0084785047038542574 -0.00022276645471589737 0 0.0084241503634746532 -0.0003293831702454307 0 0.0083381398892469049 -0.00025500062593102535 0 0.0083381398892469049 -0.00025500062593102535 0 0.008340553364652642 -0.00035499759149750025 0 0.0082743940014042613 -0.00037377688916515696 0 0.0084241503634746532 -0.0003293831702454307 0 0.0083381398892469049 -0.00025500062593102535 0 0.008340553364652642 -0.00035499759149750025 0 0.0089694594117444345 8.1963608259968219e-05 0 0.0087583099545938004 -0.00012276447662052463 0 0.0090997305660788421 -0.00028968709638611551 0 0.0087583099545938004 -0.00012276447662052463 0 0.0090997305660788421 -0.00028968709638611551 0 0.0087767677541601575 -0.00019975972687164513 0 0.0090997305660788421 -0.00028968709638611551 0 0.0087564140182117122 -0.0002464867197259831 0 0.0087767677541601575 -0.00019975972687164513 0 0.0085295538249875475 -0.00045137221209496015 0 0.0090997305660788421 -0.00028968709638611551 0 0.0087564140182117122 -0.0002464867197259831 0 0.0094016048807766452 -0.00033705909485875487 0 0.0091237410322193655 -0.00030151056277123478 0 0.0085589964268481585 -0.00012892955304093484 0 0.0087767677541601575 -0.00019975972687164513 0 0.0085933145999889781 -0.0001745016056699099 0 0.0087564140182117122 -0.0002464867197259831 0 0.0087767677541601575 -0.00019975972687164513 0 0.0085933145999889781 -0.0001745016056699099 0 0.0085589964268481585 -0.00012892955304093484 0 0.0086319494060070161 -0.00010428468557415161 0 0.0087767677541601575 -0.00019975972687164513 0 0.0086319494060070161 -0.00010428468557415161 0 0.0087583099545938004 -0.00012276447662052463 0 0.0087767677541601575 -0.00019975972687164513 0 0.0086319494060070161 -0.00010428468557415161 0 0.0087583099545938004 -0.00012276447662052463 0 0.0086979645700485282 -7.8803441311559193e-05 0 0.0087583099545938004 -0.00012276447662052463 0 0.0086979645700485282 -7.8803441311559193e-05 0 0.0086344209149663946 -7.533402550839241e-06 0 0.0086979645700485282 -7.8803441311559193e-05 0 0.0088537288618737754 -1.1625673669973805e-05 0 0.0086344209149663946 -7.533402550839241e-06 0 0.0086488123500204229 2.8291288158599233e-06 0 0.0086979645700485282 -7.8803441311559193e-05 0 0.0088537288618737754 -1.1625673669973805e-05 0 0.0088000454809115409 0.00013406320158780921 0 0.0088765759299376072 0.00012669835146713845 0 0.0088537288618737754 -1.1625673669973805e-05 0 0.0088765759299376072 0.00012669835146713845 0 0.0088537288618737754 -1.1625673669973805e-05 0 0.0090501500323546188 0.00011430306591464629 0 0.008885242549574535 1.3464727662591601e-05 0 0.0090476682825471142 5.2848971736719614e-05 0 0.0088537288618737754 -1.1625673669973805e-05 0 0.0090501500323546188 0.00011430306591464629 0 0.0094118746512270798 7.4358893702426308e-05 0 0.0090501500323546188 0.00011430306591464629 0 0.0092537922607758959 0.00032121243635815038 0 0.0094118746512270798 7.4358893702426308e-05 0 0.0096953396254510476 0.00048289576871115929 0 0.0092537922607758959 0.00032121243635815038 0 0.0094118746512270798 7.4358893702426308e-05 0 0.0089524471633298328 0.00022771737677321387 0 0.0090501500323546188 0.00011430306591464629 0 0.0092537922607758959 0.00032121243635815038 0 0.0088765759299376072 0.00012669835146713845 0 0.0089524471633298328 0.00022771737677321387 0 0.0090501500323546188 0.00011430306591464629 0 0.0089524471633298328 0.00022771737677321387 0 0.009008922703577343 0.00047068664902630145 0 0.0092537922607758959 0.00032121243635815038 0 0.0096953396254510476 0.00048289576871115929 0 0.010014455260056837 0.00044950897518240867 0 0.0094118746512270798 7.4358893702426308e-05 0 0.0092479667430803332 0.00051733417818902911 0 0.0090476682825471142 5.2848971736719614e-05 0 0.0086747806013695132 0.00038514921905898048 0 0.0087726545422911438 0.00010549066914822081 0 0.0086344209149663946 -7.533402550839241e-06 0 0.0088748799281787305 0.00031625479640619807 0 0.0086747806013695132 0.00038514921905898048 0 0.0087726545422911438 0.00010549066914822081 0 0.0089997836632755308 0.00050789232269612939 0 0.0088748799281787305 0.00031625479640619807 0 0.0086747806013695132 0.00038514921905898048 0 0.0087583099545938004 -0.00012276447662052463 0 0.0087726545422911438 0.00010549066914822081 0 0.0086344209149663946 -7.533402550839241e-06 0 0.0023613848658269911 -6.9003562233853146e-06 0 0.0024098403672386361 -3.3971573843541591e-05 0 0.0024190366680629334 -2.4003933570380991e-05 0 0.0023613848658269911 -6.9003562233853146e-06 0 0.0024098403672386361 -3.3971573843541591e-05 0 0.0022488469511025232 2.9378275946905258e-05 0 0.0028277588507606573 1.9123083561836978e-05 0 0.0027987107423510394 2.3412172922750649e-07 0 0.0024098403672386361 -3.3971573843541591e-05 0 0.0024191472737830322 -6.9676699327507729e-05 0 0.0027967233500322342 -1.093546019748207e-07 0 0.0036669077701965594 2.2167198703756394e-06 0 0.0036102298659115412 4.6262010281456354e-08 0 0.0027984660648645984 -4.6388416974727775e-08 0 0.0024098403672386361 -3.3971573843541591e-05 0 0.0024191472737830322 -6.9676699327507729e-05 0 0.0024190366680629334 -2.4003933570380991e-05 0 0.0024191472737830322 -6.9676699327507729e-05 0 0.0024190366680629334 -2.4003933570380991e-05 0 0.0024368012665550876 3.2892863771689628e-05 0 0.0024190366680629334 -2.4003933570380991e-05 0 0.0024466458287034855 1.5303196798578389e-05 0 0.0024368012665550876 3.2892863771689628e-05 0 0.0023613848658269911 -6.9003562233853146e-06 0 0.0024190366680629334 -2.4003933570380991e-05 0 0.002420194099604095 1.4727146808109821e-05 0 0.0024190366680629334 -2.4003933570380991e-05 0 0.0024466458287034855 1.5303196798578389e-05 0 0.002420194099604095 1.4727146808109821e-05 0 0.0024807211252088671 5.250386312835161e-05 0 0.002420194099604095 1.4727146808109821e-05 0 0.0024726317744522097 4.3313108677422974e-05 0 0.0024466458287034855 1.5303196798578389e-05 0 0.002420194099604095 1.4727146808109821e-05 0 0.0024726317744522097 4.3313108677422974e-05 0 0.0024807211252088671 5.250386312835161e-05 0 0.002420194099604095 1.4727146808109821e-05 0 0.0024500678532255052 3.6658097246462301e-05 0 0.0025607524854697594 7.8209958258856443e-05 0 0.0024500678532255052 3.6658097246462301e-05 0 0.0025964716090107541 5.3659956707605907e-05 0 0.0025607524854697594 7.8209958258856443e-05 0 0.0025964716090107541 5.3659956707605907e-05 0 0.0027350414417136051 0.00011928419360659796 0 0.0024807211252088671 5.250386312835161e-05 0 0.0025607524854697594 7.8209958258856443e-05 0 0.0024500678532255052 3.6658097246462301e-05 0 0.0024807211252088671 5.250386312835161e-05 0 0.0025607524854697594 7.8209958258856443e-05 0 0.0025208650197943005 0.00010412406256243826 0 0.0024500678532255052 3.6658097246462301e-05 0 0.0024755990315453902 3.8330456994117428e-05 0 0.0025964716090107541 5.3659956707605907e-05 0 0.0024500678532255052 3.6658097246462301e-05 0 0.0023787001530481207 3.287385830031943e-05 0 0.0023316274906427935 2.0688782271363279e-05 0 0.0024500678532255052 3.6658097246462301e-05 0 0.0023787001530481207 3.287385830031943e-05 0 0.0024755990315453902 3.8330456994117428e-05 0 0.0023787001530481207 3.287385830031943e-05 0 0.002324802063857019 3.330731995129259e-05 0 0.0024755990315453902 3.8330456994117428e-05 0 0.0023613848658269911 -6.9003562233853146e-06 0 0.002420194099604095 1.4727146808109821e-05 0 0.0023316274906427935 2.0688782271363279e-05 0 0.002420194099604095 1.4727146808109821e-05 0 0.0024500678532255052 3.6658097246462301e-05 0 0.0023316274906427935 2.0688782271363279e-05 0 0.0023613848658269911 -6.9003562233853146e-06 0 0.0023316274906427935 2.0688782271363279e-05 0 0.0022488469511025232 2.9378275946905258e-05 0 0.0022000581513062561 4.8043883902651478e-05 0 0.0020568754706025206 8.081642615714147e-05 0 0.0022488469511025232 2.9378275946905258e-05 0 0.0022000581513062561 4.8043883902651478e-05 0 0.002324802063857019 3.330731995129259e-05 0 0.0020579878598633895 6.4301764398312734e-05 0 0.0023316274906427935 2.0688782271363279e-05 0 0.0022000581513062561 4.8043883902651478e-05 0 0.0022488469511025232 2.9378275946905258e-05 0 0.0023787001530481207 3.287385830031943e-05 0 0.0023316274906427935 2.0688782271363279e-05 0 0.0022000581513062561 4.8043883902651478e-05 0 0.0023787001530481207 3.287385830031943e-05 0 0.0022000581513062561 4.8043883902651478e-05 0 0.002324802063857019 3.330731995129259e-05 0 0.002324802063857019 3.330731995129259e-05 0 0.0022185825505316825 4.0740410748857974e-06 0 0.0020579878598633895 6.4301764398312734e-05 0 0.0022000581513062561 4.8043883902651478e-05 0 0.0020579878598633895 6.4301764398312734e-05 0 0.0020568754706025206 8.081642615714147e-05 0 0.0020579878598633895 6.4301764398312734e-05 0 0.0020568754706025206 8.081642615714147e-05 0 0.0018038521045667616 9.4021312123888191e-05 0 0.0020568754706025206 8.081642615714147e-05 0 0.0022365235962753683 6.6449283124098751e-05 0 0.0018038521045667616 9.4021312123888191e-05 0 0.0020568754706025206 8.081642615714147e-05 0 0.0022488469511025232 2.9378275946905258e-05 0 0.0022365235962753683 6.6449283124098751e-05 0 0.0024098403672386361 -3.3971573843541591e-05 0 0.0022488469511025232 2.9378275946905258e-05 0 0.0022365235962753683 6.6449283124098751e-05 0 0.0024098403672386361 -3.3971573843541591e-05 0 0.0022365235962753683 6.6449283124098751e-05 0 0.0027967233500322342 -1.093546019748207e-07 0 0.0022365235962753683 6.6449283124098751e-05 0 0.0027967233500322342 -1.093546019748207e-07 0 0.0020604275038377351 2.872704386867406e-07 0 0.0022365235962753683 6.6449283124098751e-05 0 0.0020604275038377351 2.872704386867406e-07 0 0.0018038521045667616 9.4021312123888191e-05 0 0.0020604275038377351 2.872704386867406e-07 0 0.0018038521045667616 9.4021312123888191e-05 0 0.0013219363132445621 5.0892698585922343e-08 0 0.0018038521045667616 9.4021312123888191e-05 0 0.0013774395296379863 7.8584215760659981e-05 0 0.0018234639700358411 0.00012851490588834099 0 0.0018038521045667616 9.4021312123888191e-05 0 0.0013774395296379863 7.8584215760659981e-05 0 0.0013219363132445621 5.0892698585922343e-08 0 0.0013774395296379863 7.8584215760659981e-05 0 0.0013219363132445621 5.0892698585922343e-08 0 0.00058348445475781962 5.3385666483397711e-07 0 0.0013774395296379863 7.8584215760659981e-05 0 0.00058348445475781962 5.3385666483397711e-07 0 0.0009708177056771761 -9.8434888165329477e-05 0 0.0013774395296379863 7.8584215760659981e-05 0 0.0009708177056771761 -9.8434888165329477e-05 0 0.0015914557403537116 -6.6395216546290316e-05 0 -0.00015307824406393487 -1.6589400704145015e-06 0 0.00058348445475781962 5.3385666483397711e-07 0 0.0009708177056771761 -9.8434888165329477e-05 0 0.001840467833372337 -0.00032579914402617124 0 0.0015914557403537116 -6.6395216546290316e-05 0 0.001930845536072214 -0.00011461221433099296 0 0.0014848512006761052 -0.00051483266903064903 0 0.001840467833372337 -0.00032579914402617124 0 0.0015914557403537116 -6.6395216546290316e-05 0 0.0014848512006761052 -0.00051483266903064903 0 0.0009708177056771761 -9.8434888165329477e-05 0 0.0015914557403537116 -6.6395216546290316e-05 0 0.0015914557403537116 -6.6395216546290316e-05 0 0.0018802873734798454 5.903766702915304e-05 0 0.0016448364370773634 5.6437123592861594e-05 0 0.0013774395296379863 7.8584215760659981e-05 0 0.0015914557403537116 -6.6395216546290316e-05 0 0.0016448364370773634 5.6437123592861594e-05 0 0.0015914557403537116 -6.6395216546290316e-05 0 0.001930845536072214 -0.00011461221433099296 0 0.0018802873734798454 5.903766702915304e-05 0 0.0018802873734798454 5.903766702915304e-05 0 0.0018234639700358411 0.00012851490588834099 0 0.002020107141270521 0.00018916524612610028 0 0.0013774395296379863 7.8584215760659981e-05 0 0.0016448364370773634 5.6437123592861594e-05 0 0.0018234639700358411 0.00012851490588834099 0 0.0018802873734798454 5.903766702915304e-05 0 0.0016448364370773634 5.6437123592861594e-05 0 0.0018234639700358411 0.00012851490588834099 0 0.0020579878598633895 6.4301764398312734e-05 0 0.0018038521045667616 9.4021312123888191e-05 0 0.0018234639700358411 0.00012851490588834099 0 0.0019627016496879431 0.00034929755090413995 0 0.0018234639700358411 0.00012851490588834099 0 0.002020107141270521 0.00018916524612610028 0 0.0021038594168942761 0.00019086861702145524 0 0.0018756537836232606 0.00013214647066658996 0 0.0022185825505316825 4.0740410748857974e-06 0 0.0020579878598633895 6.4301764398312734e-05 0 0.0018234639700358411 0.00012851490588834099 0 0.002020107141270521 0.00018916524612610028 0 0.0022234253291247919 0.0001810202110656982 0 0.0021791684029284423 0.00037871739417417663 0 0.0019627016496879431 0.00034929755090413995 0 0.002020107141270521 0.00018916524612610028 0 0.0021791684029284423 0.00037871739417417663 0 0.0023267997026618524 0.00030173919921480116 0 0.0022234253291247919 0.0001810202110656982 0 0.0021791684029284423 0.00037871739417417663 0 0.0023267997026618524 0.00030173919921480116 0 0.0022234253291247919 0.0001810202110656982 0 0.0023608016322777363 0.00019934284392825419 0 0.0023608016322777363 0.00019934284392825419 0 0.0023114733413919235 7.0580677599572987e-05 0 0.0024132529315015129 0.00010268538424529656 0 0.0022234253291247919 0.0001810202110656982 0 0.0023608016322777363 0.00019934284392825419 0 0.0023114733413919235 7.0580677599572987e-05 0 0.0022234253291247919 0.0001810202110656982 0 0.0023114733413919235 7.0580677599572987e-05 0 0.0021318169478690627 8.9503598199277819e-05 0 0.0023114733413919235 7.0580677599572987e-05 0 0.0021318169478690627 8.9503598199277819e-05 0 0.0022660932160530381 -8.0945350473903268e-05 0 0.0023114733413919235 7.0580677599572987e-05 0 0.0024387756957637819 4.9683569786904065e-06 0 0.0024132529315015129 0.00010268538424529656 0 0.002020107141270521 0.00018916524612610028 0 0.0022234253291247919 0.0001810202110656982 0 0.0021318169478690627 8.9503598199277819e-05 0 0.0018802873734798454 5.903766702915304e-05 0 0.002020107141270521 0.00018916524612610028 0 0.0021318169478690627 8.9503598199277819e-05 0 0.0018802873734798454 5.903766702915304e-05 0 0.0021318169478690627 8.9503598199277819e-05 0 0.0020876958109374471 -3.9886914460209789e-05 0 0.001930845536072214 -0.00011461221433099296 0 0.0018802873734798454 5.903766702915304e-05 0 0.0020876958109374471 -3.9886914460209789e-05 0 0.001930845536072214 -0.00011461221433099296 0 0.0020876958109374471 -3.9886914460209789e-05 0 0.0021070705820436702 -0.00024008179304944025 0 0.0020876958109374471 -3.9886914460209789e-05 0 0.0022660932160530381 -8.0945350473903268e-05 0 0.0021070705820436702 -0.00024008179304944025 0 0.0021318169478690627 8.9503598199277819e-05 0 0.0020876958109374471 -3.9886914460209789e-05 0 0.0022660932160530381 -8.0945350473903268e-05 0 0.0023114733413919235 7.0580677599572987e-05 0 0.0022660932160530381 -8.0945350473903268e-05 0 0.0024130486767102118 -7.0361331075855058e-05 0 0.0023114733413919235 7.0580677599572987e-05 0 0.0024130486767102118 -7.0361331075855058e-05 0 0.0024387756957637819 4.9683569786904065e-06 0 0.0022660932160530381 -8.0945350473903268e-05 0 0.002416794918935589 -0.00018597453033767045 0 0.0024130486767102118 -7.0361331075855058e-05 0 0.0022660932160530381 -8.0945350473903268e-05 0 0.0023195547164200866 -0.00025022383502515307 0 0.002416794918935589 -0.00018597453033767045 0 0.0022660932160530381 -8.0945350473903268e-05 0 0.0023195547164200866 -0.00025022383502515307 0 0.0021070705820436702 -0.00024008179304944025 0 0.0023195547164200866 -0.00025022383502515307 0 0.002416794918935589 -0.00018597453033767045 0 0.0024629405870658936 -0.0003498095728717596 0 0.0023078813299713327 -0.00042543795667142364 0 0.0023195547164200866 -0.00025022383502515307 0 0.0024629405870658936 -0.0003498095728717596 0 0.0023078813299713327 -0.00042543795667142364 0 0.0023195547164200866 -0.00025022383502515307 0 0.0021070705820436702 -0.00024008179304944025 0 0.002040186391264636 -0.00044015592990009021 0 0.0023078813299713327 -0.00042543795667142364 0 0.0021070705820436702 -0.00024008179304944025 0 0.002040186391264636 -0.00044015592990009021 0 0.001840467833372337 -0.00032579914402617124 0 0.0021070705820436702 -0.00024008179304944025 0 0.001840467833372337 -0.00032579914402617124 0 0.001930845536072214 -0.00011461221433099296 0 0.0021070705820436702 -0.00024008179304944025 0 0.0044306007842829344 -0.00071133214210804285 0 0.0044590906015045239 -0.00048250364912278288 0 0.0048456480006274297 -0.00098493359396262096 0 0.0049132623333427716 -0.00095217603970586988 0 0.0049564561849450338 -0.00092876970871521886 0 0.0049445053803919914 -0.00093868086444490217 0 0.0049564561849450338 -0.00092876970871521886 0 0.0049607054731983626 -0.00094093487626177997 0 0.0049445053803919914 -0.00093868086444490217 0 0.0049132623333427716 -0.00095217603970586988 0 0.0049564561849450338 -0.00092876970871521886 0 0.0049445053803919914 -0.00093868086444490217 0 0.0049607814098369205 -0.00094131026114400605 0 0.0049516200124993161 -0.00094086631852017156 0 0.0049445053803919914 -0.00093868086444490217 0 0.0049132623333427716 -0.00095217603970586988 0 0.004937753093489948 -0.00094756265101328602 0 0.0048927965801014049 -0.0009746795007786218 0 0.0049132623333427716 -0.00095217603970586988 0 0.004937753093489948 -0.00094756265101328602 0 0.0026293434515836378 -0.00065776440505278073 0 0.0024629405870658936 -0.0003498095728717596 0 0.0025519525338861784 -0.00023398547307757928 0 0.0033326573352935318 -0.0003322784820516759 0 0.003475256140960517 3.1072478907815155e-05 0 0.0036471961939112808 0.00023926436650874042 0 0.003768127841392356 -0.00026606033949333463 0 0.003750567040043562 6.9549528533428498e-05 0 0.0036471961939112808 0.00023926436650874042 0 0.0035475533238871386 -0.00026342265716953084 0 0.0036346204142135852 0.00022365927806989499 0 0.002416794918935589 -0.00018597453033767045 0 0.0024629405870658936 -0.0003498095728717596 0 0.0025519525338861784 -0.00023398547307757928 0 0.003475256140960517 3.1072478907815155e-05 0 0.0036471961939112808 0.00023926436650874042 0 0.0036026898721224238 0.00064369571789005416 0 0.0025519525338861784 -0.00023398547307757928 0 0.0024387756957637819 4.9683569786904065e-06 0 0.0025025965233547581 7.6483329462245564e-05 0 0.003750567040043562 6.9549528533428498e-05 0 0.0036471961939112808 0.00023926436650874042 0 0.0036026898721224238 0.00064369571789005416 0 0.0049564561849450338 -0.00092876970871521886 0 0.0050039937943460663 -0.00096730826632813582 0 0.0050523496426155626 -0.00099733819248229221 0 0.0025519525338861784 -0.00023398547307757928 0 0.0024130486767102118 -7.0361331075855058e-05 0 0.0024387756957637819 4.9683569786904065e-06 0 0.0029612170708086414 -2.4715365206585459e-05 0 0.0034533900701090121 -7.5215910833230389e-05 0 0.0044590906015045239 -0.00048250364912278288 0 0.0034533900701090121 -7.5215910833230389e-05 0 0.002416794918935589 -0.00018597453033767045 0 0.0025519525338861784 -0.00023398547307757928 0 0.0024130486767102118 -7.0361331075855058e-05 0 0.0050039937943460663 -0.00096730826632813582 0 0.0049846868930708971 -0.00095524674285136883 0 0.0050182093943388567 -0.00099353943912669214 0 0.0049564561849450338 -0.00092876970871521886 0 0.0049846868930708971 -0.00095524674285136883 0 0.0049607054731983626 -0.00094093487626177997 0 0.0049564561849450338 -0.00092876970871521886 0 0.0050039937943460663 -0.00096730826632813582 0 0.0049846868930708971 -0.00095524674285136883 0 0.0049445053803919914 -0.00093868086444490217 0 0.0049607054731983626 -0.00094093487626177997 0 0.0049607814098369205 -0.00094131026114400605 0 0.0049846868930708971 -0.00095524674285136883 0 0.0049607054731983626 -0.00094093487626177997 0 0.0049607814098369205 -0.00094131026114400605 0 0.0049846868930708971 -0.00095524674285136883 0 0.0049773991674274343 -0.00095238840691301346 0 0.0050182093943388567 -0.00099353943912669214 0 0.0049846868930708971 -0.00095524674285136883 0 0.0049607814098369205 -0.00094131026114400605 0 0.0049773991674274343 -0.00095238840691301346 0 0.0050039937943460663 -0.00096730826632813582 0 0.0050182093943388567 -0.00099353943912669214 0 0.0050523496426155626 -0.00099733819248229221 0 0.0050182093943388567 -0.00099353943912669214 0 0.0050433149761725873 -0.0010463820101337187 0 0.0050594333705387346 -0.0010285493427756335 0 0.0050182093943388567 -0.00099353943912669214 0 0.0050523496426155626 -0.00099733819248229221 0 0.0050594333705387346 -0.0010285493427756335 0 0.0024387756957637819 4.9683569786904065e-06 0 0.0025025965233547581 7.6483329462245564e-05 0 0.0024132529315015129 0.00010268538424529656 0 0.0034533900701090121 -7.5215910833230389e-05 0 0.0029775782041044658 0.00020964360387788349 0 0.0023608016322777363 0.00019934284392825419 0 0.0024716415943883061 0.00015152876564740095 0 0.0024132529315015129 0.00010268538424529656 0 0.0025025965233547581 7.6483329462245564e-05 0 0.0024716415943883061 0.00015152876564740095 0 0.0024132529315015129 0.00010268538424529656 0 0.0023608016322777363 0.00019934284392825419 0 0.0024716415943883061 0.00015152876564740095 0 0.0025006973587110518 0.00033919685807508397 0 0.0034533900701090121 -7.5215910833230389e-05 0 0.0044080824042042055 -0.00075751452561650663 0 0.0051417695576189007 -0.0012121626333628044 0 0.0044080824042042055 -0.00075751452561650663 0 0.0050523496426155626 -0.00099733819248229221 0 0.0050594333705387346 -0.0010285493427756335 0 0.0050632627012281032 -0.0010478291425761802 0 0.0024942370503628977 7.199192634277325e-05 0 0.0024716415943883061 0.00015152876564740095 0 0.0025006973587110518 0.00033919685807508397 0 0.0023267997026618524 0.00030173919921480116 0 0.0023608016322777363 0.00019934284392825419 0 0.0025006973587110518 0.00033919685807508397 0 0.0050594333705387346 -0.0010285493427756335 0 0.0050829325221760698 -0.0010974360751233438 0 0.0051423094701828443 -0.0011212913128407472 0 0.0050433149761725873 -0.0010463820101337187 0 0.0050594333705387346 -0.0010285493427756335 0 0.0050829325221760698 -0.0010974360751233438 0 0.0050433149761725873 -0.0010463820101337187 0 0.0050829325221760698 -0.0010974360751233438 0 0.0050517403957478849 -0.0010835830191158031 0 0.0050829325221760698 -0.0010974360751233438 0 0.0051013602348022533 -0.0011391220226433169 0 0.0051204766525969761 -0.0011701410494304647 0 0.0050829325221760698 -0.0010974360751233438 0 0.0051013602348022533 -0.0011391220226433169 0 0.0050517403957478849 -0.0010835830191158031 0 0.0050829325221760698 -0.0010974360751233438 0 0.0051204766525969761 -0.0011701410494304647 0 0.0051423094701828443 -0.0011212913128407472 0 0.0051013602348022533 -0.0011391220226433169 0 0.0051204766525969761 -0.0011701410494304647 0 0.0051563154525678624 -0.0011983004771841718 0 0.0051156126679178168 -0.0011058291279040689 0 0.0051004384106911596 -0.0011993779435159561 0 0.0049543458214395758 -0.00097216830856270374 0 0.0051204766525969761 -0.0011701410494304647 0 0.0051563154525678624 -0.0011983004771841718 0 0.0051265568924022866 -0.0011817950357905134 0 0.0051204766525969761 -0.0011701410494304647 0 0.0051265568924022866 -0.0011817950357905134 0 0.0051004384106911596 -0.0011993779435159561 0 0.0051265568924022866 -0.0011817950357905134 0 0.0051156126679178168 -0.0011058291279040689 0 0.0051004384106911596 -0.0011993779435159561 0 0.0051563154525678624 -0.0011983004771841718 0 0.0051265568924022866 -0.0011817950357905134 0 0.0052756095389291796 -0.0011297916682613787 0 0.0051265568924022866 -0.0011817950357905134 0 0.0051156126679178168 -0.0011058291279040689 0 0.0052756095389291796 -0.0011297916682613787 0 0.0035292297485126915 -0.00025386628642313158 0 0.0034299797877871811 -0.00040619472681919871 0 0.0049919819480602982 -0.0012846892957246064 0 0.0049616767941274556 -0.00094589477871890204 0 0.0047699968887560638 -0.0011627174991963426 0 0.0047623739020523905 -0.0012525468165717245 0 0.0046593368045426114 -0.001056583969358438 0 0.0047699968887560638 -0.0011627174991963426 0 0.0046593368045426114 -0.001056583969358438 0 0.0048022439554386261 -0.0011032291361743832 0 0.0047699968887560638 -0.0011627174991963426 0 0.0048379349676489986 -0.001233951350629901 0 0.0048022439554386261 -0.0011032291361743832 0 0.0047699968887560638 -0.0011627174991963426 0 0.0048379349676489986 -0.001233951350629901 0 0.0047623739020523905 -0.0012525468165717245 0 0.0048379349676489986 -0.001233951350629901 0 0.0047623739020523905 -0.0012525468165717245 0 0.0048106183717189022 -0.001362894963019431 0 0.0049919819480602982 -0.0012846892957246064 0 0.0044080824042042055 -0.00075751452561650663 0 0.0051204766525969761 -0.0011701410494304647 0 0.0051004384106911596 -0.0011993779435159561 0 0.0051423094701828443 -0.0011212913128407472 0 0.0024183185199379616 0.00051948889542463822 0 0.0025006973587110518 0.00033919685807508397 0 0.0023429583838375494 0.000409903687941584 0 0.0035292297485126915 -0.00025386628642313158 0 0.0044080824042042055 -0.00075751452561650663 0 0.0023267997026618524 0.00030173919921480116 0 0.0025006973587110518 0.00033919685807508397 0 0.0023429583838375494 0.000409903687941584 0 0.0023267997026618524 0.00030173919921480116 0 0.0023429583838375494 0.000409903687941584 0 0.0021791684029284423 0.00037871739417417663 0 0.0023429583838375494 0.000409903687941584 0 0.0021791684029284423 0.00037871739417417663 0 0.0022879422341542084 0.00049844781851667074 0 0.0021791684029284423 0.00037871739417417663 0 0.0021588780500802094 0.00053718349720593744 0 0.0022879422341542084 0.00049844781851667074 0 0.0024183185199379616 0.00051948889542463822 0 0.0023429583838375494 0.000409903687941584 0 0.0022879422341542084 0.00049844781851667074 0 0.0021038594168942761 0.00019086861702145524 0 0.0022212830731590037 0.00032848597520604281 0 0.0019627016496879431 0.00034929755090413995 0 0.0021791684029284423 0.00037871739417417663 0 0.0021588780500802094 0.00053718349720593744 0 0.002324802063857019 3.330731995129259e-05 0 0.0022185825505316825 4.0740410748857974e-06 0 0.0024698206927836713 -9.4019815352034778e-07 0 0.002324802063857019 3.330731995129259e-05 0 0.0024698206927836713 -9.4019815352034778e-07 0 0.0024755990315453902 3.8330456994117428e-05 0 0.0021588780500802094 0.00053718349720593744 0 0.0022879422341542084 0.00049844781851667074 0 0.0023460689168287086 0.00069721162725363314 0 0.0022212830731590037 0.00032848597520604281 0 0.0034299797877871811 -0.00040619472681919871 0 0.0024183185199379616 0.00051948889542463822 0 0.0022879422341542084 0.00049844781851667074 0 0.0023460689168287086 0.00069721162725363314 0 0.0025937266293902688 2.3258222942972497e-05 0 0.0025826422280403019 3.7713349548685613e-05 0 0.0026966803901146159 5.2382278638360826e-05 0 0.0024698206927836713 -9.4019815352034778e-07 0 0.0025937266293902688 2.3258222942972497e-05 0 0.0025826422280403019 3.7713349548685613e-05 0 0.0043958702608660706 -0.0012713177218371334 0 0.0039651061429089958 -0.00057705390229170533 0 0.0047488183663035761 -0.00091960234004454455 0 0.0024698206927836713 -9.4019815352034778e-07 0 0.0024755990315453902 3.8330456994117428e-05 0 0.0025826422280403019 3.7713349548685613e-05 0 0.0024755990315453902 3.8330456994117428e-05 0 0.0025826422280403019 3.7713349548685613e-05 0 0.0025964716090107541 5.3659956707605907e-05 0 0.0025826422280403019 3.7713349548685613e-05 0 0.0025964716090107541 5.3659956707605907e-05 0 0.0026966803901146159 5.2382278638360826e-05 0 0.0025964716090107541 5.3659956707605907e-05 0 0.0026966803901146159 5.2382278638360826e-05 0 0.0027350414417136051 0.00011928419360659796 0 0.0039651061429089958 -0.00057705390229170533 0 0.004663430323790285 -0.00062524768068563719 0 0.0046279538630610659 -0.00038963677629420753 0 0.0034299797877871811 -0.00040619472681919871 0 0.0033437315498532493 -0.0002655141668770551 0 0.0039651061429089958 -0.00057705390229170533 0 0.004663430323790285 -0.00062524768068563719 0 0.0047488183663035761 -0.00091960234004454455 0 0.004663430323790285 -0.00062524768068563719 0 0.0049001702157278858 -0.00051447315968058526 0 0.0046279538630610659 -0.00038963677629420753 0 0.004663430323790285 -0.00062524768068563719 0 0.004985923568504743 -0.00071966396155613945 0 0.0047488183663035761 -0.00091960234004454455 0 0.004663430323790285 -0.00062524768068563719 0 0.004985923568504743 -0.00071966396155613945 0 0.0049001702157278858 -0.00051447315968058526 0 0.004985923568504743 -0.00071966396155613945 0 0.0049001702157278858 -0.00051447315968058526 0 0.0051146706705553257 -0.00047157895184956234 0 0.0049001702157278858 -0.00051447315968058526 0 0.0051146706705553257 -0.00047157895184956234 0 0.0049147843677038389 -0.00030284589832697725 0 0.004985923568504743 -0.00071966396155613945 0 0.0051146706705553257 -0.00047157895184956234 0 0.0052934514539706295 -0.00059534788845599755 0 0.0051146706705553257 -0.00047157895184956234 0 0.0052934514539706295 -0.00059534788845599755 0 0.0053750781822063352 -0.00033772170102933433 0 0.0052934514539706295 -0.00059534788845599755 0 0.0056099555961843395 -0.00040099515448702015 0 0.0053750781822063352 -0.00033772170102933433 0 0.0052934514539706295 -0.00059534788845599755 0 0.0051503871823385212 -0.0008177366577460589 0 0.0053157882705701974 -0.0007985998978427345 0 0.0052934514539706295 -0.00059534788845599755 0 0.0053157882705701974 -0.0007985998978427345 0 0.0054941253117268005 -0.00066790453699830876 0 0.004985923568504743 -0.00071966396155613945 0 0.0052934514539706295 -0.00059534788845599755 0 0.0051503871823385212 -0.0008177366577460589 0 0.004985923568504743 -0.00071966396155613945 0 0.0051503871823385212 -0.0008177366577460589 0 0.0049543458214395758 -0.00097216830856270374 0 0.0051503871823385212 -0.0008177366577460589 0 0.0052072012785677642 -0.0009750931813255234 0 0.0049543458214395758 -0.00097216830856270374 0 0.0053157882705701974 -0.0007985998978427345 0 0.0052072012785677642 -0.0009750931813255234 0 0.0054914757075794325 -0.00087642796825385518 0 0.0051503871823385212 -0.0008177366577460589 0 0.0053157882705701974 -0.0007985998978427345 0 0.0052072012785677642 -0.0009750931813255234 0 0.0052756095389291796 -0.0011297916682613787 0 0.0052072012785677642 -0.0009750931813255234 0 0.0054914757075794325 -0.00087642796825385518 0 0.0051156126679178168 -0.0011058291279040689 0 0.0052756095389291796 -0.0011297916682613787 0 0.0052072012785677642 -0.0009750931813255234 0 0.0051156126679178168 -0.0011058291279040689 0 0.0052072012785677642 -0.0009750931813255234 0 0.0049543458214395758 -0.00097216830856270374 0 0.0048022439554386261 -0.0011032291361743832 0 0.0047977492535188305 -0.0010146892339897874 0 0.0049543458214395758 -0.00097216830856270374 0 0.0048379349676489986 -0.001233951350629901 0 0.0048022439554386261 -0.0011032291361743832 0 0.0049543458214395758 -0.00097216830856270374 0 0.0046593368045426114 -0.001056583969358438 0 0.0048022439554386261 -0.0011032291361743832 0 0.0047977492535188305 -0.0010146892339897874 0 0.0034299797877871811 -0.00040619472681919871 0 0.0046256773320143803 -0.00078200814744722386 0 0.0046593368045426114 -0.001056583969358438 0 0.0047977492535188305 -0.0010146892339897874 0 0.0047488183663035761 -0.00091960234004454455 0 0.004985923568504743 -0.00071966396155613945 0 0.0047488183663035761 -0.00091960234004454455 0 0.0049543458214395758 -0.00097216830856270374 0 0.0047977492535188305 -0.0010146892339897874 0 0.0047488183663035761 -0.00091960234004454455 0 0.0049543458214395758 -0.00097216830856270374 0 0.0059840107730044006 -0.0011004290821691174 0 0.0057714472629598994 -0.00065595860193649977 0 0.0061577979413430951 -0.00061235976481309831 0 0.0059840107730044006 -0.0011004290821691174 0 0.0061577979413430951 -0.00061235976481309831 0 0.0066054797616392665 -0.00099039886469778362 0 0.0059840107730044006 -0.0011004290821691174 0 0.0054914757075794325 -0.00087642796825385518 0 0.0057714472629598994 -0.00065595860193649977 0 0.0053132912054762423 -0.0011276610506265675 0 0.0057413418026699449 -0.0010620155333244661 0 0.0052756095389291796 -0.0011297916682613787 0 0.0059840107730044006 -0.0011004290821691174 0 0.0054914757075794325 -0.00087642796825385518 0 0.0053157882705701974 -0.0007985998978427345 0 0.0054914757075794325 -0.00087642796825385518 0 0.0054941253117268005 -0.00066790453699830876 0 0.0057714472629598994 -0.00065595860193649977 0 0.0054941253117268005 -0.00066790453699830876 0 0.0056099555961843395 -0.00040099515448702015 0 0.0054914757075794325 -0.00087642796825385518 0 0.0057714472629598994 -0.00065595860193649977 0 0.0054941253117268005 -0.00066790453699830876 0 0.0052934514539706295 -0.00059534788845599755 0 0.0054941253117268005 -0.00066790453699830876 0 0.0056099555961843395 -0.00040099515448702015 0 0.0057714472629598994 -0.00065595860193649977 0 0.0056099555961843395 -0.00040099515448702015 0 0.0058924151708591044 -0.00032383702157006425 0 0.0057714472629598994 -0.00065595860193649977 0 0.0058924151708591044 -0.00032383702157006425 0 0.0061577979413430951 -0.00061235976481309831 0 0.0058924151708591044 -0.00032383702157006425 0 0.0061577979413430951 -0.00061235976481309831 0 0.0061968953068455464 -0.00020372117074732499 0 0.0061577979413430951 -0.00061235976481309831 0 0.0064713137740292853 -0.00042187362364680365 0 0.0061968953068455464 -0.00020372117074732499 0 0.0061577979413430951 -0.00061235976481309831 0 0.0064713137740292853 -0.00042187362364680365 0 0.0066054797616392665 -0.00099039886469778362 0 0.0064713137740292853 -0.00042187362364680365 0 0.0068481956937007865 -0.00042554785280903403 0 0.0066054797616392665 -0.00099039886469778362 0 0.0076566799823193782 0.00051204186064799631 0 0.0077503032055583464 0.00038653906845518361 0 0.0077670746670038936 0.00047767482869442578 0 0.0073090408632703703 3.2169484729684976e-05 0 0.0069181095719319935 -0.00043395601648849779 0 0.0076566799823193782 0.00051204186064799631 0 0.0077670746670038936 0.00047767482869442578 0 0.0077467969484969453 0.00055164086398690757 0 0.0057663317086556502 -0.00097722690763530425 0 0.0060246394324940415 -0.0011217719731721394 0 0.0060510863829717756 -0.00092458273534585936 0 0.0068481956937007865 -0.00042554785280903403 0 0.0066054797616392665 -0.00099039886469778362 0 0.0072014523295852867 -0.00088660731728323558 0 0.0061172429560437322 -0.0010287710872422559 0 0.0069181095719319935 -0.00043395601648849779 0 0.0054741190185629519 -0.0010393021165929757 0 0.0057663317086556502 -0.00097722690763530425 0 0.0056404827981637231 -0.0011252189052825602 0 0.0057413418026699449 -0.0010620155333244661 0 0.0061172429560437322 -0.0010287710872422559 0 0.0056404827981637231 -0.0011252189052825602 0 0.0058656114684362843 -0.0012755865250636052 0 0.005511756453010201 -0.0012565808959838531 0 0.0057663317086556502 -0.00097722690763530425 0 0.0056404827981637231 -0.0011252189052825602 0 0.0058656114684362843 -0.0012755865250636052 0 0.0057663317086556502 -0.00097722690763530425 0 0.0058656114684362843 -0.0012755865250636052 0 0.0060246394324940415 -0.0011217719731721394 0 0.0050161352901952972 -0.0010882084786758663 0 0.0050205886768400539 -0.0010980159597838851 0 0.005034416078315688 -0.0010871479077603746 0 0.0050161352901952972 -0.0010882084786758663 0 0.00500999752485761 -0.0010967610992959154 0 0.0050205886768400539 -0.0010980159597838851 0 0.0050161352901952972 -0.0010882084786758663 0 0.00500999752485761 -0.0010967610992959154 0 0.0050120623458850605 -0.0011329371614413938 0 0.0054058236705628081 -0.0012808863192656941 0 0.0052731062143353304 -0.0011808974185153222 0 0.00500999752485761 -0.0010967610992959154 0 0.0050120623458850605 -0.0011329371614413938 0 0.0050236827169135873 -0.0010928882005633743 0 0.0050120623458850605 -0.0011329371614413938 0 0.0050630838444493927 -0.0011217668602481739 0 0.0050236827169135873 -0.0010928882005633743 0 0.0054741190185629519 -0.0010393021165929757 0 0.005511756453010201 -0.0012565808959838531 0 0.005350691711242671 -0.001149344835310198 0 0.0054741190185629519 -0.0010393021165929757 0 0.0056404827981637231 -0.0011252189052825602 0 0.005511756453010201 -0.0012565808959838531 0 0.0051563154525678624 -0.0011983004771841718 0 0.005511756453010201 -0.0012565808959838531 0 0.005350691711242671 -0.001149344835310198 0 0.0051618681463652489 -0.0012006960660293539 0 0.0052731062143353304 -0.0011808974185153222 0 0.0052756095389291796 -0.0011297916682613787 0 0.0054741190185629519 -0.0010393021165929757 0 0.005350691711242671 -0.001149344835310198 0 0.0051563154525678624 -0.0011983004771841718 0 0.0052756095389291796 -0.0011297916682613787 0 0.005350691711242671 -0.001149344835310198 0 0.0051013602348022533 -0.0011391220226433169 0 0.0051563154525678624 -0.0011983004771841718 0 0.0050630838444493927 -0.0011217668602481739 0 0.0051563154525678624 -0.0011983004771841718 0 0.0050120623458850605 -0.0011329371614413938 0 0.0050630838444493927 -0.0011217668602481739 0 0.0050630838444493927 -0.0011217668602481739 0 0.0050517403957478849 -0.0010835830191158031 0 0.0050236827169135873 -0.0010928882005633743 0 0.0051013602348022533 -0.0011391220226433169 0 0.0050630838444493927 -0.0011217668602481739 0 0.0050517403957478849 -0.0010835830191158031 0 0.0050517403957478849 -0.0010835830191158031 0 0.0050236827169135873 -0.0010928882005633743 0 0.0050352248913652104 -0.0010530185053911599 0 0.0050433149761725873 -0.0010463820101337187 0 0.0050517403957478849 -0.0010835830191158031 0 0.0050352248913652104 -0.0010530185053911599 0 0.0050236827169135873 -0.0010928882005633743 0 0.0050352248913652104 -0.0010530185053911599 0 0.0050104992899342683 -0.0010838767021168834 0 0.0050167750201994413 -0.00091855011181281516 0 0.0049653443974527521 -0.00092276419977287041 0 0.0050449640943418129 -0.00086790108970470061 0 0.0050167750201994413 -0.00091855011181281516 0 0.0049653443974527521 -0.00092276419977287041 0 0.0049781915087488676 -0.0009383111854354844 0 0.0050051054452875787 -0.00098781743638466386 0 0.0050396100217662753 -0.00096861316815898576 0 0.0050252074282017573 -0.00098940931182369091 0 0.0050051054452875787 -0.00098781743638466386 0 0.0049653443974527521 -0.00092276419977287041 0 0.0049677508972970257 -0.00094066114702169123 0 0.0049781915087488676 -0.0009383111854354844 0 0.0050182093943388567 -0.00099353943912669214 0 0.0050433149761725873 -0.0010463820101337187 0 0.0050352248913652104 -0.0010530185053911599 0 0.0049773991674274343 -0.00095238840691301346 0 0.0050182093943388567 -0.00099353943912669214 0 0.0049653443974527521 -0.00092276419977287041 0 0.0049773991674274343 -0.00095238840691301346 0 0.0049653443974527521 -0.00092276419977287041 0 0.0049677508972970257 -0.00094066114702169123 0 0.0049636775165637827 -0.00093836858521315319 0 0.0049781915087488676 -0.0009383111854354844 0 0.0049733144853792172 -0.00094164624716649363 0 0.0049607814098369205 -0.00094131026114400605 0 0.0049773991674274343 -0.00095238840691301346 0 0.0049677508972970257 -0.00094066114702169123 0 0.0049607814098369205 -0.00094131026114400605 0 0.0049636775165637827 -0.00093836858521315319 0 0.0049677508972970257 -0.00094066114702169123 0 0.0049607814098369205 -0.00094131026114400605 0 0.0049636775165637827 -0.00093836858521315319 0 0.0049516200124993161 -0.00094086631852017156 0 0.0049636775165637827 -0.00093836858521315319 0 0.0049677508972970257 -0.00094066114702169123 0 0.0049781915087488676 -0.0009383111854354844 0 0.0049781915087488676 -0.0009383111854354844 0 0.0050353292193563073 -0.00095044461185033054 0 0.0050615292262795718 -0.0010714774372536122 0 0.0050167750201994413 -0.00091855011181281516 0 0.0049781915087488676 -0.0009383111854354844 0 0.0050353292193563073 -0.00095044461185033054 0 0.0049846246064507828 -0.00094248264904779882 0 0.0050421606516130226 -0.0010034077448669242 0 0.0049781915087488676 -0.0009383111854354844 0 0.0049733144853792172 -0.00094164624716649363 0 0.0050159232748982702 -0.00093207486804502808 0 0.0049542617856988885 -0.00096125281102345337 0 0.0049799816983096459 -0.00097667570933570799 0 0.0049733144853792172 -0.00094164624716649363 0 0.0049799816983096459 -0.00097667570933570799 0 0.0049733144853792172 -0.00094164624716649363 0 0.0050159232748982702 -0.00093207486804502808 0 0.0049542617856988885 -0.00096125281102345337 0 0.0049733144853792172 -0.00094164624716649363 0 0.004937753093489948 -0.00094756265101328602 0 0.0049636775165637827 -0.00093836858521315319 0 0.004937753093489948 -0.00094756265101328602 0 0.0049516200124993161 -0.00094086631852017156 0 0.0049445053803919914 -0.00093868086444490217 0 0.004937753093489948 -0.00094756265101328602 0 0.0049516200124993161 -0.00094086631852017156 0 0.0049636775165637827 -0.00093836858521315319 0 0.0049733144853792172 -0.00094164624716649363 0 0.004937753093489948 -0.00094756265101328602 0 0.0052327402117894528 -0.0010726385635437641 0 0.0052509808025335575 -0.00090731718591379829 0 0.0053514918229495521 -0.0010117984277164347 0 0.0050353292193563073 -0.00095044461185033054 0 0.0051438586370208756 -0.0010012387512998589 0 0.0050615292262795718 -0.0010714774372536122 0 0.0052327402117894528 -0.0010726385635437641 0 0.0051438586370208756 -0.0010012387512998589 0 0.0050615292262795718 -0.0010714774372536122 0 0.0050353292193563073 -0.00095044461185033054 0 0.0051438586370208756 -0.0010012387512998589 0 0.0052509808025335575 -0.00090731718591379829 0 0.0050353292193563073 -0.00095044461185033054 0 0.005122603622830511 -0.00093937674643587439 0 0.0050706458419316055 -0.00091418087431441807 0 0.0050514472418485201 -0.00093709610286367244 0 0.005170747949085351 -0.00096674315339819242 0 0.0050167750201994413 -0.00091855011181281516 0 0.0050353292193563073 -0.00095044461185033054 0 0.0050706458419316055 -0.00091418087431441807 0 0.0052327402117894528 -0.0010726385635437641 0 0.0051438586370208756 -0.0010012387512998589 0 0.0052509808025335575 -0.00090731718591379829 0 0.005122603622830511 -0.00093937674643587439 0 0.0051311063247357165 -0.00083741843458069222 0 0.0051797807994297725 -0.00087448623791451172 0 0.005122603622830511 -0.00093937674643587439 0 0.0050706458419316055 -0.00091418087431441807 0 0.0051311063247357165 -0.00083741843458069222 0 0.0050706458419316055 -0.00091418087431441807 0 0.0050449640943418129 -0.00086790108970470061 0 0.0051311063247357165 -0.00083741843458069222 0 0.0050167750201994413 -0.00091855011181281516 0 0.0050706458419316055 -0.00091418087431441807 0 0.0050449640943418129 -0.00086790108970470061 0 0.00500999752485761 -0.0010967610992959154 0 0.0050104992899342683 -0.0010838767021168834 0 0.0050205886768400539 -0.0010980159597838851 0 0.00500999752485761 -0.0010967610992959154 0 0.0050236827169135873 -0.0010928882005633743 0 0.0050104992899342683 -0.0010838767021168834 0 0.0050396100217662753 -0.00096861316815898576 0 0.0050388104508964299 -0.0010344064058504094 0 0.0051311063247357165 -0.00083741843458069222 0 0.0052222759102727827 -0.00080677193273809506 0 0.0051797807994297725 -0.00087448623791451172 0 0.0050205886768400539 -0.0010980159597838851 0 0.005054502662506827 -0.0010916041256282382 0 0.005034416078315688 -0.0010871479077603746 0 0.0050388104508964299 -0.0010344064058504094 0 0.0052323848152375264 -0.00028285068720744461 0 0.0055307878707370819 0.00052408790488584921 0 0.0057708128267456634 0.00028504551194851352 0 0.0057412142155721397 0.00049804878620275954 0 0.0055307878707370819 0.00052408790488584921 0 0.0053893310872536893 0.00048483191537843074 0 0.0057708128267456634 0.00028504551194851352 0 0.0055307878707370819 0.00052408790488584921 0 0.0057412142155721397 0.00049804878620275954 0 0.0056081477654659996 0.00065401620786956899 0 0.0055307878707370819 0.00052408790488584921 0 0.0053980696309980456 0.00048968432483467489 0 0.0054940020893857787 0.00068649122453628411 0 0.0054819643126897324 -2.6118797168616846e-05 0 0.0052323848152375264 -0.00028285068720744461 0 0.0052323848152375264 -0.00028285068720744461 0 0.005386803934424823 -0.00056915853234951771 0 0.0053893310872536893 0.00048483191537843074 0 0.0054363622842456775 -0.00023465658360655395 0 0.0057708128267456634 0.00028504551194851352 0 0.005122603622830511 -0.00093937674643587439 0 0.0051797807994297725 -0.00087448623791451172 0 0.0052309820955464947 -0.00092194189213264392 0 0.0052222759102727827 -0.00080677193273809506 0 0.0051797807994297725 -0.00087448623791451172 0 0.0052309820955464947 -0.00092194189213264392 0 0.0052509808025335575 -0.00090731718591379829 0 0.0054567183310379776 -0.00087714473313992578 0 0.0053514918229495521 -0.0010117984277164347 0 0.005170747949085351 -0.00096674315339819242 0 0.005386803934424823 -0.00056915853234951771 0 0.005386803934424823 -0.00056915853234951771 0 0.0054543312031971264 -0.00096948251925922375 0 0.0054567183310379776 -0.00087714473313992578 0 0.005469494494195289 -0.0010729615193120436 0 0.0053514918229495521 -0.0010117984277164347 0 0.0053597092153750241 -0.00026364115550066248 0 0.0054357556270427446 -0.00086804079814281382 0 0.0057814059563555398 -0.00064505639004667527 0 0.005344081026706882 -0.001197010782204301 0 0.0052327402117894528 -0.0010726385635437641 0 0.0053514918229495521 -0.0010117984277164347 0 0.005344081026706882 -0.001197010782204301 0 0.005469494494195289 -0.0010729615193120436 0 0.0053514918229495521 -0.0010117984277164347 0 0.0062006703630420584 -0.00086815933702417416 0 0.0059383811191333026 -0.00081377679140531931 0 0.0060931784709149766 -0.0006251924105043188 0 0.0064537491836068796 -0.00062428214445245454 0 0.0064760911750153718 -0.000806606633117635 0 0.0062006703630420584 -0.00086815933702417416 0 0.0064537491836068796 -0.00062428214445245454 0 0.0062006703630420584 -0.00086815933702417416 0 0.0060931784709149766 -0.0006251924105043188 0 0.0061539811234844043 -0.0010746078414877727 0 0.0063127484380360848 -0.00096428605706276984 0 0.0062006703630420584 -0.00086815933702417416 0 0.0064760911750153718 -0.000806606633117635 0 0.0063127484380360848 -0.00096428605706276984 0 0.0062006703630420584 -0.00086815933702417416 0 0.0059791523145146866 -0.00099559333652748504 0 0.0061539811234844043 -0.0010746078414877727 0 0.0062006703630420584 -0.00086815933702417416 0 0.0059791523145146866 -0.00099559333652748504 0 0.0062006703630420584 -0.00086815933702417416 0 0.0059383811191333026 -0.00081377679140531931 0 0.0057088642172652519 -0.00099716405892957003 0 0.0059791523145146866 -0.00099559333652748504 0 0.0059383811191333026 -0.00081377679140531931 0 0.0057088642172652519 -0.00099716405892957003 0 0.0059383811191333026 -0.00081377679140531931 0 0.0057814059563555398 -0.00064505639004667527 0 0.0057088642172652519 -0.00099716405892957003 0 0.0054357556270427446 -0.00086804079814281382 0 0.0057814059563555398 -0.00064505639004667527 0 0.0059383811191333026 -0.00081377679140531931 0 0.0057814059563555398 -0.00064505639004667527 0 0.0060931784709149766 -0.0006251924105043188 0 0.0053597092153750241 -0.00026364115550066248 0 0.0057814059563555398 -0.00064505639004667527 0 0.0061139990377100922 -0.00014647920047305578 0 0.0057814059563555398 -0.00064505639004667527 0 0.0060931784709149766 -0.0006251924105043188 0 0.0061139990377100922 -0.00014647920047305578 0 0.0064537491836068796 -0.00062428214445245454 0 0.0060931784709149766 -0.0006251924105043188 0 0.0061139990377100922 -0.00014647920047305578 0 0.0066830473839627428 -0.00026816116864138276 0 0.0064537491836068796 -0.00062428214445245454 0 0.0061139990377100922 -0.00014647920047305578 0 0.0066830473839627428 -0.00026816116864138276 0 0.0061139990377100922 -0.00014647920047305578 0 0.0064649431211348217 4.040301317260494e-05 0 0.0061139990377100922 -0.00014647920047305578 0 0.0064649431211348217 4.040301317260494e-05 0 0.0062051667981286298 0.00030146694942556737 0 0.0061139990377100922 -0.00014647920047305578 0 0.0057708128267456634 0.00028504551194851352 0 0.0062051667981286298 0.00030146694942556737 0 0.005386803934424823 -0.00056915853234951771 0 0.0060949459057103791 -6.688175855396595e-05 0 0.0054363622842456775 -0.00023465658360655395 0 0.0061139990377100922 -0.00014647920047305578 0 0.0057708128267456634 0.00028504551194851352 0 0.0057708128267456634 0.00028504551194851352 0 0.0059816474636039596 0.00053794896625552764 0 0.0062051667981286298 0.00030146694942556737 0 0.0057708128267456634 0.00028504551194851352 0 0.0059816474636039596 0.00053794896625552764 0 0.0057412142155721397 0.00049804878620275954 0 0.0059816474636039596 0.00053794896625552764 0 0.0057412142155721397 0.00049804878620275954 0 0.0057306981812002061 0.00070496261626726341 0 0.0064649431211348217 4.040301317260494e-05 0 0.006546433767024123 0.0003791672593212147 0 0.0062051667981286298 0.00030146694942556737 0 0.0059816474636039596 0.00053794896625552764 0 0.0062051667981286298 0.00030146694942556737 0 0.0062740235168236942 0.000605495644971025 0 0.006546433767024123 0.0003791672593212147 0 0.0062051667981286298 0.00030146694942556737 0 0.0062740235168236942 0.000605495644971025 0 0.0066886460050795925 0.00060303025124894781 0 0.006546433767024123 0.0003791672593212147 0 0.0062740235168236942 0.000605495644971025 0 0.0071263497199439297 0.00070994595736495643 0 0.0071087150484947341 0.00058805374368353354 0 0.0066886460050795925 0.00060303025124894781 0 0.006827852824804562 0.00086653165507736857 0 0.0062740235168236942 0.000605495644971025 0 0.0071263497199439297 0.00070994595736495643 0 0.0062342574085133646 0.00060253078497066095 0 0.0079801287133418226 0.00031292796029410726 0 0.0078687107887323859 0.00031461246584317998 0 0.0079303089072299115 0.00038162466544603183 0 0.0067372534929828597 0.00081725450384787911 0 0.0062740235168236942 0.000605495644971025 0 0.0061656821318419267 0.00085624395235168657 0 0.0078687107887323859 0.00031461246584317998 0 0.0079303089072299115 0.00038162466544603183 0 0.0078735776519691311 0.00037966056455145076 0 0.0078735776519691311 0.00037966056455145076 0 0.0078398907031768956 0.00042168641367835356 0 0.0079160710140691436 0.00045656630797998358 0 0.0079303089072299115 0.00038162466544603183 0 0.0078735776519691311 0.00037966056455145076 0 0.0079160710140691436 0.00045656630797998358 0 0.0079881645598253101 0.00045054900539364041 0 0.0079303089072299115 0.00038162466544603183 0 0.0079160710140691436 0.00045656630797998358 0 0.0078398907031768956 0.00042168641367835356 0 0.0077697100149100246 0.00039436126102167793 0 0.0077926275633061473 0.00044972963502474747 0 0.0078398907031768956 0.00042168641367835356 0 0.0078169747968848992 0.00036064460958429973 0 0.0077697100149100246 0.00039436126102167793 0 0.0078687107887323859 0.00031461246584317998 0 0.0078735776519691311 0.00037966056455145076 0 0.0078169747968848992 0.00036064460958429973 0 0.0078735776519691311 0.00037966056455145076 0 0.0078398907031768956 0.00042168641367835356 0 0.0078169747968848992 0.00036064460958429973 0 0.0078169747968848992 0.00036064460958429973 0 0.0077453422872002901 0.00031582271479119325 0 0.0077697100149100246 0.00039436126102167793 0 0.0061656821318419267 0.00085624395235168657 0 0.0057306981812002061 0.00070496261626726341 0 0.0055968405502491965 0.00087721428619362118 0 0.0059816474636039596 0.00053794896625552764 0 0.0061656821318419267 0.00085624395235168657 0 0.0057306981812002061 0.00070496261626726341 0 0.0071087150484947341 0.00058805374368353354 0 0.0064207438093165847 0.00031465725179004344 0 0.0078687107887323859 0.00031461246584317998 0 0.0078169747968848992 0.00036064460958429973 0 0.0077453422872002901 0.00031582271479119325 0 0.0059816474636039596 0.00053794896625552764 0 0.0062740235168236942 0.000605495644971025 0 0.0061656821318419267 0.00085624395235168657 0 0.0057306981812002061 0.00070496261626726341 0 0.0056081477654659996 0.00065401620786956899 0 0.0056030037426226748 0.00085444950647977995 0 0.0057412142155721397 0.00049804878620275954 0 0.0057306981812002061 0.00070496261626726341 0 0.0056081477654659996 0.00065401620786956899 0 0.0056081477654659996 0.00065401620786956899 0 0.0054940020893857787 0.00068649122453628411 0 0.0056030037426226748 0.00085444950647977995 0 0.0055307878707370819 0.00052408790488584921 0 0.0056081477654659996 0.00065401620786956899 0 0.0054940020893857787 0.00068649122453628411 0 0.0052323848152375264 -0.00028285068720744461 0 0.0058219419187079714 -0.00043640449350034036 0 0.0053980696309980456 0.00048968432483467489 0 0.0054940020893857787 0.00068649122453628411 0 0.0053780480614853089 0.00086733396758311777 0 0.0054940020893857787 0.00068649122453628411 0 0.0053780480614853089 0.00086733396758311777 0 0.0056030037426226748 0.00085444950647977995 0 0.0058219419187079714 -0.00043640449350034036 0 0.0064207438093165847 0.00031465725179004344 0 0.0058282252732885752 0.000840767302400057 0 0.0064207438093165847 0.00031465725179004344 0 0.0054058236705628081 -0.0012808863192656941 0 0.0058219419187079714 -0.00043640449350034036 0 0.0050161352901952972 -0.0010882084786758663 0 0.0050545688273771231 -0.0010703911130347066 0 0.005034416078315688 -0.0010871479077603746 0 0.005054502662506827 -0.0010916041256282382 0 0.0050545688273771231 -0.0010703911130347066 0 0.005034416078315688 -0.0010871479077603746 0 0.0058656114684362843 -0.0012755865250636052 0 0.0062228678498075386 -0.0012904837857168261 0 0.0060246394324940415 -0.0011217719731721394 0 0.0062228678498075386 -0.0012904837857168261 0 0.0060246394324940415 -0.0011217719731721394 0 0.0062141112341853634 -0.001137838501217009 0 0.0060246394324940415 -0.0011217719731721394 0 0.0062141112341853634 -0.001137838501217009 0 0.0060510863829717756 -0.00092458273534585936 0 0.0077453422872002901 0.00031582271479119325 0 0.0076891305354097727 0.00038593970251772847 0 0.0077697100149100246 0.00039436126102167793 0 0.0065442145133496766 2.2462676752660492e-05 0 0.006272355547202799 4.5379423763419151e-05 0 0.0065714436425462408 -0.00034129387218110631 0 0.0058219419187079714 -0.00043640449350034036 0 0.0068764828346332347 -0.00037417093760295676 0 0.0064207438093165847 0.00031465725179004344 0 0.0068764828346332347 -0.00037417093760295676 0 0.0076891305354097727 0.00038593970251772847 0 0.0077697100149100246 0.00039436126102167793 0 0.0077367391957985417 0.00044646414836989443 0 0.0076891305354097727 0.00038593970251772847 0 0.0077367391957985417 0.00044646414836989443 0 0.0076828123386049555 0.00049985195803236844 0 0.0077697100149100246 0.00039436126102167793 0 0.0077367391957985417 0.00044646414836989443 0 0.0077926275633061473 0.00044972963502474747 0 0.0077367391957985417 0.00044646414836989443 0 0.0077779587755560219 0.00051658575583485896 0 0.0077926275633061473 0.00044972963502474747 0 0.0077367391957985417 0.00044646414836989443 0 0.0077779587755560219 0.00051658575583485896 0 0.0076828123386049555 0.00049985195803236844 0 0.0078422915691602271 0.00051521140911241355 0 0.0076917457289151928 0.00038096239669138573 0 0.0071619649105906591 -0.00028879391329335687 0 0.0071532564178516589 -0.0001199724167416144 0 0.0070473337342765452 -0.00013838280526468367 0 0.0068764828346332347 -0.00037417093760295676 0 0.0076917457289151928 0.00038096239669138573 0 0.0068764828346332347 -0.00037417093760295676 0 0.0069181095719319935 -0.00043395601648849779 0 0.0076917457289151928 0.00038096239669138573 0 0.0069181095719319935 -0.00043395601648849779 0 0.0078440838458449565 0.00040107914417113991 0 0.0077503032055583464 0.00038653906845518361 0 0.0077670746670038936 0.00047767482869442578 0 0.0078440838458449565 0.00040107914417113991 0 0.0077670746670038936 0.00047767482869442578 0 0.0078346848185902596 0.00054498184988083383 0 0.0076917457289151928 0.00038096239669138573 0 0.0078355227816649959 0.00055744884580587076 0 0.0077670746670038936 0.00047767482869442578 0 0.0078346848185902596 0.00054498184988083383 0 0.0077467969484969453 0.00055164086398690757 0 0.0078418462520979827 0.00051080730181585568 0 0.0078346848185902596 0.00054498184988083383 0 0.0078577159851306311 0.00053039858875424497 0 0.0078346848185902596 0.00054498184988083383 0 0.0078577159851306311 0.00053039858875424497 0 0.0078860056800365806 0.00054681113400089612 0 0.0078768326639324249 0.00052038935140987918 0 0.0078577159851306311 0.00053039858875424497 0 0.0078860056800365806 0.00054681113400089612 0 0.0078768326639324249 0.00052038935140987918 0 0.0078418462520979827 0.00051080730181585568 0 0.0078577159851306311 0.00053039858875424497 0 0.0078860056800365806 0.00054681113400089612 0 0.0078873572574468063 0.00052283621758827871 0 0.0079004009374655463 0.00053492609088488536 0 0.0084810941381205374 0.00055699613379213593 0 0.0085381471538246104 0.00053553156360502225 0 0.0078860056800365806 0.00054681113400089612 0 0.0079004009374655463 0.00053492609088488536 0 0.0078960795370154099 0.00058168810184917007 0 0.0090810220125686937 0.00056450757174502199 0 0.0090842308672206776 0.00051083977102481281 0 0.0091801271967612268 0.00048702947977205752 0 0.0078768326639324249 0.00052038935140987918 0 0.0078860056800365806 0.00054681113400089612 0 0.0078873572574468063 0.00052283621758827871 0 0.0078422915691602271 0.00051521140911241355 0 0.0078737452183216938 0.00052225588074878966 0 0.0090507290352472014 0.0005426777526672859 0 0.0090810220125686937 0.00056450757174502199 0 0.0090842308672206776 0.00051083977102481281 0 0.0090091046793956426 0.00057408884707271367 0 0.0090507290352472014 0.0005426777526672859 0 0.009028630055233482 0.00052122309732151892 0 0.0090507290352472014 0.0005426777526672859 0 0.009028630055233482 0.00052122309732151892 0 0.0090842308672206776 0.00051083977102481281 0 0.0090091046793956426 0.00057408884707271367 0 0.0090507290352472014 0.0005426777526672859 0 0.0090810220125686937 0.00056450757174502199 0 0.0078873572574468063 0.00052283621758827871 0 0.0079004009374655463 0.00053492609088488536 0 0.0078851202849285016 0.00048053026586080089 0 0.0079004009374655463 0.00053492609088488536 0 0.0078851202849285016 0.00048053026586080089 0 0.0079160710140691436 0.00045656630797998358 0 0.0085390296024686375 0.00051730126976772082 0 0.0084810941381205374 0.00055699613379213593 0 0.0079881645598253101 0.00045054900539364041 0 0.0079004009374655463 0.00053492609088488536 0 0.0079160710140691436 0.00045656630797998358 0 0.0090091046793956426 0.00057408884707271367 0 0.0089776434575887937 0.00063996408582563862 0 0.0090810220125686937 0.00056450757174502199 0 0.0078398907031768956 0.00042168641367835356 0 0.0078851202849285016 0.00048053026586080089 0 0.0079160710140691436 0.00045656630797998358 0 0.0078398907031768956 0.00042168641367835356 0 0.0078851202849285016 0.00048053026586080089 0 0.0078362535916164048 0.0004754028671819373 0 0.0078398907031768956 0.00042168641367835356 0 0.0077926275633061473 0.00044972963502474747 0 0.0078362535916164048 0.0004754028671819373 0 0.0077779587755560219 0.00051658575583485896 0 0.0077926275633061473 0.00044972963502474747 0 0.0078362535916164048 0.0004754028671819373 0 0.0077779587755560219 0.00051658575583485896 0 0.0078873572574468063 0.00052283621758827871 0 0.0078362535916164048 0.0004754028671819373 0 0.0078873572574468063 0.00052283621758827871 0 0.0078851202849285016 0.00048053026586080089 0 0.0078362535916164048 0.0004754028671819373 0 0.0091358619686251526 0.0004424500303742682 0 0.0091635614639350577 0.00040619027112715416 0 0.0091204494609373674 0.00040171533631353325 0 0.0091358619686251526 0.0004424500303742682 0 0.0091204494609373674 0.00040171533631353325 0 0.009087241494428475 0.0004365695172698444 0 0.0091358619686251526 0.0004424500303742682 0 0.0091711737506941018 0.00043861053977494612 0 0.0091635614639350577 0.00040619027112715416 0 0.0091635614639350577 0.00040619027112715416 0 0.0091204494609373674 0.00040171533631353325 0 0.0091521600137915229 0.00036698170439172485 0 0.0091204494609373674 0.00040171533631353325 0 0.0090674929941956667 0.00040190838801034936 0 0.0091125950971066502 0.00036880062982667163 0 0.0091204494609373674 0.00040171533631353325 0 0.0090674929941956667 0.00040190838801034936 0 0.009087241494428475 0.0004365695172698444 0 0.0090104153050986086 0.00039729259703469338 0 0.0090674929941956667 0.00040190838801034936 0 0.0090446763881216648 0.00037523620855300487 0 0.0090104153050986086 0.00039729259703469338 0 0.0090674929941956667 0.00040190838801034936 0 0.0090354337744329993 0.00043723645325569613 0 0.0090674929941956667 0.00040190838801034936 0 0.0090354337744329993 0.00043723645325569613 0 0.009087241494428475 0.0004365695172698444 0 0.009087241494428475 0.0004365695172698444 0 0.0090568885354289346 0.00047650791295758961 0 0.0091068812168574459 0.00047302018818225498 0 0.0090354337744329993 0.00043723645325569613 0 0.009087241494428475 0.0004365695172698444 0 0.0090568885354289346 0.00047650791295758961 0 0.0090087789350123872 0.00048441168200485512 0 0.0090354337744329993 0.00043723645325569613 0 0.0090568885354289346 0.00047650791295758961 0 0.009028630055233482 0.00052122309732151892 0 0.0090568885354289346 0.00047650791295758961 0 0.0090842308672206776 0.00051083977102481281 0 0.0090087789350123872 0.00048441168200485512 0 0.009028630055233482 0.00052122309732151892 0 0.0090568885354289346 0.00047650791295758961 0 0.0090568885354289346 0.00047650791295758961 0 0.0090842308672206776 0.00051083977102481281 0 0.0091068812168574459 0.00047302018818225498 0 0.0091358619686251526 0.0004424500303742682 0 0.0091068812168574459 0.00047302018818225498 0 0.0091801271967612268 0.00048702947977205752 0 0.0090842308672206776 0.00051083977102481281 0 0.0091068812168574459 0.00047302018818225498 0 0.0091801271967612268 0.00048702947977205752 0 0.0091358619686251526 0.0004424500303742682 0 0.009087241494428475 0.0004365695172698444 0 0.0091068812168574459 0.00047302018818225498 0 0.0091358619686251526 0.0004424500303742682 0 0.0091711737506941018 0.00043861053977494612 0 0.0091801271967612268 0.00048702947977205752 0 0.0078346848185902596 0.00054498184988083383 0 0.0078860056800365806 0.00054681113400089612 0 0.0078960795370154099 0.00058168810184917007 0 0.0078960795370154099 0.00058168810184917007 0 0.007833667349216247 0.00062601885775342308 0 0.0078274609826504138 0.00071964832874168994 0 0.0078346848185902596 0.00054498184988083383 0 0.0078960795370154099 0.00058168810184917007 0 0.007833667349216247 0.00062601885775342308 0 0.0078346848185902596 0.00054498184988083383 0 0.0077467969484969453 0.00055164086398690757 0 0.0077743543021236046 0.00061690881212702828 0 0.0078346848185902596 0.00054498184988083383 0 0.007833667349216247 0.00062601885775342308 0 0.0077743543021236046 0.00061690881212702828 0 0.007833667349216247 0.00062601885775342308 0 0.0077743543021236046 0.00061690881212702828 0 0.007804722892757401 0.0006661501921702578 0 0.0077743543021236046 0.00061690881212702828 0 0.0077815387358293802 0.00070154142943000867 0 0.0076770661440018042 0.00063375222676516688 0 0.0077815387358293802 0.00070154142943000867 0 0.007804722892757401 0.0006661501921702578 0 0.0078274609826504138 0.00071964832874168994 0 0.0077743543021236046 0.00061690881212702828 0 0.0077815387358293802 0.00070154142943000867 0 0.007804722892757401 0.0006661501921702578 0 0.007833667349216247 0.00062601885775342308 0 0.007804722892757401 0.0006661501921702578 0 0.0078274609826504138 0.00071964832874168994 0 0.0092688105807354169 0.0004078757558553665 0 0.0092331547460205166 0.00038511163007473592 0 0.0092761655101031779 0.00035388817968689347 0 0.0077815387358293802 0.00070154142943000867 0 0.0078274609826504138 0.00071964832874168994 0 0.0077379790131604327 0.00076886704253015692 0 0.0085381471538246104 0.00053553156360502225 0 0.008544779758406066 0.0005662978361127989 0 0.0091801271967612268 0.00048702947977205752 0 0.0092688105807354169 0.0004078757558553665 0 0.0092050461769277638 0.00041993691622391362 0 0.0091711737506941018 0.00043861053977494612 0 0.0091801271967612268 0.00048702947977205752 0 0.0092050461769277638 0.00041993691622391362 0 0.0091711737506941018 0.00043861053977494612 0 0.0091635614639350577 0.00040619027112715416 0 0.0092050461769277638 0.00041993691622391362 0 0.0092688105807354169 0.0004078757558553665 0 0.0092050461769277638 0.00041993691622391362 0 0.0092331547460205166 0.00038511163007473592 0 0.0092050461769277638 0.00041993691622391362 0 0.0092331547460205166 0.00038511163007473592 0 0.0091967667368193784 0.00036488315607469715 0 0.0091635614639350577 0.00040619027112715416 0 0.0092050461769277638 0.00041993691622391362 0 0.0091967667368193784 0.00036488315607469715 0 0.0092331547460205166 0.00038511163007473592 0 0.0091967667368193784 0.00036488315607469715 0 0.0092437984766393765 0.00034182523811865622 0 0.0092437984766393765 0.00034182523811865622 0 0.0092151715236024351 0.00032796162097213844 0 0.0092474463000618706 0.00029335684782998909 0 0.0092151715236024351 0.00032796162097213844 0 0.0091922129195315099 0.00030192206887031824 0 0.0091804667810469059 0.00033922916061316689 0 0.0091967667368193784 0.00036488315607469715 0 0.0092437984766393765 0.00034182523811865622 0 0.0092151715236024351 0.00032796162097213844 0 0.0091967667368193784 0.00036488315607469715 0 0.0092151715236024351 0.00032796162097213844 0 0.0091804667810469059 0.00033922916061316689 0 0.0092761655101031779 0.00035388817968689347 0 0.0092880144294088269 0.00030526753207467725 0 0.0093419996201693223 0.00033073708157198062 0 0.0092688105807354169 0.0004078757558553665 0 0.0092761655101031779 0.00035388817968689347 0 0.0093419996201693223 0.00033073708157198062 0 0.008544779758406066 0.0005662978361127989 0 0.0085183820762248126 0.00060701273075313951 0 0.0092331547460205166 0.00038511163007473592 0 0.0092437984766393765 0.00034182523811865622 0 0.0092761655101031779 0.00035388817968689347 0 0.0092437984766393765 0.00034182523811865622 0 0.0092761655101031779 0.00035388817968689347 0 0.0092880144294088269 0.00030526753207467725 0 0.0092880144294088269 0.00030526753207467725 0 0.0092794008993239991 0.00025733460612430137 0 0.0093356537080631404 0.00024236113409007557 0 0.0092437984766393765 0.00034182523811865622 0 0.0092880144294088269 0.00030526753207467725 0 0.0092474463000618706 0.00029335684782998909 0 0.0092880144294088269 0.00030526753207467725 0 0.0092794008993239991 0.00025733460612430137 0 0.0092474463000618706 0.00029335684782998909 0 0.0092151715236024351 0.00032796162097213844 0 0.0092474463000618706 0.00029335684782998909 0 0.0091922129195315099 0.00030192206887031824 0 0.0092794008993239991 0.00025733460612430137 0 0.0092474463000618706 0.00029335684782998909 0 0.0092270876905772587 0.00025416701146718736 0 0.0092474463000618706 0.00029335684782998909 0 0.0091922129195315099 0.00030192206887031824 0 0.0092270876905772587 0.00025416701146718736 0 0.0091520603235726115 0.00026804527131197778 0 0.0091922129195315099 0.00030192206887031824 0 0.0092270876905772587 0.00025416701146718736 0 0.0091520603235726115 0.00026804527131197778 0 0.0091319865934459087 0.00032714202168575426 0 0.0091103003071602833 0.0002959321930251834 0 0.0091520603235726115 0.00026804527131197778 0 0.0091922129195315099 0.00030192206887031824 0 0.0091319865934459087 0.00032714202168575426 0 0.0091922129195315099 0.00030192206887031824 0 0.0091804667810469059 0.00033922916061316689 0 0.0091319865934459087 0.00032714202168575426 0 0.0091804667810469059 0.00033922916061316689 0 0.0091319865934459087 0.00032714202168575426 0 0.0091521600137915229 0.00036698170439172485 0 0.0091204494609373674 0.00040171533631353325 0 0.0091521600137915229 0.00036698170439172485 0 0.0091125950971066502 0.00036880062982667163 0 0.0091319865934459087 0.00032714202168575426 0 0.0091521600137915229 0.00036698170439172485 0 0.0091125950971066502 0.00036880062982667163 0 0.0091635614639350577 0.00040619027112715416 0 0.0091967667368193784 0.00036488315607469715 0 0.0091521600137915229 0.00036698170439172485 0 0.0091967667368193784 0.00036488315607469715 0 0.0091804667810469059 0.00033922916061316689 0 0.0091521600137915229 0.00036698170439172485 0 0.0090244233632806158 0.00034613405287156911 0 0.0090761011799957367 0.00035567468409390197 0 0.0090446763881216648 0.00037523620855300487 0 0.0090674929941956667 0.00040190838801034936 0 0.0090761011799957367 0.00035567468409390197 0 0.0090446763881216648 0.00037523620855300487 0 0.0091319865934459087 0.00032714202168575426 0 0.0090761011799957367 0.00035567468409390197 0 0.0091125950971066502 0.00036880062982667163 0 0.0090674929941956667 0.00040190838801034936 0 0.0090761011799957367 0.00035567468409390197 0 0.0091125950971066502 0.00036880062982667163 0 0.0091319865934459087 0.00032714202168575426 0 0.0090761011799957367 0.00035567468409390197 0 0.0090741076766807337 0.00031720923817279284 0 0.0090244233632806158 0.00034613405287156911 0 0.0090761011799957367 0.00035567468409390197 0 0.0090741076766807337 0.00031720923817279284 0 0.0090741076766807337 0.00031720923817279284 0 0.0091103003071602833 0.0002959321930251834 0 0.009091661357343437 0.0002703282445458339 0 0.0090350473074041864 0.00029861946123156327 0 0.0090741076766807337 0.00031720923817279284 0 0.009091661357343437 0.0002703282445458339 0 0.0091319865934459087 0.00032714202168575426 0 0.0090741076766807337 0.00031720923817279284 0 0.0091103003071602833 0.0002959321930251834 0 0.0091520603235726115 0.00026804527131197778 0 0.0091103003071602833 0.0002959321930251834 0 0.009091661357343437 0.0002703282445458339 0 0.0090490053602731366 0.00025712952435652514 0 0.009091661357343437 0.0002703282445458339 0 0.0091232204533847495 0.00022003970710786881 0 0.0091520603235726115 0.00026804527131197778 0 0.009091661357343437 0.0002703282445458339 0 0.0091232204533847495 0.00022003970710786881 0 0.0090887546949206047 0.0001834384346669327 0 0.0090578934378598899 0.00022204694838187422 0 0.0091232204533847495 0.00022003970710786881 0 0.0091520603235726115 0.00026804527131197778 0 0.0092002237968646615 0.00021061350421515984 0 0.0092270876905772587 0.00025416701146718736 0 0.0091520603235726115 0.00026804527131197778 0 0.0091232204533847495 0.00022003970710786881 0 0.0092002237968646615 0.00021061350421515984 0 0.0092002237968646615 0.00021061350421515984 0 0.0091875656608602883 0.00017187194919207217 0 0.0092429742399816398 0.00014319813732768615 0 0.0091875656608602883 0.00017187194919207217 0 0.0091468510548637603 0.00015733947468612772 0 0.0092130467805421733 0.00011263927420232308 0 0.0091232204533847495 0.00022003970710786881 0 0.0092002237968646615 0.00021061350421515984 0 0.0091875656608602883 0.00017187194919207217 0 0.0091232204533847495 0.00022003970710786881 0 0.0091875656608602883 0.00017187194919207217 0 0.0091468510548637603 0.00015733947468612772 0 0.0090887546949206047 0.0001834384346669327 0 0.0091232204533847495 0.00022003970710786881 0 0.0091468510548637603 0.00015733947468612772 0 0.0090887546949206047 0.0001834384346669327 0 0.0091001087774780828 0.00013546682307738128 0 0.0091468510548637603 0.00015733947468612772 0 0.0091633550549812155 9.9598055175191948e-05 0 0.0092130467805421733 0.00011263927420232308 0 0.0092283773112148016 4.5744994798977882e-05 0 0.0091001087774780828 0.00013546682307738128 0 0.0091468510548637603 0.00015733947468612772 0 0.0091633550549812155 9.9598055175191948e-05 0 0.0091179984920865143 8.2783741229011651e-05 0 0.0091001087774780828 0.00013546682307738128 0 0.0091633550549812155 9.9598055175191948e-05 0 0.0091468510548637603 0.00015733947468612772 0 0.0091633550549812155 9.9598055175191948e-05 0 0.0092130467805421733 0.00011263927420232308 0 0.0092130467805421733 0.00011263927420232308 0 0.0092960050421538147 5.527831082239886e-05 0 0.0092429742399816398 0.00014319813732768615 0 0.0091875656608602883 0.00017187194919207217 0 0.0092130467805421733 0.00011263927420232308 0 0.0092429742399816398 0.00014319813732768615 0 0.0092130467805421733 0.00011263927420232308 0 0.0092283773112148016 4.5744994798977882e-05 0 0.0092960050421538147 5.527831082239886e-05 0 0.0092283773112148016 4.5744994798977882e-05 0 0.0092960050421538147 5.527831082239886e-05 0 0.0092855966340323892 -4.3884276821381866e-05 0 0.0092283773112148016 4.5744994798977882e-05 0 0.0091778537806308739 3.6297380828957895e-05 0 0.0092345776202184243 -3.0542075420692573e-05 0 0.0091304649203028752 2.7916847884399845e-05 0 0.0091778537806308739 3.6297380828957895e-05 0 0.0091877540217193375 -2.1145631255062489e-05 0 0.0091179984920865143 8.2783741229011651e-05 0 0.0091633550549812155 9.9598055175191948e-05 0 0.0091778537806308739 3.6297380828957895e-05 0 0.0091633550549812155 9.9598055175191948e-05 0 0.0092283773112148016 4.5744994798977882e-05 0 0.0091778537806308739 3.6297380828957895e-05 0 0.0092960050421538147 5.527831082239886e-05 0 0.0093269041463958941 9.9604256109733346e-05 0 0.009327028765607509 3.9442047208013892e-05 0 0.0092960050421538147 5.527831082239886e-05 0 0.0092429742399816398 0.00014319813732768615 0 0.0092920544360956692 0.00013352500951947723 0 0.0092960050421538147 5.527831082239886e-05 0 0.0092920544360956692 0.00013352500951947723 0 0.0093269041463958941 9.9604256109733346e-05 0 0.0092920544360956692 0.00013352500951947723 0 0.0093269041463958941 9.9604256109733346e-05 0 0.0093267980261855406 0.00017500375621227676 0 0.0092920544360956692 0.00013352500951947723 0 0.0092724626647270603 0.0002023098857341162 0 0.0093267980261855406 0.00017500375621227676 0 0.0092429742399816398 0.00014319813732768615 0 0.0092920544360956692 0.00013352500951947723 0 0.0092724626647270603 0.0002023098857341162 0 0.0092002237968646615 0.00021061350421515984 0 0.0092429742399816398 0.00014319813732768615 0 0.0092724626647270603 0.0002023098857341162 0 0.0092002237968646615 0.00021061350421515984 0 0.0092724626647270603 0.0002023098857341162 0 0.0092270876905772587 0.00025416701146718736 0 0.0092794008993239991 0.00025733460612430137 0 0.0092724626647270603 0.0002023098857341162 0 0.0092270876905772587 0.00025416701146718736 0 0.0092794008993239991 0.00025733460612430137 0 0.0092724626647270603 0.0002023098857341162 0 0.0093356537080631404 0.00024236113409007557 0 0.0092724626647270603 0.0002023098857341162 0 0.0093356537080631404 0.00024236113409007557 0 0.0093267980261855406 0.00017500375621227676 0 0.0093356537080631404 0.00024236113409007557 0 0.0093745829878146471 0.00020734180263705992 0 0.0093267980261855406 0.00017500375621227676 0 0.0093356537080631404 0.00024236113409007557 0 0.0093745829878146471 0.00020734180263705992 0 0.0094024448211605608 0.00026207260853084797 0 0.0093745829878146471 0.00020734180263705992 0 0.0094124858437019121 0.0002059244844524495 0 0.0094024448211605608 0.00026207260853084797 0 0.0093745829878146471 0.00020734180263705992 0 0.0093993691118771164 0.00017537199356065168 0 0.0093664367940363199 0.00014695505387014648 0 0.0093745829878146471 0.00020734180263705992 0 0.0093993691118771164 0.00017537199356065168 0 0.0094124858437019121 0.0002059244844524495 0 0.0093993691118771164 0.00017537199356065168 0 0.0093664367940363199 0.00014695505387014648 0 0.0094013284972714797 0.0001329002952407363 0 0.0093993691118771164 0.00017537199356065168 0 0.0094013284972714797 0.0001329002952407363 0 0.0094258534191398215 0.00016923064715061823 0 0.0093745829878146471 0.00020734180263705992 0 0.0093267980261855406 0.00017500375621227676 0 0.0093664367940363199 0.00014695505387014648 0 0.0093269041463958941 9.9604256109733346e-05 0 0.0093664367940363199 0.00014695505387014648 0 0.0093740422481308483 8.8655794094446379e-05 0 0.0093269041463958941 9.9604256109733346e-05 0 0.0093267980261855406 0.00017500375621227676 0 0.0093664367940363199 0.00014695505387014648 0 0.0093664367940363199 0.00014695505387014648 0 0.0094013284972714797 0.0001329002952407363 0 0.0093740422481308483 8.8655794094446379e-05 0 0.0094013284972714797 0.0001329002952407363 0 0.0093740422481308483 8.8655794094446379e-05 0 0.0094395594416343386 6.696522636940901e-05 0 0.0093269041463958941 9.9604256109733346e-05 0 0.0093740422481308483 8.8655794094446379e-05 0 0.009327028765607509 3.9442047208013892e-05 0 0.0091593777404293808 0.00021097626952773014 0 0.009234004616278697 0.00016627002075042722 0 0.0092917749461347513 0.00027863548091710058 0 0.0094024372536936109 0.00011636213657255094 0 0.0093599088422525629 0.0001796914669651496 0 0.0094013284972714797 0.0001329002952407363 0 0.009449785516426076 0.00012992169835880264 0 0.0094395594416343386 6.696522636940901e-05 0 0.0094013284972714797 0.0001329002952407363 0 0.009449785516426076 0.00012992169835880264 0 0.0094258534191398215 0.00016923064715061823 0 0.0091593777404293808 0.00021097626952773014 0 0.009234004616278697 0.00016627002075042722 0 0.0089900804239273612 9.1789462833743782e-05 0 0.009234004616278697 0.00016627002075042722 0 0.0091884093699814845 -9.1591651089288127e-05 0 0.0089900804239273612 9.1789462833743782e-05 0 0.0086886987785484253 0.00024144116822801475 0 0.0089277023775130946 6.5169399724726394e-05 0 0.0094024372536936109 0.00011636213657255094 0 0.0086886987785484253 0.00024144116822801475 0 0.0085412780572223113 0.0004283186939626243 0 0.0081255839860070282 0.00034740779566803205 0 0.0089900804239273612 9.1789462833743782e-05 0 0.009449785516426076 0.00012992169835880264 0 0.0094258534191398215 0.00016923064715061823 0 0.0094571596545171797 0.00020140631745497954 0 0.0094258534191398215 0.00016923064715061823 0 0.0094124858437019121 0.0002059244844524495 0 0.0094571596545171797 0.00020140631745497954 0 0.0093993691118771164 0.00017537199356065168 0 0.0094258534191398215 0.00016923064715061823 0 0.0094124858437019121 0.0002059244844524495 0 0.0094124858437019121 0.0002059244844524495 0 0.0094571596545171797 0.00020140631745497954 0 0.0094024448211605608 0.00026207260853084797 0 0.007907587420458018 0.00041464694610333631 0 0.0080211351319077299 0.00076386728123377682 0 0.0076518568241089845 0.00093552822040446305 0 0.007907587420458018 0.00041464694610333631 0 0.0076518568241089845 0.00093552822040446305 0 0.0074612078333957145 0.0010055737206040949 0 0.0086886987785484253 0.00024144116822801475 0 0.0084407646400409906 0.00063005789692254541 0 0.0086886987785484253 0.00024144116822801475 0 0.0082289995416022221 0.00070010572293764369 0 0.0085412780572223113 0.0004283186939626243 0 0.0081255839860070282 0.00034740779566803205 0 0.0080211351319077299 0.00076386728123377682 0 0.0085412780572223113 0.0004283186939626243 0 0.0080211351319077299 0.00076386728123377682 0 0.0086476076997103538 0.00083685639405170075 0 0.0074871965858596887 0.0011586728110186825 0 0.0065537906620172989 0.0013467533211006986 0 0.0065590869050659419 0.0013591594737308106 0 0.0080211351319077299 0.00076386728123377682 0 0.0074871965858596887 0.0011586728110186825 0 0.0086476076997103538 0.00083685639405170075 0 0.0071250997799019548 0.00092305444252830944 0 0.0074871965858596887 0.0011586728110186825 0 0.0065537906620172989 0.0013467533211006986 0 0.0075244221828864588 0.0011436196272080936 0 0.0076258638509647996 0.0010528006953229043 0 0.0071250997799019548 0.00092305444252830944 0 0.006842357378603006 0.00053203492257713147 0 0.0074647207456571335 0.00069060446336791982 0 0.0071250997799019548 0.00092305444252830944 0 0.006842357378603006 0.00053203492257713147 0 0.0065537906620172989 0.0013467533211006986 0 0.0061798804368890193 0.00058123633678585165 0 0.0070602702637082614 0.0006976236582067522 0 0.006842357378603006 0.00053203492257713147 0 0.0074647207456571335 0.00069060446336791982 0 0.0075210791099121982 0.00064454370856446863 0 0.0074983821633423237 0.00082616525813856447 0 0.0074647207456571335 0.00069060446336791982 0 0.0074544424938029321 0.00091786628619028678 0 0.0074983821633423237 0.00082616525813856447 0 0.0075125000781244679 0.00077627793612372055 0 0.0075353145495152271 0.00083615343862163062 0 0.0074983821633423237 0.00082616525813856447 0 0.0075148678352689353 0.00091073715838412754 0 0.0075353145495152271 0.00083615343862163062 0 0.0074983821633423237 0.00082616525813856447 0 0.0075125000781244679 0.00077627793612372055 0 0.0074647207456571335 0.00069060446336791982 0 0.0075125000781244679 0.00077627793612372055 0 0.0074647207456571335 0.00069060446336791982 0 0.0074755457049967052 0.00071905705572263717 0 0.0071155783056454256 0.00066212304787596505 0 0.0070602702637082614 0.0006976236582067522 0 0.0071250997799019548 0.00092305444252830944 0 0.0074544424938029321 0.00091786628619028678 0 0.0074871965858596887 0.0011586728110186825 0 0.0071250997799019548 0.00092305444252830944 0 0.0074647207456571335 0.00069060446336791982 0 0.0074544424938029321 0.00091786628619028678 0 0.0074983821633423237 0.00082616525813856447 0 0.0074544424938029321 0.00091786628619028678 0 0.0075148678352689353 0.00091073715838412754 0 0.0074544424938029321 0.00091786628619028678 0 0.0075148678352689353 0.00091073715838412754 0 0.0075033482938480058 0.0010370558165375553 0 0.0074544424938029321 0.00091786628619028678 0 0.0075033482938480058 0.0010370558165375553 0 0.0074871965858596887 0.0011586728110186825 0 0.0075033482938480058 0.0010370558165375553 0 0.0074871965858596887 0.0011586728110186825 0 0.0076518568241089845 0.00093552822040446305 0 0.0080211351319077299 0.00076386728123377682 0 0.0074871965858596887 0.0011586728110186825 0 0.0076518568241089845 0.00093552822040446305 0 0.0075033482938480058 0.0010370558165375553 0 0.0076518568241089845 0.00093552822040446305 0 0.0074612078333957145 0.0010055737206040949 0 0.0075033482938480058 0.0010370558165375553 0 0.0074612078333957145 0.0010055737206040949 0 0.007571891989018583 0.00089851015032536309 0 0.0074612078333957145 0.0010055737206040949 0 0.007704794909393734 0.00088995998193882393 0 0.007571891989018583 0.00089851015032536309 0 0.0084407646400409906 0.00063005789692254541 0 0.0085183820762248126 0.00060701273075313951 0 0.0093356537080631404 0.00024236113409007557 0 0.0094024448211605608 0.00026207260853084797 0 0.0093419996201693223 0.00033073708157198062 0 0.0092880144294088269 0.00030526753207467725 0 0.0093356537080631404 0.00024236113409007557 0 0.0093419996201693223 0.00033073708157198062 0 0.0078274609826504138 0.00071964832874168994 0 0.007704794909393734 0.00088995998193882393 0 0.0077379790131604327 0.00076886704253015692 0 0.007704794909393734 0.00088995998193882393 0 0.0076504927564666368 0.00074572146780074982 0 0.0077379790131604327 0.00076886704253015692 0 0.007704794909393734 0.00088995998193882393 0 0.007571891989018583 0.00089851015032536309 0 0.0075911817887488525 0.00079533278995860606 0 0.007704794909393734 0.00088995998193882393 0 0.0075911817887488525 0.00079533278995860606 0 0.0076504927564666368 0.00074572146780074982 0 0.0075148678352689353 0.00091073715838412754 0 0.0075033482938480058 0.0010370558165375553 0 0.007571891989018583 0.00089851015032536309 0 0.0075148678352689353 0.00091073715838412754 0 0.007571891989018583 0.00089851015032536309 0 0.0075353145495152271 0.00083615343862163062 0 0.0075125000781244679 0.00077627793612372055 0 0.0075911817887488525 0.00079533278995860606 0 0.0074755457049967052 0.00071905705572263717 0 0.0075125000781244679 0.00077627793612372055 0 0.0075911817887488525 0.00079533278995860606 0 0.0075353145495152271 0.00083615343862163062 0 0.007571891989018583 0.00089851015032536309 0 0.0075911817887488525 0.00079533278995860606 0 0.0075353145495152271 0.00083615343862163062 0 0.0077030214699018683 0.00073260544134256113 0 0.0070602702637082614 0.0006976236582067522 0 0.0076073173516720549 0.00074666184045990688 0 0.0075454341936085131 0.00063790444105024636 0 0.0074234125919186746 0.00078523742935755314 0 0.0075911817887488525 0.00079533278995860606 0 0.0076504927564666368 0.00074572146780074982 0 0.0074755457049967052 0.00071905705572263717 0 0.0069855537803488986 0.00034890384210244004 0 0.0070602702637082614 0.0006976236582067522 0 0.0076073173516720549 0.00074666184045990688 0 0.0076770661440018042 0.00063375222676516688 0 0.0075454341936085131 0.00063790444105024636 0 0.0077815387358293802 0.00070154142943000867 0 0.0076504927564666368 0.00074572146780074982 0 0.0077379790131604327 0.00076886704253015692 0 0.0077815387358293802 0.00070154142943000867 0 0.0076073173516720549 0.00074666184045990688 0 0.0076770661440018042 0.00063375222676516688 0 0.0077424311164602045 0.0007126858292059666 0 0.0077030214699018683 0.00073260544134256113 0 0.0076566799823193782 0.00051204186064799631 0 0.0076770661440018042 0.00063375222676516688 0 0.0075454341936085131 0.00063790444105024636 0 0.0076566799823193782 0.00051204186064799631 0 0.0077467969484969453 0.00055164086398690757 0 0.0076770661440018042 0.00063375222676516688 0 0.0077467969484969453 0.00055164086398690757 0 0.0077743543021236046 0.00061690881212702828 0 0.0076770661440018042 0.00063375222676516688 0 0.0064713137740292853 -0.00042187362364680365 0 0.0068481956937007865 -0.00042554785280903403 0 0.0064953054845360942 3.4588042586521408e-05 0 0.0073090408632703703 3.2169484729684976e-05 0 0.0069855537803488986 0.00034890384210244004 0 0.0064713137740292853 -0.00042187362364680365 0 0.0064953054845360942 3.4588042586521408e-05 0 0.0061968953068455464 -0.00020372117074732499 0 0.0064953054845360942 3.4588042586521408e-05 0 0.0061968953068455464 -0.00020372117074732499 0 0.0061771511383485241 3.6257498319420906e-05 0 0.0064953054845360942 3.4588042586521408e-05 0 0.0061771511383485241 3.6257498319420906e-05 0 0.0061638277237659814 0.00021985122449417945 0 0.0061968953068455464 -0.00020372117074732499 0 0.0061771511383485241 3.6257498319420906e-05 0 0.0059608637508547415 1.5508475459405975e-05 0 0.0061771511383485241 3.6257498319420906e-05 0 0.0059608637508547415 1.5508475459405975e-05 0 0.0060454515185212341 0.00019614959590809097 0 0.0058924151708591044 -0.00032383702157006425 0 0.0061968953068455464 -0.00020372117074732499 0 0.0059608637508547415 1.5508475459405975e-05 0 0.0056099555961843395 -0.00040099515448702015 0 0.0058924151708591044 -0.00032383702157006425 0 0.0056520568676905426 -0.00011642171445595184 0 0.0058924151708591044 -0.00032383702157006425 0 0.0059608637508547415 1.5508475459405975e-05 0 0.0056520568676905426 -0.00011642171445595184 0 0.0056520568676905426 -0.00011642171445595184 0 0.0053988797587435026 -0.00010496482253620888 0 0.0053750781822063352 -0.00033772170102933433 0 0.0056099555961843395 -0.00040099515448702015 0 0.0056520568676905426 -0.00011642171445595184 0 0.0053750781822063352 -0.00033772170102933433 0 0.0056520568676905426 -0.00011642171445595184 0 0.0055077829457570952 0.00013668378721302344 0 0.0053988797587435026 -0.00010496482253620888 0 0.0056520568676905426 -0.00011642171445595184 0 0.0057688575868951346 0.00013909419808564024 0 0.0055077829457570952 0.00013668378721302344 0 0.0059608637508547415 1.5508475459405975e-05 0 0.0056520568676905426 -0.00011642171445595184 0 0.0057688575868951346 0.00013909419808564024 0 0.0059608637508547415 1.5508475459405975e-05 0 0.0057688575868951346 0.00013909419808564024 0 0.0059069755251435659 0.00020743760355281278 0 0.0057688575868951346 0.00013909419808564024 0 0.0056383854587580976 0.00034883499594731422 0 0.0058056040456086373 0.00032858133270646746 0 0.0058056040456086373 0.00032858133270646746 0 0.0059551891432682033 0.00035423832922809823 0 0.0059069755251435659 0.00020743760355281278 0 0.0057688575868951346 0.00013909419808564024 0 0.0058056040456086373 0.00032858133270646746 0 0.0059069755251435659 0.00020743760355281278 0 0.0057688575868951346 0.00013909419808564024 0 0.0056383854587580976 0.00034883499594731422 0 0.0055077829457570952 0.00013668378721302344 0 0.0056658963383774174 0.00057131989989437509 0 0.0056383854587580976 0.00034883499594731422 0 0.0058056040456086373 0.00032858133270646746 0 0.0056658963383774174 0.00057131989989437509 0 0.0056383854587580976 0.00034883499594731422 0 0.0054674553991973475 0.00039733797215037522 0 0.0056658963383774174 0.00057131989989437509 0 0.0058056040456086373 0.00032858133270646746 0 0.0059551891432682033 0.00035423832922809823 0 0.0059551891432682033 0.00035423832922809823 0 0.0061531998511197804 0.00047639577368014356 0 0.0061638277237659814 0.00021985122449417945 0 0.0056658963383774174 0.00057131989989437509 0 0.0059551891432682033 0.00035423832922809823 0 0.0061531998511197804 0.00047639577368014356 0 0.0064953054845360942 3.4588042586521408e-05 0 0.0061531998511197804 0.00047639577368014356 0 0.0061638277237659814 0.00021985122449417945 0 0.0061771511383485241 3.6257498319420906e-05 0 0.0061638277237659814 0.00021985122449417945 0 0.0060454515185212341 0.00019614959590809097 0 0.0059551891432682033 0.00035423832922809823 0 0.0061638277237659814 0.00021985122449417945 0 0.0060454515185212341 0.00019614959590809097 0 0.0059608637508547415 1.5508475459405975e-05 0 0.0060454515185212341 0.00019614959590809097 0 0.0059069755251435659 0.00020743760355281278 0 0.0059551891432682033 0.00035423832922809823 0 0.0060454515185212341 0.00019614959590809097 0 0.0059069755251435659 0.00020743760355281278 0 0.0050103710091681138 0.0003238532228979388 0 0.0048182101056849979 0.00014863675491070416 0 0.0048321832160220122 0.00036734840592465878 0 0.0050103710091681138 0.0003238532228979388 0 0.0050612196046899141 0.00020476447936582714 0 0.0052220688038480375 0.00033024476337150012 0 0.0050612196046899141 0.00020476447936582714 0 0.0051229145634549746 6.7290861181767378e-05 0 0.0049626050267678355 3.5309214988017999e-05 0 0.0050103710091681138 0.0003238532228979388 0 0.0050612196046899141 0.00020476447936582714 0 0.0048182101056849979 0.00014863675491070416 0 0.0050612196046899141 0.00020476447936582714 0 0.0048182101056849979 0.00014863675491070416 0 0.0049626050267678355 3.5309214988017999e-05 0 0.0048182101056849979 0.00014863675491070416 0 0.0045455379806934385 0.00032565842708558125 0 0.0044388256640232587 -8.9113729370260313e-05 0 0.0048182101056849979 0.00014863675491070416 0 0.0045455379806934385 0.00032565842708558125 0 0.0048321832160220122 0.00036734840592465878 0 0.0045455379806934385 0.00032565842708558125 0 0.0048321832160220122 0.00036734840592465878 0 0.0047702174737830148 0.00059920108622410506 0 0.0047702174737830148 0.00059920108622410506 0 0.0049683719202661351 0.0004534692568848403 0 0.0050814609742409313 0.0005682166621056396 0 0.0048321832160220122 0.00036734840592465878 0 0.0047702174737830148 0.00059920108622410506 0 0.0049683719202661351 0.0004534692568848403 0 0.0050103710091681138 0.0003238532228979388 0 0.0048321832160220122 0.00036734840592465878 0 0.0049683719202661351 0.0004534692568848403 0 0.0050103710091681138 0.0003238532228979388 0 0.0049683719202661351 0.0004534692568848403 0 0.0051175090923014782 0.00042272557946662577 0 0.0050103710091681138 0.0003238532228979388 0 0.0051175090923014782 0.00042272557946662577 0 0.0052220688038480375 0.00033024476337150012 0 0.0049683719202661351 0.0004534692568848403 0 0.0051175090923014782 0.00042272557946662577 0 0.0050814609742409313 0.0005682166621056396 0 0.0051175090923014782 0.00042272557946662577 0 0.0050814609742409313 0.0005682166621056396 0 0.0052295200986152163 0.00051645187924709789 0 0.0050814609742409313 0.0005682166621056396 0 0.0052295200986152163 0.00051645187924709789 0 0.0052619048385538396 0.00059264202898637991 0 0.0052295200986152163 0.00051645187924709789 0 0.0052619048385538396 0.00059264202898637991 0 0.005366934878619529 0.00058107507496516343 0 0.0051175090923014782 0.00042272557946662577 0 0.0052295200986152163 0.00051645187924709789 0 0.0053227219538904526 0.00047548343338577102 0 0.0053227219538904526 0.00047548343338577102 0 0.0054674553991973475 0.00039733797215037522 0 0.0054721851646854598 0.00060931107559834721 0 0.0053227219538904526 0.00047548343338577102 0 0.0054674553991973475 0.00039733797215037522 0 0.0052220688038480375 0.00033024476337150012 0 0.0052295200986152163 0.00051645187924709789 0 0.0053227219538904526 0.00047548343338577102 0 0.005366934878619529 0.00058107507496516343 0 0.0053227219538904526 0.00047548343338577102 0 0.0054721851646854598 0.00060931107559834721 0 0.005366934878619529 0.00058107507496516343 0 0.0051175090923014782 0.00042272557946662577 0 0.0053227219538904526 0.00047548343338577102 0 0.0052220688038480375 0.00033024476337150012 0 0.0056658963383774174 0.00057131989989437509 0 0.0054674553991973475 0.00039733797215037522 0 0.0054721851646854598 0.00060931107559834721 0 0.0056383854587580976 0.00034883499594731422 0 0.0054674553991973475 0.00039733797215037522 0 0.0055077829457570952 0.00013668378721302344 0 0.0054674553991973475 0.00039733797215037522 0 0.0055077829457570952 0.00013668378721302344 0 0.0052786310311129653 0.00019079681871971471 0 0.0054674553991973475 0.00039733797215037522 0 0.0052220688038480375 0.00033024476337150012 0 0.0052786310311129653 0.00019079681871971471 0 0.0050612196046899141 0.00020476447936582714 0 0.0052220688038480375 0.00033024476337150012 0 0.0052786310311129653 0.00019079681871971471 0 0.0050612196046899141 0.00020476447936582714 0 0.0052786310311129653 0.00019079681871971471 0 0.0051229145634549746 6.7290861181767378e-05 0 0.0051229145634549746 6.7290861181767378e-05 0 0.0052651121976591561 -3.6363089716162993e-06 0 0.0050506708796886832 -0.00010381215497671961 0 0.0052786310311129653 0.00019079681871971471 0 0.0051229145634549746 6.7290861181767378e-05 0 0.0052651121976591561 -3.6363089716162993e-06 0 0.0052651121976591561 -3.6363089716162993e-06 0 0.0050506708796886832 -0.00010381215497671961 0 0.0051916934909641633 -0.00021884301195844447 0 0.0055077829457570952 0.00013668378721302344 0 0.0052651121976591561 -3.6363089716162993e-06 0 0.0053988797587435026 -0.00010496482253620888 0 0.0055077829457570952 0.00013668378721302344 0 0.0052786310311129653 0.00019079681871971471 0 0.0052651121976591561 -3.6363089716162993e-06 0 0.0052651121976591561 -3.6363089716162993e-06 0 0.0053988797587435026 -0.00010496482253620888 0 0.0051916934909641633 -0.00021884301195844447 0 0.0053988797587435026 -0.00010496482253620888 0 0.0053750781822063352 -0.00033772170102933433 0 0.0051916934909641633 -0.00021884301195844447 0 0.0051146706705553257 -0.00047157895184956234 0 0.0051916934909641633 -0.00021884301195844447 0 0.0049147843677038389 -0.00030284589832697725 0 0.0050506708796886832 -0.00010381215497671961 0 0.0051916934909641633 -0.00021884301195844447 0 0.0049147843677038389 -0.00030284589832697725 0 0.0051146706705553257 -0.00047157895184956234 0 0.0053750781822063352 -0.00033772170102933433 0 0.0051916934909641633 -0.00021884301195844447 0 0.0049001702157278858 -0.00051447315968058526 0 0.0049147843677038389 -0.00030284589832697725 0 0.0046279538630610659 -0.00038963677629420753 0 0.0049147843677038389 -0.00030284589832697725 0 0.0048088137245601995 -0.00012001961823394577 0 0.0046279538630610659 -0.00038963677629420753 0 0.0050506708796886832 -0.00010381215497671961 0 0.0049147843677038389 -0.00030284589832697725 0 0.0048088137245601995 -0.00012001961823394577 0 0.0048182101056849979 0.00014863675491070416 0 0.0048088137245601995 -0.00012001961823394577 0 0.0049626050267678355 3.5309214988017999e-05 0 0.0050506708796886832 -0.00010381215497671961 0 0.0048088137245601995 -0.00012001961823394577 0 0.0049626050267678355 3.5309214988017999e-05 0 0.0051229145634549746 6.7290861181767378e-05 0 0.0050506708796886832 -0.00010381215497671961 0 0.0049626050267678355 3.5309214988017999e-05 0 0.0048182101056849979 0.00014863675491070416 0 0.0048088137245601995 -0.00012001961823394577 0 0.0044388256640232587 -8.9113729370260313e-05 0 0.0048088137245601995 -0.00012001961823394577 0 0.0046279538630610659 -0.00038963677629420753 0 0.0044388256640232587 -8.9113729370260313e-05 0 0.0039651061429089958 -0.00057705390229170533 0 0.0046279538630610659 -0.00038963677629420753 0 0.0044388256640232587 -8.9113729370260313e-05 0 0.0039651061429089958 -0.00057705390229170533 0 0.0031769827822943578 0.000389057514069906 0 0.0039858820350567202 0.00014234031538825452 0 0.0039651061429089958 -0.00057705390229170533 0 0.0044388256640232587 -8.9113729370260313e-05 0 0.0039858820350567202 0.00014234031538825452 0 0.0033437315498532493 -0.0002655141668770551 0 0.0031444500979455258 0.00041038276065870924 0 0.0026966803901146159 5.2382278638360826e-05 0 0.0027350414417136051 0.00011928419360659796 0 0.0031769827822943578 0.000389057514069906 0 0.0027350414417136051 0.00011928419360659796 0 0.0031769827822943578 0.000389057514069906 0 0.0025949119985168639 0.00030726628005335805 0 0.0031769827822943578 0.000389057514069906 0 0.0039521356700792983 0.00074233060851135342 0 0.0025949119985168639 0.00030726628005335805 0 0.0040357621300264185 0.00044342150278400757 0 0.0033384200334300122 0.0008182417301552281 0 0.0030702818129544505 0.00017508408587152489 0 0.0040098475922047024 0.00057229816285688569 0 0.0028588403726223541 0.00024059878337617232 0 0.0045455379806934385 0.00032565842708558125 0 0.0044388256640232587 -8.9113729370260313e-05 0 0.0039858820350567202 0.00014234031538825452 0 0.0045455379806934385 0.00032565842708558125 0 0.0039858820350567202 0.00014234031538825452 0 0.0039521356700792983 0.00074233060851135342 0 0.0031769827822943578 0.000389057514069906 0 0.0039858820350567202 0.00014234031538825452 0 0.0039521356700792983 0.00074233060851135342 0 0.0045455379806934385 0.00032565842708558125 0 0.0047702174737830148 0.00059920108622410506 0 0.0039521356700792983 0.00074233060851135342 0 0.0056726497432206674 0.0011078851075247611 0 0.0058552663009249226 0.0013451882777439997 0 0.0040357621300264185 0.00044342150278400757 0 0.0033384200334300122 0.0008182417301552281 0 0.0045776752582044646 0.0011725597589511603 0 0.0075242460591612281 0.001562237576054193 0 0.0073534470516378814 0.0014238761361298365 0 0.0072257267457653592 0.0015379326092097437 0 0.0056726497432206674 0.0011078851075247611 0 0.0079683725528201313 0.0014691526948854582 0 0.0081859116547546608 0.001270021494845199 0 0.0081373405406625337 0.0010798447169102178 0 0.0078333974623766879 0.0012004899726596188 0 0.0081373405406625337 0.0010798447169102178 0 0.0078333974623766879 0.0012004899726596188 0 0.0080397946522389342 0.00094153748480529963 0 0.0081859116547546608 0.001270021494845199 0 0.0081373405406625337 0.0010798447169102178 0 0.0083438248521406667 0.001045270231641164 0 0.0081373405406625337 0.0010798447169102178 0 0.0080397946522389342 0.00094153748480529963 0 0.0082464076541421336 0.00090303528394343902 0 0.0081373405406625337 0.0010798447169102178 0 0.0082464076541421336 0.00090303528394343902 0 0.0083438248521406667 0.001045270231641164 0 0.0079683725528201313 0.0014691526948854582 0 0.0070016167427864534 0.00094329176814191159 0 0.0073534470516378814 0.0014238761361298365 0 0.00713730958041499 0.0013259956511371806 0 0.0071337875016444195 0.0010379174447657622 0 0.00713730958041499 0.0013259956511371806 0 0.0072257267457653592 0.0015379326092097437 0 0.0068619189415484293 0.0013088388222110316 0 0.00713730958041499 0.0013259956511371806 0 0.0068619189415484293 0.0013088388222110316 0 0.0071337875016444195 0.0010379174447657622 0 0.0073534470516378814 0.0014238761361298365 0 0.00713730958041499 0.0013259956511371806 0 0.0072257267457653592 0.0015379326092097437 0 0.0040357621300264185 0.00044342150278400757 0 0.0045776752582044646 0.0011725597589511603 0 0.0053576443820277982 0.00078898742969516053 0 0.0047702174737830148 0.00059920108622410506 0 0.0039521356700792983 0.00074233060851135342 0 0.0053576443820277982 0.00078898742969516053 0 0.0040098475922047024 0.00057229816285688569 0 0.0052521696723821778 0.00081313683003574381 0 0.0047702174737830148 0.00059920108622410506 0 0.0050814609742409313 0.0005682166621056396 0 0.0053576443820277982 0.00078898742969516053 0 0.0050814609742409313 0.0005682166621056396 0 0.0053233980543989914 0.00067697157612016357 0 0.0053576443820277982 0.00078898742969516053 0 0.0050814609742409313 0.0005682166621056396 0 0.0052619048385538396 0.00059264202898637991 0 0.0053233980543989914 0.00067697157612016357 0 0.0045776752582044646 0.0011725597589511603 0 0.0053576443820277982 0.00078898742969516053 0 0.0065537906620172989 0.0013467533211006986 0 0.0061798804368890193 0.00058123633678585165 0 0.005559583289595286 0.00072014063748494284 0 0.006842357378603006 0.00053203492257713147 0 0.005484333081955034 0.00074519350418443835 0 0.0065537906620172989 0.0013467533211006986 0 0.0056658963383774174 0.00057131989989437509 0 0.0054721851646854598 0.00060931107559834721 0 0.005484333081955034 0.00074519350418443835 0 0.0054721851646854598 0.00060931107559834721 0 0.005366934878619529 0.00058107507496516343 0 0.0054035789095998391 0.0006614140580208244 0 0.0052619048385538396 0.00059264202898637991 0 0.005366934878619529 0.00058107507496516343 0 0.0053399862004476313 0.00062679684194614908 0 0.005366934878619529 0.00058107507496516343 0 0.0054035789095998391 0.0006614140580208244 0 0.0053399862004476313 0.00062679684194614908 0 0.0052619048385538396 0.00059264202898637991 0 0.0053399862004476313 0.00062679684194614908 0 0.0053233980543989914 0.00067697157612016357 0 0.0054035789095998391 0.0006614140580208244 0 0.0053399862004476313 0.00062679684194614908 0 0.0053233980543989914 0.00067697157612016357 0 0.0054035789095998391 0.0006614140580208244 0 0.0053233980543989914 0.00067697157612016357 0 0.0053979228067097696 0.00071362070052503077 0 0.0054035789095998391 0.0006614140580208244 0 0.0053979228067097696 0.00071362070052503077 0 0.005484333081955034 0.00074519350418443835 0 0.0053233980543989914 0.00067697157612016357 0 0.0053979228067097696 0.00071362070052503077 0 0.0053576443820277982 0.00078898742969516053 0 0.0053979228067097696 0.00071362070052503077 0 0.005484333081955034 0.00074519350418443835 0 0.0053576443820277982 0.00078898742969516053 0 0.0054721851646854598 0.00060931107559834721 0 0.0054035789095998391 0.0006614140580208244 0 0.005484333081955034 0.00074519350418443835 0 0.005484333081955034 0.00074519350418443835 0 0.0053576443820277982 0.00078898742969516053 0 0.0065537906620172989 0.0013467533211006986 0 0.0072257267457653592 0.0015379326092097437 0 0.0065537906620172989 0.0013467533211006986 0 0.0068619189415484293 0.0013088388222110316 0 0.0058552663009249226 0.0013451882777439997 0 0.0065291816521139429 0.0013641009228645671 0 0.0065537906620172989 0.0013467533211006986 0 0.0068619189415484293 0.0013088388222110316 0 0.0065590869050659419 0.0013591594737308106 0 0.0076258638509647996 0.0010528006953229043 0 0.0081655188928958858 0.00048521247653146305 0 0.0065590869050659419 0.0013591594737308106 0 0.0071337875016444195 0.0010379174447657622 0 0.0071940358709962739 0.00064754188581820477 0 0.0086476076997103538 0.00083685639405170075 0 0.0091599688146373637 0.0002611796402461598 0 0.0088723282027961432 0.00033868130829777464 0 0.0068619189415484293 0.0013088388222110316 0 0.0065590869050659419 0.0013591594737308106 0 0.0071337875016444195 0.0010379174447657622 0 0.0085412780572223113 0.0004283186939626243 0 0.0086476076997103538 0.00083685639405170075 0 0.0088723282027961432 0.00033868130829777464 0 0.0078333974623766879 0.0012004899726596188 0 0.0071337875016444195 0.0010379174447657622 0 0.0074951694552329844 0.0008269178875900449 0 0.0071337875016444195 0.0010379174447657622 0 0.0074951694552329844 0.0008269178875900449 0 0.0071940358709962739 0.00064754188581820477 0 0.0091599688146373637 0.0002611796402461598 0 0.0090557366786780009 0.00018052397375365457 0 0.0091204070707405389 0.00014358865022434225 0 0.0074951694552329844 0.0008269178875900449 0 0.0071940358709962739 0.00064754188581820477 0 0.007935438264493052 0.00031982445694708067 0 0.0091599688146373637 0.0002611796402461598 0 0.0091204070707405389 0.00014358865022434225 0 0.0090549049590242705 8.2131348126490827e-05 0 0.0090557366786780009 0.00018052397375365457 0 0.0089900804239273612 9.1789462833743782e-05 0 0.0091204070707405389 0.00014358865022434225 0 0.0085412780572223113 0.0004283186939626243 0 0.0088723282027961432 0.00033868130829777464 0 0.0089900804239273612 9.1789462833743782e-05 0 0.0091599688146373637 0.0002611796402461598 0 0.0088723282027961432 0.00033868130829777464 0 0.0090557366786780009 0.00018052397375365457 0 0.0088723282027961432 0.00033868130829777464 0 0.0090557366786780009 0.00018052397375365457 0 0.0089900804239273612 9.1789462833743782e-05 0 0.0091593777404293808 0.00021097626952773014 0 0.0089900804239273612 9.1789462833743782e-05 0 0.0091204070707405389 0.00014358865022434225 0 0.0091204070707405389 0.00014358865022434225 0 0.0092036828567260663 0.00025485444700580379 0 0.0090980888815171343 0.00024221972764549955 0 0.0091593777404293808 0.00021097626952773014 0 0.0092036828567260663 0.00025485444700580379 0 0.0092940805300728777 0.00031503229115047957 0 0.0091593777404293808 0.00021097626952773014 0 0.0091204070707405389 0.00014358865022434225 0 0.0092036828567260663 0.00025485444700580379 0 0.0090980888815171343 0.00024221972764549955 0 0.0086348958425130178 0.00018448097025844981 0 0.0088456211996270993 0.00029808253135858004 0 0.0091204070707405389 0.00014358865022434225 0 0.0090980888815171343 0.00024221972764549955 0 0.0090549049590242705 8.2131348126490827e-05 0 0.0090980888815171343 0.00024221972764549955 0 0.0090549049590242705 8.2131348126490827e-05 0 0.0086348958425130178 0.00018448097025844981 0 0.0084805100577667811 0.00022134609125784186 0 0.0086049271561585844 0.00018750882676507184 0 0.0082707804945626254 0.0006159499322198744 0 0.007935438264493052 0.00031982445694708067 0 0.0086348958425130178 0.00018448097025844981 0 0.0082707804945626254 0.0006159499322198744 0 0.007935438264493052 0.00031982445694708067 0 0.0078051750480762887 0.00081261307837945831 0 0.0074951694552329844 0.0008269178875900449 0 0.007935438264493052 0.00031982445694708067 0 0.0078051750480762887 0.00081261307837945831 0 0.0081655188928958858 0.00048521247653146305 0 0.0084805100577667811 0.00022134609125784186 0 0.0078333974623766879 0.0012004899726596188 0 0.0074951694552329844 0.0008269178875900449 0 0.0078051750480762887 0.00081261307837945831 0 0.0078333974623766879 0.0012004899726596188 0 0.0078051750480762887 0.00081261307837945831 0 0.0080397946522389342 0.00094153748480529963 0 0.0082707804945626254 0.0006159499322198744 0 0.0078051750480762887 0.00081261307837945831 0 0.0080397946522389342 0.00094153748480529963 0 0.0082707804945626254 0.0006159499322198744 0 0.0080397946522389342 0.00094153748480529963 0 0.0082464076541421336 0.00090303528394343902 0 0.0082707804945626254 0.0006159499322198744 0 0.0082464076541421336 0.00090303528394343902 0 0.0084864220408970518 0.00077807864968090096 0 0.0084864220408970518 0.00077807864968090096 0 0.0086469473824406003 0.00078137975863319924 0 0.0086719406127317312 0.0005284673720576499 0 0.0084864220408970518 0.00077807864968090096 0 0.0086469473824406003 0.00078137975863319924 0 0.0085921522628106105 0.00098846169620934077 0 0.0084864220408970518 0.00077807864968090096 0 0.0086719406127317312 0.0005284673720576499 0 0.0085830419757598198 0.00040653817976733472 0 0.0082707804945626254 0.0006159499322198744 0 0.0084864220408970518 0.00077807864968090096 0 0.0085830419757598198 0.00040653817976733472 0 0.0082707804945626254 0.0006159499322198744 0 0.0085830419757598198 0.00040653817976733472 0 0.0086348958425130178 0.00018448097025844981 0 0.0085830419757598198 0.00040653817976733472 0 0.0086348958425130178 0.00018448097025844981 0 0.0086350663510658676 0.0002628728060888151 0 0.0086719406127317312 0.0005284673720576499 0 0.0085830419757598198 0.00040653817976733472 0 0.0086350663510658676 0.0002628728060888151 0 0.0086350663510658676 0.0002628728060888151 0 0.0087050676222741302 0.00031762250816761507 0 0.0085974859543123689 0.0002853634406449531 0 0.0086348958425130178 0.00018448097025844981 0 0.0086350663510658676 0.0002628728060888151 0 0.0087050676222741302 0.00031762250816761507 0 0.0086348958425130178 0.00018448097025844981 0 0.0087050676222741302 0.00031762250816761507 0 0.0088456211996270993 0.00029808253135858004 0 0.0072963560734546741 9.6188884240490234e-08 0 0.007495649424706455 -2.02232232260036e-06 0 0.0067958027992107255 1.5394708198101758e-06 0 0.0086350663510658676 0.0002628728060888151 0 0.0086259925825825229 0.00024626001293236871 0 0.0085974859543123689 0.0002853634406449531 0 0.0080715610860466382 0.00018234500483196021 0 0.0077927743858538972 0.00023601213588777728 0 0.0086350663510658676 0.0002628728060888151 0 0.0086259925825825229 0.00024626001293236871 0 0.0087867699933060345 0.00037572657883201102 0 0.0086719406127317312 0.0005284673720576499 0 0.0086350663510658676 0.0002628728060888151 0 0.0087867699933060345 0.00037572657883201102 0 0.0072963560734546741 9.6188884240490234e-08 0 0.0067958027992107255 1.5394708198101758e-06 0 0.0065785780463533845 -1.0533044402428478e-08 0 0.0065785780463533845 -1.0533044402428478e-08 0 0.0060568094539879165 -2.6329265124699879e-06 0 0.0058593602456787517 -2.2187329720239038e-08 0 0.0067958027992107255 1.5394708198101758e-06 0 0.0065785780463533845 -1.0533044402428478e-08 0 0.0060568094539879165 -2.6329265124699879e-06 0 0.0077927743858538972 0.00023601213588777728 0 0.0074446355473277047 0.00034911093333163379 0 0.0086719406127317312 0.0005284673720576499 0 0.0087867699933060345 0.00037572657883201102 0 0.0088735723355940297 0.00069011429710442551 0 0.0086469473824406003 0.00078137975863319924 0 0.0088735723355940297 0.00069011429710442551 0 0.008740988245341386 0.00092275507020895316 0 0.0086469473824406003 0.00078137975863319924 0 0.0086719406127317312 0.0005284673720576499 0 0.0088735723355940297 0.00069011429710442551 0 0.0060568094539879165 -2.6329265124699879e-06 0 0.0058593602456787517 -2.2187329720239038e-08 0 0.0053117620855749901 -1.7654272198465292e-06 0 0.0074446355473277047 0.00034911093333163379 0 0.0072782875080109055 0.00068705506673334509 0 0.0058593602456787517 -2.2187329720239038e-08 0 0.0053117620855749901 -1.7654272198465292e-06 0 0.005140319219209012 9.3539246600486651e-08 0 0.0053117620855749901 -1.7654272198465292e-06 0 0.005140319219209012 9.3539246600486651e-08 0 0.0046502736634091366 -1.5837653009956839e-05 0 0.0072782875080109055 0.00068705506673334509 0 0.0050899925382409698 0.00010703230004506605 0 0.0088671099211557244 0.0010302943933048088 0 0.008721818372587075 0.0011105387677164628 0 0.0088406522114945034 0.0012747407065623274 0 0.008721818372587075 0.0011105387677164628 0 0.0088406522114945034 0.0012747407065623274 0 0.0086655660885895103 0.0012460509209150379 0 0.008721818372587075 0.0011105387677164628 0 0.0085834907128088719 0.0011492314372200097 0 0.0086655660885895103 0.0012460509209150379 0 0.0088735723355940297 0.00069011429710442551 0 0.0088671099211557244 0.0010302943933048088 0 0.008740988245341386 0.00092275507020895316 0 0.008721818372587075 0.0011105387677164628 0 0.008740988245341386 0.00092275507020895316 0 0.0085921522628106105 0.00098846169620934077 0 0.0088671099211557244 0.0010302943933048088 0 0.008721818372587075 0.0011105387677164628 0 0.008740988245341386 0.00092275507020895316 0 0.0086469473824406003 0.00078137975863319924 0 0.008740988245341386 0.00092275507020895316 0 0.0085921522628106105 0.00098846169620934077 0 0.0084864220408970518 0.00077807864968090096 0 0.0085921522628106105 0.00098846169620934077 0 0.0083438248521406667 0.001045270231641164 0 0.0082464076541421336 0.00090303528394343902 0 0.0084864220408970518 0.00077807864968090096 0 0.0083438248521406667 0.001045270231641164 0 0.0085921522628106105 0.00098846169620934077 0 0.0083438248521406667 0.001045270231641164 0 0.0084350718257336244 0.001139312585976037 0 0.0056726497432206674 0.0011078851075247611 0 0.0058280908700639924 0.00093753277108732966 0 0.0081859116547546608 0.001270021494845199 0 0.0083438248521406667 0.001045270231641164 0 0.0084350718257336244 0.001139312585976037 0 0.0081859116547546608 0.001270021494845199 0 0.0084350718257336244 0.001139312585976037 0 0.0084471604888397018 0.0012488569335453142 0 0.0038723264605481067 0.00080136577438190719 0 0.0031274494972559608 0.00063209841077322727 0 0.0030963964565992172 0.00027552829013825238 0 0.0084471604888397018 0.0012488569335453142 0 0.0085834907128088719 0.0011492314372200097 0 0.0086655660885895103 0.0012460509209150379 0 0.008721818372587075 0.0011105387677164628 0 0.0085921522628106105 0.00098846169620934077 0 0.0085834907128088719 0.0011492314372200097 0 0.0085921522628106105 0.00098846169620934077 0 0.0084350718257336244 0.001139312585976037 0 0.0085834907128088719 0.0011492314372200097 0 0.0084350718257336244 0.001139312585976037 0 0.0084471604888397018 0.0012488569335453142 0 0.0085834907128088719 0.0011492314372200097 0 0.0031274494972559608 0.00063209841077322727 0 0.0030963964565992172 0.00027552829013825238 0 0.0025660923955700419 0.00042597487926722026 0 0.0027504790855668441 0.00028737637760203151 0 0.0030702818129544505 0.00017508408587152489 0 0.0025254027484976241 7.7231158761060159e-05 0 0.0030963964565992172 0.00027552829013825238 0 0.002466754934274242 3.2413736044050534e-05 0 0.0026333856400281943 0.00022034982933835949 0 0.0058280908700639924 0.00093753277108732966 0 0.0057279032052303096 0.00088923016379261995 0 0.0030963964565992172 0.00027552829013825238 0 0.0025660923955700419 0.00042597487926722026 0 0.0026333856400281943 0.00022034982933835949 0 0.0033384200334300122 0.0008182417301552281 0 0.0027504790855668441 0.00028737637760203151 0 0.0030702818129544505 0.00017508408587152489 0 0.0056726497432206674 0.0011078851075247611 0 0.0025317326875592939 0.00013280156212854631 0 0.0025607524854697594 7.8209958258856443e-05 0 0.0027350414417136051 0.00011928419360659796 0 0.0025949119985168639 0.00030726628005335805 0 0.0025607524854697594 7.8209958258856443e-05 0 0.0025949119985168639 0.00030726628005335805 0 0.0025208650197943005 0.00010412406256243826 0 0.0025317326875592939 0.00013280156212854631 0 0.002659254455471272 0.00012848094707966059 0 0.0027504790855668441 0.00028737637760203151 0 0.0025254027484976241 7.7231158761060159e-05 0 0.002466754934274242 3.2413736044050534e-05 0 0.0025949119985168639 0.00030726628005335805 0 0.0025254027484976241 7.7231158761060159e-05 0 0.0025208650197943005 0.00010412406256243826 0 0.0028588403726223541 0.00024059878337617232 0 0.0025465931400661655 9.5390343174602891e-05 0 0.0024807211252088671 5.250386312835161e-05 0 0.0025208650197943005 0.00010412406256243826 0 0.0024726317744522097 4.3313108677422974e-05 0 0.0025254027484976241 7.7231158761060159e-05 0 0.0024726317744522097 4.3313108677422974e-05 0 0.002466754934274242 3.2413736044050534e-05 0 0.0025254027484976241 7.7231158761060159e-05 0 0.0025208650197943005 0.00010412406256243826 0 0.0024726317744522097 4.3313108677422974e-05 0 0.0024466458287034855 1.5303196798578389e-05 0 0.0024726317744522097 4.3313108677422974e-05 0 0.002466754934274242 3.2413736044050534e-05 0 0.0024466458287034855 1.5303196798578389e-05 0 0.002466754934274242 3.2413736044050534e-05 0 0.0024368012665550876 3.2892863771689628e-05 0 0.002466754934274242 3.2413736044050534e-05 0 0.0026333856400281943 0.00022034982933835949 0 0.0024689914539939442 0.00016991320580506808 0 0.002466754934274242 3.2413736044050534e-05 0 0.0024368012665550876 3.2892863771689628e-05 0 0.0024689914539939442 0.00016991320580506808 0 0.0036669077701965594 2.2167198703756394e-06 0 0.0044207124152479283 -4.6039505400087852e-08 0 0.0044094021244463792 -4.4799890508338491e-06 0 0.0036669077701965594 2.2167198703756394e-06 0 0.0036102298659115412 4.6262010281456354e-08 0 0.0044207124152479283 -4.6039505400087852e-08 0 0.0024368012665550876 3.2892863771689628e-05 0 0.0023190080350805721 0.00024275670167731879 0 0.0024689914539939442 0.00016991320580506808 0 0.0028277588507606573 1.9123083561836978e-05 0 0.0050899925382409698 0.00010703230004506605 0 0.0024191472737830322 -6.9676699327507729e-05 0 0.0024368012665550876 3.2892863771689628e-05 0 0.0023190080350805721 0.00024275670167731879 0 0.005140319219209012 9.3539246600486651e-08 0 0.0044220832161134122 -2.4463724776337438e-07 0 0.0046502736634091366 -1.5837653009956839e-05 0 0.0044215196621112543 -2.3391288320378159e-08 0 0.0050899925382409698 0.00010703230004506605 0 0.0050899925382409698 0.00010703230004506605 0 0.0057279032052303096 0.00088923016379261995 0 0.0023190080350805721 0.00024275670167731879 0 0.0025660923955700419 0.00042597487926722026 0 0.0024689914539939442 0.00016991320580506808 0 0.0025660923955700419 0.00042597487926722026 0 0.0026333856400281943 0.00022034982933835949 0 0.0024689914539939442 0.00016991320580506808 0 0.010382583034034573 9.6567709119654109e-05 0 0.01026245577825863 0.00016734428497202798 0 0.0099914322183920126 0.00012289457959374633 0 0.010382583034034573 9.6567709119654109e-05 0 0.010770400420381481 0.00010588547776637532 0 0.01026245577825863 0.00016734428497202798 0 0.010382583034034573 9.6567709119654109e-05 0 0.010521771239355059 2.2604373256108343e-07 0 0.0099914322183920126 0.00012289457959374633 0 0.010382583034034573 9.6567709119654109e-05 0 0.010521771239355059 2.2604373256108343e-07 0 0.010770400420381481 0.00010588547776637532 0 0.010521771239355059 2.2604373256108343e-07 0 0.010770400420381481 0.00010588547776637532 0 0.0113278587862539 1.4132778214126258e-07 0 0.010770400420381481 0.00010588547776637532 0 0.010281193010900268 0.00014363061543929263 0 0.010520545863722834 5.8057968623715975e-05 0 0.010770400420381481 0.00010588547776637532 0 0.010281193010900268 0.00014363061543929263 0 0.01026245577825863 0.00016734428497202798 0 0.010281193010900268 0.00014363061543929263 0 0.010066204022626635 6.175706374044097e-05 0 0.010520545863722834 5.8057968623715975e-05 0 0.010281193010900268 0.00014363061543929263 0 0.010049555439821813 0.00018989373492952981 0 0.010042599417116193 0.00014766107185339451 0 0.010281193010900268 0.00014363061543929263 0 0.01026245577825863 0.00016734428497202798 0 0.010049555439821813 0.00018989373492952981 0 0.01026245577825863 0.00016734428497202798 0 0.0099464560632069546 0.00018951413995315432 0 0.010049555439821813 0.00018989373492952981 0 0.010049555439821813 0.00018989373492952981 0 0.0098880313270968394 0.00018732673278063598 0 0.0099229959579618058 0.00018955262889847784 0 0.0099464560632069546 0.00018951413995315432 0 0.010049555439821813 0.00018989373492952981 0 0.0098880313270968394 0.00018732673278063598 0 0.0099464560632069546 0.00018951413995315432 0 0.0098880313270968394 0.00018732673278063598 0 0.0098469193923652817 0.00016825159477419947 0 0.0098880313270968394 0.00018732673278063598 0 0.0098242861057611635 0.00018551209945357079 0 0.0097251103113669534 0.0002141632120168374 0 0.0098880313270968394 0.00018732673278063598 0 0.0098469193923652817 0.00016825159477419947 0 0.0098242861057611635 0.00018551209945357079 0 0.0099464560632069546 0.00018951413995315432 0 0.0098469193923652817 0.00016825159477419947 0 0.0096396998697624303 0.0001065072006697552 0 0.0096396998697624303 0.0001065072006697552 0 0.0099914322183920126 0.00012289457959374633 0 0.009519736896779863 8.2017147650662026e-05 0 0.0099464560632069546 0.00018951413995315432 0 0.0096396998697624303 0.0001065072006697552 0 0.0099914322183920126 0.00012289457959374633 0 0.01026245577825863 0.00016734428497202798 0 0.0099464560632069546 0.00018951413995315432 0 0.0099914322183920126 0.00012289457959374633 0 0.010521771239355059 2.2604373256108343e-07 0 0.0099914322183920126 0.00012289457959374633 0 0.0097157440575755209 1.7132717467385701e-07 0 0.0099914322183920126 0.00012289457959374633 0 0.0097157440575755209 1.7132717467385701e-07 0 0.009519736896779863 8.2017147650662026e-05 0 0.009519736896779863 8.2017147650662026e-05 0 0.0089097106750728426 2.6031730500840565e-07 0 0.0092497085746874909 0.00014266863064095047 0 0.0097157440575755209 1.7132717467385701e-07 0 0.009519736896779863 8.2017147650662026e-05 0 0.0089097106750728426 2.6031730500840565e-07 0 0.0096396998697624303 0.0001065072006697552 0 0.0092497085746874909 0.00014266863064095047 0 0.0091995656118889768 0.00029670666411099318 0 0.0092497085746874909 0.00014266863064095047 0 0.0090470457311877962 5.5248014009114585e-05 0 0.0091995656118889768 0.00029670666411099318 0 0.0096396998697624303 0.0001065072006697552 0 0.009519736896779863 8.2017147650662026e-05 0 0.0092497085746874909 0.00014266863064095047 0 0.0087804701050040162 0.00031563048016552308 0 0.009116667328723899 0.00029345409657543245 0 0.0092497085746874909 0.00014266863064095047 0 0.0090470457311877962 5.5248014009114585e-05 0 0.0089354141208695895 6.874751911649027e-05 0 0.0090470457311877962 5.5248014009114585e-05 0 0.0089354141208695895 6.874751911649027e-05 0 0.0086302368046918022 3.470322363447322e-05 0 0.0089097106750728426 2.6031730500840565e-07 0 0.0086302368046918022 3.470322363447322e-05 0 0.00810366595206846 -4.6215674840631513e-08 0 0.0089097106750728426 2.6031730500840565e-07 0 0.0092497085746874909 0.00014266863064095047 0 0.0089354141208695895 6.874751911649027e-05 0 0.0089097106750728426 2.6031730500840565e-07 0 0.0089354141208695895 6.874751911649027e-05 0 0.0086302368046918022 3.470322363447322e-05 0 0.0086302368046918022 3.470322363447322e-05 0 0.00810366595206846 -4.6215674840631513e-08 0 0.0082916266969138598 -8.1729153738471623e-05 0 0.0090470457311877962 5.5248014009114585e-05 0 0.0086302368046918022 3.470322363447322e-05 0 0.0082916266969138598 -8.1729153738471623e-05 0 0.0085787429059578004 0.00062512594330451797 0 0.0083433257718457162 0.00037093910590288518 0 0.0077103896675162608 0.00025047200734154324 0 0.0087804701050040162 0.00031563048016552308 0 0.0080225493480335815 0.0001169041306661393 0 0.0085787429059578004 0.00062512594330451797 0 0.0083433257718457162 0.00037093910590288518 0 0.008607897243833644 0.00039617418684132562 0 0.007495649424706455 -2.02232232260036e-06 0 0.0083433257718457162 0.00037093910590288518 0 0.0077103896675162608 0.00025047200734154324 0 0.0080715610860466382 0.00018234500483196021 0 0.008299048700511201 0.00041355563403976179 0 0.0086259925825825229 0.00024626001293236871 0 0.0083433257718457162 0.00037093910590288518 0 0.0085974859543123689 0.0002853634406449531 0 0.0083433257718457162 0.00037093910590288518 0 0.0085974859543123689 0.0002853634406449531 0 0.008607897243833644 0.00039617418684132562 0 0.0072963560734546741 9.6188884240490234e-08 0 0.007495649424706455 -2.02232232260036e-06 0 0.0077103896675162608 0.00025047200734154324 0 0.0072977504530547643 -3.1401804536471455e-07 0 0.00810366595206846 -4.6215674840631513e-08 0 0.0082916266969138598 -8.1729153738471623e-05 0 0.0072975128186479558 5.5554097927382145e-08 0 0.0080225493480335815 0.0001169041306661393 0 0.0087050676222741302 0.00031762250816761507 0 0.0088371821651049703 0.00053323702689262831 0 0.0088456211996270993 0.00029808253135858004 0 0.0087050676222741302 0.00031762250816761507 0 0.0085974859543123689 0.0002853634406449531 0 0.008607897243833644 0.00039617418684132562 0 0.0087050676222741302 0.00031762250816761507 0 0.0087552307965616302 0.00049871765899973052 0 0.008607897243833644 0.00039617418684132562 0 0.0085787429059578004 0.00062512594330451797 0 0.0087552307965616302 0.00049871765899973052 0 0.008607897243833644 0.00039617418684132562 0 0.0087050676222741302 0.00031762250816761507 0 0.0087552307965616302 0.00049871765899973052 0 0.0088371821651049703 0.00053323702689262831 0 0.0093270284478220392 0.00032769550579234694 0 0.0092308031005776288 0.00041993461459556949 0 0.0087552307965616302 0.00049871765899973052 0 0.0087873109926828851 0.00043323524991174486 0 0.0088371821651049703 0.00053323702689262831 0 0.0098471427677058951 0.00020118560441322454 0 0.0097251103113669534 0.0002141632120168374 0 0.0096122116154356545 0.00035490417197295217 0 0.0085787429059578004 0.00062512594330451797 0 0.0088229742620486596 0.0005143464587986429 0 0.0091995656118889768 0.00029670666411099318 0 0.0085787429059578004 0.00062512594330451797 0 0.0087552307965616302 0.00049871765899973052 0 0.0088229742620486596 0.0005143464587986429 0 0.0087552307965616302 0.00049871765899973052 0 0.0088229742620486596 0.0005143464587986429 0 0.0087873109926828851 0.00043323524991174486 0 0.0096396998697624303 0.0001065072006697552 0 0.0087873109926828851 0.00043323524991174486 0 0.0091995656118889768 0.00029670666411099318 0 0.0098469193923652817 0.00016825159477419947 0 0.0096396998697624303 0.0001065072006697552 0 0.0098471427677058951 0.00020118560441322454 0 0.0095811269585864486 0.00013925499596366333 0 0.0093270284478220392 0.00032769550579234694 0 0.0088229742620486596 0.0005143464587986429 0 0.0087873109926828851 0.00043323524991174486 0 0.0091995656118889768 0.00029670666411099318 0 0.0098471427677058951 0.00020118560441322454 0 0.0098242861057611635 0.00018551209945357079 0 0.0097251103113669534 0.0002141632120168374 0 0.0098469193923652817 0.00016825159477419947 0 0.0098471427677058951 0.00020118560441322454 0 0.0098242861057611635 0.00018551209945357079 0 0.0097251103113669534 0.0002141632120168374 0 0.0095581157845658314 0.0002750356967306425 0 0.0096434906238594149 0.00022752423667296833 0 0.0095581157845658314 0.0002750356967306425 0 0.0094679274383404708 0.00028760241207108193 0 0.0096434906238594149 0.00022752423667296833 0 0.0095581157845658314 0.0002750356967306425 0 0.0093751382562930821 0.00034333778429172855 0 0.0094679274383404708 0.00028760241207108193 0 0.0095581157845658314 0.0002750356967306425 0 0.0096122116154356545 0.00035490417197295217 0 0.0093751382562930821 0.00034333778429172855 0 0.0097251103113669534 0.0002141632120168374 0 0.0095581157845658314 0.0002750356967306425 0 0.0096122116154356545 0.00035490417197295217 0 0.0092308031005776288 0.00041993461459556949 0 0.0092025717234879411 0.0003846532259057887 0 0.0096122116154356545 0.00035490417197295217 0 0.0093751382562930821 0.00034333778429172855 0 0.0091758143681818869 0.00039009920878497773 0 0.0093751382562930821 0.00034333778429172855 0 0.0091758143681818869 0.00039009920878497773 0 0.0092940545432470094 0.00034256281421440811 0 0.0090980888815171343 0.00024221972764549955 0 0.0091758143681818869 0.00039009920878497773 0 0.0092940545432470094 0.00034256281421440811 0 0.0088371821651049703 0.00053323702689262831 0 0.0091758143681818869 0.00039009920878497773 0 0.0088456211996270993 0.00029808253135858004 0 0.0090980888815171343 0.00024221972764549955 0 0.0091758143681818869 0.00039009920878497773 0 0.0088456211996270993 0.00029808253135858004 0 0.0092036828567260663 0.00025485444700580379 0 0.0092940805300728777 0.00031503229115047957 0 0.0092940545432470094 0.00034256281421440811 0 0.0092036828567260663 0.00025485444700580379 0 0.0090980888815171343 0.00024221972764549955 0 0.0092940545432470094 0.00034256281421440811 0 0.0093751382562930821 0.00034333778429172855 0 0.0092940545432470094 0.00034256281421440811 0 0.009368262334196617 0.00032141165543293049 0 0.0092940805300728777 0.00031503229115047957 0 0.0092940545432470094 0.00034256281421440811 0 0.009368262334196617 0.00032141165543293049 0 0.0092940805300728777 0.00031503229115047957 0 0.009368262334196617 0.00032141165543293049 0 0.0093948880195651938 0.00029585344566403411 0 0.009368262334196617 0.00032141165543293049 0 0.0094679274383404708 0.00028760241207108193 0 0.0093948880195651938 0.00029585344566403411 0 0.0093751382562930821 0.00034333778429172855 0 0.009368262334196617 0.00032141165543293049 0 0.0094679274383404708 0.00028760241207108193 0 0.0094679274383404708 0.00028760241207108193 0 0.0095244296998819519 0.00023034252660777775 0 0.0096434906238594149 0.00022752423667296833 0 0.0094679274383404708 0.00028760241207108193 0 0.0095244296998819519 0.00023034252660777775 0 0.0093948880195651938 0.00029585344566403411 0 0.0095244296998819519 0.00023034252660777775 0 0.0094636043591450735 0.00020839415625745932 0 0.0093948880195651938 0.00029585344566403411 0 0.0095244296998819519 0.00023034252660777775 0 0.0095611569973766131 0.00017522166045762835 0 0.0096641118052932171 0.00017917845343865289 0 0.0095244296998819519 0.00023034252660777775 0 0.0095611569973766131 0.00017522166045762835 0 0.0094636043591450735 0.00020839415625745932 0 0.0095611569973766131 0.00017522166045762835 0 0.0096192449807030959 9.676464444626527e-05 0 0.0095295697016470667 0.00013544710714785544 0 0.0095611569973766131 0.00017522166045762835 0 0.0096641118052932171 0.00017917845343865289 0 0.0096192449807030959 9.676464444626527e-05 0 0.0095244296998819519 0.00023034252660777775 0 0.0096641118052932171 0.00017917845343865289 0 0.0096434906238594149 0.00022752423667296833 0 0.0096434906238594149 0.00022752423667296833 0 0.0098139025442751087 0.00019840380747465744 0 0.0097681918291823294 0.00018593000720627009 0 0.0096641118052932171 0.00017917845343865289 0 0.0096434906238594149 0.00022752423667296833 0 0.0097681918291823294 0.00018593000720627009 0 0.0098880313270968394 0.00018732673278063598 0 0.0097251103113669534 0.0002141632120168374 0 0.0098139025442751087 0.00019840380747465744 0 0.0097251103113669534 0.0002141632120168374 0 0.0096434906238594149 0.00022752423667296833 0 0.0098139025442751087 0.00019840380747465744 0 0.0098880313270968394 0.00018732673278063598 0 0.0098139025442751087 0.00019840380747465744 0 0.0099229959579618058 0.00018955262889847784 0 0.0098139025442751087 0.00019840380747465744 0 0.0099083221099610565 0.00017568481215040802 0 0.0099229959579618058 0.00018955262889847784 0 0.010049555439821813 0.00018989373492952981 0 0.0099083221099610565 0.00017568481215040802 0 0.0099229959579618058 0.00018955262889847784 0 0.0098139025442751087 0.00019840380747465744 0 0.0099083221099610565 0.00017568481215040802 0 0.0097681918291823294 0.00018593000720627009 0 0.0099083221099610565 0.00017568481215040802 0 0.0097681918291823294 0.00018593000720627009 0 0.0098284857202698001 0.00013425251314539986 0 0.0096641118052932171 0.00017917845343865289 0 0.0097681918291823294 0.00018593000720627009 0 0.0098284857202698001 0.00013425251314539986 0 0.0099083221099610565 0.00017568481215040802 0 0.0098284857202698001 0.00013425251314539986 0 0.010042599417116193 0.00014766107185339451 0 0.010049555439821813 0.00018989373492952981 0 0.0099083221099610565 0.00017568481215040802 0 0.010042599417116193 0.00014766107185339451 0 0.0098284857202698001 0.00013425251314539986 0 0.010042599417116193 0.00014766107185339451 0 0.010066204022626635 6.175706374044097e-05 0 0.010281193010900268 0.00014363061543929263 0 0.010042599417116193 0.00014766107185339451 0 0.010066204022626635 6.175706374044097e-05 0 0.0098284857202698001 0.00013425251314539986 0 0.010066204022626635 6.175706374044097e-05 0 0.0097899042851784038 3.5149525837478884e-05 0 0.0097899042851784038 3.5149525837478884e-05 0 0.0096192449807030959 9.676464444626527e-05 0 0.0096485002608200678 -2.145915337201017e-05 0 0.0098284857202698001 0.00013425251314539986 0 0.0097899042851784038 3.5149525837478884e-05 0 0.0096192449807030959 9.676464444626527e-05 0 0.0096641118052932171 0.00017917845343865289 0 0.0098284857202698001 0.00013425251314539986 0 0.0096192449807030959 9.676464444626527e-05 0 0.0095032399514683365 7.2722171488305313e-05 0 0.0095347828868395015 3.6448367883465689e-05 0 0.0094919881649647431 3.8726550175793028e-05 0 0.0095032399514683365 7.2722171488305313e-05 0 0.0094919881649647431 3.8726550175793028e-05 0 0.0094571325665822447 6.7047614951881921e-05 0 0.0096192449807030959 9.676464444626527e-05 0 0.0095032399514683365 7.2722171488305313e-05 0 0.0095347828868395015 3.6448367883465689e-05 0 0.0096192449807030959 9.676464444626527e-05 0 0.0095032399514683365 7.2722171488305313e-05 0 0.0095295697016470667 0.00013544710714785544 0 0.0096192449807030959 9.676464444626527e-05 0 0.0095347828868395015 3.6448367883465689e-05 0 0.0096485002608200678 -2.145915337201017e-05 0 0.0095347828868395015 3.6448367883465689e-05 0 0.0095412576276650077 -1.430738686391979e-05 0 0.0096485002608200678 -2.145915337201017e-05 0 0.0095347828868395015 3.6448367883465689e-05 0 0.0095100216896999538 1.6700663788771578e-05 0 0.0095412576276650077 -1.430738686391979e-05 0 0.0095347828868395015 3.6448367883465689e-05 0 0.0095100216896999538 1.6700663788771578e-05 0 0.0094919881649647431 3.8726550175793028e-05 0 0.0095100216896999538 1.6700663788771578e-05 0 0.0095173249608589486 3.0247212375949435e-05 0 0.0094919881649647431 3.8726550175793028e-05 0 0.0095100216896999538 1.6700663788771578e-05 0 0.0095173249608589486 3.0247212375949435e-05 0 0.0095114307985751899 -1.2229915265809097e-05 0 0.0095173249608589486 3.0247212375949435e-05 0 0.0095293499206866947 3.1471872867619659e-05 0 0.0094919881649647431 3.8726550175793028e-05 0 0.0094919881649647431 3.8726550175793028e-05 0 0.0094957139328172152 2.480427214334703e-05 0 0.0095292878124961008 2.4350181033412984e-05 0 0.0095293499206866947 3.1471872867619659e-05 0 0.0094919881649647431 3.8726550175793028e-05 0 0.0095292878124961008 2.4350181033412984e-05 0 0.0094919881649647431 3.8726550175793028e-05 0 0.0094957139328172152 2.480427214334703e-05 0 0.0094571325665822447 6.7047614951881921e-05 0 0.0094957139328172152 2.480427214334703e-05 0 0.0094775803865183479 -2.9566375319541137e-05 0 0.0094571325665822447 6.7047614951881921e-05 0 0.0094957139328172152 2.480427214334703e-05 0 0.0095434782743876265 -7.7543795877697628e-06 0 0.0095292878124961008 2.4350181033412984e-05 0 0.0094957139328172152 2.480427214334703e-05 0 0.0094775803865183479 -2.9566375319541137e-05 0 0.0095434782743876265 -7.7543795877697628e-06 0 0.0095331092323714985 -7.1507331047443532e-05 0 0.0093226845957237146 -0.00014678242057496795 0 0.0094775803865183479 -2.9566375319541137e-05 0 0.0094814597109199681 -0.00010076267409652713 0 0.0095434782743876265 -7.7543795877697628e-06 0 0.0094775803865183479 -2.9566375319541137e-05 0 0.0094286733224573128 -4.7643238862695795e-05 0 0.0094660613015262723 -9.5729834110791807e-05 0 0.0094775803865183479 -2.9566375319541137e-05 0 0.0094286733224573128 -4.7643238862695795e-05 0 0.0094571325665822447 6.7047614951881921e-05 0 0.0094414969723904917 6.3691668901444986e-05 0 0.009451155286635874 7.0303129469824206e-05 0 0.0094453137556663926 0.00018657801527732974 0 0.0094818018554841295 0.00014337957158428461 0 0.0094571325665822447 6.7047614951881921e-05 0 0.0094453137556663926 0.00018657801527732974 0 0.0094818018554841295 0.00014337957158428461 0 0.0094636043591450735 0.00020839415625745932 0 0.0095032399514683365 7.2722171488305313e-05 0 0.0094818018554841295 0.00014337957158428461 0 0.0094571325665822447 6.7047614951881921e-05 0 0.0095032399514683365 7.2722171488305313e-05 0 0.0094818018554841295 0.00014337957158428461 0 0.0095295697016470667 0.00013544710714785544 0 0.0095611569973766131 0.00017522166045762835 0 0.0095295697016470667 0.00013544710714785544 0 0.0094636043591450735 0.00020839415625745932 0 0.0094818018554841295 0.00014337957158428461 0 0.0095295697016470667 0.00013544710714785544 0 0.0094636043591450735 0.00020839415625745932 0 0.0094316713792568577 0.00025572959744730664 0 0.0094212092866879267 8.7953346595791499e-05 0 0.0094636043591450735 0.00020839415625745932 0 0.0093391136312683323 0.00027145781742158763 0 0.0093948880195651938 0.00029585344566403411 0 0.0094414969723904917 6.3691668901444986e-05 0 0.0094212092866879267 8.7953346595791499e-05 0 0.0094286733224573128 -4.7643238862695795e-05 0 0.0094403993557102654 -9.5859692282674035e-05 0 0.0094660613015262723 -9.5729834110791807e-05 0 0.0094453137556663926 0.00018657801527732974 0 0.0094636043591450735 0.00020839415625745932 0 0.0094467754221278198 0.00020737078238075758 0 0.0094212092866879267 8.7953346595791499e-05 0 0.0093749331133799307 0.00017010528569235412 0 0.0093391136312683323 0.00027145781742158763 0 0.0093948880195651938 0.00029585344566403411 0 0.0093263781674166289 0.00031624010460909647 0 0.0094244172745273306 -3.5790839744927343e-05 0 0.0094303571481038923 1.3932325186922176e-05 0 0.0093770626637959473 9.5234721545967275e-07 0 0.0092940805300728777 0.00031503229115047957 0 0.0093948880195651938 0.00029585344566403411 0 0.0093263781674166289 0.00031624010460909647 0 0.0093749331133799307 0.00017010528569235412 0 0.0093599088422525629 0.0001796914669651496 0 0.0094303571481038923 1.3932325186922176e-05 0 0.0094395594416343386 6.696522636940901e-05 0 0.0093895517240293724 4.302401156807522e-05 0 0.0091593777404293808 0.00021097626952773014 0 0.0092940805300728777 0.00031503229115047957 0 0.0092917749461347513 0.00027863548091710058 0 0.0092940805300728777 0.00031503229115047957 0 0.0093263781674166289 0.00031624010460909647 0 0.0092917749461347513 0.00027863548091710058 0 0.0093740422481308483 8.8655794094446379e-05 0 0.0093895517240293724 4.302401156807522e-05 0 0.009327028765607509 3.9442047208013892e-05 0 0.0093740422481308483 8.8655794094446379e-05 0 0.0094395594416343386 6.696522636940901e-05 0 0.0093895517240293724 4.302401156807522e-05 0 0.0094303571481038923 1.3932325186922176e-05 0 0.0093895517240293724 4.302401156807522e-05 0 0.0093770626637959473 9.5234721545967275e-07 0 0.0093895517240293724 4.302401156807522e-05 0 0.0093770626637959473 9.5234721545967275e-07 0 0.009327028765607509 3.9442047208013892e-05 0 0.0094654482202987823 -8.7642981061288684e-05 0 0.0094472016442764123 -0.00010234185710232709 0 0.0094205706521326756 -4.1318914565396369e-05 0 0.0094288956717032985 -7.0016118838209091e-05 0 0.0093687522071735051 4.9584190595786561e-06 0 0.0094654482202987823 -8.7642981061288684e-05 0 0.0094472016442764123 -0.00010234185710232709 0 0.0094660613015262723 -9.5729834110791807e-05 0 0.0094403993557102654 -9.5859692282674035e-05 0 0.0094654482202987823 -8.7642981061288684e-05 0 0.0094660613015262723 -9.5729834110791807e-05 0 0.0094212092866879267 8.7953346595791499e-05 0 0.0094288956717032985 -7.0016118838209091e-05 0 0.0094775803865183479 -2.9566375319541137e-05 0 0.0094660613015262723 -9.5729834110791807e-05 0 0.0094814597109199681 -0.00010076267409652713 0 0.0094472016442764123 -0.00010234185710232709 0 0.0094660613015262723 -9.5729834110791807e-05 0 0.0094814597109199681 -0.00010076267409652713 0 0.0094472016442764123 -0.00010234185710232709 0 0.0094814597109199681 -0.00010076267409652713 0 0.0093941889482977541 -0.00014026760116620407 0 0.0093941889482977541 -0.00014026760116620407 0 0.0093760039681119386 -0.00011154742550218335 0 0.0093242104431108599 -0.00013575910802886846 0 0.0093760039681119386 -0.00011154742550218335 0 0.0093273632193440013 -9.3914202469262624e-05 0 0.0093222472452324495 -0.00011819926457516532 0 0.0094472016442764123 -0.00010234185710232709 0 0.0093941889482977541 -0.00014026760116620407 0 0.0093760039681119386 -0.00011154742550218335 0 0.0094472016442764123 -0.00010234185710232709 0 0.0093760039681119386 -0.00011154742550218335 0 0.0094205706521326756 -4.1318914565396369e-05 0 0.0093372136005102357 -3.3145623070007103e-05 0 0.0094205706521326756 -4.1318914565396369e-05 0 0.0093273632193440013 -9.3914202469262624e-05 0 0.0093760039681119386 -0.00011154742550218335 0 0.0094205706521326756 -4.1318914565396369e-05 0 0.0093273632193440013 -9.3914202469262624e-05 0 0.009302170793014158 5.1067390959420258e-05 0 0.0093687522071735051 4.9584190595786561e-06 0 0.0092960050421538147 5.527831082239886e-05 0 0.0093372136005102357 -3.3145623070007103e-05 0 0.0092855966340323892 -4.3884276821381866e-05 0 0.0092960050421538147 5.527831082239886e-05 0 0.0093372136005102357 -3.3145623070007103e-05 0 0.0094205706521326756 -4.1318914565396369e-05 0 0.0092285023161891733 -8.4084411275742605e-05 0 0.0092345776202184243 -3.0542075420692573e-05 0 0.0092661741798989849 -0.00010207494850602352 0 0.0092285023161891733 -8.4084411275742605e-05 0 0.0091877540217193375 -2.1145631255062489e-05 0 0.0092345776202184243 -3.0542075420692573e-05 0 0.0092285023161891733 -8.4084411275742605e-05 0 0.0091877540217193375 -2.1145631255062489e-05 0 0.00919304590387004 -0.00010500235127647616 0 0.0091778537806308739 3.6297380828957895e-05 0 0.0091877540217193375 -2.1145631255062489e-05 0 0.0092345776202184243 -3.0542075420692573e-05 0 0.0092283773112148016 4.5744994798977882e-05 0 0.0092345776202184243 -3.0542075420692573e-05 0 0.0092855966340323892 -4.3884276821381866e-05 0 0.0093372136005102357 -3.3145623070007103e-05 0 0.0092855966340323892 -4.3884276821381866e-05 0 0.0093273632193440013 -9.3914202469262624e-05 0 0.0092345776202184243 -3.0542075420692573e-05 0 0.0092855966340323892 -4.3884276821381866e-05 0 0.0092661741798989849 -0.00010207494850602352 0 0.0092855966340323892 -4.3884276821381866e-05 0 0.0092945474387356262 -0.00010972570699205642 0 0.0092661741798989849 -0.00010207494850602352 0 0.0092855966340323892 -4.3884276821381866e-05 0 0.0093273632193440013 -9.3914202469262624e-05 0 0.0092945474387356262 -0.00010972570699205642 0 0.0093273632193440013 -9.3914202469262624e-05 0 0.0092945474387356262 -0.00010972570699205642 0 0.0093222472452324495 -0.00011819926457516532 0 0.0092945474387356262 -0.00010972570699205642 0 0.0092692585804636379 -0.0001379643996960711 0 0.0092898117696344016 -0.00013225891586603734 0 0.0092945474387356262 -0.00010972570699205642 0 0.0092898117696344016 -0.00013225891586603734 0 0.0093222472452324495 -0.00011819926457516532 0 0.0092945474387356262 -0.00010972570699205642 0 0.0092692585804636379 -0.0001379643996960711 0 0.0092661741798989849 -0.00010207494850602352 0 0.0092692585804636379 -0.0001379643996960711 0 0.0092345864159033824 -0.00018064059356627139 0 0.0092813226440464219 -0.00013963037291827269 0 0.0092692585804636379 -0.0001379643996960711 0 0.0092661741798989849 -0.00010207494850602352 0 0.0092483324803223806 -0.00012791545888907321 0 0.0092285023161891733 -8.4084411275742605e-05 0 0.0092661741798989849 -0.00010207494850602352 0 0.0092483324803223806 -0.00012791545888907321 0 0.0092345864159033824 -0.00018064059356627139 0 0.0092474028755905168 -0.00019135395587813205 0 0.00919304590387004 -0.00010500235127647616 0 0.0092285023161891733 -8.4084411275742605e-05 0 0.0092277683343092599 -0.00012235966230023595 0 0.00919304590387004 -0.00010500235127647616 0 0.0092285023161891733 -8.4084411275742605e-05 0 0.0092277683343092599 -0.00012235966230023595 0 0.0092483324803223806 -0.00012791545888907321 0 0.0092277683343092599 -0.00012235966230023595 0 0.0092483324803223806 -0.00012791545888907321 0 0.0092345864159033824 -0.00018064059356627139 0 0.0092277683343092599 -0.00012235966230023595 0 0.0092345864159033824 -0.00018064059356627139 0 0.00919304590387004 -0.00010500235127647616 0 0.0092692585804636379 -0.0001379643996960711 0 0.0092483324803223806 -0.00012791545888907321 0 0.0092345864159033824 -0.00018064059356627139 0 0.0092345864159033824 -0.00018064059356627139 0 0.0092528659038865167 -0.00010793474238789545 0 0.0092474028755905168 -0.00019135395587813205 0 0.0091595189864077994 6.9678032554747561e-06 0 0.010163592524682283 -0.00016090436593501069 0 0.0092345864159033824 -0.00018064059356627139 0 0.0092528659038865167 -0.00010793474238789545 0 0.0090574630475609066 -1.7387750011414759e-06 0 0.0092528659038865167 -0.00010793474238789545 0 0.0090574630475609066 -1.7387750011414759e-06 0 0.0093860986340326552 5.9947218501410847e-05 0 0.0092692585804636379 -0.0001379643996960711 0 0.0092898117696344016 -0.00013225891586603734 0 0.0092813226440464219 -0.00013963037291827269 0 0.009589244307219625 -0.00035741850978737705 0 0.010163592524682283 -0.00016090436593501069 0 0.0090574630475609066 -1.7387750011414759e-06 0 0.0093860986340326552 5.9947218501410847e-05 0 0.0094203196069589691 0.0002195187470499997 0 0.0093760039681119386 -0.00011154742550218335 0 0.0093222472452324495 -0.00011819926457516532 0 0.0093242104431108599 -0.00013575910802886846 0 0.0092898117696344016 -0.00013225891586603734 0 0.0093222472452324495 -0.00011819926457516532 0 0.0093242104431108599 -0.00013575910802886846 0 0.0092898117696344016 -0.00013225891586603734 0 0.0092968410236135106 -0.00013203287340823365 0 0.0093242104431108599 -0.00013575910802886846 0 0.0092968410236135106 -0.00013203287340823365 0 0.0093242104431108599 -0.00013575910802886846 0 0.0093345313548597684 -0.00015523406465637468 0 0.0093941889482977541 -0.00014026760116620407 0 0.0093242104431108599 -0.00013575910802886846 0 0.0093345313548597684 -0.00015523406465637468 0 0.010163592524682283 -0.00016090436593501069 0 0.010557666584836249 0.00019256916979955917 0 0.011758847629695961 -0.00030724398571475636 0 0.011736444361971007 -0.00023714370361766895 0 0.011836565061484563 -0.00024670846177488889 0 0.010163592524682283 -0.00016090436593501069 0 0.010584811608306042 -0.00022744067164575838 0 0.011736444361971007 -0.00023714370361766895 0 0.011777656609528682 -0.00018298022474864852 0 0.011836565061484563 -0.00024670846177488889 0 0.011777656609528682 -0.00018298022474864852 0 0.011771684835163498 -0.00012430579204853313 0 0.011840668324638553 -0.00015174858117573652 0 0.013147213312878193 -0.00014092224890261825 0 0.013434754348886522 -0.00027039963788951952 0 0.011716217055930008 -0.00017168448214612144 0 0.011726264336141821 -0.0001303169823132831 0 0.011771684835163498 -0.00012430579204853313 0 0.011777656609528682 -0.00018298022474864852 0 0.011716217055930008 -0.00017168448214612144 0 0.011771684835163498 -0.00012430579204853313 0 0.011736444361971007 -0.00023714370361766895 0 0.011777656609528682 -0.00018298022474864852 0 0.011716217055930008 -0.00017168448214612144 0 0.010584811608306042 -0.00022744067164575838 0 0.01052288490821579 -0.00016850714621170052 0 0.0093941889482977541 -0.00014026760116620407 0 0.0094383897663603573 -0.000198688863193038 0 0.0093754741972334014 -0.00020241079849659497 0 0.0093941889482977541 -0.00014026760116620407 0 0.0093345313548597684 -0.00015523406465637468 0 0.0093754741972334014 -0.00020241079849659497 0 0.0094814597109199681 -0.00010076267409652713 0 0.0093941889482977541 -0.00014026760116620407 0 0.0094383897663603573 -0.000198688863193038 0 0.0093226845957237146 -0.00014678242057496795 0 0.010671698656900101 -0.00021584011286088464 0 0.01052288490821579 -0.00016850714621170052 0 0.010671698656900101 -0.00021584011286088464 0 0.0094383897663603573 -0.000198688863193038 0 0.0093754741972334014 -0.00020241079849659497 0 0.0094148718550748044 -0.00025540404205128697 0 0.011716217055930008 -0.00017168448214612144 0 0.011726264336141821 -0.0001303169823132831 0 0.011695510781746838 -0.00011347275169773986 0 0.011664666272355812 -0.00023707746184485103 0 0.011584444445750816 -0.00036698423157651783 0 0.011782266843295123 -0.0004608307332666513 0 0.010671698656900101 -0.00021584011286088464 0 0.011997907296073118 -0.00039291037932079299 0 0.010671698656900101 -0.00021584011286088464 0 0.012891503230160674 -0.00026832822238817783 0 0.011726264336141821 -0.0001303169823132831 0 0.011695510781746838 -0.00011347275169773986 0 0.011709370570679665 -9.7525627984371697e-05 0 0.0095434782743876265 -7.7543795877697628e-06 0 0.0095705715796572666 2.3925609380931477e-05 0 0.0095292878124961008 2.4350181033412984e-05 0 0.0095705715796572666 2.3925609380931477e-05 0 0.0095292878124961008 2.4350181033412984e-05 0 0.0095611419414812372 3.6330278796831635e-05 0 0.0095293499206866947 3.1471872867619659e-05 0 0.0095292878124961008 2.4350181033412984e-05 0 0.0095611419414812372 3.6330278796831635e-05 0 0.0095173249608589486 3.0247212375949435e-05 0 0.0095293499206866947 3.1471872867619659e-05 0 0.0095611419414812372 3.6330278796831635e-05 0 0.013327535890903752 -0.00073461647229280914 0 0.013725772317912029 -0.00082971874899671818 0 0.013591112103585112 -0.00059065889873955227 0 0.013327535890903752 -0.00073461647229280914 0 0.013774304216438452 -0.00092351283031780434 0 0.013725772317912029 -0.00082971874899671818 0 0.011359738810075392 -0.00034048375855365352 0 0.011997907296073118 -0.00039291037932079299 0 0.011997907296073118 -0.00039291037932079299 0 0.012609427403824319 -0.00092469627824974998 0 0.01377506578333708 -0.00092447446137601953 0 0.013725772317912029 -0.00082971874899671818 0 0.01393431415389557 -0.00077914983469173481 0 0.013977865311120927 -0.0010164822749935557 0 0.01393431415389557 -0.00077914983469173481 0 0.014259065474248683 -0.00058265323953656857 0 0.012891503230160674 -0.00026832822238817783 0 0.014527062125514358 -0.00030876681429120513 0 0.013977865311120927 -0.0010164822749935557 0 0.01377506578333708 -0.00092447446137601953 0 0.01393431415389557 -0.00077914983469173481 0 0.012891503230160674 -0.00026832822238817783 0 0.011997907296073118 -0.00039291037932079299 0 0.013725772317912029 -0.00082971874899671818 0 0.01393431415389557 -0.00077914983469173481 0 0.013928130267097794 -0.00054465715576934776 0 0.01464064580056572 -0.00010789392658626731 0 0.014546020575608871 -0.00021100342378749037 0 0.014656826658563138 -0.00025074772606146833 0 0.014415760828741625 -0.00016263309041167047 0 0.014511606670366014 -0.00013949164672934144 0 0.014503004297454722 -5.8653332811529863e-05 0 0.014511606670366014 -0.00013949164672934144 0 0.01464064580056572 -0.00010789392658626731 0 0.014503004297454722 -5.8653332811529863e-05 0 0.014511606670366014 -0.00013949164672934144 0 0.01464064580056572 -0.00010789392658626731 0 0.014546020575608871 -0.00021100342378749037 0 0.011726264336141821 -0.0001303169823132831 0 0.011709370570679665 -9.7525627984371697e-05 0 0.011771684835163498 -0.00012430579204853313 0 0.014415760828741625 -0.00016263309041167047 0 0.014511606670366014 -0.00013949164672934144 0 0.014546020575608871 -0.00021100342378749037 0 0.012891503230160674 -0.00026832822238817783 0 0.013147213312878193 -0.00014092224890261825 0 0.014479057784519501 -0.00018827795561422866 0 0.014259065474248683 -0.00058265323953656857 0 0.014114829067540901 -0.00023082786513365093 0 0.014479057784519501 -0.00018827795561422866 0 0.014114829067540901 -0.00023082786513365093 0 0.014341551816059393 3.8230223553731142e-05 0 0.014588288589723953 3.5433838159562654e-05 0 0.014755836884874919 5.3872344540001355e-05 0 0.01466917891379666 -1.1156743988034267e-05 0 0.014588288589723953 3.5433838159562654e-05 0 0.014503004297454722 -5.8653332811529863e-05 0 0.01466917891379666 -1.1156743988034267e-05 0 0.01464064580056572 -0.00010789392658626731 0 0.014503004297454722 -5.8653332811529863e-05 0 0.01466917891379666 -1.1156743988034267e-05 0 0.0145127977752336 -8.8067110475439054e-05 0 0.014527062125514358 -0.00030876681429120513 0 0.01393431415389557 -0.00077914983469173481 0 0.014259065474248683 -0.00058265323953656857 0 0.013928130267097794 -0.00054465715576934776 0 0.013928130267097794 -0.00054465715576934776 0 0.01368215865572908 -0.00031940380956276964 0 0.014114829067540901 -0.00023082786513365093 0 0.014259065474248683 -0.00058265323953656857 0 0.013928130267097794 -0.00054465715576934776 0 0.014114829067540901 -0.00023082786513365093 0 0.013591112103585112 -0.00059065889873955227 0 0.01368215865572908 -0.00031940380956276964 0 0.013285471357991614 -0.00036893719030199699 0 0.013725772317912029 -0.00082971874899671818 0 0.013928130267097794 -0.00054465715576934776 0 0.013591112103585112 -0.00059065889873955227 0 0.013928130267097794 -0.00054465715576934776 0 0.013591112103585112 -0.00059065889873955227 0 0.01368215865572908 -0.00031940380956276964 0 0.01368215865572908 -0.00031940380956276964 0 0.013731821070876156 -1.9158297296190474e-06 0 0.013297591107411227 -1.3174656448752805e-05 0 0.01368215865572908 -0.00031940380956276964 0 0.014114829067540901 -0.00023082786513365093 0 0.013731821070876156 -1.9158297296190474e-06 0 0.014114829067540901 -0.00023082786513365093 0 0.014086520567115093 3.9229771171105279e-05 0 0.013731821070876156 -1.9158297296190474e-06 0 0.014089775367853058 4.8313005245799817e-05 0 0.013779447278355481 0.00030335173720942642 0 0.014086520567115093 3.9229771171105279e-05 0 0.013731821070876156 -1.9158297296190474e-06 0 0.013715387729980507 0.0003548914153858817 0 0.013731821070876156 -1.9158297296190474e-06 0 0.013715387729980507 0.0003548914153858817 0 0.013397629156446053 0.00030819845878871544 0 0.013779447278355481 0.00030335173720942642 0 0.013947236273562192 0.00032619306479867674 0 0.013963073262167657 0.00018123477585737838 0 0.013952832120086427 0.00039486732876387563 0 0.013799127318815213 0.00031481329328243073 0 0.013963073262167657 0.00018123477585737838 0 0.014120889579888683 0.00028969734267870318 0 0.013952832120086427 0.00039486732876387563 0 0.014086520567115093 3.9229771171105279e-05 0 0.013963073262167657 0.00018123477585737838 0 0.014120889579888683 0.00028969734267870318 0 0.014086520567115093 3.9229771171105279e-05 0 0.014120889579888683 0.00028969734267870318 0 0.014340781365140247 0.00025555479401512152 0 0.014120889579888683 0.00028969734267870318 0 0.014340781365140247 0.00025555479401512152 0 0.014225466701002722 0.00038772454573686346 0 0.014114829067540901 -0.00023082786513365093 0 0.014086520567115093 3.9229771171105279e-05 0 0.014341551816059393 3.8230223553731142e-05 0 0.014086520567115093 3.9229771171105279e-05 0 0.014340781365140247 0.00025555479401512152 0 0.014341551816059393 3.8230223553731142e-05 0 0.014340781365140247 0.00025555479401512152 0 0.014341551816059393 3.8230223553731142e-05 0 0.014652969117773 0.00012074610472087791 0 0.0145127977752336 -8.8067110475439054e-05 0 0.014651448887072035 0.00011222786812150656 0 0.014588288589723953 3.5433838159562654e-05 0 0.014652969117773 0.00012074610472087791 0 0.014755836884874919 5.3872344540001355e-05 0 0.014479057784519501 -0.00018827795561422866 0 0.014341551816059393 3.8230223553731142e-05 0 0.014652969117773 0.00012074610472087791 0 0.014340781365140247 0.00025555479401512152 0 0.014652969117773 0.00012074610472087791 0 0.014633716199559658 0.00034622667969411977 0 0.014973522941772349 7.5776371567638055e-05 0 0.01499838666215716 4.099522296204961e-05 0 0.014979387281384671 2.7198448323744983e-05 0 0.014340781365140247 0.00025555479401512152 0 0.014633716199559658 0.00034622667969411977 0 0.014311334994518943 0.0005091834343423587 0 0.014797506146679421 0.00020651055101246038 0 0.014660112996408655 0.0002696297027639459 0 0.014340781365140247 0.00025555479401512152 0 0.014225466701002722 0.00038772454573686346 0 0.014311334994518943 0.0005091834343423587 0 0.01499838666215716 4.099522296204961e-05 0 0.014997965544475762 1.5067846942821742e-05 0 0.015002382545694349 1.9721808555271551e-05 0 0.01499838666215716 4.099522296204961e-05 0 0.014979387281384671 2.7198448323744983e-05 0 0.014997965544475762 1.5067846942821742e-05 0 0.014979387281384671 2.7198448323744983e-05 0 0.014993157427126173 8.5389554410618117e-06 0 0.014997965544475762 1.5067846942821742e-05 0 0.014993157427126173 8.5389554410618117e-06 0 0.014997965544475762 1.5067846942821742e-05 0 0.014999996540385713 1.7963786642343276e-09 0 0.014997965544475762 1.5067846942821742e-05 0 0.014999996540385713 1.7963786642343276e-09 0 0.015000412219924226 8.6052388494304461e-06 0 0.014993157427126173 8.5389554410618117e-06 0 0.014999996540385713 1.7963786642343276e-09 0 0.014999982534909702 7.2490786435259472e-09 0 0.015000008302805156 2.0205525582254848e-08 0 0.015000737464269918 9.3944178638406636e-06 0 0.014999616840534608 1.0123527111104256e-05 0 0.015000008302805156 2.0205525582254848e-08 0 0.015000412219924226 8.6052388494304461e-06 0 0.015000737464269918 9.3944178638406636e-06 0 0.015000737464269918 9.3944178638406636e-06 0 0.014999132212286491 9.0820370401465106e-06 0 0.014999616840534608 1.0123527111104256e-05 0 0.014999965416672726 -2.5320325549220506e-08 0 0.015038122924882061 3.0792702725094958e-05 0 0.014999996540385713 1.7963786642343276e-09 0 0.015000008302805156 2.0205525582254848e-08 0 0.015000412219924226 8.6052388494304461e-06 0 0.014997965544475762 1.5067846942821742e-05 0 0.015000412219924226 8.6052388494304461e-06 0 0.015002382545694349 1.9721808555271551e-05 0 0.015000412219924226 8.6052388494304461e-06 0 0.015000737464269918 9.3944178638406636e-06 0 0.015002382545694349 1.9721808555271551e-05 0 0.014560708589303356 0.00027998607151590748 0 0.014611958309027047 0.00021102273514166732 0 0.015000737464269918 9.3944178638406636e-06 0 0.014999084549948312 9.8922325454336619e-06 0 0.015002382545694349 1.9721808555271551e-05 0 0.014999084549948312 9.8922325454336619e-06 0 0.015002382545694349 1.9721808555271551e-05 0 0.014998313636266688 8.8152439707705263e-06 0 0.014130368443606281 0.00050705949005680614 0 0.014128850688350346 0.00052668247080869563 0 0.014135719398862327 0.00048136304394318644 0 0.015000737464269918 9.3944178638406636e-06 0 0.014999084549948312 9.8922325454336619e-06 0 0.014999132212286491 9.0820370401465106e-06 0 0.014130368443606281 0.00050705949005680614 0 0.014135067781462255 0.00049280427190002767 0 0.014135719398862327 0.00048136304394318644 0 0.014130368443606281 0.00050705949005680614 0 0.014135377002355154 0.00049523977480975408 0 0.014135067781462255 0.00049280427190002767 0 0.014130368443606281 0.00050705949005680614 0 0.014132450314153881 0.0004984431718727053 0 0.014135377002355154 0.00049523977480975408 0 0.014130368443606281 0.00050705949005680614 0 0.014126150162000591 0.00049823039517515129 0 0.014128850688350346 0.00052668247080869563 0 0.014130368443606281 0.00050705949005680614 0 0.014126150162000591 0.00049823039517515129 0 0.014132450314153881 0.0004984431718727053 0 0.014126150162000591 0.00049823039517515129 0 0.01413339021566312 0.00049953948898239756 0 0.014132450314153881 0.0004984431718727053 0 0.014311334994518943 0.0005091834343423587 0 0.014128850688350346 0.00052668247080869563 0 0.014137376938748258 0.00047685031998253273 0 0.014126150162000591 0.00049823039517515129 0 0.014128850688350346 0.00052668247080869563 0 0.014137376938748258 0.00047685031998253273 0 0.014660112996408655 0.0002696297027639459 0 0.014560708589303356 0.00027998607151590748 0 0.014225466701002722 0.00038772454573686346 0 0.014311334994518943 0.0005091834343423587 0 0.014137376938748258 0.00047685031998253273 0 0.014120889579888683 0.00028969734267870318 0 0.014225466701002722 0.00038772454573686346 0 0.014137376938748258 0.00047685031998253273 0 0.014120889579888683 0.00028969734267870318 0 0.014137376938748258 0.00047685031998253273 0 0.013952832120086427 0.00039486732876387563 0 0.014126150162000591 0.00049823039517515129 0 0.014127544220952422 0.00049634883306480082 0 0.01413339021566312 0.00049953948898239756 0 0.01411987958700509 0.00047483740576129932 0 0.014053857942856516 0.00044719930678057806 0 0.014126150162000591 0.00049823039517515129 0 0.014137376938748258 0.00047685031998253273 0 0.014127544220952422 0.00049634883306480082 0 0.014053857942856516 0.00044719930678057806 0 0.013947236273562192 0.00032619306479867674 0 0.01413339021566312 0.00049953948898239756 0 0.014150798450393361 0.0005009054637046663 0 0.014142032078812081 0.00049645980197267749 0 0.014400994988341423 0.00029059849732963715 0 0.013947236273562192 0.00032619306479867674 0 0.01500016024698661 -4.785675398820781e-08 0 0.015003078307155084 -8.1390958819025876e-06 0 0.014999737319610592 3.5171538808950323e-08 0 0.01413339021566312 0.00049953948898239756 0 0.014150798450393361 0.0005009054637046663 0 0.014134330494364003 0.00050567816769044483 0 0.014127544220952422 0.00049634883306480082 0 0.01413339021566312 0.00049953948898239756 0 0.014134330494364003 0.00050567816769044483 0 0.014519578615571948 0.00011814060312615274 0 0.014491417868222389 4.8514902555659506e-05 0 0.014619004404242877 3.6177027757813439e-05 0 0.014519578615571948 0.00011814060312615274 0 0.014415240794505749 0.00010948793442019686 0 0.014491417868222389 4.8514902555659506e-05 0 0.014150798450393361 0.0005009054637046663 0 0.014150080951577883 0.00049186090774931582 0 0.014166851859599884 0.00048987672777644695 0 0.014150080951577883 0.00049186090774931582 0 0.014148858584924557 0.00047921521873791381 0 0.014166851859599884 0.00048987672777644695 0 0.014150798450393361 0.0005009054637046663 0 0.014150080951577883 0.00049186090774931582 0 0.014142032078812081 0.00049645980197267749 0 0.01413339021566312 0.00049953948898239756 0 0.014132450314153881 0.0004984431718727053 0 0.014142032078812081 0.00049645980197267749 0 0.014150080951577883 0.00049186090774931582 0 0.014142032078812081 0.00049645980197267749 0 0.014141874461624085 0.00049140610301341302 0 0.014132450314153881 0.0004984431718727053 0 0.014142032078812081 0.00049645980197267749 0 0.014141874461624085 0.00049140610301341302 0 0.014132450314153881 0.0004984431718727053 0 0.014141874461624085 0.00049140610301341302 0 0.014135377002355154 0.00049523977480975408 0 0.015002414112297437 -2.0456491274558545e-05 0 0.015003078307155084 -8.1390958819025876e-06 0 0.015003389899930691 -3.4716071648079909e-05 0 0.014141874461624085 0.00049140610301341302 0 0.014135377002355154 0.00049523977480975408 0 0.014139684612731922 0.00048797451137111002 0 0.014135377002355154 0.00049523977480975408 0 0.014135067781462255 0.00049280427190002767 0 0.014139684612731922 0.00048797451137111002 0 0.014135067781462255 0.00049280427190002767 0 0.014139684612731922 0.00048797451137111002 0 0.014135719398862327 0.00048136304394318644 0 0.014997124601009288 7.7092207030282918e-06 0 0.014999132212286491 9.0820370401465106e-06 0 0.014999616840534608 1.0123527111104256e-05 0 0.014777127806813095 0.00017357800914220489 0 0.014611958309027047 0.00021102273514166732 0 0.014999084549948312 9.8922325454336619e-06 0 0.014997124601009288 7.7092207030282918e-06 0 0.014999132212286491 9.0820370401465106e-06 0 0.014997124601009288 7.7092207030282918e-06 0 0.014985912020265241 7.9933017010499422e-06 0 0.014999616840534608 1.0123527111104256e-05 0 0.014139684612731922 0.00048797451137111002 0 0.014135719398862327 0.00048136304394318644 0 0.014148858584924557 0.00047921521873791381 0 0.014611958309027047 0.00021102273514166732 0 0.014551769135075427 8.4182841406160865e-05 0 0.014141874461624085 0.00049140610301341302 0 0.014139684612731922 0.00048797451137111002 0 0.014148858584924557 0.00047921521873791381 0 0.014551769135075427 8.4182841406160865e-05 0 0.0146656508250061 -5.4749900823320513e-05 0 0.014150080951577883 0.00049186090774931582 0 0.014141874461624085 0.00049140610301341302 0 0.014148858584924557 0.00047921521873791381 0 0.014551769135075427 8.4182841406160865e-05 0 0.014258379391563131 0.00022249952913273944 0 0.014551769135075427 8.4182841406160865e-05 0 0.015038122924882061 3.0792702725094958e-05 0 0.015003078307155084 -8.1390958819025876e-06 0 0.014999737319610592 3.5171538808950323e-08 0 0.015003389899930691 -3.4716071648079909e-05 0 0.014999737319610592 3.5171538808950323e-08 0 0.015003389899930691 -3.4716071648079909e-05 0 0.014924148263512666 -0.00010857964143770371 0 0.014999737319610592 3.5171538808950323e-08 0 0.014885305124465878 -4.9898789064417893e-05 0 0.014924148263512666 -0.00010857964143770371 0 0.014311786645339615 -4.9979484666831656e-05 0 0.014421375793466648 -7.1143718686125687e-05 0 0.01432570570239019 5.7793038756701184e-05 0 0.014209962741160879 -3.7899099567769757e-05 0 0.014311786645339615 -4.9979484666831656e-05 0 0.01432570570239019 5.7793038756701184e-05 0 0.014421375793466648 -7.1143718686125687e-05 0 0.01432570570239019 5.7793038756701184e-05 0 0.014475629007817545 -4.2572114885294012e-05 0 0.014257514274481603 9.3880148828370108e-05 0 0.014485025486658915 2.1155844398638376e-05 0 0.014475629007817545 -4.2572114885294012e-05 0 0.014258379391563131 0.00022249952913273944 0 0.014490177204283366 -9.1908533406451063e-05 0 0.0146656508250061 -5.4749900823320513e-05 0 0.014665742609531317 -8.1716432605881824e-05 0 0.014413644200774504 8.283802062930303e-05 0 0.014257514274481603 9.3880148828370108e-05 0 0.014485025486658915 2.1155844398638376e-05 0 0.014413644200774504 8.283802062930303e-05 0 0.014390446446133976 0.00012476775155755268 0 0.014257514274481603 9.3880148828370108e-05 0 0.014341169036024552 0.00015011560006364616 0 0.014390446446133976 0.00012476775155755268 0 0.014257514274481603 9.3880148828370108e-05 0 0.01433429650419475 0.00016522696585529926 0 0.014258379391563131 0.00022249952913273944 0 0.014341169036024552 0.00015011560006364616 0 0.014390446446133976 0.00012476775155755268 0 0.014330367737335486 0.00015547774118296665 0 0.014400994988341423 0.00029059849732963715 0 0.014258379391563131 0.00022249952913273944 0 0.014341169036024552 0.00015011560006364616 0 0.014411549628567359 0.00020332067734938773 0 0.014415240794505749 0.00010948793442019686 0 0.014415240794505749 0.00010948793442019686 0 0.014387474684147685 2.000030321167433e-05 0 0.014491417868222389 4.8514902555659506e-05 0 0.014519578615571948 0.00011814060312615274 0 0.014411549628567359 0.00020332067734938773 0 0.014415240794505749 0.00010948793442019686 0 0.014415240794505749 0.00010948793442019686 0 0.014357821308258472 0.0001011277976517866 0 0.014387474684147685 2.000030321167433e-05 0 0.014341169036024552 0.00015011560006364616 0 0.014415240794505749 0.00010948793442019686 0 0.014357821308258472 0.0001011277976517866 0 0.014341169036024552 0.00015011560006364616 0 0.014330367737335486 0.00015547774118296665 0 0.014357821308258472 0.0001011277976517866 0 0.014357821308258472 0.0001011277976517866 0 0.014296673272487171 5.574743321184556e-05 0 0.014387474684147685 2.000030321167433e-05 0 0.014330367737335486 0.00015547774118296665 0 0.014357821308258472 0.0001011277976517866 0 0.014296673272487171 5.574743321184556e-05 0 0.014370032739494281 -0.00014353141050612594 0 0.014387474684147685 2.000030321167433e-05 0 0.014220478108017121 -5.2606138676598658e-05 0 0.014296673272487171 5.574743321184556e-05 0 0.014387474684147685 2.000030321167433e-05 0 0.014220478108017121 -5.2606138676598658e-05 0 0.014370032739494281 -0.00014353141050612594 0 0.014181861921472531 -0.00026806050504594011 0 0.014220478108017121 -5.2606138676598658e-05 0 0.013678551142059677 8.2176513333081751e-05 0 0.011442538423873359 -0.00019179542544527217 0 0.012403958692474997 0.00015006171707954261 0 0.012883631471454006 0.00039071324550237011 0 0.012856565165431292 -0.00011581647196520104 0 0.013678551142059677 8.2176513333081751e-05 0 0.013644373148840877 0.0001544977298784523 0 0.014387474684147685 2.000030321167433e-05 0 0.014504801507796065 -3.8424450634721003e-05 0 0.014491417868222389 4.8514902555659506e-05 0 0.014370032739494281 -0.00014353141050612594 0 0.014387474684147685 2.000030321167433e-05 0 0.014504801507796065 -3.8424450634721003e-05 0 0.014504801507796065 -3.8424450634721003e-05 0 0.014491417868222389 4.8514902555659506e-05 0 0.014619004404242877 3.6177027757813439e-05 0 0.013644373148840877 0.0001544977298784523 0 0.013947236273562192 0.00032619306479867674 0 0.012883631471454006 0.00039071324550237011 0 0.013358207262641692 0.00063283275593758721 0 0.013397629156446053 0.00030819845878871544 0 0.013715387729980507 0.0003548914153858817 0 0.013358207262641692 0.00063283275593758721 0 0.013397629156446053 0.00030819845878871544 0 0.013731821070876156 -1.9158297296190474e-06 0 0.013297591107411227 -1.3174656448752805e-05 0 0.013397629156446053 0.00030819845878871544 0 0.012883631471454006 0.00039071324550237011 0 0.013297591107411227 -1.3174656448752805e-05 0 0.013397629156446053 0.00030819845878871544 0 0.012883631471454006 0.00039071324550237011 0 0.013297591107411227 -1.3174656448752805e-05 0 0.012856565165431292 -0.00011581647196520104 0 0.012856565165431292 -0.00011581647196520104 0 0.013285471357991614 -0.00036893719030199699 0 0.012861885952783971 -0.00053306525223371839 0 0.01368215865572908 -0.00031940380956276964 0 0.013297591107411227 -1.3174656448752805e-05 0 0.013285471357991614 -0.00036893719030199699 0 0.013297591107411227 -1.3174656448752805e-05 0 0.012856565165431292 -0.00011581647196520104 0 0.013285471357991614 -0.00036893719030199699 0 0.013327535890903752 -0.00073461647229280914 0 0.013591112103585112 -0.00059065889873955227 0 0.013285471357991614 -0.00036893719030199699 0 0.013327535890903752 -0.00073461647229280914 0 0.013285471357991614 -0.00036893719030199699 0 0.012861885952783971 -0.00053306525223371839 0 0.011359738810075392 -0.00034048375855365352 0 0.011224683508381739 -0.00028777641926327466 0 0.011224683508381739 -0.00028777641926327466 0 0.010855905581289052 -0.00016962024729076701 0 0.0095114307985751899 -1.2229915265809097e-05 0 0.0095412576276650077 -1.430738686391979e-05 0 0.0095609383854237256 -9.3610786190217657e-05 0 0.0095100216896999538 1.6700663788771578e-05 0 0.0095114307985751899 -1.2229915265809097e-05 0 0.0095412576276650077 -1.430738686391979e-05 0 0.0095412576276650077 -1.430738686391979e-05 0 0.0095609383854237256 -9.3610786190217657e-05 0 0.0096485002608200678 -2.145915337201017e-05 0 0.012403958692474997 0.00015006171707954261 0 0.012391359034618136 -0.00032077651092364025 0 0.011913711100213513 -0.00010092820460080865 0 0.010855905581289052 -0.00016962024729076701 0 0.011442538423873359 -0.00019179542544527217 0 0.0095609383854237256 -9.3610786190217657e-05 0 0.0096836593815904023 -0.00018199251762781403 0 0.0096485002608200678 -2.145915337201017e-05 0 0.012856565165431292 -0.00011581647196520104 0 0.012861885952783971 -0.00053306525223371839 0 0.012391359034618136 -0.00032077651092364025 0 0.012403958692474997 0.00015006171707954261 0 0.012856565165431292 -0.00011581647196520104 0 0.012391359034618136 -0.00032077651092364025 0 0.0096472498172991642 -0.00025894930845706411 0 0.0098795661811710862 -0.00010004311920176698 0 0.00988242280476582 -0.00038966213390681249 0 0.011442538423873359 -0.00019179542544527217 0 0.0091725534921134454 -0.00024072102004237415 0 0.0096836593815904023 -0.00018199251762781403 0 0.0096485002608200678 -2.145915337201017e-05 0 0.0098795661811710862 -0.00010004311920176698 0 0.0097899042851784038 3.5149525837478884e-05 0 0.0096485002608200678 -2.145915337201017e-05 0 0.0098795661811710862 -0.00010004311920176698 0 0.010066204022626635 6.175706374044097e-05 0 0.0097899042851784038 3.5149525837478884e-05 0 0.0098795661811710862 -0.00010004311920176698 0 0.010066204022626635 6.175706374044097e-05 0 0.0098795661811710862 -0.00010004311920176698 0 0.010245056910561108 -0.0001319787470370845 0 0.010066204022626635 6.175706374044097e-05 0 0.010245056910561108 -0.0001319787470370845 0 0.010520545863722834 5.8057968623715975e-05 0 0.0098795661811710862 -0.00010004311920176698 0 0.010245056910561108 -0.0001319787470370845 0 0.00988242280476582 -0.00038966213390681249 0 0.011747020769851541 -0.00031559838944400514 0 0.012046702039447424 -0.00032876102165489978 0 0.010245056910561108 -0.0001319787470370845 0 0.010221545422596094 -0.00055924769718977533 0 0.00988242280476582 -0.00038966213390681249 0 0.013623641684606849 -9.9843387138041106e-05 0 0.013860191505905064 -4.714348262598132e-05 0 0.013962041524336121 -0.00019633135435425484 0 0.010245056910561108 -0.0001319787470370845 0 0.010221545422596094 -0.00055924769718977533 0 0.010583889374828384 -0.00036536502241617898 0 0.014071507142187554 0.00011807569643623355 0 0.01280138897996792 -0.0001478761547766309 0 0.013623641684606849 -9.9843387138041106e-05 0 0.013679079632423962 0.00010436388783321755 0 0.013209669356850856 7.7410741677451611e-05 0 0.014071507142187554 0.00011807569643623355 0 0.013971949353015406 6.7545934661371619e-05 0 0.013679079632423962 0.00010436388783321755 0 0.013860191505905064 -4.714348262598132e-05 0 0.014069573384320178 7.0984667515065531e-05 0 0.013623641684606849 -9.9843387138041106e-05 0 0.013679079632423962 0.00010436388783321755 0 0.013860191505905064 -4.714348262598132e-05 0 0.013860191505905064 -4.714348262598132e-05 0 0.013962041524336121 -0.00019633135435425484 0 0.014069573384320178 7.0984667515065531e-05 0 0.013962041524336121 -0.00019633135435425484 0 0.014220478108017121 -5.2606138676598658e-05 0 0.014069573384320178 7.0984667515065531e-05 0 0.011442538423873359 -0.00019179542544527217 0 0.012046702039447424 -0.00032876102165489978 0 0.014181861921472531 -0.00026806050504594011 0 0.013962041524336121 -0.00019633135435425484 0 0.014220478108017121 -5.2606138676598658e-05 0 0.014220478108017121 -5.2606138676598658e-05 0 0.014195638249668498 7.2313310703652501e-05 0 0.014069573384320178 7.0984667515065531e-05 0 0.014296673272487171 5.574743321184556e-05 0 0.014220478108017121 -5.2606138676598658e-05 0 0.014195638249668498 7.2313310703652501e-05 0 0.014330367737335486 0.00015547774118296665 0 0.014296673272487171 5.574743321184556e-05 0 0.014195638249668498 7.2313310703652501e-05 0 0.014330367737335486 0.00015547774118296665 0 0.014195638249668498 7.2313310703652501e-05 0 0.014077420282534486 0.00013648322900030997 0 0.014069573384320178 7.0984667515065531e-05 0 0.014077420282534486 0.00013648322900030997 0 0.014064434176801517 8.7963373750462069e-05 0 0.014195638249668498 7.2313310703652501e-05 0 0.014069573384320178 7.0984667515065531e-05 0 0.014077420282534486 0.00013648322900030997 0 0.01464431282964561 0.00014795917054847334 0 0.01457371329232735 3.8151844171856131e-05 0 0.014656369964253216 -1.0874455694988527e-05 0 0.014341109276704482 0.00015198368944268519 0 0.014368109990188629 0.00013643355270668103 0 0.01464431282964561 0.00014795917054847334 0 0.014469752707797406 9.7744171550010096e-05 0 0.01457371329232735 3.8151844171856131e-05 0 0.014330367737335486 0.00015547774118296665 0 0.01464431282964561 0.00014795917054847334 0 0.014469752707797406 9.7744171550010096e-05 0 0.014390446446133976 0.00012476775155755268 0 0.014330367737335486 0.00015547774118296665 0 0.014469752707797406 9.7744171550010096e-05 0 0.014413644200774504 8.283802062930303e-05 0 0.014390446446133976 0.00012476775155755268 0 0.014469752707797406 9.7744171550010096e-05 0 0.014469752707797406 9.7744171550010096e-05 0 0.014485025486658915 2.1155844398638376e-05 0 0.01457371329232735 3.8151844171856131e-05 0 0.014413644200774504 8.283802062930303e-05 0 0.014469752707797406 9.7744171550010096e-05 0 0.014485025486658915 2.1155844398638376e-05 0 0.014421375793466648 -7.1143718686125687e-05 0 0.014475629007817545 -4.2572114885294012e-05 0 0.014646091055379899 -8.1208608774367653e-05 0 0.014999926331401559 2.6011261205125239e-08 0 0.014999980616252639 -2.5368244476171942e-07 0 0.01500026504893336 -9.7708724116466047e-08 0 0.014485025486658915 2.1155844398638376e-05 0 0.014475629007817545 -4.2572114885294012e-05 0 0.014570913117774731 -1.3769413348907983e-05 0 0.014475629007817545 -4.2572114885294012e-05 0 0.014570913117774731 -1.3769413348907983e-05 0 0.014646091055379899 -8.1208608774367653e-05 0 0.014485025486658915 2.1155844398638376e-05 0 0.014570913117774731 -1.3769413348907983e-05 0 0.01457371329232735 3.8151844171856131e-05 0 0.014570913117774731 -1.3769413348907983e-05 0 0.01457371329232735 3.8151844171856131e-05 0 0.014656369964253216 -1.0874455694988527e-05 0 0.01464431282964561 0.00014795917054847334 0 0.014656369964253216 -1.0874455694988527e-05 0 0.014752291091505968 5.7110169383335229e-06 0 0.014656369964253216 -1.0874455694988527e-05 0 0.014691664091680382 -5.3080541248725682e-05 0 0.014752291091505968 5.7110169383335229e-06 0 0.014570913117774731 -1.3769413348907983e-05 0 0.014656369964253216 -1.0874455694988527e-05 0 0.014646091055379899 -8.1208608774367653e-05 0 0.014656369964253216 -1.0874455694988527e-05 0 0.014646091055379899 -8.1208608774367653e-05 0 0.014691664091680382 -5.3080541248725682e-05 0 0.014841773431048852 -2.0867237093087359e-05 0 0.014890337493852185 -3.8135494085996217e-05 0 0.014691664091680382 -5.3080541248725682e-05 0 0.014660240353144074 -3.3926204771127097e-05 0 0.014777987583874991 -8.7110117050232568e-05 0 0.014646091055379899 -8.1208608774367653e-05 0 0.014691664091680382 -5.3080541248725682e-05 0 0.014660240353144074 -3.3926204771127097e-05 0 0.01498371937197175 1.0213670157475368e-06 0 0.014841773431048852 -2.0867237093087359e-05 0 0.014885305124465878 -4.9898789064417893e-05 0 0.014660240353144074 -3.3926204771127097e-05 0 0.014770125620153044 -6.0950118620434741e-05 0 0.014665742609531317 -8.1716432605881824e-05 0 0.014650081014462062 -8.4025143997339968e-05 0 0.015000033922846143 -1.1969220949293467e-08 0 0.014999926331401559 2.6011261205125239e-08 0 0.014999980616252639 -2.5368244476171942e-07 0 0.014999737319610592 3.5171538808950323e-08 0 0.014885305124465878 -4.9898789064417893e-05 0 0.014660240353144074 -3.3926204771127097e-05 0 0.014924148263512666 -0.00010857964143770371 0 0.014646091055379899 -8.1208608774367653e-05 0 0.014806098654189165 -7.5841342485813711e-05 0 0.014885305124465878 -4.9898789064417893e-05 0 0.014806098654189165 -7.5841342485813711e-05 0 0.014770125620153044 -6.0950118620434741e-05 0 0.014885305124465878 -4.9898789064417893e-05 0 0.014924148263512666 -0.00010857964143770371 0 0.014806098654189165 -7.5841342485813711e-05 0 0.014646091055379899 -8.1208608774367653e-05 0 0.014806098654189165 -7.5841342485813711e-05 0 0.014770125620153044 -6.0950118620434741e-05 0 0.014646091055379899 -8.1208608774367653e-05 0 0.014660240353144074 -3.3926204771127097e-05 0 0.014770125620153044 -6.0950118620434741e-05 0 0.014999980616252639 -2.5368244476171942e-07 0 0.01500026504893336 -9.7708724116466047e-08 0 0.015001164426621912 -1.7170861679583231e-06 0 0.014890337493852185 -3.8135494085996217e-05 0 0.014978069803775701 -1.7415329560580748e-05 0 0.014777987583874991 -8.7110117050232568e-05 0 0.014878974028508679 1.4737708447034451e-06 0 0.014986735342168343 -1.1506849127954481e-05 0 0.01500026504893336 -9.7708724116466047e-08 0 0.015001164426621912 -1.7170861679583231e-06 0 0.014986735342168343 -1.1506849127954481e-05 0 0.014691664091680382 -5.3080541248725682e-05 0 0.014777987583874991 -8.7110117050232568e-05 0 0.014752291091505968 5.7110169383335229e-06 0 0.014752291091505968 5.7110169383335229e-06 0 0.014878974028508679 1.4737708447034451e-06 0 0.014844540497450558 8.3948003063745157e-05 0 0.014777987583874991 -8.7110117050232568e-05 0 0.014752291091505968 5.7110169383335229e-06 0 0.014878974028508679 1.4737708447034451e-06 0 0.014459548364362855 7.1937550583264987e-05 0 0.014548956775265319 1.7129537311441377e-05 0 0.014878974028508679 1.4737708447034451e-06 0 0.014844540497450558 8.3948003063745157e-05 0 0.014995935711047802 1.3917228547292623e-05 0 0.014070830342852426 5.7644631359219177e-05 0 0.014073491462388673 7.1286249795528373e-05 0 0.014091923269377688 5.3748734768572626e-05 0 0.01464431282964561 0.00014795917054847334 0 0.014752291091505968 5.7110169383335229e-06 0 0.014844540497450558 8.3948003063745157e-05 0 0.014070830342852426 5.7644631359219177e-05 0 0.014064434176801517 8.7963373750462069e-05 0 0.014073491462388673 7.1286249795528373e-05 0 0.014077420282534486 0.00013648322900030997 0 0.014070830342852426 5.7644631359219177e-05 0 0.014064434176801517 8.7963373750462069e-05 0 0.014368109990188629 0.00013643355270668103 0 0.014459548364362855 7.1937550583264987e-05 0 0.014067625405569356 7.8878650843819024e-05 0 0.014069573384320178 7.0984667515065531e-05 0 0.014064434176801517 8.7963373750462069e-05 0 0.014067625405569356 7.8878650843819024e-05 0 0.014064434176801517 8.7963373750462069e-05 0 0.014073491462388673 7.1286249795528373e-05 0 0.014067625405569356 7.8878650843819024e-05 0 0.014073491462388673 7.1286249795528373e-05 0 0.014091923269377688 5.3748734768572626e-05 0 0.01500026504893336 -9.7708724116466047e-08 0 0.014998817893114297 2.8517372122251191e-07 0 0.014988658533599587 -2.6928346174877101e-06 0 0.014118414053033887 3.6443348655429766e-05 0 0.014091923269377688 5.3748734768572626e-05 0 0.014095819838615692 5.3429728088195751e-05 0 0.014067625405569356 7.8878650843819024e-05 0 0.014091923269377688 5.3748734768572626e-05 0 0.014095819838615692 5.3429728088195751e-05 0 0.013026362725082986 -6.6769125722012699e-05 0 0.013083865414139315 -4.6776764548031242e-05 0 0.013061252772874992 -4.7574648220973225e-05 0 0.014118414053033887 3.6443348655429766e-05 0 0.014112365277916823 -1.976014734252857e-05 0 0.014095819838615692 5.3429728088195751e-05 0 0.013712319551583809 -2.9909557352300439e-05 0 0.01280138897996792 -0.0001478761547766309 0 0.014070830342852426 5.7644631359219177e-05 0 0.014091923269377688 5.3748734768572626e-05 0 0.014105617741647024 1.9967112634233866e-05 0 0.014118414053033887 3.6443348655429766e-05 0 0.014091923269377688 5.3748734768572626e-05 0 0.014105617741647024 1.9967112634233866e-05 0 0.01500026504893336 -9.7708724116466047e-08 0 0.014986735342168343 -1.1506849127954481e-05 0 0.014988658533599587 -2.6928346174877101e-06 0 0.014995935711047802 1.3917228547292623e-05 0 0.014986735342168343 -1.1506849127954481e-05 0 0.014988658533599587 -2.6928346174877101e-06 0 0.014878974028508679 1.4737708447034451e-06 0 0.014995935711047802 1.3917228547292623e-05 0 0.014986735342168343 -1.1506849127954481e-05 0 0.014118414053033887 3.6443348655429766e-05 0 0.014105617741647024 1.9967112634233866e-05 0 0.014155169389821153 2.4642365397772139e-06 0 0.014548956775265319 1.7129537311441377e-05 0 0.014571575666090653 9.3514004313303779e-06 0 0.014850174953730422 -1.0758588067950414e-10 0 0.014571575666090653 9.3514004313303779e-06 0 0.014848980074368948 -5.1970734302940923e-07 0 0.014155169389821153 2.4642365397772139e-06 0 0.014298524989966085 4.1957211067837955e-07 0 0.014852175965399341 -4.4719913179934976e-07 0 0.014998817893114297 2.8517372122251191e-07 0 0.014988658533599587 -2.6928346174877101e-06 0 0.014118414053033887 3.6443348655429766e-05 0 0.014155169389821153 2.4642365397772139e-06 0 0.014095736545786941 6.4867691115019096e-05 0 0.014155169389821153 2.4642365397772139e-06 0 0.014298524989966085 4.1957211067837955e-07 0 0.014095736545786941 6.4867691115019096e-05 0 0.014298524989966085 4.1957211067837955e-07 0 0.013747573246780075 -2.4874440852813144e-07 0 0.014095736545786941 6.4867691115019096e-05 0 0.013747573246780075 -2.4874440852813144e-07 0 0.014095736545786941 6.4867691115019096e-05 0 0.014112365277916823 -1.976014734252857e-05 0 0.014118414053033887 3.6443348655429766e-05 0 0.014095736545786941 6.4867691115019096e-05 0 0.014112365277916823 -1.976014734252857e-05 0 0.013026362725082986 -6.6769125722012699e-05 0 0.013066719837427613 -5.9206409014368239e-06 0 0.013083865414139315 -4.6776764548031242e-05 0 0.013746164499341981 7.7222054414288618e-08 0 0.013712319551583809 -2.9909557352300439e-05 0 0.013745351898270199 1.180317999590477e-07 0 0.012842517062618984 -7.1553917049909749e-05 0 0.012940347414275615 -7.6091930608765058e-07 0 0.013745351898270199 1.180317999590477e-07 0 0.013026362725082986 -6.6769125722012699e-05 0 0.013066719837427613 -5.9206409014368239e-06 0 0.013745351898270199 1.180317999590477e-07 0 0.013066719837427613 -5.9206409014368239e-06 0 0.012842517062618984 -7.1553917049909749e-05 0 0.013066719837427613 -5.9206409014368239e-06 0 0.012842517062618984 -7.1553917049909749e-05 0 0.013083865414139315 -4.6776764548031242e-05 0 0.012842517062618984 -7.1553917049909749e-05 0 0.012940347414275615 -7.6091930608765058e-07 0 0.011877180137614799 -0.00011364920524680863 0 0.012940347414275615 -7.6091930608765058e-07 0 0.011877180137614799 -0.00011364920524680863 0 0.012133669557261549 1.2337388632563741e-07 0 0.012846953604593501 -0.00013642219699334712 0 0.012084372850513952 -0.00039072556334086118 0 0.012842517062618984 -7.1553917049909749e-05 0 0.011877180137614799 -0.00011364920524680863 0 0.011495893555149569 -0.00073874206279334271 0 0.011877180137614799 -0.00011364920524680863 0 0.011495893555149569 -0.00073874206279334271 0 0.011061557359507245 -0.00046633264622281161 0 0.012084372850513952 -0.00039072556334086118 0 0.01280138897996792 -0.0001478761547766309 0 0.011495893555149569 -0.00073874206279334271 0 0.010718244129684454 -0.00082563471717187831 0 0.011061557359507245 -0.00046633264622281161 0 0.010221545422596094 -0.00055924769718977533 0 0.010718244129684454 -0.00082563471717187831 0 0.010583889374828384 -0.00036536502241617898 0 0.011747020769851541 -0.00031559838944400514 0 0.01280138897996792 -0.0001478761547766309 0 0.010718244129684454 -0.00082563471717187831 0 0.010583889374828384 -0.00036536502241617898 0 0.011061557359507245 -0.00046633264622281161 0 0.010583889374828384 -0.00036536502241617898 0 0.011061557359507245 -0.00046633264622281161 0 0.010943084157342298 -0.00012963254314951307 0 0.011877180137614799 -0.00011364920524680863 0 0.011061557359507245 -0.00046633264622281161 0 0.010943084157342298 -0.00012963254314951307 0 0.010943084157342298 -0.00012963254314951307 0 0.010555776032430615 -0.00010255975417463076 0 0.010520545863722834 5.8057968623715975e-05 0 0.010943084157342298 -0.00012963254314951307 0 0.010520545863722834 5.8057968623715975e-05 0 0.011262778121367801 3.150772137003066e-05 0 0.010245056910561108 -0.0001319787470370845 0 0.010555776032430615 -0.00010255975417463076 0 0.010520545863722834 5.8057968623715975e-05 0 0.010245056910561108 -0.0001319787470370845 0 0.010583889374828384 -0.00036536502241617898 0 0.010555776032430615 -0.00010255975417463076 0 0.010583889374828384 -0.00036536502241617898 0 0.010943084157342298 -0.00012963254314951307 0 0.010555776032430615 -0.00010255975417463076 0 0.010770400420381481 0.00010588547776637532 0 0.010520545863722834 5.8057968623715975e-05 0 0.011262778121367801 3.150772137003066e-05 0 0.010770400420381481 0.00010588547776637532 0 0.0113278587862539 1.4132778214126258e-07 0 0.011262778121367801 3.150772137003066e-05 0 0.0113278587862539 1.4132778214126258e-07 0 0.012133669557261549 1.2337388632563741e-07 0 0.011262778121367801 3.150772137003066e-05 0 0.011877180137614799 -0.00011364920524680863 0 0.012133669557261549 1.2337388632563741e-07 0 0.011262778121367801 3.150772137003066e-05 0 0.011877180137614799 -0.00011364920524680863 0 0.010943084157342298 -0.00012963254314951307 0 0.011262778121367801 3.150772137003066e-05 0 0.012152759493532443 -0.0006327844814624018 0 0.012172710556324457 -0.00057325595444277617 0 0.012255988929576843 -0.00050213949167264517 0 0.012152759493532443 -0.0006327844814624018 0 0.012238533472733626 -0.00059650514756709537 0 0.012255988929576843 -0.00050213949167264517 0 0.012152759493532443 -0.0006327844814624018 0 0.012238533472733626 -0.00059650514756709537 0 0.012136079858960275 -0.00071802728230194103 0 0.012268248696265952 -0.00067800800738541586 0 0.012238533472733626 -0.00059650514756709537 0 0.012136079858960275 -0.00071802728230194103 0 0.012268248696265952 -0.00067800800738541586 0 0.012238533472733626 -0.00059650514756709537 0 0.012332190514092149 -0.00052818369142117454 0 0.012268248696265952 -0.00067800800738541586 0 0.012136079858960275 -0.00071802728230194103 0 0.012217448819933157 -0.00080326532679174216 0 0.012152759493532443 -0.0006327844814624018 0 0.012136079858960275 -0.00071802728230194103 0 0.012053819036885328 -0.00070625768543045053 0 0.012077168417427592 -0.00066086142457752852 0 0.012039388204643295 -0.00066256125058228191 0 0.011990588400892035 -0.00070331822957690737 0 0.012077168417427592 -0.00066086142457752852 0 0.012053819036885328 -0.00070625768543045053 0 0.011990588400892035 -0.00070331822957690737 0 0.012152759493532443 -0.0006327844814624018 0 0.012077168417427592 -0.00066086142457752852 0 0.012053819036885328 -0.00070625768543045053 0 0.012039388204643295 -0.00066256125058228191 0 0.012041734101548339 -0.00064194563144405361 0 0.011992187319004267 -0.00067744814480303456 0 0.012041734101548339 -0.00064194563144405361 0 0.011992187319004267 -0.00067744814480303456 0 0.011995211737095267 -0.00065794523501451398 0 0.012077168417427592 -0.00066086142457752852 0 0.012039388204643295 -0.00066256125058228191 0 0.012098373594782288 -0.00061634288766336195 0 0.012039388204643295 -0.00066256125058228191 0 0.012041734101548339 -0.00064194563144405361 0 0.012098373594782288 -0.00061634288766336195 0 0.012041734101548339 -0.00064194563144405361 0 0.012069439635376827 -0.00061169255837085796 0 0.012098373594782288 -0.00061634288766336195 0 0.012069439635376827 -0.00061169255837085796 0 0.012098373594782288 -0.00061634288766336195 0 0.012136318671746589 -0.00057088299888121026 0 0.012098373594782288 -0.00061634288766336195 0 0.012136318671746589 -0.00057088299888121026 0 0.012172710556324457 -0.00057325595444277617 0 0.012069439635376827 -0.00061169255837085796 0 0.012136318671746589 -0.00057088299888121026 0 0.01208205915619223 -0.00058289004116046964 0 0.012077168417427592 -0.00066086142457752852 0 0.012098373594782288 -0.00061634288766336195 0 0.012172710556324457 -0.00057325595444277617 0 0.012152759493532443 -0.0006327844814624018 0 0.012077168417427592 -0.00066086142457752852 0 0.012172710556324457 -0.00057325595444277617 0 0.012172710556324457 -0.00057325595444277617 0 0.012250106031509573 -0.00050945926307391918 0 0.012255988929576843 -0.00050213949167264517 0 0.012172710556324457 -0.00057325595444277617 0 0.012250106031509573 -0.00050945926307391918 0 0.012225068051824 -0.00051746113195593108 0 0.012250106031509573 -0.00050945926307391918 0 0.012225068051824 -0.00051746113195593108 0 0.012330529958824598 -0.00045005490090889818 0 0.012250106031509573 -0.00050945926307391918 0 0.012330529958824598 -0.00045005490090889818 0 0.012255988929576843 -0.00050213949167264517 0 0.012162443967082541 -0.00053237621650866526 0 0.012225068051824 -0.00051746113195593108 0 0.012327065770010904 -0.00047392104251634448 0 0.012136318671746589 -0.00057088299888121026 0 0.012162443967082541 -0.00053237621650866526 0 0.01208205915619223 -0.00058289004116046964 0 0.012136318671746589 -0.00057088299888121026 0 0.012162443967082541 -0.00053237621650866526 0 0.012225068051824 -0.00051746113195593108 0 0.012136318671746589 -0.00057088299888121026 0 0.012172710556324457 -0.00057325595444277617 0 0.012225068051824 -0.00051746113195593108 0 0.012327065770010904 -0.00047392104251634448 0 0.012182168080416169 -0.00047425965795451676 0 0.012413724795873538 -0.00047221295428251153 0 0.012162443967082541 -0.00053237621650866526 0 0.012327065770010904 -0.00047392104251634448 0 0.012182168080416169 -0.00047425965795451676 0 0.012330529958824598 -0.00045005490090889818 0 0.012255988929576843 -0.00050213949167264517 0 0.012379862152727241 -0.00037619160380790494 0 0.012225068051824 -0.00051746113195593108 0 0.012327065770010904 -0.00047392104251634448 0 0.012330529958824598 -0.00045005490090889818 0 0.012327065770010904 -0.00047392104251634448 0 0.012407648811810838 -0.00043304790004640447 0 0.012521259331715578 -0.00045548211550767818 0 0.012327065770010904 -0.00047392104251634448 0 0.012330529958824598 -0.00045005490090889818 0 0.012407648811810838 -0.00043304790004640447 0 0.012330529958824598 -0.00045005490090889818 0 0.012407648811810838 -0.00043304790004640447 0 0.012379862152727241 -0.00037619160380790494 0 0.012255988929576843 -0.00050213949167264517 0 0.012324143152811644 -0.00036880170308839434 0 0.012379862152727241 -0.00037619160380790494 0 0.012238533472733626 -0.00059650514756709537 0 0.012255988929576843 -0.00050213949167264517 0 0.012332190514092149 -0.00052818369142117454 0 0.012255988929576843 -0.00050213949167264517 0 0.012332190514092149 -0.00052818369142117454 0 0.012324143152811644 -0.00036880170308839434 0 0.012332190514092149 -0.00052818369142117454 0 0.012324143152811644 -0.00036880170308839434 0 0.012581684738716946 -0.00034333439579361472 0 0.012581684738716946 -0.00034333439579361472 0 0.013173937879323991 -0.00018991461736157415 0 0.012963454500822163 -0.0004514283394616209 0 0.012581684738716946 -0.00034333439579361472 0 0.012963454500822163 -0.0004514283394616209 0 0.012478487805906218 -0.00068154133775065191 0 0.012332190514092149 -0.00052818369142117454 0 0.012581684738716946 -0.00034333439579361472 0 0.012478487805906218 -0.00068154133775065191 0 0.01357664057212701 -0.00023450519952365582 0 0.013173937879323991 -0.00018991461736157415 0 0.012963454500822163 -0.0004514283394616209 0 0.012963454500822163 -0.0004514283394616209 0 0.013125058021530283 -0.00065551613849894417 0 0.012478487805906218 -0.00068154133775065191 0 0.01357664057212701 -0.00023450519952365582 0 0.012963454500822163 -0.0004514283394616209 0 0.013125058021530283 -0.00065551613849894417 0 0.01357664057212701 -0.00023450519952365582 0 0.013125058021530283 -0.00065551613849894417 0 0.013823208568093786 -0.00049086834578472799 0 0.013125058021530283 -0.00065551613849894417 0 0.01249841622978564 -0.00094885117324124157 0 0.013504372189771064 -0.0010011250090232458 0 0.013125058021530283 -0.00065551613849894417 0 0.01249841622978564 -0.00094885117324124157 0 0.012478487805906218 -0.00068154133775065191 0 0.01249841622978564 -0.00094885117324124157 0 0.012055752152668306 -0.00078969626378232053 0 0.012020070243985463 -0.0010496912650502783 0 0.012441095987493839 -0.00098594784808001251 0 0.012939658919453811 -0.00095322203152514403 0 0.012268248696265952 -0.00067800800738541586 0 0.012478487805906218 -0.00068154133775065191 0 0.012217448819933157 -0.00080326532679174216 0 0.012268248696265952 -0.00067800800738541586 0 0.012332190514092149 -0.00052818369142117454 0 0.012478487805906218 -0.00068154133775065191 0 0.01249841622978564 -0.00094885117324124157 0 0.012478487805906218 -0.00068154133775065191 0 0.012217448819933157 -0.00080326532679174216 0 0.012217448819933157 -0.00080326532679174216 0 0.012126359024173951 -0.00081964447226697305 0 0.012002866639502795 -0.00078896104065392979 0 0.012217448819933157 -0.00080326532679174216 0 0.012002866639502795 -0.00078896104065392979 0 0.012075990498648074 -0.00077094413343499349 0 0.01249841622978564 -0.00094885117324124157 0 0.012217448819933157 -0.00080326532679174216 0 0.012126359024173951 -0.00081964447226697305 0 0.012126359024173951 -0.00081964447226697305 0 0.012002866639502795 -0.00078896104065392979 0 0.011903812819690973 -0.00079371799371539967 0 0.01249841622978564 -0.00094885117324124157 0 0.012126359024173951 -0.00081964447226697305 0 0.012055752152668306 -0.00078969626378232053 0 0.012126359024173951 -0.00081964447226697305 0 0.012055752152668306 -0.00078969626378232053 0 0.011914970556154125 -0.00078142172094500207 0 0.012055752152668306 -0.00078969626378232053 0 0.011870605944536023 -0.00076525234620482242 0 0.011905382265514235 -0.00075208744805135234 0 0.011870605944536023 -0.00076525234620482242 0 0.011773096880704688 -0.00078831385184461482 0 0.011905382265514235 -0.00075208744805135234 0 0.012055752152668306 -0.00078969626378232053 0 0.011870605944536023 -0.00076525234620482242 0 0.011914970556154125 -0.00078142172094500207 0 0.011870605944536023 -0.00076525234620482242 0 0.011914970556154125 -0.00078142172094500207 0 0.011695429984097934 -0.00079040629405045413 0 0.011870605944536023 -0.00076525234620482242 0 0.011695429984097934 -0.00079040629405045413 0 0.011773096880704688 -0.00078831385184461482 0 0.012126359024173951 -0.00081964447226697305 0 0.011914970556154125 -0.00078142172094500207 0 0.011903812819690973 -0.00079371799371539967 0 0.011914970556154125 -0.00078142172094500207 0 0.011903812819690973 -0.00079371799371539967 0 0.011789090760607612 -0.00079421679710905491 0 0.011655489161544344 -0.00080398701628821333 0 0.011695429984097934 -0.00079040629405045413 0 0.011789090760607612 -0.00079421679710905491 0 0.011914970556154125 -0.00078142172094500207 0 0.011695429984097934 -0.00079040629405045413 0 0.011789090760607612 -0.00079421679710905491 0 0.011655489161544344 -0.00080398701628821333 0 0.011789090760607612 -0.00079421679710905491 0 0.011732913546015137 -0.00079142992737512316 0 0.011903812819690973 -0.00079371799371539967 0 0.011789090760607612 -0.00079421679710905491 0 0.011732913546015137 -0.00079142992737512316 0 0.011732913546015137 -0.00079142992737512316 0 0.011702724494346731 -0.0007575903819976111 0 0.011840390939135885 -0.00076795226568665716 0 0.011732913546015137 -0.00079142992737512316 0 0.011702724494346731 -0.0007575903819976111 0 0.011523574490267975 -0.00074842297570602455 0 0.011702724494346731 -0.0007575903819976111 0 0.011523574490267975 -0.00074842297570602455 0 0.011747214109225589 -0.00076551653566157634 0 0.011747214109225589 -0.00076551653566157634 0 0.011905265434074353 -0.00076109527559275667 0 0.011867769180217348 -0.00075724506257338411 0 0.011747214109225589 -0.00076551653566157634 0 0.011840390939135885 -0.00076795226568665716 0 0.011905265434074353 -0.00076109527559275667 0 0.011702724494346731 -0.0007575903819976111 0 0.011747214109225589 -0.00076551653566157634 0 0.011840390939135885 -0.00076795226568665716 0 0.011903812819690973 -0.00079371799371539967 0 0.011732913546015137 -0.00079142992737512316 0 0.011840390939135885 -0.00076795226568665716 0 0.012002866639502795 -0.00078896104065392979 0 0.011903812819690973 -0.00079371799371539967 0 0.011840390939135885 -0.00076795226568665716 0 0.012002866639502795 -0.00078896104065392979 0 0.011840390939135885 -0.00076795226568665716 0 0.011967364071244201 -0.00077127091166633412 0 0.012002866639502795 -0.00078896104065392979 0 0.011967364071244201 -0.00077127091166633412 0 0.012075990498648074 -0.00077094413343499349 0 0.011840390939135885 -0.00076795226568665716 0 0.011967364071244201 -0.00077127091166633412 0 0.011905265434074353 -0.00076109527559275667 0 0.011905265434074353 -0.00076109527559275667 0 0.012009839097540598 -0.00075063254440572221 0 0.011961116225882694 -0.00073982429049918735 0 0.011967364071244201 -0.00077127091166633412 0 0.011905265434074353 -0.00076109527559275667 0 0.012009839097540598 -0.00075063254440572221 0 0.012136079858960275 -0.00071802728230194103 0 0.012053819036885328 -0.00070625768543045053 0 0.012009839097540598 -0.00075063254440572221 0 0.012053819036885328 -0.00070625768543045053 0 0.012009839097540598 -0.00075063254440572221 0 0.011961116225882694 -0.00073982429049918735 0 0.012136079858960275 -0.00071802728230194103 0 0.012217448819933157 -0.00080326532679174216 0 0.012075990498648074 -0.00077094413343499349 0 0.012136079858960275 -0.00071802728230194103 0 0.012009839097540598 -0.00075063254440572221 0 0.012075990498648074 -0.00077094413343499349 0 0.011967364071244201 -0.00077127091166633412 0 0.012009839097540598 -0.00075063254440572221 0 0.012075990498648074 -0.00077094413343499349 0 0.011958559709062247 -0.00069040467693416826 0 0.011990588400892035 -0.00070331822957690737 0 0.01193327866189927 -0.00071412491832253966 0 0.011958559709062247 -0.00069040467693416826 0 0.011992187319004267 -0.00067744814480303456 0 0.011990588400892035 -0.00070331822957690737 0 0.012039388204643295 -0.00066256125058228191 0 0.011992187319004267 -0.00067744814480303456 0 0.011990588400892035 -0.00070331822957690737 0 0.012053819036885328 -0.00070625768543045053 0 0.011990588400892035 -0.00070331822957690737 0 0.011961116225882694 -0.00073982429049918735 0 0.011990588400892035 -0.00070331822957690737 0 0.011932204919118361 -0.00073257342100714129 0 0.011961116225882694 -0.00073982429049918735 0 0.011932204919118361 -0.00073257342100714129 0 0.011961116225882694 -0.00073982429049918735 0 0.011867769180217348 -0.00075724506257338411 0 0.011905265434074353 -0.00076109527559275667 0 0.011961116225882694 -0.00073982429049918735 0 0.011867769180217348 -0.00075724506257338411 0 0.011932204919118361 -0.00073257342100714129 0 0.011897179896493394 -0.00073492066885845063 0 0.011867769180217348 -0.00075724506257338411 0 0.011932204919118361 -0.00073257342100714129 0 0.011897179896493394 -0.00073492066885845063 0 0.01193327866189927 -0.00071412491832253966 0 0.011897179896493394 -0.00073492066885845063 0 0.01193327866189927 -0.00071412491832253966 0 0.011901405404345077 -0.00071888717783039058 0 0.011990588400892035 -0.00070331822957690737 0 0.011932204919118361 -0.00073257342100714129 0 0.01193327866189927 -0.00071412491832253966 0 0.011958559709062247 -0.00069040467693416826 0 0.01193327866189927 -0.00071412491832253966 0 0.011929956054655516 -0.00068603694206663824 0 0.01193327866189927 -0.00071412491832253966 0 0.011901405404345077 -0.00071888717783039058 0 0.011929956054655516 -0.00068603694206663824 0 0.011897179896493394 -0.00073492066885845063 0 0.011901405404345077 -0.00071888717783039058 0 0.01185267608553678 -0.00074268340360153224 0 0.011901405404345077 -0.00071888717783039058 0 0.01185267608553678 -0.00074268340360153224 0 0.011887012849813704 -0.00071655159325004268 0 0.011897179896493394 -0.00073492066885845063 0 0.01185267608553678 -0.00074268340360153224 0 0.011867769180217348 -0.00075724506257338411 0 0.01185267608553678 -0.00074268340360153224 0 0.011867769180217348 -0.00075724506257338411 0 0.011791517983880553 -0.00075287657206195887 0 0.011747214109225589 -0.00076551653566157634 0 0.011867769180217348 -0.00075724506257338411 0 0.011791517983880553 -0.00075287657206195887 0 0.011523574490267975 -0.00074842297570602455 0 0.011747214109225589 -0.00076551653566157634 0 0.011731400529628223 -0.00073700921757614 0 0.011747214109225589 -0.00076551653566157634 0 0.011791517983880553 -0.00075287657206195887 0 0.011731400529628223 -0.00073700921757614 0 0.01185267608553678 -0.00074268340360153224 0 0.011791517983880553 -0.00075287657206195887 0 0.011827509394588851 -0.00073540698498512989 0 0.011791517983880553 -0.00075287657206195887 0 0.011731400529628223 -0.00073700921757614 0 0.011827509394588851 -0.00073540698498512989 0 0.01187899517158115 -0.00068749455737330655 0 0.011827509394588851 -0.00073540698498512989 0 0.011887012849813704 -0.00071655159325004268 0 0.01187899517158115 -0.00068749455737330655 0 0.011731400529628223 -0.00073700921757614 0 0.011827509394588851 -0.00073540698498512989 0 0.01185267608553678 -0.00074268340360153224 0 0.011827509394588851 -0.00073540698498512989 0 0.011887012849813704 -0.00071655159325004268 0 0.01187899517158115 -0.00068749455737330655 0 0.011887012849813704 -0.00071655159325004268 0 0.01187913766244483 -0.00070816489005362765 0 0.011887012849813704 -0.00071655159325004268 0 0.011893324055439457 -0.00069631133196642876 0 0.01187913766244483 -0.00070816489005362765 0 0.011901405404345077 -0.00071888717783039058 0 0.011887012849813704 -0.00071655159325004268 0 0.011907836149614584 -0.00068990373375334548 0 0.011887012849813704 -0.00071655159325004268 0 0.011907836149614584 -0.00068990373375334548 0 0.011893324055439457 -0.00069631133196642876 0 0.011907836149614584 -0.00068990373375334548 0 0.01190370958201468 -0.00064418601423449568 0 0.011915241452076814 -0.00066725015959142578 0 0.011907836149614584 -0.00068990373375334548 0 0.01190370958201468 -0.00064418601423449568 0 0.011893324055439457 -0.00069631133196642876 0 0.011893324055439457 -0.00069631133196642876 0 0.011868471369513179 -0.0006676401814818307 0 0.011850955299247609 -0.00071713179080064857 0 0.01190370958201468 -0.00064418601423449568 0 0.011868471369513179 -0.0006676401814818307 0 0.011900339522886492 -0.00058322082837505927 0 0.01190370958201468 -0.00064418601423449568 0 0.011893324055439457 -0.00069631133196642876 0 0.011868471369513179 -0.0006676401814818307 0 0.011893324055439457 -0.00069631133196642876 0 0.01187913766244483 -0.00070816489005362765 0 0.011850955299247609 -0.00071713179080064857 0 0.01141258040322468 -0.0012386148985481878 0 0.011821527471277214 -0.00097181906774175509 0 0.011556760541725511 -0.0007950537394463312 0 0.01141258040322468 -0.0012386148985481878 0 0.011556760541725511 -0.0007950537394463312 0 0.010818808197713936 -0.0010351963028350866 0 0.011556760541725511 -0.0007950537394463312 0 0.011588578520082056 -0.00047660513500844367 0 0.011239263130969141 -0.00056528639796549034 0 0.011556760541725511 -0.0007950537394463312 0 0.011754556875550335 -0.00059779338882332976 0 0.011588578520082056 -0.00047660513500844367 0 0.011821527471277214 -0.00097181906774175509 0 0.011556760541725511 -0.0007950537394463312 0 0.011754556875550335 -0.00059779338882332976 0 0.011944769277203634 -0.00098637022449229138 0 0.011740364375716711 -0.00054848971378935649 0 0.011868471369513179 -0.0006676401814818307 0 0.011850955299247609 -0.00071713179080064857 0 0.011754556875550335 -0.00059779338882332976 0 0.011868471369513179 -0.0006676401814818307 0 0.011754556875550335 -0.00059779338882332976 0 0.011900339522886492 -0.00058322082837505927 0 0.011754556875550335 -0.00059779338882332976 0 0.011743115785766582 -0.00047901665584141738 0 0.011900339522886492 -0.00058322082837505927 0 0.01283056223660948 -0.00024555141432277693 0 0.011633936077686442 -0.00051284925446636639 0 0.011754556875550335 -0.00059779338882332976 0 0.011743115785766582 -0.00047901665584141738 0 0.011588578520082056 -0.00047660513500844367 0 0.011743115785766582 -0.00047901665584141738 0 0.011588578520082056 -0.00047660513500844367 0 0.011690739735339845 -0.00023062308251222975 0 0.011743115785766582 -0.00047901665584141738 0 0.011690739735339845 -0.00023062308251222975 0 0.011900339522886492 -0.00058322082837505927 0 0.011588578520082056 -0.00047660513500844367 0 0.011464201909171757 -0.00042130200885099912 0 0.011637743007455228 -0.00020369093946682478 0 0.011588578520082056 -0.00047660513500844367 0 0.011464201909171757 -0.00042130200885099912 0 0.011239263130969141 -0.00056528639796549034 0 0.011493735362686599 -0.00027870760721074875 0 0.011286502394665655 -0.00052961714005685286 0 0.011493735362686599 -0.00027870760721074875 0 0.01230024120004017 -8.4587053512480642e-06 0 0.01282881051852232 -3.433332582670186e-05 0 0.012846769928912595 -8.4188085142821136e-06 0 0.012614294493816789 6.7263666125672833e-05 0 0.011327640722186113 0.00032811478411904607 0 0.011884104155315529 0.00041926499639252977 0 0.011049149454373635 0.00080703165757020547 0 0.01230024120004017 -8.4587053512480642e-06 0 0.011755485973472599 0.00051429927562551955 0 0.011574821454221904 -5.6999185307689462e-05 0 0.011327640722186113 0.00032811478411904607 0 0.011884104155315529 0.00041926499639252977 0 0.011588578520082056 -0.00047660513500844367 0 0.011637743007455228 -0.00020369093946682478 0 0.011690739735339845 -0.00023062308251222975 0 0.011690739735339845 -0.00023062308251222975 0 0.011678885570711818 -0.00013341862185450916 0 0.011900339522886492 -0.00058322082837505927 0 0.011967775490374101 -0.00064984855104032444 0 0.011935937089702474 -0.00064404032513449476 0 0.01192546902385172 -0.00062814358331744497 0 0.011967775490374101 -0.00064984855104032444 0 0.01192546902385172 -0.00062814358331744497 0 0.011900339522886492 -0.00058322082837505927 0 0.011632889453298604 -0.00019804949915643605 0 0.011690739735339845 -0.00023062308251222975 0 0.011678885570711818 -0.00013341862185450916 0 0.01230024120004017 -8.4587053512480642e-06 0 0.012123464351620919 1.8902656137086144e-05 0 0.01230024120004017 -8.4587053512480642e-06 0 0.01283056223660948 -0.00024555141432277693 0 0.011967775490374101 -0.00064984855104032444 0 0.011935937089702474 -0.00064404032513449476 0 0.011952224191184635 -0.00065073450615477991 0 0.011935937089702474 -0.00064404032513449476 0 0.01192546902385172 -0.00062814358331744497 0 0.011921218863621814 -0.00064626669422350783 0 0.011935937089702474 -0.00064404032513449476 0 0.011952569089943119 -0.00065791319577223446 0 0.011921218863621814 -0.00064626669422350783 0 0.011935937089702474 -0.00064404032513449476 0 0.011952569089943119 -0.00065791319577223446 0 0.011952224191184635 -0.00065073450615477991 0 0.011952569089943119 -0.00065791319577223446 0 0.011953435472477254 -0.00067224773693754425 0 0.011995211737095267 -0.00065794523501451398 0 0.011992187319004267 -0.00067744814480303456 0 0.011953435472477254 -0.00067224773693754425 0 0.011995211737095267 -0.00065794523501451398 0 0.011958559709062247 -0.00069040467693416826 0 0.011953435472477254 -0.00067224773693754425 0 0.011929956054655516 -0.00068603694206663824 0 0.011958559709062247 -0.00069040467693416826 0 0.011992187319004267 -0.00067744814480303456 0 0.011953435472477254 -0.00067224773693754425 0 0.011952569089943119 -0.00065791319577223446 0 0.011953435472477254 -0.00067224773693754425 0 0.011921218863621814 -0.00064626669422350783 0 0.011929956054655516 -0.00068603694206663824 0 0.011915241452076814 -0.00066725015959142578 0 0.011921218863621814 -0.00064626669422350783 0 0.011953435472477254 -0.00067224773693754425 0 0.011929956054655516 -0.00068603694206663824 0 0.011921218863621814 -0.00064626669422350783 0 0.011901405404345077 -0.00071888717783039058 0 0.011907836149614584 -0.00068990373375334548 0 0.011929956054655516 -0.00068603694206663824 0 0.011907836149614584 -0.00068990373375334548 0 0.011929956054655516 -0.00068603694206663824 0 0.011915241452076814 -0.00066725015959142578 0 0.01190370958201468 -0.00064418601423449568 0 0.011900339522886492 -0.00058322082837505927 0 0.011921218863621814 -0.00064626669422350783 0 0.01190370958201468 -0.00064418601423449568 0 0.011915241452076814 -0.00066725015959142578 0 0.011921218863621814 -0.00064626669422350783 0 0.01192546902385172 -0.00062814358331744497 0 0.011900339522886492 -0.00058322082837505927 0 0.011921218863621814 -0.00064626669422350783 0 0.0092474028755905168 -0.00019135395587813205 0 0.0097405023362025205 -0.00022329981666641621 0 0.010019513252582083 -0.00069804473481558499 0 0.0092675461791642683 -0.00021846026798127987 0 0.0095262170675724667 -0.00038411983599219505 0 0.0092474028755905168 -0.00019135395587813205 0 0.0091336736523068042 -7.5951337452801357e-05 0 0.009024581486920891 -9.1221769730752186e-05 0 0.0092474028755905168 -0.00019135395587813205 0 0.0097405023362025205 -0.00022329981666641621 0 0.0094458249934325292 -8.863146340830477e-05 0 0.0092474028755905168 -0.00019135395587813205 0 0.00919304590387004 -0.00010500235127647616 0 0.0091336736523068042 -7.5951337452801357e-05 0 0.0091877540217193375 -2.1145631255062489e-05 0 0.00919304590387004 -0.00010500235127647616 0 0.0091422312056845031 -2.2436774718703123e-05 0 0.00919304590387004 -0.00010500235127647616 0 0.0091422312056845031 -2.2436774718703123e-05 0 0.0091336736523068042 -7.5951337452801357e-05 0 0.0091304649203028752 2.7916847884399845e-05 0 0.0091877540217193375 -2.1145631255062489e-05 0 0.0091422312056845031 -2.2436774718703123e-05 0 0.0091422312056845031 -2.2436774718703123e-05 0 0.0091336736523068042 -7.5951337452801357e-05 0 0.0090716185690402663 8.1297321645658947e-06 0 0.0091304649203028752 2.7916847884399845e-05 0 0.0091422312056845031 -2.2436774718703123e-05 0 0.0090716185690402663 8.1297321645658947e-06 0 0.0091336736523068042 -7.5951337452801357e-05 0 0.0090716185690402663 8.1297321645658947e-06 0 0.009024581486920891 -9.1221769730752186e-05 0 0.0090716185690402663 8.1297321645658947e-06 0 0.009024581486920891 -9.1221769730752186e-05 0 0.0089869911224266293 2.1739332561254725e-05 0 0.0097405023362025205 -0.00022329981666641621 0 0.010019513252582083 -0.00069804473481558499 0 0.010196108930091641 9.1887153790482027e-05 0 0.010019513252582083 -0.00069804473481558499 0 0.010634710242083914 -0.00043328940452304381 0 0.010196108930091641 9.1887153790482027e-05 0 0.010019513252582083 -0.00069804473481558499 0 0.010634710242083914 -0.00043328940452304381 0 0.010818808197713936 -0.0010351963028350866 0 0.0089298822066770471 8.4320132682855079e-05 0 0.0089869911224266293 2.1739332561254725e-05 0 0.008922425184182757 7.1150615879937801e-06 0 0.009024581486920891 -9.1221769730752186e-05 0 0.0089869911224266293 2.1739332561254725e-05 0 0.008922425184182757 7.1150615879937801e-06 0 0.0095262170675724667 -0.00038411983599219505 0 0.0098817277565130968 -0.00051474103640184203 0 0.010065396467924998 -0.00058261009912998212 0 0.0098817277565130968 -0.00051474103640184203 0 0.010634710242083914 -0.00043328940452304381 0 0.010818808197713936 -0.0010351963028350866 0 0.011239263130969141 -0.00056528639796549034 0 0.011556760541725511 -0.0007950537394463312 0 0.010818808197713936 -0.0010351963028350866 0 0.011239263130969141 -0.00056528639796549034 0 0.010634710242083914 -0.00043328940452304381 0 0.011239263130969141 -0.00056528639796549034 0 0.010874356678687278 7.8588350093345726e-05 0 0.011574821454221904 -5.6999185307689462e-05 0 0.011239263130969141 -0.00056528639796549034 0 0.010874356678687278 7.8588350093345726e-05 0 0.011574821454221904 -5.6999185307689462e-05 0 0.011327640722186113 0.00032811478411904607 0 0.010874356678687278 7.8588350093345726e-05 0 0.011327640722186113 0.00032811478411904607 0 0.010874356678687278 7.8588350093345726e-05 0 0.011049149454373635 0.00080703165757020547 0 0.010874356678687278 7.8588350093345726e-05 0 0.010342959981642388 0.00058398461537405267 0 0.010196108930091641 9.1887153790482027e-05 0 0.010874356678687278 7.8588350093345726e-05 0 0.010342959981642388 0.00058398461537405267 0 0.011049149454373635 0.00080703165757020547 0 0.010634710242083914 -0.00043328940452304381 0 0.010874356678687278 7.8588350093345726e-05 0 0.010196108930091641 9.1887153790482027e-05 0 0.0097405023362025205 -0.00022329981666641621 0 0.0097917618675021981 0.00021048810354001827 0 0.010196108930091641 9.1887153790482027e-05 0 0.010342959981642388 0.00058398461537405267 0 0.010196108930091641 9.1887153790482027e-05 0 0.0098404624563903972 0.00051547716160733382 0 0.010342959981642388 0.00058398461537405267 0 0.0098404624563903972 0.00051547716160733382 0 0.00987924582920169 0.00083214664632232462 0 0.0097917618675021981 0.00021048810354001827 0 0.0098404624563903972 0.00051547716160733382 0 0.0096885997451356259 0.00038046359998238766 0 0.0097917618675021981 0.00021048810354001827 0 0.010196108930091641 9.1887153790482027e-05 0 0.0098404624563903972 0.00051547716160733382 0 0.0098404624563903972 0.00051547716160733382 0 0.0096885997451356259 0.00038046359998238766 0 0.0095346310593069049 0.00049268614878500427 0 0.0090574630475609066 -1.7387750011414759e-06 0 0.0095913798978482512 0.00057353186676476051 0 0.0095346310593069049 0.00049268614878500427 0 0.0097917618675021981 0.00021048810354001827 0 0.0096885997451356259 0.00038046359998238766 0 0.0095815003223570974 0.0002136543693698735 0 0.0095613976388821478 0.00033157219135184754 0 0.0096885997451356259 0.00038046359998238766 0 0.0095815003223570974 0.0002136543693698735 0 0.0095613976388821478 0.00033157219135184754 0 0.0096885997451356259 0.00038046359998238766 0 0.0095346310593069049 0.00049268614878500427 0 0.0096121643917584949 0.00055076218226220543 0 0.009880880434054445 0.00071633173392239287 0 0.0098404624563903972 0.00051547716160733382 0 0.0095346310593069049 0.00049268614878500427 0 0.00987924582920169 0.00083214664632232462 0 0.0095913798978482512 0.00057353186676476051 0 0.0095346310593069049 0.00049268614878500427 0 0.0099274657177763678 0.00079592484457116544 0 0.0095613976388821478 0.00033157219135184754 0 0.0095346310593069049 0.00049268614878500427 0 0.0094203196069589691 0.0002195187470499997 0 0.0095613976388821478 0.00033157219135184754 0 0.0094203196069589691 0.0002195187470499997 0 0.0095815003223570974 0.0002136543693698735 0 0.0090574630475609066 -1.7387750011414759e-06 0 0.0095346310593069049 0.00049268614878500427 0 0.0094203196069589691 0.0002195187470499997 0 0.0093860986340326552 5.9947218501410847e-05 0 0.0095815003223570974 0.0002136543693698735 0 0.0095844163510446605 3.6044069478395892e-05 0 0.0093860986340326552 5.9947218501410847e-05 0 0.0094203196069589691 0.0002195187470499997 0 0.0095815003223570974 0.0002136543693698735 0 0.0097917618675021981 0.00021048810354001827 0 0.0095815003223570974 0.0002136543693698735 0 0.0095844163510446605 3.6044069478395892e-05 0 0.0097405023362025205 -0.00022329981666641621 0 0.0097917618675021981 0.00021048810354001827 0 0.0095844163510446605 3.6044069478395892e-05 0 0.0097405023362025205 -0.00022329981666641621 0 0.0095844163510446605 3.6044069478395892e-05 0 0.0094458249934325292 -8.863146340830477e-05 0 0.0092528659038865167 -0.00010793474238789545 0 0.0092474028755905168 -0.00019135395587813205 0 0.0094458249934325292 -8.863146340830477e-05 0 0.0092528659038865167 -0.00010793474238789545 0 0.0093860986340326552 5.9947218501410847e-05 0 0.0094458249934325292 -8.863146340830477e-05 0 0.0093860986340326552 5.9947218501410847e-05 0 0.0095844163510446605 3.6044069478395892e-05 0 0.0094458249934325292 -8.863146340830477e-05 0 0.011777656609528682 -0.00018298022474864852 0 0.011836565061484563 -0.00024670846177488889 0 0.011840668324638553 -0.00015174858117573652 0 0.011836565061484563 -0.00024670846177488889 0 0.011840668324638553 -0.00015174858117573652 0 0.011915614823160198 -0.00018327123453962444 0 0.010557666584836249 0.00019256916979955917 0 0.012412535562310026 -1.7723788508992025e-06 0 0.010342959981642388 0.00058398461537405267 0 0.00987924582920169 0.00083214664632232462 0 0.010250615441882504 0.0011750407210851842 0 0.0095913798978482512 0.00057353186676476051 0 0.0099274657177763678 0.00079592484457116544 0 0.01028333514815807 0.0011235175538122537 0 0.0099274657177763678 0.00079592484457116544 0 0.01028333514815807 0.0011235175538122537 0 0.010334908433878459 0.001098940094573387 0 0.009880880434054445 0.00071633173392239287 0 0.01167878111175032 0.0003938339967861636 0 0.012412535562310026 -1.7723788508992025e-06 0 0.01167878111175032 0.0003938339967861636 0 0.013434754348886522 -0.00027039963788951952 0 0.012412535562310026 -1.7723788508992025e-06 0 0.014656826658563138 -0.00025074772606146833 0 0.014747724607917151 -0.00028906537802342877 0 0.014743110341484846 -0.00022419612793782968 0 0.01167878111175032 0.0003938339967861636 0 0.013876995425790122 0.00017408636662501068 0 0.012386728850877509 0.00017180389805588543 0 0.012582670280423546 0.00020093267560233164 0 0.012597744466903867 0.00035272678877629275 0 0.012734801317682348 -0.00042914450755532043 0 0.013218815946981681 0.00015193162843440841 0 0.013859400859500775 0.00058968900174558871 0 0.014747724607917151 -0.00028906537802342877 0 0.014743110341484846 -0.00022419612793782968 0 0.014804316465804147 -0.00024219321820060261 0 0.014071229122918852 7.1434879980333157e-05 0 0.014355861569470432 -5.3904998864021021e-05 0 0.012412535562310026 -1.7723788508992025e-06 0 0.014071229122918852 7.1434879980333157e-05 0 0.012655092576239863 -0.00039164224133978891 0 0.012734801317682348 -0.00042914450755532043 0 0.013218815946981681 0.00015193162843440841 0 0.010342959981642388 0.00058398461537405267 0 0.010250615441882504 0.0011750407210851842 0 0.011049149454373635 0.00080703165757020547 0 0.01167878111175032 0.0003938339967861636 0 0.011755485973472599 0.00051429927562551955 0 0.012386728850877509 0.00017180389805588543 0 0.012614294493816789 6.7263666125672833e-05 0 0.012582670280423546 0.00020093267560233164 0 0.012614294493816789 6.7263666125672833e-05 0 0.012582670280423546 0.00020093267560233164 0 0.012723446659121465 0.00016837215096999157 0 0.013876995425790122 0.00017408636662501068 0 0.013717197162578132 -4.9011099782733917e-05 0 0.012582670280423546 0.00020093267560233164 0 0.012597744466903867 0.00035272678877629275 0 0.012723446659121465 0.00016837215096999157 0 0.014477428453074412 -0.00010693232182587504 0 0.014555688809024726 -0.00021946682424490505 0 0.014559000851177941 -9.4449788595096996e-05 0 0.014450598902447763 -0.00013484420801934544 0 0.014586498732093488 -2.1085004860196754e-05 0 0.014556413238233595 -1.5785490278158833e-05 0 0.014477428453074412 -0.00010693232182587504 0 0.014559000851177941 -9.4449788595096996e-05 0 0.014586498732093488 -2.1085004860196754e-05 0 0.013876995425790122 0.00017408636662501068 0 0.014717012348296688 -4.2042144077449781e-05 0 0.014450598902447763 -0.00013484420801934544 0 0.01443924323460364 -0.00011926588285728239 0 0.014556413238233595 -1.5785490278158833e-05 0 0.013218815946981681 0.00015193162843440841 0 0.013859400859500775 0.00058968900174558871 0 0.013782091974531376 0.00069540247032015491 0 0.013876995425790122 0.00017408636662501068 0 0.014355861569470432 -5.3904998864021021e-05 0 0.014355861569470432 -5.3904998864021021e-05 0 0.014744218550500569 2.2030543766936464e-05 0 0.014847985012690251 1.9252406131854397e-06 0 0.014857929645399452 2.2991380086123542e-05 0 0.014866147971571745 2.1813688149529719e-05 0 0.014859112508361277 3.1947581075678667e-05 0 0.014849214719794501 1.4678130144141392e-05 0 0.014833344246597192 7.3721270537421718e-06 0 0.014847985012690251 1.9252406131854397e-06 0 0.014857929645399452 2.2991380086123542e-05 0 0.014849214719794501 1.4678130144141392e-05 0 0.014857929645399452 2.2991380086123542e-05 0 0.014859112508361277 3.1947581075678667e-05 0 0.014864157751688397 3.9377957425615534e-05 0 0.014857929645399452 2.2991380086123542e-05 0 0.014859112508361277 3.1947581075678667e-05 0 0.014849214719794501 1.4678130144141392e-05 0 0.014847985012690251 1.9252406131854397e-06 0 0.014849214719794501 1.4678130144141392e-05 0 0.014833344246597192 7.3721270537421718e-06 0 0.014355861569470432 -5.3904998864021021e-05 0 0.014896553838135955 -8.0159531806520373e-05 0 0.014852714961469183 -0.00019565409492499345 0 0.014806948285094516 -0.0001028761404943066 0 0.014788091081262868 -0.00018142196132349745 0 0.014804316465804147 -0.00024219321820060261 0 0.014852714961469183 -0.00019565409492499345 0 0.014788091081262868 -0.00018142196132349745 0 0.014743110341484846 -0.00022419612793782968 0 0.014804316465804147 -0.00024219321820060261 0 0.014788091081262868 -0.00018142196132349745 0 0.01464064580056572 -0.00010789392658626731 0 0.014656826658563138 -0.00025074772606146833 0 0.014725641963296492 -0.00014918780449902093 0 0.014656826658563138 -0.00025074772606146833 0 0.014743110341484846 -0.00022419612793782968 0 0.014725641963296492 -0.00014918780449902093 0 0.014743110341484846 -0.00022419612793782968 0 0.014788091081262868 -0.00018142196132349745 0 0.014725641963296492 -0.00014918780449902093 0 0.014806948285094516 -0.0001028761404943066 0 0.014725641963296492 -0.00014918780449902093 0 0.014778961308882762 6.8495279202889093e-06 0 0.014806948285094516 -0.0001028761404943066 0 0.014788091081262868 -0.00018142196132349745 0 0.014725641963296492 -0.00014918780449902093 0 0.01464064580056572 -0.00010789392658626731 0 0.014725641963296492 -0.00014918780449902093 0 0.014778961308882762 6.8495279202889093e-06 0 0.014729802581533183 -0.00013870674497134608 0 0.014704129136941933 -0.00022768841112622137 0 0.01478350466751463 -0.00011529609612568187 0 0.011990673167947292 -0.0006185439915436234 0 0.011951265983630225 -0.00063850333688265817 0 0.01200399864438534 -0.00053144457138589298 0 0.013368791279253629 -0.00044847280971840886 0 0.013408327640773363 -0.00030779763159079698 0 0.011990673167947292 -0.0006185439915436234 0 0.012031595677413248 -0.00057085433037729527 0 0.01200399864438534 -0.00053144457138589298 0 0.012031595677413248 -0.00057085433037729527 0 0.01208205915619223 -0.00058289004116046964 0 0.012037528812898478 -0.00059637479333544247 0 0.012162443967082541 -0.00053237621650866526 0 0.012031595677413248 -0.00057085433037729527 0 0.01208205915619223 -0.00058289004116046964 0 0.012069439635376827 -0.00061169255837085796 0 0.01208205915619223 -0.00058289004116046964 0 0.01203033127547244 -0.00061932985524479833 0 0.012069439635376827 -0.00061169255837085796 0 0.01203033127547244 -0.00061932985524479833 0 0.012022829545964862 -0.00063848975370876598 0 0.01208205915619223 -0.00058289004116046964 0 0.01203033127547244 -0.00061932985524479833 0 0.012037528812898478 -0.00059637479333544247 0 0.011990673167947292 -0.0006185439915436234 0 0.01203033127547244 -0.00061932985524479833 0 0.012037528812898478 -0.00059637479333544247 0 0.011990673167947292 -0.0006185439915436234 0 0.012031595677413248 -0.00057085433037729527 0 0.012037528812898478 -0.00059637479333544247 0 0.011990673167947292 -0.0006185439915436234 0 0.01203033127547244 -0.00061932985524479833 0 0.011987442319943994 -0.00064584050611942833 0 0.01203033127547244 -0.00061932985524479833 0 0.012022829545964862 -0.00063848975370876598 0 0.011987442319943994 -0.00064584050611942833 0 0.012041734101548339 -0.00064194563144405361 0 0.012069439635376827 -0.00061169255837085796 0 0.012022829545964862 -0.00063848975370876598 0 0.012041734101548339 -0.00064194563144405361 0 0.012022829545964862 -0.00063848975370876598 0 0.011995211737095267 -0.00065794523501451398 0 0.012022829545964862 -0.00063848975370876598 0 0.011995211737095267 -0.00065794523501451398 0 0.011987442319943994 -0.00064584050611942833 0 0.011952569089943119 -0.00065791319577223446 0 0.011995211737095267 -0.00065794523501451398 0 0.011987442319943994 -0.00064584050611942833 0 0.011952569089943119 -0.00065791319577223446 0 0.011987442319943994 -0.00064584050611942833 0 0.011952224191184635 -0.00065073450615477991 0 0.011990673167947292 -0.0006185439915436234 0 0.011987442319943994 -0.00064584050611942833 0 0.011952224191184635 -0.00065073450615477991 0 0.011990673167947292 -0.0006185439915436234 0 0.011951265983630225 -0.00063850333688265817 0 0.011952224191184635 -0.00065073450615477991 0 0.011967775490374101 -0.00064984855104032444 0 0.011951265983630225 -0.00063850333688265817 0 0.011952224191184635 -0.00065073450615477991 0 0.014620615639587107 -0.00032982969302445056 0 0.014704129136941933 -0.00022768841112622137 0 0.014630209703739778 -0.00024205294398148969 0 0.01283056223660948 -0.00024555141432277693 0 0.013368791279253629 -0.00044847280971840886 0 0.014704129136941933 -0.00022768841112622137 0 0.014630209703739778 -0.00024205294398148969 0 0.014641448033329564 -0.00019082572456210475 0 0.01283056223660948 -0.00024555141432277693 0 0.013717197162578132 -4.9011099782733917e-05 0 0.012846769928912595 -8.4188085142821136e-06 0 0.012614294493816789 6.7263666125672833e-05 0 0.012723446659121465 0.00016837215096999157 0 0.014620615639587107 -0.00032982969302445056 0 0.014630209703739778 -0.00024205294398148969 0 0.014555688809024726 -0.00021946682424490505 0 0.014630209703739778 -0.00024205294398148969 0 0.014555688809024726 -0.00021946682424490505 0 0.014641448033329564 -0.00019082572456210475 0 0.014555688809024726 -0.00021946682424490505 0 0.014559000851177941 -9.4449788595096996e-05 0 0.01462694307147659 -0.00011787244828974171 0 0.014555688809024726 -0.00021946682424490505 0 0.014641448033329564 -0.00019082572456210475 0 0.01462694307147659 -0.00011787244828974171 0 0.014729802581533183 -0.00013870674497134608 0 0.014704129136941933 -0.00022768841112622137 0 0.014693132459201477 -0.00013344337431267416 0 0.014704129136941933 -0.00022768841112622137 0 0.014641448033329564 -0.00019082572456210475 0 0.014693132459201477 -0.00013344337431267416 0 0.014641448033329564 -0.00019082572456210475 0 0.014693132459201477 -0.00013344337431267416 0 0.01462694307147659 -0.00011787244828974171 0 0.014693132459201477 -0.00013344337431267416 0 0.014682393540766728 -8.541804676045872e-05 0 0.014738750974622305 -8.0051056567861963e-05 0 0.014682393540766728 -8.541804676045872e-05 0 0.014648723085254729 -5.7592625956488256e-05 0 0.01462694307147659 -0.00011787244828974171 0 0.014693132459201477 -0.00013344337431267416 0 0.014682393540766728 -8.541804676045872e-05 0 0.01462694307147659 -0.00011787244828974171 0 0.014682393540766728 -8.541804676045872e-05 0 0.014648723085254729 -5.7592625956488256e-05 0 0.01471094855509167 -4.1526826441244773e-05 0 0.014682393540766728 -8.541804676045872e-05 0 0.01471094855509167 -4.1526826441244773e-05 0 0.014738750974622305 -8.0051056567861963e-05 0 0.014559000851177941 -9.4449788595096996e-05 0 0.01462694307147659 -0.00011787244828974171 0 0.014604640476005131 -6.5392017713870342e-05 0 0.014648723085254729 -5.7592625956488256e-05 0 0.01462694307147659 -0.00011787244828974171 0 0.014604640476005131 -6.5392017713870342e-05 0 0.014604640476005131 -6.5392017713870342e-05 0 0.014586498732093488 -2.1085004860196754e-05 0 0.014623291135222817 -3.6831057450388536e-05 0 0.014648723085254729 -5.7592625956488256e-05 0 0.014604640476005131 -6.5392017713870342e-05 0 0.014623291135222817 -3.6831057450388536e-05 0 0.014559000851177941 -9.4449788595096996e-05 0 0.014604640476005131 -6.5392017713870342e-05 0 0.014586498732093488 -2.1085004860196754e-05 0 0.014648723085254729 -5.7592625956488256e-05 0 0.014623291135222817 -3.6831057450388536e-05 0 0.014657343374157432 -1.7341458810108214e-06 0 0.014586498732093488 -2.1085004860196754e-05 0 0.014623291135222817 -3.6831057450388536e-05 0 0.014657343374157432 -1.7341458810108214e-06 0 0.014586498732093488 -2.1085004860196754e-05 0 0.014556413238233595 -1.5785490278158833e-05 0 0.014674038132263303 5.5575978572799116e-05 0 0.014744218550500569 2.2030543766936464e-05 0 0.014759045166609086 4.923007781471229e-05 0 0.014586498732093488 -2.1085004860196754e-05 0 0.014657343374157432 -1.7341458810108214e-06 0 0.014674038132263303 5.5575978572799116e-05 0 0.014857929645399452 2.2991380086123542e-05 0 0.014866147971571745 2.1813688149529719e-05 0 0.014864157751688397 3.9377957425615534e-05 0 0.014866147971571745 2.1813688149529719e-05 0 0.014864157751688397 3.9377957425615534e-05 0 0.014863178421468759 6.5506651049075971e-05 0 0.01471918020873725 7.6112310567871995e-06 0 0.014773547315904797 4.8283175090935841e-05 0 0.014674038132263303 5.5575978572799116e-05 0 0.01471094855509167 -4.1526826441244773e-05 0 0.01471918020873725 7.6112310567871995e-06 0 0.014767308198279178 -1.7217436002116153e-05 0 0.01471094855509167 -4.1526826441244773e-05 0 0.014657343374157432 -1.7341458810108214e-06 0 0.01471918020873725 7.6112310567871995e-06 0 0.014648723085254729 -5.7592625956488256e-05 0 0.01471094855509167 -4.1526826441244773e-05 0 0.014657343374157432 -1.7341458810108214e-06 0 0.014657343374157432 -1.7341458810108214e-06 0 0.01471918020873725 7.6112310567871995e-06 0 0.014674038132263303 5.5575978572799116e-05 0 0.01471918020873725 7.6112310567871995e-06 0 0.014767308198279178 -1.7217436002116153e-05 0 0.014773547315904797 4.8283175090935841e-05 0 0.014801456058548296 3.6532768539468375e-05 0 0.014767308198279178 -1.7217436002116153e-05 0 0.014773547315904797 4.8283175090935841e-05 0 0.014767308198279178 -1.7217436002116153e-05 0 0.01478350466751463 -0.00011529609612568187 0 0.014838222113139442 -8.0090398231966531e-06 0 0.014767308198279178 -1.7217436002116153e-05 0 0.014738750974622305 -8.0051056567861963e-05 0 0.01478350466751463 -0.00011529609612568187 0 0.01471094855509167 -4.1526826441244773e-05 0 0.014767308198279178 -1.7217436002116153e-05 0 0.014738750974622305 -8.0051056567861963e-05 0 0.014729802581533183 -0.00013870674497134608 0 0.014693132459201477 -0.00013344337431267416 0 0.014738750974622305 -8.0051056567861963e-05 0 0.014729802581533183 -0.00013870674497134608 0 0.014738750974622305 -8.0051056567861963e-05 0 0.01478350466751463 -0.00011529609612568187 0 0.012162443967082541 -0.00053237621650866526 0 0.012031595677413248 -0.00057085433037729527 0 0.012182168080416169 -0.00047425965795451676 0 0.013408327640773363 -0.00030779763159079698 0 0.013403592246480918 -0.00021701317177798702 0 0.012031595677413248 -0.00057085433037729527 0 0.01200399864438534 -0.00053144457138589298 0 0.012193528364441798 -0.0003134144146631959 0 0.011747691582368746 -0.00071924906259206503 0 0.013403592246480918 -0.00021701317177798702 0 0.014801456058548296 3.6532768539468375e-05 0 0.014838222113139442 -8.0090398231966531e-06 0 0.014821592121769984 5.8159662815007398e-05 0 0.014801456058548296 3.6532768539468375e-05 0 0.014767308198279178 -1.7217436002116153e-05 0 0.014838222113139442 -8.0090398231966531e-06 0 0.013403592246480918 -0.00021701317177798702 0 0.014841807990335427 0.00020433960353936578 0 0.014838222113139442 -8.0090398231966531e-06 0 0.014821592121769984 5.8159662815007398e-05 0 0.014841190548872056 7.6334932381128527e-05 0 0.014801456058548296 3.6532768539468375e-05 0 0.014821592121769984 5.8159662815007398e-05 0 0.014809740570843395 7.9868406544817249e-05 0 0.014821592121769984 5.8159662815007398e-05 0 0.014821940668499092 8.5313032959080589e-05 0 0.014809740570843395 7.9868406544817249e-05 0 0.014821592121769984 5.8159662815007398e-05 0 0.014821940668499092 8.5313032959080589e-05 0 0.014841190548872056 7.6334932381128527e-05 0 0.014821940668499092 8.5313032959080589e-05 0 0.014818377392565 9.5144198238658761e-05 0 0.01482084872504133 9.841796569345496e-05 0 0.014821940668499092 8.5313032959080589e-05 0 0.01482084872504133 9.841796569345496e-05 0 0.014841190548872056 7.6334932381128527e-05 0 0.014821940668499092 8.5313032959080589e-05 0 0.014818377392565 9.5144198238658761e-05 0 0.014809740570843395 7.9868406544817249e-05 0 0.014818377392565 9.5144198238658761e-05 0 0.01482084872504133 9.841796569345496e-05 0 0.014813619501886558 0.00010650130298327417 0 0.014827363653341157 8.5399140594026533e-05 0 0.014809836241059617 8.5110036227687994e-05 0 0.014809740570843395 7.9868406544817249e-05 0 0.014818377392565 9.5144198238658761e-05 0 0.014827363653341157 8.5399140594026533e-05 0 0.014809740570843395 7.9868406544817249e-05 0 0.014809836241059617 8.5110036227687994e-05 0 0.014809740570843395 7.9868406544817249e-05 0 0.014773547315904797 4.8283175090935841e-05 0 0.014801456058548296 3.6532768539468375e-05 0 0.014809740570843395 7.9868406544817249e-05 0 0.014773547315904797 4.8283175090935841e-05 0 0.014809836241059617 8.5110036227687994e-05 0 0.014863178421468759 6.5506651049075971e-05 0 0.014868403297882991 6.463623630676537e-05 0 0.014809836241059617 8.5110036227687994e-05 0 0.014773547315904797 4.8283175090935841e-05 0 0.014674038132263303 5.5575978572799116e-05 0 0.014801164014004277 8.1041507214853233e-05 0 0.014759045166609086 4.923007781471229e-05 0 0.01486630870190749 5.3617174050263248e-05 0 0.014868403297882991 6.463623630676537e-05 0 0.014866962376884977 4.797681817309674e-05 0 0.014859112508361277 3.1947581075678667e-05 0 0.014864157751688397 3.9377957425615534e-05 0 0.01486630870190749 5.3617174050263248e-05 0 0.014864157751688397 3.9377957425615534e-05 0 0.014863178421468759 6.5506651049075971e-05 0 0.01486630870190749 5.3617174050263248e-05 0 0.014863178421468759 6.5506651049075971e-05 0 0.01486630870190749 5.3617174050263248e-05 0 0.014868403297882991 6.463623630676537e-05 0 0.014868403297882991 6.463623630676537e-05 0 0.014870385581605625 6.4383560971968527e-05 0 0.01487996919924043 6.1528839309295998e-05 0 0.014868403297882991 6.463623630676537e-05 0 0.014866962376884977 4.797681817309674e-05 0 0.01487996919924043 6.1528839309295998e-05 0 0.014809836241059617 8.5110036227687994e-05 0 0.014868403297882991 6.463623630676537e-05 0 0.014870385581605625 6.4383560971968527e-05 0 0.014827363653341157 8.5399140594026533e-05 0 0.014809836241059617 8.5110036227687994e-05 0 0.014870385581605625 6.4383560971968527e-05 0 0.014870385581605625 6.4383560971968527e-05 0 0.01487996919924043 6.1528839309295998e-05 0 0.014895598893041531 6.6021230286691988e-05 0 0.014870385581605625 6.4383560971968527e-05 0 0.014909001096763528 5.0848848824905077e-05 0 0.014895598893041531 6.6021230286691988e-05 0 0.014870385581605625 6.4383560971968527e-05 0 0.014909001096763528 5.0848848824905077e-05 0 0.014923217030122577 4.1376821226886256e-05 0 0.014875429284323612 6.6753671606465458e-05 0 0.014886826277438349 5.7457881336606921e-05 0 0.014846962500882296 7.1277376446577051e-05 0 0.014816815854244447 9.9033214067025077e-05 0 0.014831211822179275 8.550907877729805e-05 0 0.014870385581605625 6.4383560971968527e-05 0 0.014846962500882296 7.1277376446577051e-05 0 0.014831211822179275 8.550907877729805e-05 0 0.014846962500882296 7.1277376446577051e-05 0 0.014816815854244447 9.9033214067025077e-05 0 0.014829078856249728 6.7289495905743958e-05 0 0.014816815854244447 9.9033214067025077e-05 0 0.014829078856249728 6.7289495905743958e-05 0 0.014800378438978745 9.680027360235023e-05 0 0.014818377392565 9.5144198238658761e-05 0 0.014813619501886558 0.00010650130298327417 0 0.014831211822179275 8.550907877729805e-05 0 0.014816815854244447 9.9033214067025077e-05 0 0.014813619501886558 0.00010650130298327417 0 0.014831211822179275 8.550907877729805e-05 0 0.014816815854244447 9.9033214067025077e-05 0 0.014813619501886558 0.00010650130298327417 0 0.014794134469883136 0.00012020707289480449 0 0.014818377392565 9.5144198238658761e-05 0 0.014827363653341157 8.5399140594026533e-05 0 0.014831211822179275 8.550907877729805e-05 0 0.014827363653341157 8.5399140594026533e-05 0 0.014870385581605625 6.4383560971968527e-05 0 0.014831211822179275 8.550907877729805e-05 0 0.014833344246597192 7.3721270537421718e-06 0 0.014778961308882762 6.8495279202889093e-06 0 0.014860536104121341 5.577706481418383e-05 0 0.014755836884874919 5.3872344540001355e-05 0 0.01466917891379666 -1.1156743988034267e-05 0 0.014778961308882762 6.8495279202889093e-06 0 0.01464064580056572 -0.00010789392658626731 0 0.01466917891379666 -1.1156743988034267e-05 0 0.014778961308882762 6.8495279202889093e-06 0 0.014896553838135955 -8.0159531806520373e-05 0 0.014752319327238568 2.7330792203185763e-05 0 0.014755836884874919 5.3872344540001355e-05 0 0.014778961308882762 6.8495279202889093e-06 0 0.014860536104121341 5.577706481418383e-05 0 0.014833344246597192 7.3721270537421718e-06 0 0.014860536104121341 5.577706481418383e-05 0 0.014866962376884977 4.797681817309674e-05 0 0.014859112508361277 3.1947581075678667e-05 0 0.014833344246597192 7.3721270537421718e-06 0 0.014866962376884977 4.797681817309674e-05 0 0.014859112508361277 3.1947581075678667e-05 0 0.01486630870190749 5.3617174050263248e-05 0 0.014866962376884977 4.797681817309674e-05 0 0.014860536104121341 5.577706481418383e-05 0 0.014866962376884977 4.797681817309674e-05 0 0.01487996919924043 6.1528839309295998e-05 0 0.014860536104121341 5.577706481418383e-05 0 0.01487996919924043 6.1528839309295998e-05 0 0.014895598893041531 6.6021230286691988e-05 0 0.014909001096763528 5.0848848824905077e-05 0 0.014895598893041531 6.6021230286691988e-05 0 0.014908161006687909 6.2352492243724001e-05 0 0.014895598893041531 6.6021230286691988e-05 0 0.014908161006687909 6.2352492243724001e-05 0 0.014889016974709081 8.4907534643466033e-05 0 0.014908161006687909 6.2352492243724001e-05 0 0.014889016974709081 8.4907534643466033e-05 0 0.014913963062769826 6.2195839742078049e-05 0 0.014889016974709081 8.4907534643466033e-05 0 0.014864422533555521 0.00012319220664073761 0 0.014913963062769826 6.2195839742078049e-05 0 0.014860536104121341 5.577706481418383e-05 0 0.014895598893041531 6.6021230286691988e-05 0 0.014889016974709081 8.4907534643466033e-05 0 0.014860536104121341 5.577706481418383e-05 0 0.014889016974709081 8.4907534643466033e-05 0 0.014864422533555521 0.00012319220664073761 0 0.014755836884874919 5.3872344540001355e-05 0 0.014860536104121341 5.577706481418383e-05 0 0.014864422533555521 0.00012319220664073761 0 0.014797506146679421 0.00020651055101246038 0 0.014862978733329864 0.00013522504005923601 0 0.014652969117773 0.00012074610472087791 0 0.014633716199559658 0.00034622667969411977 0 0.014864422533555521 0.00012319220664073761 0 0.014973522941772349 7.5776371567638055e-05 0 0.014864422533555521 0.00012319220664073761 0 0.014937236768889878 5.468310715778724e-05 0 0.014652969117773 0.00012074610472087791 0 0.014755836884874919 5.3872344540001355e-05 0 0.014864422533555521 0.00012319220664073761 0 0.014979387281384671 2.7198448323744983e-05 0 0.014937236768889878 5.468310715778724e-05 0 0.014957953818015271 2.6801883571338829e-05 0 0.014973522941772349 7.5776371567638055e-05 0 0.014979387281384671 2.7198448323744983e-05 0 0.014937236768889878 5.468310715778724e-05 0 0.014864422533555521 0.00012319220664073761 0 0.014937236768889878 5.468310715778724e-05 0 0.014913963062769826 6.2195839742078049e-05 0 0.014937236768889878 5.468310715778724e-05 0 0.014957953818015271 2.6801883571338829e-05 0 0.014913963062769826 6.2195839742078049e-05 0 0.014942072639729525 3.703742456181709e-05 0 0.014913963062769826 6.2195839742078049e-05 0 0.014935270702757074 4.032969617116546e-05 0 0.014957953818015271 2.6801883571338829e-05 0 0.014942072639729525 3.703742456181709e-05 0 0.014913963062769826 6.2195839742078049e-05 0 0.014909001096763528 5.0848848824905077e-05 0 0.014908161006687909 6.2352492243724001e-05 0 0.014935270702757074 4.032969617116546e-05 0 0.014908161006687909 6.2352492243724001e-05 0 0.014913963062769826 6.2195839742078049e-05 0 0.014935270702757074 4.032969617116546e-05 0 0.014942072639729525 3.703742456181709e-05 0 0.014935270702757074 4.032969617116546e-05 0 0.014967004294462825 1.9641557281145693e-05 0 0.014957953818015271 2.6801883571338829e-05 0 0.014967004294462825 1.9641557281145693e-05 0 0.014999963080320582 5.8637785860780004e-09 0 0.014935270702757074 4.032969617116546e-05 0 0.014967004294462825 1.9641557281145693e-05 0 0.01497185914202463 1.6932315450231454e-05 0 0.014999958161765508 1.3815981892131832e-08 0 0.014967004294462825 1.9641557281145693e-05 0 0.01497185914202463 1.6932315450231454e-05 0 0.014999958161765508 1.3815981892131832e-08 0 0.014967004294462825 1.9641557281145693e-05 0 0.014999963080320582 5.8637785860780004e-09 0 0.014957953818015271 2.6801883571338829e-05 0 0.014942072639729525 3.703742456181709e-05 0 0.014967004294462825 1.9641557281145693e-05 0 0.014957953818015271 2.6801883571338829e-05 0 0.014999963080320582 5.8637785860780004e-09 0 0.014984437558421299 1.0936015012601154e-05 0 0.014999963080320582 5.8637785860780004e-09 0 0.014999982534909702 7.2490786435259472e-09 0 0.014984437558421299 1.0936015012601154e-05 0 0.014993157427126173 8.5389554410618117e-06 0 0.014999982534909702 7.2490786435259472e-09 0 0.014984437558421299 1.0936015012601154e-05 0 0.014979387281384671 2.7198448323744983e-05 0 0.014957953818015271 2.6801883571338829e-05 0 0.014984437558421299 1.0936015012601154e-05 0 0.014979387281384671 2.7198448323744983e-05 0 0.014993157427126173 8.5389554410618117e-06 0 0.014984437558421299 1.0936015012601154e-05 0 0.014958486857192305 2.4667169829419492e-05 0 0.014934094055428754 3.7508590750084376e-05 0 0.014961087848458459 2.347290826898347e-05 0 0.014902648159131063 2.9508034759631598e-05 0 0.014927555899147677 -5.4821241048163746e-07 0 0.014846053028703459 3.3795058095138269e-05 0 0.014868893128451112 -5.340702347992652e-06 0 0.014800484768496743 4.1126902736607633e-05 0 0.014846962500882296 7.1277376446577051e-05 0 0.014846053028703459 3.3795058095138269e-05 0 0.014829078856249728 6.7289495905743958e-05 0 0.014846053028703459 3.3795058095138269e-05 0 0.014829078856249728 6.7289495905743958e-05 0 0.014800484768496743 4.1126902736607633e-05 0 0.014923217030122577 4.1376821226886256e-05 0 0.014958486857192305 2.4667169829419492e-05 0 0.014934094055428754 3.7508590750084376e-05 0 0.014886826277438349 5.7457881336606921e-05 0 0.014902648159131063 2.9508034759631598e-05 0 0.014909001096763528 5.0848848824905077e-05 0 0.014923217030122577 4.1376821226886256e-05 0 0.014934094055428754 3.7508590750084376e-05 0 0.014909001096763528 5.0848848824905077e-05 0 0.014935270702757074 4.032969617116546e-05 0 0.014934094055428754 3.7508590750084376e-05 0 0.014935270702757074 4.032969617116546e-05 0 0.014934094055428754 3.7508590750084376e-05 0 0.014961087848458459 2.347290826898347e-05 0 0.014961087848458459 2.347290826898347e-05 0 0.014999963505258035 1.1968363744462058e-08 0 0.014978969545203179 1.3677914807558725e-05 0 0.014961087848458459 2.347290826898347e-05 0 0.01497185914202463 1.6932315450231454e-05 0 0.014999963505258035 1.1968363744462058e-08 0 0.014935270702757074 4.032969617116546e-05 0 0.014961087848458459 2.347290826898347e-05 0 0.01497185914202463 1.6932315450231454e-05 0 0.014999958161765508 1.3815981892131832e-08 0 0.01497185914202463 1.6932315450231454e-05 0 0.014999963505258035 1.1968363744462058e-08 0 0.014999963505258035 1.1968363744462058e-08 0 0.014978969545203179 1.3677914807558725e-05 0 0.014999970883227442 1.3367875441832363e-08 0 0.014958486857192305 2.4667169829419492e-05 0 0.014961087848458459 2.347290826898347e-05 0 0.014978969545203179 1.3677914807558725e-05 0 0.014958486857192305 2.4667169829419492e-05 0 0.014978969545203179 1.3677914807558725e-05 0 0.014984616181340201 1.0694426926989835e-05 0 0.014978969545203179 1.3677914807558725e-05 0 0.014999970883227442 1.3367875441832363e-08 0 0.014984616181340201 1.0694426926989835e-05 0 0.014999964301054035 -7.5697932128689612e-09 0 0.014927555899147677 -5.4821241048163746e-07 0 0.014999970883227442 1.3367875441832363e-08 0 0.01499999196723645 -1.7666201935309646e-09 0 0.014984616181340201 1.0694426926989835e-05 0 0.014999683667581145 3.8361171995631722e-09 0 0.014903499854611915 -1.9246364767147882e-06 0 0.014868893128451112 -5.340702347992652e-06 0 0.014999683667581145 3.8361171995631722e-09 0 0.014903499854611915 -1.9246364767147882e-06 0 0.014999845614383675 -1.0104662992442743e-08 0 0.014903499854611915 -1.9246364767147882e-06 0 0.014868893128451112 -5.340702347992652e-06 0 0.01477876974405022 9.2430325044327132e-06 0 0.014999845614383675 -1.0104662992442743e-08 0 0.014869143086326047 -3.4867704698901077e-06 0 0.014999767414864234 -2.0021532558360446e-09 0 0.014903499854611915 -1.9246364767147882e-06 0 0.014999845614383675 -1.0104662992442743e-08 0 0.014869143086326047 -3.4867704698901077e-06 0 0.014903499854611915 -1.9246364767147882e-06 0 0.014869143086326047 -3.4867704698901077e-06 0 0.01477876974405022 9.2430325044327132e-06 0 0.014869143086326047 -3.4867704698901077e-06 0 0.014726608873425142 1.7242018580835819e-05 0 0.014850920123508931 -5.5957313987148681e-06 0 0.014726608873425142 1.7242018580835819e-05 0 0.014637789384869515 5.6569391848138294e-05 0 0.01477876974405022 9.2430325044327132e-06 0 0.014869143086326047 -3.4867704698901077e-06 0 0.014726608873425142 1.7242018580835819e-05 0 0.01477876974405022 9.2430325044327132e-06 0 0.014637789384869515 5.6569391848138294e-05 0 0.014574973672336218 6.4731336691484847e-05 0 0.014466250787206194 0.00017817328222769345 0 0.014637789384869515 5.6569391848138294e-05 0 0.01477876974405022 9.2430325044327132e-06 0 0.01469143273072206 6.347473779895234e-05 0 0.014637789384869515 5.6569391848138294e-05 0 0.01469143273072206 6.347473779895234e-05 0 0.014466250787206194 0.00017817328222769345 0 0.014726608873425142 1.7242018580835819e-05 0 0.014637789384869515 5.6569391848138294e-05 0 0.014574973672336218 6.4731336691484847e-05 0 0.014726608873425142 1.7242018580835819e-05 0 0.014574973672336218 6.4731336691484847e-05 0 0.014684163543877167 7.8087136082090085e-06 0 0.014868893128451112 -5.340702347992652e-06 0 0.01477876974405022 9.2430325044327132e-06 0 0.014800484768496743 4.1126902736607633e-05 0 0.01477876974405022 9.2430325044327132e-06 0 0.01469143273072206 6.347473779895234e-05 0 0.014800484768496743 4.1126902736607633e-05 0 0.01469143273072206 6.347473779895234e-05 0 0.014800484768496743 4.1126902736607633e-05 0 0.014722853677950355 0.000145485897979003 0 0.014829078856249728 6.7289495905743958e-05 0 0.014800484768496743 4.1126902736607633e-05 0 0.014800378438978745 9.680027360235023e-05 0 0.014800484768496743 4.1126902736607633e-05 0 0.014800378438978745 9.680027360235023e-05 0 0.014722853677950355 0.000145485897979003 0 0.014800378438978745 9.680027360235023e-05 0 0.014794134469883136 0.00012020707289480449 0 0.014722853677950355 0.000145485897979003 0 0.014816815854244447 9.9033214067025077e-05 0 0.014800378438978745 9.680027360235023e-05 0 0.014794134469883136 0.00012020707289480449 0 0.014716728805665099 0.00016592443285225934 0 0.014725245888934957 0.00015034786071463544 0 0.014794134469883136 0.00012020707289480449 0 0.014811966323131207 0.00011498069799645191 0 0.014722853677950355 0.000145485897979003 0 0.014813619501886558 0.00010650130298327417 0 0.014794134469883136 0.00012020707289480449 0 0.014811966323131207 0.00011498069799645191 0 0.01482084872504133 9.841796569345496e-05 0 0.014813619501886558 0.00010650130298327417 0 0.014811966323131207 0.00011498069799645191 0 0.014666487748293449 0.00028740887589886696 0 0.01466716465064203 0.00029721426853765312 0 0.014722853677950355 0.000145485897979003 0 0.014077432836358168 0.00016541352756489322 0 0.014389004731725356 0.0001709126307019859 0 0.01469143273072206 6.347473779895234e-05 0 0.014722853677950355 0.000145485897979003 0 0.014466250787206194 0.00017817328222769345 0 0.01466716465064203 0.00029721426853765312 0 0.014722853677950355 0.000145485897979003 0 0.014466250787206194 0.00017817328222769345 0 0.014574973672336218 6.4731336691484847e-05 0 0.014466250787206194 0.00017817328222769345 0 0.014454682173897894 9.7765767069450028e-05 0 0.014574973672336218 6.4731336691484847e-05 0 0.014454682173897894 9.7765767069450028e-05 0 0.014512678574026282 3.2380090620239487e-05 0 0.014263928425596428 5.314489050606417e-05 0 0.014437874548773091 -5.191142006639377e-05 0 0.014512678574026282 3.2380090620239487e-05 0 0.014454682173897894 9.7765767069450028e-05 0 0.014263928425596428 5.314489050606417e-05 0 0.014512678574026282 3.2380090620239487e-05 0 0.013521536617460157 0.00012088322726248246 0 0.014466250787206194 0.00017817328222769345 0 0.014263928425596428 5.314489050606417e-05 0 0.014466250787206194 0.00017817328222769345 0 0.014454682173897894 9.7765767069450028e-05 0 0.014263928425596428 5.314489050606417e-05 0 0.013521536617460157 0.00012088322726248246 0 0.014263928425596428 5.314489050606417e-05 0 0.01387540151214252 -9.8662026088230072e-05 0 0.014263928425596428 5.314489050606417e-05 0 0.01387540151214252 -9.8662026088230072e-05 0 0.01413214007059193 -0.00042445777822239505 0 0.01387540151214252 -9.8662026088230072e-05 0 0.01413214007059193 -0.00042445777822239505 0 0.013567440394536072 -0.00019120640377250404 0 0.014263928425596428 5.314489050606417e-05 0 0.014437874548773091 -5.191142006639377e-05 0 0.01413214007059193 -0.00042445777822239505 0 0.014437874548773091 -5.191142006639377e-05 0 0.01413214007059193 -0.00042445777822239505 0 0.014480300481469486 -0.00013667686088884918 0 0.012324143152811644 -0.00036880170308839434 0 0.01232775992764624 -0.00037452349589100597 0 0.012442772942387265 -0.00012859840561061883 0 0.013215282584934103 -0.000374853167113242 0 0.013460760613871726 -0.00013663619812238038 0 0.012324143152811644 -0.00036880170308839434 0 0.01232775992764624 -0.00037452349589100597 0 0.012379862152727241 -0.00037619160380790494 0 0.013215282584934103 -0.000374853167113242 0 0.012806521996685314 -0.00042341832390384114 0 0.01232775992764624 -0.00037452349589100597 0 0.012379862152727241 -0.00037619160380790494 0 0.012771625980003394 -0.00042510472844216703 0 0.012379862152727241 -0.00037619160380790494 0 0.012771625980003394 -0.00042510472844216703 0 0.012521259331715578 -0.00045548211550767818 0 0.012407648811810838 -0.00043304790004640447 0 0.012379862152727241 -0.00037619160380790494 0 0.012521259331715578 -0.00045548211550767818 0 0.013403592246480918 -0.00021701317177798702 0 0.013515863305700732 -0.00017708316730865711 0 0.014457586614997239 -7.9316889318186784e-05 0 0.014572493333806223 0.00017409845735083193 0 0.014630328899999221 0.00017799135269680347 0 0.012327065770010904 -0.00047392104251634448 0 0.012521259331715578 -0.00045548211550767818 0 0.012413724795873538 -0.00047221295428251153 0 0.012771625980003394 -0.00042510472844216703 0 0.012521259331715578 -0.00045548211550767818 0 0.012413724795873538 -0.00047221295428251153 0 0.014666487748293449 0.00028740887589886696 0 0.014572493333806223 0.00017409845735083193 0 0.014630328899999221 0.00017799135269680347 0 0.014077432836358168 0.00016541352756489322 0 0.013515863305700732 -0.00017708316730865711 0 0.014716728805665099 0.00016592443285225934 0 0.014841807990335427 0.00020433960353936578 0 0.01482084872504133 9.841796569345496e-05 0 0.014811966323131207 0.00011498069799645191 0 0.014841190548872056 7.6334932381128527e-05 0 0.014666487748293449 0.00028740887589886696 0 0.01466716465064203 0.00029721426853765312 0 0.014630328899999221 0.00017799135269680347 0 0.01413214007059193 -0.00042445777822239505 0 0.012771625980003394 -0.00042510472844216703 0 0.013567440394536072 -0.00019120640377250404 0 0.013521536617460157 0.00012088322726248246 0 0.012771625980003394 -0.00042510472844216703 0 0.012413724795873538 -0.00047221295428251153 0 0.013521536617460157 0.00012088322726248246 0 0.012771625980003394 -0.00042510472844216703 0 0.013567440394536072 -0.00019120640377250404 0 0.013521536617460157 0.00012088322726248246 0 0.01387540151214252 -9.8662026088230072e-05 0 0.013567440394536072 -0.00019120640377250404 0 0.014199777655889954 -5.9411511271585157e-06 0 0.013820235329323742 0.00011927197268725355 0 0.01440664124538164 9.3268330784494091e-05 0 0.013820235329323742 0.00011927197268725355 0 0.014123205877497338 2.894595596315383e-05 0 0.013973645743370613 1.8880285825930943e-05 0 0.014199777655889954 -5.9411511271585157e-06 0 0.013820235329323742 0.00011927197268725355 0 0.014123205877497338 2.894595596315383e-05 0 0.01357664057212701 -0.00023450519952365582 0 0.013820235329323742 0.00011927197268725355 0 0.013973645743370613 1.8880285825930943e-05 0 0.01357664057212701 -0.00023450519952365582 0 0.013173937879323991 -0.00018991461736157415 0 0.013820235329323742 0.00011927197268725355 0 0.013173937879323991 -0.00018991461736157415 0 0.013820235329323742 0.00011927197268725355 0 0.012862801025033933 0.00010498835331855 0 0.013808721617929683 0.00011872226284740434 0 0.013638473494805483 7.7921089631472805e-05 0 0.012581684738716946 -0.00034333439579361472 0 0.013173937879323991 -0.00018991461736157415 0 0.012862801025033933 0.00010498835331855 0 0.012324143152811644 -0.00036880170308839434 0 0.012581684738716946 -0.00034333439579361472 0 0.012442772942387265 -0.00012859840561061883 0 0.013638473494805483 7.7921089631472805e-05 0 0.013460760613871726 -0.00013663619812238038 0 0.012581684738716946 -0.00034333439579361472 0 0.012862801025033933 0.00010498835331855 0 0.012442772942387265 -0.00012859840561061883 0 0.01440664124538164 9.3268330784494091e-05 0 0.014480300481469486 -0.00013667686088884918 0 0.014486459835270504 -2.2665493514833299e-05 0 0.014437874548773091 -5.191142006639377e-05 0 0.014480300481469486 -0.00013667686088884918 0 0.014486459835270504 -2.2665493514833299e-05 0 0.014199777655889954 -5.9411511271585157e-06 0 0.01440664124538164 9.3268330784494091e-05 0 0.014446953385383163 -3.0758197164112083e-05 0 0.01440664124538164 9.3268330784494091e-05 0 0.014486459835270504 -2.2665493514833299e-05 0 0.014446953385383163 -3.0758197164112083e-05 0 0.014486459835270504 -2.2665493514833299e-05 0 0.014446953385383163 -3.0758197164112083e-05 0 0.014512678574026282 3.2380090620239487e-05 0 0.014437874548773091 -5.191142006639377e-05 0 0.014486459835270504 -2.2665493514833299e-05 0 0.014512678574026282 3.2380090620239487e-05 0 0.014574973672336218 6.4731336691484847e-05 0 0.014512678574026282 3.2380090620239487e-05 0 0.01457156917986681 -1.7029490114737409e-05 0 0.014446953385383163 -3.0758197164112083e-05 0 0.014512678574026282 3.2380090620239487e-05 0 0.01457156917986681 -1.7029490114737409e-05 0 0.014446953385383163 -3.0758197164112083e-05 0 0.01457156917986681 -1.7029490114737409e-05 0 0.014391774350295202 -4.5472352646237137e-05 0 0.014199777655889954 -5.9411511271585157e-06 0 0.014446953385383163 -3.0758197164112083e-05 0 0.014391774350295202 -4.5472352646237137e-05 0 0.014199777655889954 -5.9411511271585157e-06 0 0.014391774350295202 -4.5472352646237137e-05 0 0.014123205877497338 2.894595596315383e-05 0 0.01457156917986681 -1.7029490114737409e-05 0 0.014604187825582303 -5.6914005271465289e-05 0 0.014769866780453226 -1.7612849112978246e-05 0 0.014391774350295202 -4.5472352646237137e-05 0 0.014604187825582303 -5.6914005271465289e-05 0 0.01454086871597389 -0.00011638850626601518 0 0.01457156917986681 -1.7029490114737409e-05 0 0.014391774350295202 -4.5472352646237137e-05 0 0.014604187825582303 -5.6914005271465289e-05 0 0.014604187825582303 -5.6914005271465289e-05 0 0.014769866780453226 -1.7612849112978246e-05 0 0.014781047778990071 -2.1355080245995702e-05 0 0.014604187825582303 -5.6914005271465289e-05 0 0.014781047778990071 -2.1355080245995702e-05 0 0.01454086871597389 -0.00011638850626601518 0 0.01457156917986681 -1.7029490114737409e-05 0 0.014684163543877167 7.8087136082090085e-06 0 0.014769866780453226 -1.7612849112978246e-05 0 0.014574973672336218 6.4731336691484847e-05 0 0.01457156917986681 -1.7029490114737409e-05 0 0.014684163543877167 7.8087136082090085e-06 0 0.014726608873425142 1.7242018580835819e-05 0 0.014684163543877167 7.8087136082090085e-06 0 0.014850920123508931 -5.5957313987148681e-06 0 0.014684163543877167 7.8087136082090085e-06 0 0.014850920123508931 -5.5957313987148681e-06 0 0.014769866780453226 -1.7612849112978246e-05 0 0.014850920123508931 -5.5957313987148681e-06 0 0.014769866780453226 -1.7612849112978246e-05 0 0.014999767414864234 -2.0021532558360446e-09 0 0.014769866780453226 -1.7612849112978246e-05 0 0.014999767414864234 -2.0021532558360446e-09 0 0.014999759810927837 -3.0060188498760243e-08 0 0.014869143086326047 -3.4867704698901077e-06 0 0.014850920123508931 -5.5957313987148681e-06 0 0.014999767414864234 -2.0021532558360446e-09 0 0.014769866780453226 -1.7612849112978246e-05 0 0.014781047778990071 -2.1355080245995702e-05 0 0.014999759810927837 -3.0060188498760243e-08 0 0.014781047778990071 -2.1355080245995702e-05 0 0.014999759810927837 -3.0060188498760243e-08 0 0.014999794759330162 4.4750840825632763e-08 0 0.014781047778990071 -2.1355080245995702e-05 0 0.014999794759330162 4.4750840825632763e-08 0 0.014798217176128626 -1.5069965529077842e-05 0 0.014999794759330162 4.4750840825632763e-08 0 0.014936428441655649 5.1064078149998603e-07 0 0.014798217176128626 -1.5069965529077842e-05 0 0.014999794759330162 4.4750840825632763e-08 0 0.014999925766911457 -1.7327730739962409e-08 0 0.014936428441655649 5.1064078149998603e-07 0 0.014999925766911457 -1.7327730739962409e-08 0 0.014967423128582152 -2.8791473486121621e-05 0 0.014936428441655649 5.1064078149998603e-07 0 0.014999925766911457 -1.7327730739962409e-08 0 0.014967423128582152 -2.8791473486121621e-05 0 0.014999968672295643 -1.0739711853016382e-08 0 0.014967423128582152 -2.8791473486121621e-05 0 0.014936428441655649 5.1064078149998603e-07 0 0.014948797991954085 -1.5922894228947998e-05 0 0.014936428441655649 5.1064078149998603e-07 0 0.014948797991954085 -1.5922894228947998e-05 0 0.014913071521787528 -8.1582363813117049e-05 0 0.014948797991954085 -1.5922894228947998e-05 0 0.014913071521787528 -8.1582363813117049e-05 0 0.014926621244689185 2.0190209006915106e-05 0 0.014547823130941303 -0.00010891988143676133 0 0.014531461577922795 -3.2993211324389981e-05 0 0.014143819422728295 -0.00010651762936000187 0 0.0141855233699028 -0.00015064210380153254 0 0.01413847084722358 -8.0570944303319224e-05 0 0.014143819422728295 -0.00010651762936000187 0 0.01413847084722358 -8.0570944303319224e-05 0 0.014131971057016371 -0.00012164096380245521 0 0.014143819422728295 -0.00010651762936000187 0 0.0141855233699028 -0.00015064210380153254 0 0.014155352728075636 -6.6522988922725553e-05 0 0.0141855233699028 -0.00015064210380153254 0 0.01454086871597389 -0.00011638850626601518 0 0.01426713021749992 -2.4549667292713742e-05 0 0.014547823130941303 -0.00010891988143676133 0 0.014542738133659566 -0.00011828594862140819 0 0.014781047778990071 -2.1355080245995702e-05 0 0.01454086871597389 -0.00011638850626601518 0 0.014798217176128626 -1.5069965529077842e-05 0 0.014913071521787528 -8.1582363813117049e-05 0 0.01454086871597389 -0.00011638850626601518 0 0.014798217176128626 -1.5069965529077842e-05 0 0.014936428441655649 5.1064078149998603e-07 0 0.014913071521787528 -8.1582363813117049e-05 0 0.014798217176128626 -1.5069965529077842e-05 0 0.014593478429582717 -8.7751618589014532e-05 0 0.014507555564180085 -1.7705094842481668e-05 0 0.014542792492042751 -1.1099781702893262e-05 0 0.014593478429582717 -8.7751618589014532e-05 0 0.014694278768299764 -4.081382554867905e-05 0 0.014507555564180085 -1.7705094842481668e-05 0 0.014801061257174848 -4.226800274539861e-05 0 0.014777044564721306 -4.6900481080973279e-06 0 0.014999603014499718 -8.2843257393437017e-07 0 0.015000014859820303 -5.1069792960716058e-09 0 0.014999994229606716 3.4481952669390591e-09 0 0.014999603014499718 -8.2843257393437017e-07 0 0.015000014859820303 -5.1069792960716058e-09 0 0.015002701778499062 -7.9290158163830084e-06 0 0.014593478429582717 -8.7751618589014532e-05 0 0.014694278768299764 -4.081382554867905e-05 0 0.014796731648071116 -0.00010924854181037285 0 0.014801061257174848 -4.226800274539861e-05 0 0.01489650016154131 -5.3909192026102066e-05 0 0.014694278768299764 -4.081382554867905e-05 0 0.014796731648071116 -0.00010924854181037285 0 0.014873229261495157 -2.0223195776866425e-05 0 0.015000014859820303 -5.1069792960716058e-09 0 0.015002701778499062 -7.9290158163830084e-06 0 0.014999968672295643 -1.0739711853016382e-08 0 0.014967423128582152 -2.8791473486121621e-05 0 0.015002701778499062 -7.9290158163830084e-06 0 0.014999968672295643 -1.0739711853016382e-08 0 0.014967423128582152 -2.8791473486121621e-05 0 0.014948797991954085 -1.5922894228947998e-05 0 0.014873229261495157 -2.0223195776866425e-05 0 0.014957460738516103 -3.5489852521856615e-05 0 0.01489650016154131 -5.3909192026102066e-05 0 0.014967423128582152 -2.8791473486121621e-05 0 0.014796731648071116 -0.00010924854181037285 0 0.014873229261495157 -2.0223195776866425e-05 0 0.014948797991954085 -1.5922894228947998e-05 0 0.014873229261495157 -2.0223195776866425e-05 0 0.014926621244689185 2.0190209006915106e-05 0 0.01413847084722358 -8.0570944303319224e-05 0 0.014227293220951721 -0.00010229664517338118 0 0.014131971057016371 -0.00012164096380245521 0 0.01413847084722358 -8.0570944303319224e-05 0 0.014227293220951721 -0.00010229664517338118 0 0.014296670941704333 -2.1078804189101047e-05 0 0.014531461577922795 -3.2993211324389981e-05 0 0.01451683875807476 1.2932060242592755e-05 0 0.014694278768299764 -4.081382554867905e-05 0 0.014873229261495157 -2.0223195776866425e-05 0 0.014735340064167381 6.1647478379090844e-05 0 0.014873229261495157 -2.0223195776866425e-05 0 0.014926621244689185 2.0190209006915106e-05 0 0.014735340064167381 6.1647478379090844e-05 0 0.014694278768299764 -4.081382554867905e-05 0 0.014735340064167381 6.1647478379090844e-05 0 0.014507555564180085 -1.7705094842481668e-05 0 0.01451683875807476 1.2932060242592755e-05 0 0.014509137202091488 -9.8821161710330827e-06 0 0.014227293220951721 -0.00010229664517338118 0 0.014296670941704333 -2.1078804189101047e-05 0 0.014396976584641372 -0.00011929928254775662 0 0.014296670941704333 -2.1078804189101047e-05 0 0.014396976584641372 -0.00011929928254775662 0 0.014507555564180085 -1.7705094842481668e-05 0 0.014396976584641372 -0.00011929928254775662 0 0.014507555564180085 -1.7705094842481668e-05 0 0.014486272580263276 -0.00012796575208205707 0 0.014233431359396547 -9.1775102902614809e-05 0 0.014209494479794884 -0.00014436140014448436 0 0.014296056642501553 -0.00013977729287501992 0 0.014233431359396547 -9.1775102902614809e-05 0 0.014192192901727936 -0.00012636081915333479 0 0.014209494479794884 -0.00014436140014448436 0 0.014396976584641372 -0.00011929928254775662 0 0.014458535210357016 -0.00020598223245147927 0 0.014486272580263276 -0.00012796575208205707 0 0.014342471553265516 -0.00014872183774936753 0 0.014229611683980363 -0.00014699678305493964 0 0.014396976584641372 -0.00011929928254775662 0 0.014458535210357016 -0.00020598223245147927 0 0.014296534625313316 -0.00019577560220286857 0 0.014227293220951721 -0.00010229664517338118 0 0.014396976584641372 -0.00011929928254775662 0 0.014296534625313316 -0.00019577560220286857 0 0.014233431359396547 -9.1775102902614809e-05 0 0.014192192901727936 -0.00012636081915333479 0 0.01415844992689127 -0.00010416648752802888 0 0.014192192901727936 -0.00012636081915333479 0 0.014189086520243458 -0.00016390625906549558 0 0.014209494479794884 -0.00014436140014448436 0 0.014192192901727936 -0.00012636081915333479 0 0.01415844992689127 -0.00010416648752802888 0 0.014189086520243458 -0.00016390625906549558 0 0.014120014592596108 -0.00011997781593413987 0 0.014086380187398077 -0.00010130950223934801 0 0.013995630163335607 -0.00013266241821208329 0 0.01415844992689127 -0.00010416648752802888 0 0.014120014592596108 -0.00011997781593413987 0 0.014189086520243458 -0.00016390625906549558 0 0.014112262612495837 -0.00011892493405419321 0 0.014087603477589897 -0.00015125944437086028 0 0.014229611683980363 -0.00014699678305493964 0 0.014139986734173856 -0.00012541140751821955 0 0.014227293220951721 -0.00010229664517338118 0 0.014296534625313316 -0.00019577560220286857 0 0.014131971057016371 -0.00012164096380245521 0 0.01415844992689127 -0.00010416648752802888 0 0.014120014592596108 -0.00011997781593413987 0 0.014131971057016371 -0.00012164096380245521 0 0.014120014592596108 -0.00011997781593413987 0 0.014131971057016371 -0.00012164096380245521 0 0.014130806633715784 -9.3270144939358699e-05 0 0.014120014592596108 -0.00011997781593413987 0 0.014086380187398077 -0.00010130950223934801 0 0.014130806633715784 -9.3270144939358699e-05 0 0.014086380187398077 -0.00010130950223934801 0 0.014085518916740951 -6.931667000411115e-05 0 0.01413863168775922 -6.7364444663830172e-05 0 0.014086380187398077 -0.00010130950223934801 0 0.014085518916740951 -6.931667000411115e-05 0 0.014024483258427147 -8.780091021193144e-05 0 0.014024483258427147 -8.780091021193144e-05 0 0.013961147371877973 -8.7332316638304887e-05 0 0.013987346034658742 -2.2729269799597667e-05 0 0.014085721398191369 -9.4172052980794006e-05 0 0.013975039948258947 -5.0434281580647008e-05 0 0.014085518916740951 -6.931667000411115e-05 0 0.014024483258427147 -8.780091021193144e-05 0 0.013987346034658742 -2.2729269799597667e-05 0 0.014086380187398077 -0.00010130950223934801 0 0.014024483258427147 -8.780091021193144e-05 0 0.013995630163335607 -0.00013266241821208329 0 0.014024483258427147 -8.780091021193144e-05 0 0.013995630163335607 -0.00013266241821208329 0 0.013961147371877973 -8.7332316638304887e-05 0 0.014189086520243458 -0.00016390625906549558 0 0.014130955626000979 -0.00018687156298375385 0 0.014209494479794884 -0.00014436140014448436 0 0.014087603477589897 -0.00015125944437086028 0 0.013932112013189113 -0.00016786229516403467 0 0.014189086520243458 -0.00016390625906549558 0 0.014130955626000979 -0.00018687156298375385 0 0.01402164716356147 -0.00022126226679618265 0 0.013995630163335607 -0.00013266241821208329 0 0.013961147371877973 -8.7332316638304887e-05 0 0.013909679879077839 -9.9121025205973744e-05 0 0.013995630163335607 -0.00013266241821208329 0 0.013909679879077839 -9.9121025205973744e-05 0 0.013850206129348279 -0.00011555536881405654 0 0.013961147371877973 -8.7332316638304887e-05 0 0.013909679879077839 -9.9121025205973744e-05 0 0.013894472708769059 -6.2629994863129364e-05 0 0.014104519861259417 -0.0001918497778306169 0 0.014123853133031581 -0.00018923636980929532 0 0.014130955626000979 -0.00018687156298375385 0 0.01402164716356147 -0.00022126226679618265 0 0.013905623615852531 -0.00025449909620382029 0 0.013909679879077839 -9.9121025205973744e-05 0 0.013850206129348279 -0.00011555536881405654 0 0.013843079567954457 -7.8937286594396415e-05 0 0.013909679879077839 -9.9121025205973744e-05 0 0.013843079567954457 -7.8937286594396415e-05 0 0.013894472708769059 -6.2629994863129364e-05 0 0.013850206129348279 -0.00011555536881405654 0 0.013783350483085098 -7.1742550000266012e-05 0 0.013843079567954457 -7.8937286594396415e-05 0 0.014237936854225893 -0.00017465310725856855 0 0.014284011700100805 -0.00017529701601088301 0 0.014294333382111583 -0.00019747978925687787 0 0.014130955626000979 -0.00018687156298375385 0 0.014237936854225893 -0.00017465310725856855 0 0.014294333382111583 -0.00019747978925687787 0 0.014130955626000979 -0.00018687156298375385 0 0.014237936854225893 -0.00017465310725856855 0 0.014209494479794884 -0.00014436140014448436 0 0.014209494479794884 -0.00014436140014448436 0 0.014288943369183524 -0.00015954473107057746 0 0.014296056642501553 -0.00013977729287501992 0 0.014237936854225893 -0.00017465310725856855 0 0.014209494479794884 -0.00014436140014448436 0 0.014288943369183524 -0.00015954473107057746 0 0.014391774350295202 -4.5472352646237137e-05 0 0.01426713021749992 -2.4549667292713742e-05 0 0.014123205877497338 2.894595596315383e-05 0 0.014391774350295202 -4.5472352646237137e-05 0 0.01454086871597389 -0.00011638850626601518 0 0.01426713021749992 -2.4549667292713742e-05 0 0.01426713021749992 -2.4549667292713742e-05 0 0.014155352728075636 -6.6522988922725553e-05 0 0.014141186434543129 5.4369572826039536e-06 0 0.01426713021749992 -2.4549667292713742e-05 0 0.014141186434543129 5.4369572826039536e-06 0 0.014123205877497338 2.894595596315383e-05 0 0.0141855233699028 -0.00015064210380153254 0 0.01426713021749992 -2.4549667292713742e-05 0 0.014155352728075636 -6.6522988922725553e-05 0 0.014131971057016371 -0.00012164096380245521 0 0.014155352728075636 -6.6522988922725553e-05 0 0.014130806633715784 -9.3270144939358699e-05 0 0.014143819422728295 -0.00010651762936000187 0 0.014131971057016371 -0.00012164096380245521 0 0.014155352728075636 -6.6522988922725553e-05 0 0.014155352728075636 -6.6522988922725553e-05 0 0.014130806633715784 -9.3270144939358699e-05 0 0.01413863168775922 -6.7364444663830172e-05 0 0.014086380187398077 -0.00010130950223934801 0 0.014130806633715784 -9.3270144939358699e-05 0 0.01413863168775922 -6.7364444663830172e-05 0 0.014155352728075636 -6.6522988922725553e-05 0 0.01413863168775922 -6.7364444663830172e-05 0 0.014141186434543129 5.4369572826039536e-06 0 0.01413863168775922 -6.7364444663830172e-05 0 0.014132980510939672 -9.1958848821338605e-05 0 0.014111674974688534 -5.4710155142935855e-05 0 0.01413863168775922 -6.7364444663830172e-05 0 0.014111674974688534 -5.4710155142935855e-05 0 0.014141186434543129 5.4369572826039536e-06 0 0.014085721398191369 -9.4172052980794006e-05 0 0.014130171869045235 -7.3498110353568805e-05 0 0.014087747914937113 -0.00012729494983111837 0 0.01413863168775922 -6.7364444663830172e-05 0 0.014132980510939672 -9.1958848821338605e-05 0 0.014087747914937113 -0.00012729494983111837 0 0.014132980510939672 -9.1958848821338605e-05 0 0.014156711224488602 -0.00012496220210269623 0 0.014132980510939672 -9.1958848821338605e-05 0 0.014111674974688534 -5.4710155142935855e-05 0 0.014156711224488602 -0.00012496220210269623 0 0.014111674974688534 -5.4710155142935855e-05 0 0.013973645743370613 1.8880285825930943e-05 0 0.013937006435548424 -0.00017245475393467275 0 0.014111674974688534 -5.4710155142935855e-05 0 0.014141186434543129 5.4369572826039536e-06 0 0.013973645743370613 1.8880285825930943e-05 0 0.014141186434543129 5.4369572826039536e-06 0 0.014123205877497338 2.894595596315383e-05 0 0.013973645743370613 1.8880285825930943e-05 0 0.01357664057212701 -0.00023450519952365582 0 0.013973645743370613 1.8880285825930943e-05 0 0.013937006435548424 -0.00017245475393467275 0 0.01357664057212701 -0.00023450519952365582 0 0.013937006435548424 -0.00017245475393467275 0 0.013823208568093786 -0.00049086834578472799 0 0.014111674974688534 -5.4710155142935855e-05 0 0.013937006435548424 -0.00017245475393467275 0 0.014073618485942161 -0.00021863342100100254 0 0.013937006435548424 -0.00017245475393467275 0 0.014073618485942161 -0.00021863342100100254 0 0.013823208568093786 -0.00049086834578472799 0 0.014073618485942161 -0.00021863342100100254 0 0.013823208568093786 -0.00049086834578472799 0 0.014200915682378423 -0.00044716410729314507 0 0.013125058021530283 -0.00065551613849894417 0 0.013823208568093786 -0.00049086834578472799 0 0.013504372189771064 -0.0010011250090232458 0 0.013823208568093786 -0.00049086834578472799 0 0.014092310017763721 -0.0008584845330274443 0 0.013504372189771064 -0.0010011250090232458 0 0.013823208568093786 -0.00049086834578472799 0 0.014092310017763721 -0.0008584845330274443 0 0.014200915682378423 -0.00044716410729314507 0 0.012181916892530967 -0.001335057424159927 0 0.010478028319113979 -0.0019071588311010612 0 0.012181916892530967 -0.001335057424159927 0 0.012939658919453811 -0.00095322203152514403 0 0.01178015321919886 -0.0010869836444919847 0 0.012020070243985463 -0.0010496912650502783 0 0.011861406984957719 -0.00087254965405619215 0 0.0089618219201855007 -0.002970279814351693 0 0.0088033527483873698 -0.0027054307451340261 0 0.0091011219880349579 -0.0025764266901331144 0 0.0094093455268379634 -0.0029438213496379103 0 0.0089618219201855007 -0.002970279814351693 0 0.0091011219880349579 -0.0025764266901331144 0 0.014117429295039117 -1.3710362701790415e-05 0 0.014069643151210941 6.5804095861219604e-06 0 0.014134680522205522 -4.3018589452252329e-05 0 0.012181916892530967 -0.001335057424159927 0 0.014374287382957433 1.342806461754898e-05 0 0.012181916892530967 -0.001335057424159927 0 0.011422576694889351 -0.001500185578173928 0 0.014134680522205522 -4.3018589452252329e-05 0 0.014156711224488602 -0.00012496220210269623 0 0.014053395282534051 -4.9143489486880811e-05 0 0.014069643151210941 6.5804095861219604e-06 0 0.014134680522205522 -4.3018589452252329e-05 0 0.014053395282534051 -4.9143489486880811e-05 0 0.014374287382957433 1.342806461754898e-05 0 0.014100712197613611 -0.00026295878893079302 0 0.014073618485942161 -0.00021863342100100254 0 0.014200915682378423 -0.00044716410729314507 0 0.014156711224488602 -0.00012496220210269623 0 0.014111674974688534 -5.4710155142935855e-05 0 0.014073618485942161 -0.00021863342100100254 0 0.014156711224488602 -0.00012496220210269623 0 0.014087747914937113 -0.00012729494983111837 0 0.014156711224488602 -0.00012496220210269623 0 0.014053395282534051 -4.9143489486880811e-05 0 0.014087747914937113 -0.00012729494983111837 0 0.013963078075304742 -8.1875142159121007e-05 0 0.014053395282534051 -4.9143489486880811e-05 0 0.013963078075304742 -8.1875142159121007e-05 0 0.013937372189417693 3.3659132225603035e-06 0 0.014053395282534051 -4.9143489486880811e-05 0 0.013937372189417693 3.3659132225603035e-06 0 0.014053395282534051 -4.9143489486880811e-05 0 0.013973826707142324 3.5797853026892771e-05 0 0.013814253715650628 -3.7519538579965488e-05 0 0.013783350483085098 -7.1742550000266012e-05 0 0.013746244628317774 -4.6281089471291737e-05 0 0.013814253715650628 -3.7519538579965488e-05 0 0.013783350483085098 -7.1742550000266012e-05 0 0.013843079567954457 -7.8937286594396415e-05 0 0.013814253715650628 -3.7519538579965488e-05 0 0.013843079567954457 -7.8937286594396415e-05 0 0.013894472708769059 -6.2629994863129364e-05 0 0.013814253715650628 -3.7519538579965488e-05 0 0.013872969992158068 -1.3636356765287105e-05 0 0.013797736036535731 1.9445146220947854e-05 0 0.013814253715650628 -3.7519538579965488e-05 0 0.013872969992158068 -1.3636356765287105e-05 0 0.013894472708769059 -6.2629994863129364e-05 0 0.013961147371877973 -8.7332316638304887e-05 0 0.013987346034658742 -2.2729269799597667e-05 0 0.013894472708769059 -6.2629994863129364e-05 0 0.013987346034658742 -2.2729269799597667e-05 0 0.013872969992158068 -1.3636356765287105e-05 0 0.013894472708769059 -6.2629994863129364e-05 0 0.013975039948258947 -5.0434281580647008e-05 0 0.013860884720606769 3.2492356409273629e-05 0 0.013937372189417693 3.3659132225603035e-06 0 0.013850256653151875 3.8362053390600612e-05 0 0.013858594727902794 7.678010152875534e-05 0 0.013963078075304742 -8.1875142159121007e-05 0 0.013937372189417693 3.3659132225603035e-06 0 0.013850256653151875 3.8362053390600612e-05 0 0.013987346034658742 -2.2729269799597667e-05 0 0.013872969992158068 -1.3636356765287105e-05 0 0.013850256653151875 3.8362053390600612e-05 0 0.013850256653151875 3.8362053390600612e-05 0 0.013797736036535731 1.9445146220947854e-05 0 0.01369576270680193 0.00014350865021690387 0 0.013872969992158068 -1.3636356765287105e-05 0 0.013850256653151875 3.8362053390600612e-05 0 0.013797736036535731 1.9445146220947854e-05 0 0.013814253715650628 -3.7519538579965488e-05 0 0.013797736036535731 1.9445146220947854e-05 0 0.013728956205985725 7.1301542777298408e-06 0 0.013850256653151875 3.8362053390600612e-05 0 0.013858594727902794 7.678010152875534e-05 0 0.01369576270680193 0.00014350865021690387 0 0.011031303056006629 -0.0013657326202665002 0 0.010891920938075521 -0.0012497590773040139 0 0.008194009309295109 -0.0028147372054491888 0 0.00810020779099716 -0.0026967225324791388 0 0.0080957540886464306 -0.0026370457214648694 0 0.008194009309295109 -0.0028147372054491888 0 0.0081826796662798195 -0.0027250468280554997 0 0.00810020779099716 -0.0026967225324791388 0 0.008194009309295109 -0.0028147372054491888 0 0.0083160195642924435 -0.0027530834621293698 0 0.0085249910000248143 -0.0029346163028295992 0 0.011031303056006629 -0.0013657326202665002 0 0.011273899270018154 -0.0014420303367062976 0 0.008194009309295109 -0.0028147372054491888 0 0.0083160195642924435 -0.0027530834621293698 0 0.0081826796662798195 -0.0027250468280554997 0 0.0083160195642924435 -0.0027530834621293698 0 0.0081476387430104678 -0.0026270925277166509 0 0.0082838161312562796 -0.0025950513923885983 0 0.0083160195642924435 -0.0027530834621293698 0 0.0081826796662798195 -0.0027250468280554997 0 0.0081476387430104678 -0.0026270925277166509 0 0.00810020779099716 -0.0026967225324791388 0 0.0080609372944415447 -0.0025968908645250073 0 0.0081476387430104678 -0.0026270925277166509 0 0.0081826796662798195 -0.0027250468280554997 0 0.00810020779099716 -0.0026967225324791388 0 0.0081476387430104678 -0.0026270925277166509 0 0.011422576694889351 -0.001500185578173928 0 0.011273899270018154 -0.0014420303367062976 0 0.014069643151210941 6.5804095861219604e-06 0 0.014053395282534051 -4.9143489486880811e-05 0 0.013973826707142324 3.5797853026892771e-05 0 0.013937372189417693 3.3659132225603035e-06 0 0.013858594727902794 7.678010152875534e-05 0 0.013973826707142324 3.5797853026892771e-05 0 0.0083160195642924435 -0.0027530834621293698 0 0.0085249910000248143 -0.0029346163028295992 0 0.0085107092934710339 -0.0026254148297133431 0 0.0083160195642924435 -0.0027530834621293698 0 0.0085107092934710339 -0.0026254148297133431 0 0.0082838161312562796 -0.0025950513923885983 0 0.0089618219201855007 -0.002970279814351693 0 0.0085249910000248143 -0.0029346163028295992 0 0.0088033527483873698 -0.0027054307451340261 0 0.0085249910000248143 -0.0029346163028295992 0 0.0088033527483873698 -0.0027054307451340261 0 0.0085107092934710339 -0.0026254148297133431 0 0.0088033527483873698 -0.0027054307451340261 0 0.0085107092934710339 -0.0026254148297133431 0 0.0086556142783834143 -0.0023798578223085715 0 0.0085107092934710339 -0.0026254148297133431 0 0.0082869886336343155 -0.00241721574420945 0 0.0086556142783834143 -0.0023798578223085715 0 0.0085107092934710339 -0.0026254148297133431 0 0.0082869886336343155 -0.00241721574420945 0 0.0082838161312562796 -0.0025950513923885983 0 0.0082869886336343155 -0.00241721574420945 0 0.0086556142783834143 -0.0023798578223085715 0 0.0082857620178431214 -0.0020841435792790771 0 0.0080609372944415447 -0.0025968908645250073 0 0.0080881354529332272 -0.0024997797888606779 0 0.0079950147390976823 -0.0024948820904849098 0 0.0080609372944415447 -0.0025968908645250073 0 0.0080881354529332272 -0.0024997797888606779 0 0.0081476387430104678 -0.0026270925277166509 0 0.0082869886336343155 -0.00241721574420945 0 0.0080881354529332272 -0.0024997797888606779 0 0.0082838161312562796 -0.0025950513923885983 0 0.0080881354529332272 -0.0024997797888606779 0 0.0081476387430104678 -0.0026270925277166509 0 0.0082838161312562796 -0.0025950513923885983 0 0.0082869886336343155 -0.00241721574420945 0 0.0079561673590192346 -0.0023075791176470272 0 0.0082857620178431214 -0.0020841435792790771 0 0.0082869886336343155 -0.00241721574420945 0 0.0080881354529332272 -0.0024997797888606779 0 0.0079561673590192346 -0.0023075791176470272 0 0.0080881354529332272 -0.0024997797888606779 0 0.0079561673590192346 -0.0023075791176470272 0 0.0079950147390976823 -0.0024948820904849098 0 0.0079751853505147866 -0.0023188209244735932 0 0.007774422343602652 -0.0025627490818777069 0 0.0079561673590192346 -0.0023075791176470272 0 0.0077301763510550228 -0.002017786488446866 0 0.0079721326103974425 -0.0019759246621405342 0 0.0079561673590192346 -0.0023075791176470272 0 0.0077301763510550228 -0.002017786488446866 0 0.0074503441714745293 -0.0021799348535791615 0 0.0079561673590192346 -0.0023075791176470272 0 0.0079721326103974425 -0.0019759246621405342 0 0.0082857620178431214 -0.0020841435792790771 0 0.0080829287410825821 -0.0017626789831471331 0 0.0079721326103974425 -0.0019759246621405342 0 0.0077904997875440441 -0.0017198675354719909 0 0.0080829287410825821 -0.0017626789831471331 0 0.0079721326103974425 -0.0019759246621405342 0 0.0082857620178431214 -0.0020841435792790771 0 0.0077301763510550228 -0.002017786488446866 0 0.0079721326103974425 -0.0019759246621405342 0 0.0077904997875440441 -0.0017198675354719909 0 0.0077301763510550228 -0.002017786488446866 0 0.0077904997875440441 -0.0017198675354719909 0 0.0075169331036977457 -0.001870025412974185 0 0.0086556142783834143 -0.0023798578223085715 0 0.0086855737139387695 -0.001983288870130676 0 0.0082857620178431214 -0.0020841435792790771 0 0.0086556142783834143 -0.0023798578223085715 0 0.0086855737139387695 -0.001983288870130676 0 0.0089701667842142629 -0.0022147939023530036 0 0.0080829287410825821 -0.0017626789831471331 0 0.0082857620178431214 -0.0020841435792790771 0 0.0083494258975134027 -0.0016127191756555173 0 0.0086855737139387695 -0.001983288870130676 0 0.0082857620178431214 -0.0020841435792790771 0 0.0083494258975134027 -0.0016127191756555173 0 0.0086855737139387695 -0.001983288870130676 0 0.008887763811470965 -0.0014348398000436106 0 0.0083494258975134027 -0.0016127191756555173 0 0.0086855737139387695 -0.001983288870130676 0 0.0091375545046588867 -0.0018513057513637598 0 0.008887763811470965 -0.0014348398000436106 0 0.0086855737139387695 -0.001983288870130676 0 0.0091375545046588867 -0.0018513057513637598 0 0.0089701667842142629 -0.0022147939023530036 0 0.0091375545046588867 -0.0018513057513637598 0 0.0095952157034847538 -0.0017449778644907405 0 0.0093388737465152239 -0.0022370396164996509 0 0.0091375545046588867 -0.0018513057513637598 0 0.0089701667842142629 -0.0022147939023530036 0 0.0093388737465152239 -0.0022370396164996509 0 0.0091375545046588867 -0.0018513057513637598 0 0.0095952157034847538 -0.0017449778644907405 0 0.0093155651869754243 -0.0013948094547801451 0 0.010953993597014433 -0.001225942136812243 0 0.010921970403232008 -0.0013853272401489866 0 0.010149838432133997 -0.0016646336077117171 0 0.0095952157034847538 -0.0017449778644907405 0 0.0098518343521791472 -0.0021302456987563403 0 0.0095952157034847538 -0.0017449778644907405 0 0.0098518343521791472 -0.0021302456987563403 0 0.0093388737465152239 -0.0022370396164996509 0 0.0098518343521791472 -0.0021302456987563403 0 0.0096014803543139383 -0.0025465926492049002 0 0.0093388737465152239 -0.0022370396164996509 0 0.010921970403232008 -0.0013853272401489866 0 0.010478028319113979 -0.0019071588311010612 0 0.012055752152668306 -0.00078969626378232053 0 0.011905382265514235 -0.00075208744805135234 0 0.011861406984957719 -0.00087254965405619215 0 0.012055752152668306 -0.00078969626378232053 0 0.012020070243985463 -0.0010496912650502783 0 0.011861406984957719 -0.00087254965405619215 0 0.0096014803543139383 -0.0025465926492049002 0 0.0091011219880349579 -0.0025764266901331144 0 0.0093388737465152239 -0.0022370396164996509 0 0.0094093455268379634 -0.0029438213496379103 0 0.0096014803543139383 -0.0025465926492049002 0 0.0091011219880349579 -0.0025764266901331144 0 0.0088033527483873698 -0.0027054307451340261 0 0.0086556142783834143 -0.0023798578223085715 0 0.0091011219880349579 -0.0025764266901331144 0 0.0086556142783834143 -0.0023798578223085715 0 0.0091011219880349579 -0.0025764266901331144 0 0.0089701667842142629 -0.0022147939023530036 0 0.0091011219880349579 -0.0025764266901331144 0 0.0089701667842142629 -0.0022147939023530036 0 0.0093388737465152239 -0.0022370396164996509 0 0.0073126369803239392 -0.0017739907974073411 0 0.0073226257867767958 -0.0017476450482947542 0 0.007233480648029045 -0.0017379564081897825 0 0.0073425586712922934 -0.0017713936312187318 0 0.0073126369803239392 -0.0017739907974073411 0 0.0073226257867767958 -0.0017476450482947542 0 0.0073425586712922934 -0.0017713936312187318 0 0.0073126369803239392 -0.0017739907974073411 0 0.0073471813447643971 -0.0017877468595940214 0 0.0073226257867767958 -0.0017476450482947542 0 0.0073600215313776992 -0.0017596218106864167 0 0.0073588488736306612 -0.0017302161443055546 0 0.0073425586712922934 -0.0017713936312187318 0 0.0073226257867767958 -0.0017476450482947542 0 0.0073600215313776992 -0.0017596218106864167 0 0.0073600215313776992 -0.0017596218106864167 0 0.0073775459051424385 -0.0017523816606173244 0 0.0073861549709978479 -0.0017706412904649131 0 0.0073600215313776992 -0.0017596218106864167 0 0.0073775459051424385 -0.0017523816606173244 0 0.0073588488736306612 -0.0017302161443055546 0 0.0073874919753933272 -0.0017403036200286295 0 0.0073775459051424385 -0.0017523816606173244 0 0.0073588488736306612 -0.0017302161443055546 0 0.0073874919753933272 -0.0017403036200286295 0 0.0073775459051424385 -0.0017523816606173244 0 0.0073935530697274128 -0.0017578985491379575 0 0.0073874919753933272 -0.0017403036200286295 0 0.0073935530697274128 -0.0017578985491379575 0 0.0074063156541192901 -0.0017531722460009901 0 0.0073775459051424385 -0.0017523816606173244 0 0.0073935530697274128 -0.0017578985491379575 0 0.0073861549709978479 -0.0017706412904649131 0 0.0073935530697274128 -0.0017578985491379575 0 0.0073861549709978479 -0.0017706412904649131 0 0.0074034968983607147 -0.0017683755172687881 0 0.0073861549709978479 -0.0017706412904649131 0 0.0074034968983607147 -0.0017683755172687881 0 0.0074000628048062249 -0.0017797697327431058 0 0.0073600215313776992 -0.0017596218106864167 0 0.0073861549709978479 -0.0017706412904649131 0 0.0073685411263465506 -0.0017826905559604348 0 0.0073425586712922934 -0.0017713936312187318 0 0.0073600215313776992 -0.0017596218106864167 0 0.0073685411263465506 -0.0017826905559604348 0 0.0073685411263465506 -0.0017826905559604348 0 0.0073892297460935079 -0.001786791629728716 0 0.0073835446617825651 -0.0017979033901975978 0 0.0073685411263465506 -0.0017826905559604348 0 0.0073835446617825651 -0.0017979033901975978 0 0.0073676128405788192 -0.0017956866150510631 0 0.0073861549709978479 -0.0017706412904649131 0 0.0073685411263465506 -0.0017826905559604348 0 0.0073892297460935079 -0.001786791629728716 0 0.0073861549709978479 -0.0017706412904649131 0 0.0073892297460935079 -0.001786791629728716 0 0.0074000628048062249 -0.0017797697327431058 0 0.0073892297460935079 -0.001786791629728716 0 0.0074001622524654236 -0.0017899813342330151 0 0.0074000628048062249 -0.0017797697327431058 0 0.0073892297460935079 -0.001786791629728716 0 0.0073958238776738478 -0.0017962560107475027 0 0.0073835446617825651 -0.0017979033901975978 0 0.0073892297460935079 -0.001786791629728716 0 0.0074001622524654236 -0.0017899813342330151 0 0.0073958238776738478 -0.0017962560107475027 0 0.0074001622524654236 -0.0017899813342330151 0 0.0073958238776738478 -0.0017962560107475027 0 0.0074060173062270871 -0.0017987001147413964 0 0.0073958238776738478 -0.0017962560107475027 0 0.0073983868645141424 -0.0018059392495584461 0 0.0074060173062270871 -0.0017987001147413964 0 0.0073958238776738478 -0.0017962560107475027 0 0.0073983868645141424 -0.0018059392495584461 0 0.0073835446617825651 -0.0017979033901975978 0 0.0073983868645141424 -0.0018059392495584461 0 0.0074060173062270871 -0.0017987001147413964 0 0.0074062358671473944 -0.0018061541434789565 0 0.0073835446617825651 -0.0017979033901975978 0 0.0073676128405788192 -0.0017956866150510631 0 0.0073804068328412187 -0.0018066218656435248 0 0.0073983868645141424 -0.0018059392495584461 0 0.0073835446617825651 -0.0017979033901975978 0 0.0073916484391973068 -0.001807905737858571 0 0.0073835446617825651 -0.0017979033901975978 0 0.0073804068328412187 -0.0018066218656435248 0 0.0073916484391973068 -0.001807905737858571 0 0.0073585704277639519 -0.0018011283658415768 0 0.0073676128405788192 -0.0017956866150510631 0 0.0073804068328412187 -0.0018066218656435248 0 0.0073585704277639519 -0.0018011283658415768 0 0.0073676128405788192 -0.0017956866150510631 0 0.0073471813447643971 -0.0017877468595940214 0 0.0073425586712922934 -0.0017713936312187318 0 0.0073685411263465506 -0.0017826905559604348 0 0.0073471813447643971 -0.0017877468595940214 0 0.0073685411263465506 -0.0017826905559604348 0 0.0073676128405788192 -0.0017956866150510631 0 0.0073471813447643971 -0.0017877468595940214 0 0.0073126369803239392 -0.0017739907974073411 0 0.0073471813447643971 -0.0017877468595940214 0 0.0073300784586270195 -0.0017944459147607491 0 0.0073585704277639519 -0.0018011283658415768 0 0.0073300784586270195 -0.0017944459147607491 0 0.0073512093694162459 -0.0018099603240663016 0 0.0073585704277639519 -0.0018011283658415768 0 0.0073471813447643971 -0.0017877468595940214 0 0.0073300784586270195 -0.0017944459147607491 0 0.0073300784586270195 -0.0017944459147607491 0 0.0073163491468174104 -0.0018009773745713132 0 0.0073512093694162459 -0.0018099603240663016 0 0.0073163491468174104 -0.0018009773745713132 0 0.0072973447054439254 -0.0017826641235396767 0 0.0072957403705427321 -0.0017902955223929634 0 0.0073126369803239392 -0.0017739907974073411 0 0.0073300784586270195 -0.0017944459147607491 0 0.0072973447054439254 -0.0017826641235396767 0 0.0073300784586270195 -0.0017944459147607491 0 0.0073163491468174104 -0.0018009773745713132 0 0.0072973447054439254 -0.0017826641235396767 0 0.0071212419194042675 -0.0017552252478607497 0 0.0071300621388940911 -0.0016966756094990362 0 0.0071281302767974833 -0.0017599216792062631 0 0.0071805256934439126 -0.0017896258952149555 0 0.0074087079704522607 -0.0016615083740627872 0 0.0071212419194042675 -0.0017552252478607497 0 0.0071201538302461389 -0.0016555868009102573 0 0.0071300621388940911 -0.0016966756094990362 0 0.0073163491468174104 -0.0018009773745713132 0 0.0072957403705427321 -0.0017902955223929634 0 0.0073112353522631875 -0.0018116534324894274 0 0.0071212419194042675 -0.0017552252478607497 0 0.0071288131434746726 -0.0017423895347362967 0 0.0071281302767974833 -0.0017599216792062631 0 0.0071212419194042675 -0.0017552252478607497 0 0.007233480648029045 -0.0017379564081897825 0 0.0071288131434746726 -0.0017423895347362967 0 0.0073126369803239392 -0.0017739907974073411 0 0.0072973447054439254 -0.0017826641235396767 0 0.007233480648029045 -0.0017379564081897825 0 0.0071805256934439126 -0.0017896258952149555 0 0.0072464977782231745 -0.0017208274179408743 0 0.0072973447054439254 -0.0017826641235396767 0 0.0072957403705427321 -0.0017902955223929634 0 0.007233480648029045 -0.0017379564081897825 0 0.0071824192264374814 -0.0016895783562933505 0 0.007233480648029045 -0.0017379564081897825 0 0.0072907882566712236 -0.0016970885084209198 0 0.0071824192264374814 -0.0016895783562933505 0 0.0071288131434746726 -0.0017423895347362967 0 0.0070766236276428021 -0.0016840048062370576 0 0.0071824192264374814 -0.0016895783562933505 0 0.007233480648029045 -0.0017379564081897825 0 0.0071288131434746726 -0.0017423895347362967 0 0.0071824192264374814 -0.0016895783562933505 0 0.0071128151379202644 -0.001625274151103504 0 0.0070766236276428021 -0.0016840048062370576 0 0.0071128151379202644 -0.001625274151103504 0 0.0072196872674003699 -0.0016396515311624365 0 0.0071816621259357342 -0.0015783080295078589 0 0.0071824192264374814 -0.0016895783562933505 0 0.0072196872674003699 -0.0016396515311624365 0 0.0072907882566712236 -0.0016970885084209198 0 0.0071824192264374814 -0.0016895783562933505 0 0.0071128151379202644 -0.001625274151103504 0 0.0072196872674003699 -0.0016396515311624365 0 0.0066843154274110724 -0.001736721175859513 0 0.0066244276948353512 -0.0015411767605753048 0 0.0072196872674003699 -0.0016396515311624365 0 0.0072869384577546933 -0.0016406730998947208 0 0.0071816621259357342 -0.0015783080295078589 0 0.0073050093456154021 -0.001638073075977801 0 0.0072907882566712236 -0.0016970885084209198 0 0.0073696077761389624 -0.0016820832637343319 0 0.0074040369245911225 -0.0016491601055127947 0 0.0066843154274110724 -0.001736721175859513 0 0.0072196872674003699 -0.0016396515311624365 0 0.0073050093456154021 -0.001638073075977801 0 0.0072907882566712236 -0.0016970885084209198 0 0.0072907882566712236 -0.0016970885084209198 0 0.0073588488736306612 -0.0017302161443055546 0 0.0073696077761389624 -0.0016820832637343319 0 0.0073226257867767958 -0.0017476450482947542 0 0.007233480648029045 -0.0017379564081897825 0 0.0072907882566712236 -0.0016970885084209198 0 0.0073226257867767958 -0.0017476450482947542 0 0.0072907882566712236 -0.0016970885084209198 0 0.0073588488736306612 -0.0017302161443055546 0 0.0073861471162353391 -0.0017223334005468888 0 0.0073696077761389624 -0.0016820832637343319 0 0.0074209408819273575 -0.001740189995060745 0 0.0073874919753933272 -0.0017403036200286295 0 0.0073861471162353391 -0.0017223334005468888 0 0.0073588488736306612 -0.0017302161443055546 0 0.0073874919753933272 -0.0017403036200286295 0 0.0073861471162353391 -0.0017223334005468888 0 0.0074017686091176873 -0.0017387257418606419 0 0.0073861471162353391 -0.0017223334005468888 0 0.0073588488736306612 -0.0017302161443055546 0 0.0073696077761389624 -0.0016820832637343319 0 0.0064425241772689892 -0.0020346599817314087 0 0.0065399033902151637 -0.0019116134767776097 0 0.0066261937074118624 -0.0020590893786885042 0 0.0062462067038515966 -0.0019142810320531825 0 0.0064425241772689892 -0.0020346599817314087 0 0.0065399033902151637 -0.0019116134767776097 0 0.0066843154274110724 -0.001736721175859513 0 0.0063022625804542293 -0.0018768009028102084 0 0.0060448885988457855 -0.0016974003643383531 0 0.0062539433335523816 -0.0018407201975197277 0 0.0061883297857925285 -0.0017034425027480349 0 0.0066843154274110724 -0.001736721175859513 0 0.006771222004276406 -0.0019522723419765856 0 0.0063022625804542293 -0.0018768009028102084 0 0.0068129598043984215 -0.0019038797266682003 0 0.0065399033902151637 -0.0019116134767776097 0 0.0066261937074118624 -0.0020590893786885042 0 0.0067886665817805756 -0.0020601574825673996 0 0.0065399033902151637 -0.0019116134767776097 0 0.0068675979869748556 -0.0019003006364452122 0 0.0067886665817805756 -0.0020601574825673996 0 0.0062539433335523816 -0.0018407201975197277 0 0.0066952638217163546 -0.0019229910287659594 0 0.0064384915775226132 -0.0016739368784466761 0 0.0068129598043984215 -0.0019038797266682003 0 0.00715770788704572 -0.0018955250716894631 0 0.0066952638217163546 -0.0019229910287659594 0 0.0072042701747076577 -0.0018891132138604883 0 0.0070040838542254971 -0.0016619640455533215 0 0.0068986043270180082 -0.0021746826083898878 0 0.0071069107989343329 -0.0021861002466017272 0 0.0069947617838322243 -0.0025224144009897385 0 0.0068675979869748556 -0.0019003006364452122 0 0.0068986043270180082 -0.0021746826083898878 0 0.0067886665817805756 -0.0020601574825673996 0 0.0068986043270180082 -0.0021746826083898878 0 0.0067370049377457599 -0.0022321013118990207 0 0.0067886665817805756 -0.0020601574825673996 0 0.0068675979869748556 -0.0019003006364452122 0 0.0068986043270180082 -0.0021746826083898878 0 0.0071069107989343329 -0.0021861002466017272 0 0.006771222004276406 -0.0019522723419765856 0 0.0066236798685543902 -0.0022090150426211071 0 0.006771222004276406 -0.0019522723419765856 0 0.0070940787735133222 -0.0020073104499080045 0 0.0064777939175348388 -0.0020592636805906381 0 0.0067370049377457599 -0.0022321013118990207 0 0.0067076166619876388 -0.0022625281630448018 0 0.0064425241772689892 -0.0020346599817314087 0 0.0067370049377457599 -0.0022321013118990207 0 0.0066261937074118624 -0.0020590893786885042 0 0.0073861471162353391 -0.0017223334005468888 0 0.0074209408819273575 -0.001740189995060745 0 0.0074017686091176873 -0.0017387257418606419 0 0.0074209408819273575 -0.001740189995060745 0 0.0074017686091176873 -0.0017387257418606419 0 0.00741230125373932 -0.0017469340436373939 0 0.0067370049377457599 -0.0022321013118990207 0 0.0066261937074118624 -0.0020590893786885042 0 0.0067886665817805756 -0.0020601574825673996 0 0.0075169331036977457 -0.001870025412974185 0 0.0072042701747076577 -0.0018891132138604883 0 0.0074004968227766406 -0.0015543824021140966 0 0.0075169331036977457 -0.001870025412974185 0 0.0072042701747076577 -0.0018891132138604883 0 0.0074503441714745293 -0.0021799348535791615 0 0.0068675979869748556 -0.0019003006364452122 0 0.0072042701747076577 -0.0018891132138604883 0 0.0071069107989343329 -0.0021861002466017272 0 0.0072042701747076577 -0.0018891132138604883 0 0.0071069107989343329 -0.0021861002466017272 0 0.0074503441714745293 -0.0021799348535791615 0 0.0071069107989343329 -0.0021861002466017272 0 0.0074503441714745293 -0.0021799348535791615 0 0.0072943899711302267 -0.0024518542720406255 0 0.0077301763510550228 -0.002017786488446866 0 0.0075169331036977457 -0.001870025412974185 0 0.0074503441714745293 -0.0021799348535791615 0 0.0074503441714745293 -0.0021799348535791615 0 0.007614795139262269 -0.0025767399285018624 0 0.0072943899711302267 -0.0024518542720406255 0 0.0079561673590192346 -0.0023075791176470272 0 0.0074503441714745293 -0.0021799348535791615 0 0.007614795139262269 -0.0025767399285018624 0 0.0072943899711302267 -0.0024518542720406255 0 0.0073290116904142976 -0.0028031194878533425 0 0.0069947617838322243 -0.0025224144009897385 0 0.0071069107989343329 -0.0021861002466017272 0 0.0072943899711302267 -0.0024518542720406255 0 0.0069947617838322243 -0.0025224144009897385 0 0.0077201011450899332 -0.0023410189371411028 0 0.0071676808323273365 -0.0021243453960856249 0 0.0074760230428514525 -0.001803704377089511 0 0.0074489614835316241 -0.0017764845137373314 0 0.0074503405122744292 -0.0018052026923856429 0 0.0080609372944415447 -0.0025968908645250073 0 0.0079950147390976823 -0.0024948820904849098 0 0.0080398766624194731 -0.0026639067529942266 0 0.007614795139262269 -0.0025767399285018624 0 0.0072943899711302267 -0.0024518542720406255 0 0.0073290116904142976 -0.0028031194878533425 0 0.0079950147390976823 -0.0024948820904849098 0 0.0079686140573239257 -0.0026143492214113768 0 0.0080398766624194731 -0.0026639067529942266 0 0.007774422343602652 -0.0025627490818777069 0 0.0077201011450899332 -0.0023410189371411028 0 0.0077201011450899332 -0.0023410189371411028 0 0.0080823719451952655 -0.0026700020292709219 0 0.0074255065183571091 -0.0017651377361914446 0 0.0074134864489740293 -0.0017757656182179826 0 0.0074257603029450336 -0.0017866471795278574 0 0.0074255065183571091 -0.0017651377361914446 0 0.0074134864489740293 -0.0017757656182179826 0 0.0074139787774075375 -0.0017639146643933844 0 0.0074134864489740293 -0.0017757656182179826 0 0.0074034968983607147 -0.0017683755172687881 0 0.0074000628048062249 -0.0017797697327431058 0 0.0074134864489740293 -0.0017757656182179826 0 0.0074034968983607147 -0.0017683755172687881 0 0.0074139787774075375 -0.0017639146643933844 0 0.0074139787774075375 -0.0017639146643933844 0 0.0074063156541192901 -0.0017531722460009901 0 0.0074160177401495766 -0.0017539815154020853 0 0.0074034968983607147 -0.0017683755172687881 0 0.0074139787774075375 -0.0017639146643933844 0 0.0074063156541192901 -0.0017531722460009901 0 0.0073935530697274128 -0.0017578985491379575 0 0.0074034968983607147 -0.0017683755172687881 0 0.0074063156541192901 -0.0017531722460009901 0 0.0073874919753933272 -0.0017403036200286295 0 0.0074017686091176873 -0.0017387257418606419 0 0.0074063156541192901 -0.0017531722460009901 0 0.0074063156541192901 -0.0017531722460009901 0 0.00741230125373932 -0.0017469340436373939 0 0.0074160177401495766 -0.0017539815154020853 0 0.0074017686091176873 -0.0017387257418606419 0 0.0074063156541192901 -0.0017531722460009901 0 0.00741230125373932 -0.0017469340436373939 0 0.0074209408819273575 -0.001740189995060745 0 0.00741230125373932 -0.0017469340436373939 0 0.0074160177401495766 -0.0017539815154020853 0 0.0074209408819273575 -0.001740189995060745 0 0.0074255065183571091 -0.0017651377361914446 0 0.0074160177401495766 -0.0017539815154020853 0 0.0074255065183571091 -0.0017651377361914446 0 0.0074139787774075375 -0.0017639146643933844 0 0.0074160177401495766 -0.0017539815154020853 0 0.0070940787735133222 -0.0020073104499080045 0 0.0071676808323273365 -0.0021243453960856249 0 0.0068986043270180082 -0.0021746826083898878 0 0.0067370049377457599 -0.0022321013118990207 0 0.0069947617838322243 -0.0025224144009897385 0 0.0067370049377457599 -0.0022321013118990207 0 0.0067076166619876388 -0.0022625281630448018 0 0.0069947617838322243 -0.0025224144009897385 0 0.0074209408819273575 -0.001740189995060745 0 0.0074255065183571091 -0.0017651377361914446 0 0.0074489614835316241 -0.0017764845137373314 0 0.0074255065183571091 -0.0017651377361914446 0 0.0074489614835316241 -0.0017764845137373314 0 0.0074257603029450336 -0.0017866471795278574 0 0.0074489614835316241 -0.0017764845137373314 0 0.0074503405122744292 -0.0018052026923856429 0 0.0074384104496889323 -0.0017939351867013924 0 0.0074489614835316241 -0.0017764845137373314 0 0.0074384104496889323 -0.0017939351867013924 0 0.0074257603029450336 -0.0017866471795278574 0 0.0074503405122744292 -0.0018052026923856429 0 0.0074384104496889323 -0.0017939351867013924 0 0.0074287818871904623 -0.0018068892825227126 0 0.0074384104496889323 -0.0017939351867013924 0 0.0074257603029450336 -0.0017866471795278574 0 0.0074287818871904623 -0.0018068892825227126 0 0.0074169439878993444 -0.0017966933997522671 0 0.0074257603029450336 -0.0017866471795278574 0 0.0074287818871904623 -0.0018068892825227126 0 0.0074169439878993444 -0.0017966933997522671 0 0.0074154585162906333 -0.0018057698565673824 0 0.0074287818871904623 -0.0018068892825227126 0 0.0074169439878993444 -0.0017966933997522671 0 0.0074257603029450336 -0.0017866471795278574 0 0.0074092701042881206 -0.0017870524743050457 0 0.0074134864489740293 -0.0017757656182179826 0 0.0074257603029450336 -0.0017866471795278574 0 0.0074092701042881206 -0.0017870524743050457 0 0.0074001622524654236 -0.0017899813342330151 0 0.0074000628048062249 -0.0017797697327431058 0 0.0074092701042881206 -0.0017870524743050457 0 0.0074134864489740293 -0.0017757656182179826 0 0.0074000628048062249 -0.0017797697327431058 0 0.0074092701042881206 -0.0017870524743050457 0 0.0074001622524654236 -0.0017899813342330151 0 0.0074092701042881206 -0.0017870524743050457 0 0.0074060173062270871 -0.0017987001147413964 0 0.0074169439878993444 -0.0017966933997522671 0 0.0074092701042881206 -0.0017870524743050457 0 0.0074060173062270871 -0.0017987001147413964 0 0.0074169439878993444 -0.0017966933997522671 0 0.0074060173062270871 -0.0017987001147413964 0 0.0074154585162906333 -0.0018057698565673824 0 0.0074060173062270871 -0.0017987001147413964 0 0.0074154585162906333 -0.0018057698565673824 0 0.0074062358671473944 -0.0018061541434789565 0 0.0074154585162906333 -0.0018057698565673824 0 0.0074091014687927498 -0.0018116344748753679 0 0.0074062358671473944 -0.0018061541434789565 0 0.0074154585162906333 -0.0018057698565673824 0 0.0074091014687927498 -0.0018116344748753679 0 0.0074204451762440388 -0.0018124895314917389 0 0.0074091014687927498 -0.0018116344748753679 0 0.0074134183186322748 -0.0018157299048711534 0 0.0074204451762440388 -0.0018124895314917389 0 0.0074134183186322748 -0.0018157299048711534 0 0.007411283927405918 -0.0018180215463181252 0 0.0074084203378536077 -0.0018173270013156378 0 0.0074091014687927498 -0.0018116344748753679 0 0.0074134183186322748 -0.0018157299048711534 0 0.0074084203378536077 -0.0018173270013156378 0 0.0074134183186322748 -0.0018157299048711534 0 0.0074187729237568624 -0.0018171054881378922 0 0.0074204451762440388 -0.0018124895314917389 0 0.0074134183186322748 -0.0018157299048711534 0 0.0074187729237568624 -0.0018171054881378922 0 0.0074151709269479216 -0.0018175051062272497 0 0.0074187729237568624 -0.0018171054881378922 0 0.0074151709269479216 -0.0018175051062272497 0 0.0074183526841795798 -0.0018186029917563319 0 0.0074151709269479216 -0.0018175051062272497 0 0.007411283927405918 -0.0018180215463181252 0 0.0074135377381909021 -0.0018178407583526342 0 0.0074134183186322748 -0.0018157299048711534 0 0.0074151709269479216 -0.0018175051062272497 0 0.007411283927405918 -0.0018180215463181252 0 0.0074287818871904623 -0.0018068892825227126 0 0.0074204451762440388 -0.0018124895314917389 0 0.0074277296488622288 -0.0018206319109577015 0 0.0074187729237568624 -0.0018171054881378922 0 0.0074204451762440388 -0.0018124895314917389 0 0.0074277296488622288 -0.0018206319109577015 0 0.0074187729237568624 -0.0018171054881378922 0 0.0074183526841795798 -0.0018186029917563319 0 0.0074277296488622288 -0.0018206319109577015 0 0.0074154585162906333 -0.0018057698565673824 0 0.0074287818871904623 -0.0018068892825227126 0 0.0074204451762440388 -0.0018124895314917389 0 0.0074503405122744292 -0.0018052026923856429 0 0.0074287818871904623 -0.0018068892825227126 0 0.0074397537688741886 -0.001822985376955656 0 0.0074287818871904623 -0.0018068892825227126 0 0.0074397537688741886 -0.001822985376955656 0 0.0074277296488622288 -0.0018206319109577015 0 0.0083032869555683918 -0.0026577949278224636 0 0.0082599069647200114 -0.0025131979323526929 0 0.0081607172634397679 -0.0026654232588427351 0 0.0083032869555683918 -0.0026577949278224636 0 0.0082599069647200114 -0.0025131979323526929 0 0.0085387966226882391 -0.0024485933996076666 0 0.0077037017173771033 -0.0023665060342475822 0 0.0088701395052844714 -0.0015034831290305401 0 0.0074175887369050683 -0.0018194998984744999 0 0.0074277296488622288 -0.0018206319109577015 0 0.0074170317956653376 -0.0018254209037735015 0 0.0074397537688741886 -0.001822985376955656 0 0.0074277296488622288 -0.0018206319109577015 0 0.0074170317956653376 -0.0018254209037735015 0 0.0083032869555683918 -0.0026577949278224636 0 0.0085639251666822774 -0.0024639291529822919 0 0.0085387966226882391 -0.0024485933996076666 0 0.0074152949929609246 -0.0018192108982417105 0 0.0074175887369050683 -0.0018194998984744999 0 0.0074170317956653376 -0.0018254209037735015 0 0.0074152949929609246 -0.0018192108982417105 0 0.0074170317956653376 -0.0018254209037735015 0 0.0074134152645307485 -0.0018106938734417134 0 0.0074152949929609246 -0.0018192108982417105 0 0.0074175887369050683 -0.0018194998984744999 0 0.0074139176789089264 -0.0018170089913711338 0 0.0074152949929609246 -0.0018192108982417105 0 0.0074139176789089264 -0.0018170089913711338 0 0.0074137112679804607 -0.0018152495102854223 0 0.0074175887369050683 -0.0018194998984744999 0 0.0074151300444923367 -0.0018181598580083466 0 0.0074183526841795798 -0.0018186029917563319 0 0.0074175887369050683 -0.0018194998984744999 0 0.0074139176789089264 -0.0018170089913711338 0 0.0074151300444923367 -0.0018181598580083466 0 0.0074139176789089264 -0.0018170089913711338 0 0.0074151300444923367 -0.0018181598580083466 0 0.0074119819165315961 -0.0018167064699270074 0 0.0074151300444923367 -0.0018181598580083466 0 0.0074135377381909021 -0.0018178407583526342 0 0.0074183526841795798 -0.0018186029917563319 0 0.0074135377381909021 -0.0018178407583526342 0 0.0074119819165315961 -0.0018167064699270074 0 0.0074105953848117249 -0.0018174936734861437 0 0.0074151300444923367 -0.0018181598580083466 0 0.0074135377381909021 -0.0018178407583526342 0 0.0074119819165315961 -0.0018167064699270074 0 0.007411283927405918 -0.0018180215463181252 0 0.0074135377381909021 -0.0018178407583526342 0 0.0074105953848117249 -0.0018174936734861437 0 0.0074151709269479216 -0.0018175051062272497 0 0.0074135377381909021 -0.0018178407583526342 0 0.0074183526841795798 -0.0018186029917563319 0 0.0074175887369050683 -0.0018194998984744999 0 0.0074183526841795798 -0.0018186029917563319 0 0.0074277296488622288 -0.0018206319109577015 0 0.00810020779099716 -0.0026967225324791388 0 0.0080609372944415447 -0.0025968908645250073 0 0.0080398766624194731 -0.0026639067529942266 0 0.00810020779099716 -0.0026967225324791388 0 0.0080398766624194731 -0.0026639067529942266 0 0.0080941427372863105 -0.0026692057820323343 0 0.008096954724339139 -0.0026773100322238946 0 0.0080398766624194731 -0.0026639067529942266 0 0.0080941427372863105 -0.0026692057820323343 0 0.0081009615034222347 -0.0027428511804233782 0 0.008096954724339139 -0.0026773100322238946 0 0.0080398766624194731 -0.0026639067529942266 0 0.0074760230428514525 -0.001803704377089511 0 0.0074503405122744292 -0.0018052026923856429 0 0.0074397537688741886 -0.001822985376955656 0 0.0077201011450899332 -0.0023410189371411028 0 0.0077037017173771033 -0.0023665060342475822 0 0.0081009615034222347 -0.0027428511804233782 0 0.0083032869555683918 -0.0026577949278224636 0 0.0081607172634397679 -0.0026654232588427351 0 0.008096954724339139 -0.0026773100322238946 0 0.0080941427372863105 -0.0026692057820323343 0 0.0081607172634397679 -0.0026654232588427351 0 0.0081009615034222347 -0.0027428511804233782 0 0.008096954724339139 -0.0026773100322238946 0 0.0081607172634397679 -0.0026654232588427351 0 0.0082599069647200114 -0.0025131979323526929 0 0.0081607172634397679 -0.0026654232588427351 0 0.0080957540886464306 -0.0026370457214648694 0 0.0108305574406765 -0.0011653579335442032 0 0.010891920938075521 -0.0012497590773040139 0 0.0080941427372863105 -0.0026692057820323343 0 0.0081607172634397679 -0.0026654232588427351 0 0.0080957540886464306 -0.0026370457214648694 0 0.00810020779099716 -0.0026967225324791388 0 0.0080941427372863105 -0.0026692057820323343 0 0.0080957540886464306 -0.0026370457214648694 0 0.013797736036535731 1.9445146220947854e-05 0 0.01369576270680193 0.00014350865021690387 0 0.013728956205985725 7.1301542777298408e-06 0 0.01369576270680193 0.00014350865021690387 0 0.013728956205985725 7.1301542777298408e-06 0 0.013583332340205681 4.4897229475852925e-05 0 0.013728956205985725 7.1301542777298408e-06 0 0.013583332340205681 4.4897229475852925e-05 0 0.013658277251696887 -7.7806614325431312e-05 0 0.013326908008730595 0.00019596181541660992 0 0.013583332340205681 4.4897229475852925e-05 0 0.013445159370308333 -1.6992912458869414e-05 0 0.013326908008730595 0.00019596181541660992 0 0.01369576270680193 0.00014350865021690387 0 0.013583332340205681 4.4897229475852925e-05 0 0.013583332340205681 4.4897229475852925e-05 0 0.013445159370308333 -1.6992912458869414e-05 0 0.013658277251696887 -7.7806614325431312e-05 0 0.013445159370308333 -1.6992912458869414e-05 0 0.013532615262924187 -0.00019541137483499718 0 0.013187639828105223 -7.1285753202365623e-05 0 0.013640183789152847 -0.00044926397433967539 0 0.01308194962760478 -0.00043439595992637902 0 0.013445159370308333 -1.6992912458869414e-05 0 0.013532615262924187 -0.00019541137483499718 0 0.013658277251696887 -7.7806614325431312e-05 0 0.013932112013189113 -0.00016786229516403467 0 0.013683168226727953 -7.4002330023405496e-05 0 0.013850206129348279 -0.00011555536881405654 0 0.013783350483085098 -7.1742550000266012e-05 0 0.013658277251696887 -7.7806614325431312e-05 0 0.013559780847348263 -0.00015544924309767014 0 0.013741287609350117 -0.00014775194584291864 0 0.013905623615852531 -0.00025449909620382029 0 0.01402164716356147 -0.00022126226679618265 0 0.013658277251696887 -7.7806614325431312e-05 0 0.013741287609350117 -0.00014775194584291864 0 0.013532615262924187 -0.00019541137483499718 0 0.013658277251696887 -7.7806614325431312e-05 0 0.013741287609350117 -0.00014775194584291864 0 0.013640183789152847 -0.00044926397433967539 0 0.013663063156375962 -0.00023737364745493714 0 0.013814253715650628 -3.7519538579965488e-05 0 0.013728956205985725 7.1301542777298408e-06 0 0.013746244628317774 -4.6281089471291737e-05 0 0.013783350483085098 -7.1742550000266012e-05 0 0.013658277251696887 -7.7806614325431312e-05 0 0.013746244628317774 -4.6281089471291737e-05 0 0.013728956205985725 7.1301542777298408e-06 0 0.013658277251696887 -7.7806614325431312e-05 0 0.013746244628317774 -4.6281089471291737e-05 0 0.010487441906504521 -0.0011328175753732681 0 0.01308194962760478 -0.00043439595992637902 0 0.012196642623162677 -0.00075614843557011361 0 0.011942602226027447 -0.00042079648165387713 0 0.012564211077667635 -0.00078065796749880311 0 0.012196642623162677 -0.00075614843557011361 0 0.011959516215448152 -0.00074203307300353498 0 0.011942602226027447 -0.00042079648165387713 0 0.011959516215448152 -0.00074203307300353498 0 0.011798484134117392 -0.00044368961862141455 0 0.011942602226027447 -0.00042079648165387713 0 0.0094360228130265945 -0.0010311713461310535 0 0.0094766423023501106 -0.00099730750691331537 0 0.009518137342341736 -0.0010245564379968188 0 0.0099550735219045578 -0.00098154482050377473 0 0.010487441906504521 -0.0011328175753732681 0 0.0099550735219045578 -0.00098154482050377473 0 0.0088701395052844714 -0.0015034831290305401 0 0.0088701395052844714 -0.0015034831290305401 0 0.010487441906504521 -0.0011328175753732681 0 0.013326908008730595 0.00019596181541660992 0 0.01278068249117165 0.00014689474659290995 0 0.013187639828105223 -7.1285753202365623e-05 0 0.0108305574406765 -0.0011653579335442032 0 0.010487441906504521 -0.0011328175753732681 0 0.013326908008730595 0.00019596181541660992 0 0.013445159370308333 -1.6992912458869414e-05 0 0.013187639828105223 -7.1285753202365623e-05 0 0.013205237087019624 -0.0011764504941503637 0 0.012564211077667635 -0.00078065796749880311 0 0.012320883504827167 -0.0010891282151227841 0 0.014320288988287209 -0.0001331955126205098 0 0.01429868896113894 -9.0983153301226605e-05 0 0.014300359267782203 -9.5725531316217486e-05 0 0.013640183789152847 -0.00044926397433967539 0 0.013346377660448617 -0.00061383771988398077 0 0.012196642623162677 -0.00075614843557011361 0 0.012564211077667635 -0.00078065796749880311 0 0.012320883504827167 -0.0010891282151227841 0 0.013346377660448617 -0.00061383771988398077 0 0.012873723793509092 -0.00051104944015806719 0 0.011959516215448152 -0.00074203307300353498 0 0.012320883504827167 -0.0010891282151227841 0 0.011504183259456686 -0.00098064587691932019 0 0.01429868896113894 -9.0983153301226605e-05 0 0.014300359267782203 -9.5725531316217486e-05 0 0.014316809811898009 -6.8395534841583062e-05 0 0.01429868896113894 -9.0983153301226605e-05 0 0.01433346783918318 -5.4962521270279193e-05 0 0.014316809811898009 -6.8395534841583062e-05 0 0.012196642623162677 -0.00075614843557011361 0 0.011959516215448152 -0.00074203307300353498 0 0.012320883504827167 -0.0010891282151227841 0 0.012873723793509092 -0.00051104944015806719 0 0.012803127776073859 -0.00049297103247117953 0 0.01433346783918318 -5.4962521270279193e-05 0 0.014337848260046538 -1.1129387484321928e-05 0 0.014349713324372208 -3.2958592485992761e-05 0 0.011504183259456686 -0.00098064587691932019 0 0.011318097756161905 -0.00092474398665836287 0 0.010910967344975393 -0.00092249858168324877 0 0.011318097756161905 -0.00092474398665836287 0 0.011111131454730154 -0.00066980320568876784 0 0.010910967344975393 -0.00092249858168324877 0 0.011798484134117392 -0.00044368961862141455 0 0.011504183259456686 -0.00098064587691932019 0 0.011318097756161905 -0.00092474398665836287 0 0.0099550735219045578 -0.00098154482050377473 0 0.011922609548125946 -0.00057173200224160353 0 0.0071329684078763125 -0.0015048472278949906 0 0.0077403056793842019 -0.0014146110561950925 0 0.0074117043613513333 -0.001785736721030146 0 0.011630426597253329 -0.0006276869718414088 0 0.011318097756161905 -0.00092474398665836287 0 0.011111131454730154 -0.00066980320568876784 0 0.0099550735219045578 -0.00098154482050377473 0 0.0094171011628420374 -0.0010243015629805936 0 0.011959516215448152 -0.00074203307300353498 0 0.011798484134117392 -0.00044368961862141455 0 0.011504183259456686 -0.00098064587691932019 0 0.0071329684078763125 -0.0015048472278949906 0 0.0070854321969802134 -0.0015478940108013929 0 0.0074117043613513333 -0.001785736721030146 0 0.0074170317956653376 -0.0018254209037735015 0 0.0074134152645307485 -0.0018106938734417134 0 0.0074117043613513333 -0.001785736721030146 0 0.0074134152645307485 -0.0018106938734417134 0 0.0074096254905045879 -0.0018120896693005963 0 0.0074117043613513333 -0.001785736721030146 0 0.0088701395052844714 -0.0015034831290305401 0 0.0070075955269496421 -0.0015729912272457746 0 0.0074134152645307485 -0.0018106938734417134 0 0.0074137112679804607 -0.0018152495102854223 0 0.0074096254905045879 -0.0018120896693005963 0 0.0074152949929609246 -0.0018192108982417105 0 0.0074134152645307485 -0.0018106938734417134 0 0.0074137112679804607 -0.0018152495102854223 0 0.0074137112679804607 -0.0018152495102854223 0 0.0074114431827361363 -0.0018143202516369443 0 0.0074096254905045879 -0.0018120896693005963 0 0.0074139176789089264 -0.0018170089913711338 0 0.0074137112679804607 -0.0018152495102854223 0 0.0074114431827361363 -0.0018143202516369443 0 0.0074139176789089264 -0.0018170089913711338 0 0.0074119819165315961 -0.0018167064699270074 0 0.0074114431827361363 -0.0018143202516369443 0 0.0074119819165315961 -0.0018167064699270074 0 0.0074114431827361363 -0.0018143202516369443 0 0.0074089640329839772 -0.0018153024757854093 0 0.0074114431827361363 -0.0018143202516369443 0 0.0074096254905045879 -0.0018120896693005963 0 0.0074089640329839772 -0.0018153024757854093 0 0.0074096254905045879 -0.0018120896693005963 0 0.0074086377077492481 -0.0018110767571128121 0 0.0074089640329839772 -0.0018153024757854093 0 0.0074086377077492481 -0.0018110767571128121 0 0.0074089402415010979 -0.0018220017927469386 0 0.0074089640329839772 -0.0018153024757854093 0 0.0074089402415010979 -0.0018220017927469386 0 0.0074089640329839772 -0.0018153024757854093 0 0.0074089127946004359 -0.0018197060532998857 0 0.0074089640329839772 -0.0018153024757854093 0 0.0074105953848117249 -0.0018174936734861437 0 0.0074089127946004359 -0.0018197060532998857 0 0.0074119819165315961 -0.0018167064699270074 0 0.0074089640329839772 -0.0018153024757854093 0 0.0074105953848117249 -0.0018174936734861437 0 0.0074096254905045879 -0.0018120896693005963 0 0.0074086377077492481 -0.0018110767571128121 0 0.0074117043613513333 -0.001785736721030146 0 0.0074373263708815002 -0.0018474903995244422 0 0.0074153669493962696 -0.0018273817534422935 0 0.0074120385426244429 -0.0018299046694138933 0 0.0074373263708815002 -0.0018474903995244422 0 0.0074153669493962696 -0.0018273817534422935 0 0.0074135300798280467 -0.0018171576963054322 0 0.0074086377077492481 -0.0018110767571128121 0 0.0074153669493962696 -0.0018273817534422935 0 0.0074135300798280467 -0.0018171576963054322 0 0.0074086377077492481 -0.0018110767571128121 0 0.0074089402415010979 -0.0018220017927469386 0 0.0074153669493962696 -0.0018273817534422935 0 0.0074086377077492481 -0.0018110767571128121 0 0.0074117043613513333 -0.001785736721030146 0 0.0074135300798280467 -0.0018171576963054322 0 0.0074373263708815002 -0.0018474903995244422 0 0.0074117043613513333 -0.001785736721030146 0 0.0074135300798280467 -0.0018171576963054322 0 0.0075365400438083931 -0.0017951490743453051 0 0.0074400087467234727 -0.0018316750914662441 0 0.0077403056793842019 -0.0014146110561950925 0 0.0074373263708815002 -0.0018474903995244422 0 0.007946577892914029 -0.0016128921608710421 0 0.0074373263708815002 -0.0018474903995244422 0 0.0073723394048903984 -0.0018392831860558948 0 0.0073434625839573957 -0.0018585817053947725 0 0.0077403056793842019 -0.0014146110561950925 0 0.0074373263708815002 -0.0018474903995244422 0 0.0074117043613513333 -0.001785736721030146 0 0.0073723394048903984 -0.0018392831860558948 0 0.0073603916618635032 -0.0018256226553551964 0 0.0073436699211910598 -0.0018401759023011625 0 0.0073723394048903984 -0.0018392831860558948 0 0.0073910398451548934 -0.0018299679279952354 0 0.0073603916618635032 -0.0018256226553551964 0 0.0074373263708815002 -0.0018474903995244422 0 0.0073723394048903984 -0.0018392831860558948 0 0.0073910398451548934 -0.0018299679279952354 0 0.0074373263708815002 -0.0018474903995244422 0 0.0073910398451548934 -0.0018299679279952354 0 0.0074120385426244429 -0.0018299046694138933 0 0.0074120385426244429 -0.0018299046694138933 0 0.0073848450392435547 -0.0018193050707191731 0 0.0074061411241344273 -0.0018246620272364721 0 0.0073910398451548934 -0.0018299679279952354 0 0.0074120385426244429 -0.0018299046694138933 0 0.0073848450392435547 -0.0018193050707191731 0 0.0073848450392435547 -0.0018193050707191731 0 0.0073918826765624248 -0.0018155697593691751 0 0.0074061411241344273 -0.0018246620272364721 0 0.0073848450392435547 -0.0018193050707191731 0 0.0073603916618635032 -0.0018256226553551964 0 0.0073512093694162459 -0.0018099603240663016 0 0.0073910398451548934 -0.0018299679279952354 0 0.0073848450392435547 -0.0018193050707191731 0 0.0073603916618635032 -0.0018256226553551964 0 0.0073585704277639519 -0.0018011283658415768 0 0.0073512093694162459 -0.0018099603240663016 0 0.0073728987754888356 -0.0018100655480487158 0 0.0073848450392435547 -0.0018193050707191731 0 0.0073512093694162459 -0.0018099603240663016 0 0.0073728987754888356 -0.0018100655480487158 0 0.0073848450392435547 -0.0018193050707191731 0 0.0073728987754888356 -0.0018100655480487158 0 0.0073918826765624248 -0.0018155697593691751 0 0.0073585704277639519 -0.0018011283658415768 0 0.0073728987754888356 -0.0018100655480487158 0 0.0073804068328412187 -0.0018066218656435248 0 0.0073728987754888356 -0.0018100655480487158 0 0.0073804068328412187 -0.0018066218656435248 0 0.0073918826765624248 -0.0018155697593691751 0 0.0073804068328412187 -0.0018066218656435248 0 0.0073918826765624248 -0.0018155697593691751 0 0.0073916484391973068 -0.001807905737858571 0 0.0073918826765624248 -0.0018155697593691751 0 0.0073994219959652562 -0.0018150952349969133 0 0.0074023102726332082 -0.0018200963585969037 0 0.0073918826765624248 -0.0018155697593691751 0 0.0073994219959652562 -0.0018150952349969133 0 0.0073916484391973068 -0.001807905737858571 0 0.0073983868645141424 -0.0018059392495584461 0 0.0073994219959652562 -0.0018150952349969133 0 0.0073916484391973068 -0.001807905737858571 0 0.0073983868645141424 -0.0018059392495584461 0 0.0073994219959652562 -0.0018150952349969133 0 0.0074043751191425157 -0.0018131176623748788 0 0.0073983868645141424 -0.0018059392495584461 0 0.0074062358671473944 -0.0018061541434789565 0 0.0074043751191425157 -0.0018131176623748788 0 0.0074091014687927498 -0.0018116344748753679 0 0.0074062358671473944 -0.0018061541434789565 0 0.0074043751191425157 -0.0018131176623748788 0 0.0074091014687927498 -0.0018116344748753679 0 0.0074043751191425157 -0.0018131176623748788 0 0.0074084203378536077 -0.0018173270013156378 0 0.0073994219959652562 -0.0018150952349969133 0 0.0074043751191425157 -0.0018131176623748788 0 0.0074059924041539795 -0.0018199867968118034 0 0.0074043751191425157 -0.0018131176623748788 0 0.0074059924041539795 -0.0018199867968118034 0 0.0074084203378536077 -0.0018173270013156378 0 0.0074059924041539795 -0.0018199867968118034 0 0.0074084203378536077 -0.0018173270013156378 0 0.0074089127946004359 -0.0018197060532998857 0 0.007411283927405918 -0.0018180215463181252 0 0.0074084203378536077 -0.0018173270013156378 0 0.0074089127946004359 -0.0018197060532998857 0 0.007411283927405918 -0.0018180215463181252 0 0.0074105953848117249 -0.0018174936734861437 0 0.0074089127946004359 -0.0018197060532998857 0 0.0074089402415010979 -0.0018220017927469386 0 0.0074059924041539795 -0.0018199867968118034 0 0.0074089127946004359 -0.0018197060532998857 0 0.0074089402415010979 -0.0018220017927469386 0 0.0074153669493962696 -0.0018273817534422935 0 0.0074080603517932978 -0.0018233707924388621 0 0.0074089402415010979 -0.0018220017927469386 0 0.0074059924041539795 -0.0018199867968118034 0 0.0074080603517932978 -0.0018233707924388621 0 0.0074153669493962696 -0.0018273817534422935 0 0.0074120385426244429 -0.0018299046694138933 0 0.0074061411241344273 -0.0018246620272364721 0 0.0074153669493962696 -0.0018273817534422935 0 0.0074080603517932978 -0.0018233707924388621 0 0.0074061411241344273 -0.0018246620272364721 0 0.0073918826765624248 -0.0018155697593691751 0 0.0074061411241344273 -0.0018246620272364721 0 0.0074023102726332082 -0.0018200963585969037 0 0.0073994219959652562 -0.0018150952349969133 0 0.0074059924041539795 -0.0018199867968118034 0 0.0074023102726332082 -0.0018200963585969037 0 0.0074059924041539795 -0.0018199867968118034 0 0.0074080603517932978 -0.0018233707924388621 0 0.0074023102726332082 -0.0018200963585969037 0 0.0074080603517932978 -0.0018233707924388621 0 0.0074061411241344273 -0.0018246620272364721 0 0.0074023102726332082 -0.0018200963585969037 0 0.0072957403705427321 -0.0017902955223929634 0 0.0073112353522631875 -0.0018116534324894274 0 0.0073051288542450047 -0.0018209417869613016 0 0.0073149616563509797 -0.0018258319813162238 0 0.007328104960610613 -0.0018214643415564464 0 0.00732618725908896 -0.0018355665320606113 0 0.0073149616563509797 -0.0018258319813162238 0 0.0073112353522631875 -0.0018116534324894274 0 0.007328104960610613 -0.0018214643415564464 0 0.0073149616563509797 -0.0018258319813162238 0 0.0073112353522631875 -0.0018116534324894274 0 0.0073051288542450047 -0.0018209417869613016 0 0.0073163491468174104 -0.0018009773745713132 0 0.0073112353522631875 -0.0018116534324894274 0 0.007328104960610613 -0.0018214643415564464 0 0.0073163491468174104 -0.0018009773745713132 0 0.0073512093694162459 -0.0018099603240663016 0 0.007328104960610613 -0.0018214643415564464 0 0.0073603916618635032 -0.0018256226553551964 0 0.007328104960610613 -0.0018214643415564464 0 0.0073436699211910598 -0.0018401759023011625 0 0.0073603916618635032 -0.0018256226553551964 0 0.0073512093694162459 -0.0018099603240663016 0 0.007328104960610613 -0.0018214643415564464 0 0.007328104960610613 -0.0018214643415564464 0 0.0073436699211910598 -0.0018401759023011625 0 0.00732618725908896 -0.0018355665320606113 0 0.0073723394048903984 -0.0018392831860558948 0 0.0073436699211910598 -0.0018401759023011625 0 0.0073434625839573957 -0.0018585817053947725 0 0.0073436699211910598 -0.0018401759023011625 0 0.0073434625839573957 -0.0018585817053947725 0 0.0073331488779355657 -0.0018465450716943583 0 0.0073436699211910598 -0.0018401759023011625 0 0.0073331488779355657 -0.0018465450716943583 0 0.00732618725908896 -0.0018355665320606113 0 0.0073149616563509797 -0.0018258319813162238 0 0.0073051288542450047 -0.0018209417869613016 0 0.0073193860125309795 -0.0018386197604189803 0 0.0073331488779355657 -0.0018465450716943583 0 0.00732618725908896 -0.0018355665320606113 0 0.0073193860125309795 -0.0018386197604189803 0 0.0073149616563509797 -0.0018258319813162238 0 0.00732618725908896 -0.0018355665320606113 0 0.0073193860125309795 -0.0018386197604189803 0 0.0093589015890501569 -0.00075600109292430146 0 0.0077009229396896731 -0.0016349102566351873 0 0.010529466575996118 -0.00072681781738252055 0 0.010357880731891372 -0.00082286087048301772 0 0.010910967344975393 -0.00092249858168324877 0 0.0073331488779355657 -0.0018465450716943583 0 0.0073360001502285992 -0.0018445113937525766 0 0.0073193860125309795 -0.0018386197604189803 0 0.0073360001502285992 -0.0018445113937525766 0 0.0073357133539674602 -0.001841291321063182 0 0.0073193860125309795 -0.0018386197604189803 0 0.008979613668061371 -0.001262205815397045 0 0.011475142299585723 -0.00024661976066761609 0 0.008979613668061371 -0.001262205815397045 0 0.0093589015890501569 -0.00075600109292430146 0 0.0093586127879680386 -0.0013204701823383801 0 0.010368705384401048 -0.00073800508415385773 0 0.010422075082785781 -0.0011941749534149263 0 0.0097344000036038332 6.8233115514091767e-06 0 0.009614446076621876 -6.1663892722788781e-05 0 0.0097048066772746563 0.00023281464477582835 0 0.011475142299585723 -0.00024661976066761609 0 0.011052666808289164 -7.6249522851767695e-05 0 0.011475142299585723 -0.00024661976066761609 0 0.0093589015890501569 -0.00075600109292430146 0 0.011111131454730154 -0.00066980320568876784 0 0.010529466575996118 -0.00072681781738252055 0 0.010910967344975393 -0.00092249858168324877 0 0.0074400087467234727 -0.0018316750914662441 0 0.008979613668061371 -0.001262205815397045 0 0.0094171011628420374 -0.0010243015629805936 0 0.008979613668061371 -0.001262205815397045 0 0.0077403056793842019 -0.0014146110561950925 0 0.007946577892914029 -0.0016128921608710421 0 0.0084679695384847833 -0.0013112221051636427 0 0.0073434625839573957 -0.0018585817053947725 0 0.0073331488779355657 -0.0018465450716943583 0 0.0073360001502285992 -0.0018445113937525766 0 0.014337848260046538 -1.1129387484321928e-05 0 0.01433103442810625 7.7000119903603927e-06 0 0.014348651671291311 8.7683327691934379e-06 0 0.014183306854432089 0.00055753572893908429 0 0.014246589593317968 0.00029231510291979836 0 0.014125881992238043 0.00040768648812832269 0 0.011475142299585723 -0.00024661976066761609 0 0.012803127776073859 -0.00049297103247117953 0 0.011475142299585723 -0.00024661976066761609 0 0.014352602225719158 0.00019167208573087763 0 0.014309659397825795 7.6239407351455787e-06 0 0.014337848260046538 -1.1129387484321928e-05 0 0.01433103442810625 7.7000119903603927e-06 0 0.014246589593317968 0.00029231510291979836 0 0.014305956252301711 3.4134901792925364e-05 0 0.014095371314785428 0.00023345645598656502 0 0.014352602225719158 0.00019167208573087763 0 0.014305176165202476 3.0919265461298309e-05 0 0.01433103442810625 7.7000119903603927e-06 0 0.014305956252301711 3.4134901792925364e-05 0 0.014348651671291311 8.7683327691934379e-06 0 0.014305956252301711 3.4134901792925364e-05 0 0.014392084799410175 9.5912397685842833e-06 0 0.014306743872804907 -8.7915379062944026e-05 0 0.014305956252301711 3.4134901792925364e-05 0 0.014392084799410175 9.5912397685842833e-06 0 0.014348651671291311 8.7683327691934379e-06 0 0.014392084799410175 9.5912397685842833e-06 0 0.014365063987127171 -1.0525157661724354e-05 0 0.014379726556648553 -1.3735524250910552e-05 0 0.014392084799410175 9.5912397685842833e-06 0 0.014379726556648553 -1.3735524250910552e-05 0 0.014445565031499788 -1.6985600039018792e-05 0 0.014337848260046538 -1.1129387484321928e-05 0 0.014365063987127171 -1.0525157661724354e-05 0 0.014348651671291311 8.7683327691934379e-06 0 0.014392084799410175 9.5912397685842833e-06 0 0.014365063987127171 -1.0525157661724354e-05 0 0.014348651671291311 8.7683327691934379e-06 0 0.014365063987127171 -1.0525157661724354e-05 0 0.014349713324372208 -3.2958592485992761e-05 0 0.014379726556648553 -1.3735524250910552e-05 0 0.014337848260046538 -1.1129387484321928e-05 0 0.014365063987127171 -1.0525157661724354e-05 0 0.014349713324372208 -3.2958592485992761e-05 0 0.014349713324372208 -3.2958592485992761e-05 0 0.014339478470103926 -3.7927526034318858e-05 0 0.014379726556648553 -1.3735524250910552e-05 0 0.01433346783918318 -5.4962521270279193e-05 0 0.014349713324372208 -3.2958592485992761e-05 0 0.014339478470103926 -3.7927526034318858e-05 0 0.01433346783918318 -5.4962521270279193e-05 0 0.014339478470103926 -3.7927526034318858e-05 0 0.014316809811898009 -6.8395534841583062e-05 0 0.014339478470103926 -3.7927526034318858e-05 0 0.014379726556648553 -1.3735524250910552e-05 0 0.014326869641066073 2.0988209857039715e-06 0 0.014829955784019154 -5.7378367115373215e-05 0 0.014644003065420526 -0.00011188201030397032 0 0.014445565031499788 -1.6985600039018792e-05 0 0.014379726556648553 -1.3735524250910552e-05 0 0.014359266894339629 1.8923847894270652e-05 0 0.014445565031499788 -1.6985600039018792e-05 0 0.014592385789363792 -9.8898466385267043e-06 0 0.014455175664139099 -1.6924454705885147e-05 0 0.014379726556648553 -1.3735524250910552e-05 0 0.014359266894339629 1.8923847894270652e-05 0 0.014326869641066073 2.0988209857039715e-06 0 0.014829955784019154 -5.7378367115373215e-05 0 0.014834064377034238 -0.00012481397055173963 0 0.014856819595043804 -0.00010030925106932157 0 0.014829955784019154 -5.7378367115373215e-05 0 0.014834064377034238 -0.00012481397055173963 0 0.014780539585014562 -0.00012950017411304663 0 0.014829955784019154 -5.7378367115373215e-05 0 0.014644003065420526 -0.00011188201030397032 0 0.014780539585014562 -0.00012950017411304663 0 0.014834064377034238 -0.00012481397055173963 0 0.014780539585014562 -0.00012950017411304663 0 0.014783756898420037 -0.00018271783209882815 0 0.014644003065420526 -0.00011188201030397032 0 0.014780539585014562 -0.00012950017411304663 0 0.014783756898420037 -0.00018271783209882815 0 0.014644003065420526 -0.00011188201030397032 0 0.014783756898420037 -0.00018271783209882815 0 0.01453115163141505 -0.00021356504219748287 0 0.014791716829643102 -0.00029239113795628108 0 0.014483836174643737 -0.00062529267004174437 0 0.014783756898420037 -0.00018271783209882815 0 0.014976626947165251 -0.00023167795761407466 0 0.01486929827357185 -0.00010092536422866099 0 0.014644003065420526 -0.00011188201030397032 0 0.01453115163141505 -0.00021356504219748287 0 0.014473093909615719 -0.0001070035427104545 0 0.014483836174643737 -0.00062529267004174437 0 0.013530003775599975 -0.00037316554135023673 0 0.01391083076689999 -0.0016354952506569354 0 0.012924609008393151 -0.00061095514490110917 0 0.01237301357347699 -0.0013250730240923108 0 0.01453115163141505 -0.00021356504219748287 0 0.014306743872804907 -8.7915379062944026e-05 0 0.014473093909615719 -0.0001070035427104545 0 0.014922315392135656 -9.1946492960346199e-05 0 0.014941387793747235 -6.2308641767364918e-05 0 0.014949279835560617 -3.8989210770360511e-05 0 0.014483836174643737 -0.00062529267004174437 0 0.013648031802989928 -0.0007125807068453162 0 0.014306743872804907 -8.7915379062944026e-05 0 0.014445565031499788 -1.6985600039018792e-05 0 0.014473093909615719 -0.0001070035427104545 0 0.014392084799410175 9.5912397685842833e-06 0 0.014306743872804907 -8.7915379062944026e-05 0 0.014445565031499788 -1.6985600039018792e-05 0 0.014644003065420526 -0.00011188201030397032 0 0.014445565031499788 -1.6985600039018792e-05 0 0.014473093909615719 -0.0001070035427104545 0 0.014288943369183524 -0.00015954473107057746 0 0.01434095038276648 -0.00014993933704968271 0 0.014296056642501553 -0.00013977729287501992 0 0.014288943369183524 -0.00015954473107057746 0 0.014309335057532678 -0.00016947356542016176 0 0.01434095038276648 -0.00014993933704968271 0 0.014288943369183524 -0.00015954473107057746 0 0.014309335057532678 -0.00016947356542016176 0 0.014284011700100805 -0.00017529701601088301 0 0.014237936854225893 -0.00017465310725856855 0 0.014288943369183524 -0.00015954473107057746 0 0.014284011700100805 -0.00017529701601088301 0 0.01402164716356147 -0.00022126226679618265 0 0.013741287609350117 -0.00014775194584291864 0 0.013905623615852531 -0.00025449909620382029 0 0.013640183789152847 -0.00044926397433967539 0 0.014123853133031581 -0.00018923636980929532 0 0.014309335057532678 -0.00016947356542016176 0 0.014284011700100805 -0.00017529701601088301 0 0.014294333382111583 -0.00019747978925687787 0 0.014320288988287209 -0.0001331955126205098 0 0.014294333382111583 -0.00019747978925687787 0 0.014318065039195738 -0.00015820154971487124 0 0.014309335057532678 -0.00016947356542016176 0 0.014294333382111583 -0.00019747978925687787 0 0.014318065039195738 -0.00015820154971487124 0 0.014309335057532678 -0.00016947356542016176 0 0.014318065039195738 -0.00015820154971487124 0 0.014331434828534885 -0.00014728006415697068 0 0.014318065039195738 -0.00015820154971487124 0 0.014322296489379186 -0.0001363447807905607 0 0.014331434828534885 -0.00014728006415697068 0 0.014320288988287209 -0.0001331955126205098 0 0.014322296489379186 -0.0001363447807905607 0 0.014300359267782203 -9.5725531316217486e-05 0 0.014320288988287209 -0.0001331955126205098 0 0.014318065039195738 -0.00015820154971487124 0 0.014322296489379186 -0.0001363447807905607 0 0.014322296489379186 -0.0001363447807905607 0 0.014331434828534885 -0.00014728006415697068 0 0.014324990994590564 -0.00013637233162228408 0 0.014331434828534885 -0.00014728006415697068 0 0.014324990994590564 -0.00013637233162228408 0 0.014340970272861105 -0.00014295761174496955 0 0.014309335057532678 -0.00016947356542016176 0 0.014331434828534885 -0.00014728006415697068 0 0.01434095038276648 -0.00014993933704968271 0 0.014331434828534885 -0.00014728006415697068 0 0.01434095038276648 -0.00014993933704968271 0 0.014340970272861105 -0.00014295761174496955 0 0.014313786605049984 -0.00014016959687079971 0 0.014324990994590564 -0.00013637233162228408 0 0.014340970272861105 -0.00014295761174496955 0 0.014313786605049984 -0.00014016959687079971 0 0.014324990994590564 -0.00013637233162228408 0 0.014300359267782203 -9.5725531316217486e-05 0 0.014286598886403597 -7.0936642611930858e-05 0 0.014304360125031087 -9.57530589458866e-05 0 0.014322296489379186 -0.0001363447807905607 0 0.014324990994590564 -0.00013637233162228408 0 0.014300359267782203 -9.5725531316217486e-05 0 0.014339478470103926 -3.7927526034318858e-05 0 0.014297606918325599 -2.0359254381123272e-05 0 0.014316809811898009 -6.8395534841583062e-05 0 0.014297606918325599 -2.0359254381123272e-05 0 0.014300359267782203 -9.5725531316217486e-05 0 0.014316809811898009 -6.8395534841583062e-05 0 0.014339478470103926 -3.7927526034318858e-05 0 0.014297606918325599 -2.0359254381123272e-05 0 0.014326869641066073 2.0988209857039715e-06 0 0.014297606918325599 -2.0359254381123272e-05 0 0.014326869641066073 2.0988209857039715e-06 0 0.014304288269064417 2.5687753272669595e-05 0 0.014286598886403597 -7.0936642611930858e-05 0 0.014552907870230397 -0.00012943494247671385 0 0.014592385789363792 -9.8898466385267043e-06 0 0.014552907870230397 -0.00012943494247671385 0 0.014359266894339629 1.8923847894270652e-05 0 0.014326869641066073 2.0988209857039715e-06 0 0.014304288269064417 2.5687753272669595e-05 0 0.014552907870230397 -0.00012943494247671385 0 0.014818762520991324 -0.00012538082912014401 0 0.014834064377034238 -0.00012481397055173963 0 0.014856819595043804 -0.00010030925106932157 0 0.014832880401086417 -0.00011295810024430111 0 0.014721918764114295 -0.00026032068155553285 0 0.014616265760228958 -0.00024101023358909663 0 0.014650561182347139 -0.0001530029596395269 0 0.014552907870230397 -0.00012943494247671385 0 0.014478400017714168 -0.00020815849431305309 0 0.014721918764114295 -0.00026032068155553285 0 0.014650561182347139 -0.0001530029596395269 0 0.014741728237365892 -0.00013015792775452126 0 0.014313786605049984 -0.00014016959687079971 0 0.014313693770692436 -0.00016869001475491353 0 0.014340970272861105 -0.00014295761174496955 0 0.014313693770692436 -0.00016869001475491353 0 0.014340970272861105 -0.00014295761174496955 0 0.014345102418142531 -0.0001763487474726623 0 0.014340970272861105 -0.00014295761174496955 0 0.014384573253258801 -0.00013674591897426238 0 0.014345102418142531 -0.0001763487474726623 0 0.01434095038276648 -0.00014993933704968271 0 0.014340970272861105 -0.00014295761174496955 0 0.014384573253258801 -0.00013674591897426238 0 0.014478400017714168 -0.00020815849431305309 0 0.014468924117815958 -0.00019650685506252089 0 0.014384573253258801 -0.00013674591897426238 0 0.014345102418142531 -0.0001763487474726623 0 0.014466438976818182 -0.00019182708444106253 0 0.014616265760228958 -0.00024101023358909663 0 0.014565147527849381 -0.00015967283027092146 0 0.014466438976818182 -0.00019182708444106253 0 0.014616265760228958 -0.00024101023358909663 0 0.014565147527849381 -0.00015967283027092146 0 0.014650561182347139 -0.0001530029596395269 0 0.014458535210357016 -0.00020598223245147927 0 0.014466438976818182 -0.00019182708444106253 0 0.014486272580263276 -0.00012796575208205707 0 0.014565147527849381 -0.00015967283027092146 0 0.014466438976818182 -0.00019182708444106253 0 0.014486272580263276 -0.00012796575208205707 0 0.014458535210357016 -0.00020598223245147927 0 0.014384573253258801 -0.00013674591897426238 0 0.014466438976818182 -0.00019182708444106253 0 0.014342471553265516 -0.00014872183774936753 0 0.014379342223567709 -0.00013923765873487885 0 0.014233431359396547 -9.1775102902614809e-05 0 0.014384573253258801 -0.00013674591897426238 0 0.014296056642501553 -0.00013977729287501992 0 0.01434095038276648 -0.00014993933704968271 0 0.014384573253258801 -0.00013674591897426238 0 0.014296056642501553 -0.00013977729287501992 0 0.014507555564180085 -1.7705094842481668e-05 0 0.014575198322863428 -8.8097971726891654e-05 0 0.014583711479448237 -3.0384506052766375e-05 0 0.014565147527849381 -0.00015967283027092146 0 0.014486272580263276 -0.00012796575208205707 0 0.014575198322863428 -8.8097971726891654e-05 0 0.014507555564180085 -1.7705094842481668e-05 0 0.014486272580263276 -0.00012796575208205707 0 0.014575198322863428 -8.8097971726891654e-05 0 0.014575198322863428 -8.8097971726891654e-05 0 0.014677451157696923 -7.1578487761139419e-05 0 0.014650561182347139 -0.0001530029596395269 0 0.014565147527849381 -0.00015967283027092146 0 0.014575198322863428 -8.8097971726891654e-05 0 0.014650561182347139 -0.0001530029596395269 0 0.014575198322863428 -8.8097971726891654e-05 0 0.014583711479448237 -3.0384506052766375e-05 0 0.014677451157696923 -7.1578487761139419e-05 0 0.014677451157696923 -7.1578487761139419e-05 0 0.014650561182347139 -0.0001530029596395269 0 0.014741728237365892 -0.00013015792775452126 0 0.014832880401086417 -0.00011295810024430111 0 0.014822549537217322 -2.1949456248832483e-05 0 0.014878193406497504 -5.8284155652683532e-05 0 0.014818762520991324 -0.00012538082912014401 0 0.014810956559569674 -1.9823381063689748e-05 0 0.014677451157696923 -7.1578487761139419e-05 0 0.014741728237365892 -0.00013015792775452126 0 0.014822549537217322 -2.1949456248832483e-05 0 0.01498249229922477 -8.3223126639811276e-07 0 0.015001903531436302 1.0943082048064975e-05 0 0.014923121172459041 1.5181745328038607e-05 0 0.014822549537217322 -2.1949456248832483e-05 0 0.014676672758673535 4.5607632563619377e-05 0 0.014923121172459041 1.5181745328038607e-05 0 0.014840886914303238 2.365373374810264e-05 0 0.014916122943838431 1.8382025735366544e-05 0 0.014822549537217322 -2.1949456248832483e-05 0 0.014878193406497504 -5.8284155652683532e-05 0 0.014923121172459041 1.5181745328038607e-05 0 0.01498249229922477 -8.3223126639811276e-07 0 0.014923121172459041 1.5181745328038607e-05 0 0.014999878693173865 -1.4610938971078765e-09 0 0.01498249229922477 -8.3223126639811276e-07 0 0.015000012628998607 -1.3276955175573857e-09 0 0.014999878693173865 -1.4610938971078765e-09 0 0.01498249229922477 -8.3223126639811276e-07 0 0.015000012628998607 -1.3276955175573857e-09 0 0.015001903531436302 1.0943082048064975e-05 0 0.014677451157696923 -7.1578487761139419e-05 0 0.014822549537217322 -2.1949456248832483e-05 0 0.014676672758673535 4.5607632563619377e-05 0 0.014583711479448237 -3.0384506052766375e-05 0 0.014677451157696923 -7.1578487761139419e-05 0 0.014676672758673535 4.5607632563619377e-05 0 0.014583711479448237 -3.0384506052766375e-05 0 0.014676672758673535 4.5607632563619377e-05 0 0.014542792492042751 -1.1099781702893262e-05 0 0.014840886914303238 2.365373374810264e-05 0 0.014777044564721306 -4.6900481080973279e-06 0 0.015000012628998607 -1.3276955175573857e-09 0 0.014999994229606716 3.4481952669390591e-09 0 0.015000141523989562 2.3815589895185362e-06 0 0.015000012628998607 -1.3276955175573857e-09 0 0.015001903531436302 1.0943082048064975e-05 0 0.015000141523989562 2.3815589895185362e-06 0 0.014999603014499718 -8.2843257393437017e-07 0 0.014999994229606716 3.4481952669390591e-09 0 0.015000141523989562 2.3815589895185362e-06 0 0.014507555564180085 -1.7705094842481668e-05 0 0.014583711479448237 -3.0384506052766375e-05 0 0.014542792492042751 -1.1099781702893262e-05 0 0.014923023000271859 -5.1601858399566979e-05 0 0.014957634394968642 -2.9734060111085689e-05 0 0.014943443573555025 -5.3944486936254045e-05 0 0.014923023000271859 -5.1601858399566979e-05 0 0.014957634394968642 -2.9734060111085689e-05 0 0.014942880488814697 -2.687029853465337e-05 0 0.014957634394968642 -2.9734060111085689e-05 0 0.014964063308326711 -3.239459657654196e-05 0 0.014943443573555025 -5.3944486936254045e-05 0 0.014957634394968642 -2.9734060111085689e-05 0 0.014964063308326711 -3.239459657654196e-05 0 0.014977320192761901 -1.8706481417695124e-05 0 0.014943443573555025 -5.3944486936254045e-05 0 0.014941387793747235 -6.2308641767364918e-05 0 0.014956754022513096 -4.112188330110024e-05 0 0.014964063308326711 -3.239459657654196e-05 0 0.014943443573555025 -5.3944486936254045e-05 0 0.014956754022513096 -4.112188330110024e-05 0 0.014941387793747235 -6.2308641767364918e-05 0 0.014956754022513096 -4.112188330110024e-05 0 0.014949279835560617 -3.8989210770360511e-05 0 0.014943443573555025 -5.3944486936254045e-05 0 0.014941387793747235 -6.2308641767364918e-05 0 0.014924292973235085 -7.6056482476427115e-05 0 0.014922315392135656 -9.1946492960346199e-05 0 0.014941387793747235 -6.2308641767364918e-05 0 0.014924292973235085 -7.6056482476427115e-05 0 0.014923023000271859 -5.1601858399566979e-05 0 0.014943443573555025 -5.3944486936254045e-05 0 0.014911939957476972 -6.957554409037033e-05 0 0.014943443573555025 -5.3944486936254045e-05 0 0.014924292973235085 -7.6056482476427115e-05 0 0.014911939957476972 -6.957554409037033e-05 0 0.014923023000271859 -5.1601858399566979e-05 0 0.014911939957476972 -6.957554409037033e-05 0 0.014884405487482509 -7.9782050890468193e-05 0 0.014911939957476972 -6.957554409037033e-05 0 0.01486929827357185 -0.00010092536422866099 0 0.014884405487482509 -7.9782050890468193e-05 0 0.014483836174643737 -0.00062529267004174437 0 0.014788753089688645 -0.00018425639575555118 0 0.014924292973235085 -7.6056482476427115e-05 0 0.014911939957476972 -6.957554409037033e-05 0 0.01486929827357185 -0.00010092536422866099 0 0.014922315392135656 -9.1946492960346199e-05 0 0.014924292973235085 -7.6056482476427115e-05 0 0.01486929827357185 -0.00010092536422866099 0 0.014834064377034238 -0.00012481397055173963 0 0.014783756898420037 -0.00018271783209882815 0 0.014834950315424394 -0.00011765432155648764 0 0.014783756898420037 -0.00018271783209882815 0 0.01486929827357185 -0.00010092536422866099 0 0.014834950315424394 -0.00011765432155648764 0 0.014834950315424394 -0.00011765432155648764 0 0.014884405487482509 -7.9782050890468193e-05 0 0.014892518661930032 -6.4105847790109894e-05 0 0.014834950315424394 -0.00011765432155648764 0 0.014855250837718138 -0.00010052548741568934 0 0.014892518661930032 -6.4105847790109894e-05 0 0.01486929827357185 -0.00010092536422866099 0 0.014834950315424394 -0.00011765432155648764 0 0.014884405487482509 -7.9782050890468193e-05 0 0.014834064377034238 -0.00012481397055173963 0 0.014834950315424394 -0.00011765432155648764 0 0.014855250837718138 -0.00010052548741568934 0 0.014834064377034238 -0.00012481397055173963 0 0.014832880401086417 -0.00011295810024430111 0 0.014855250837718138 -0.00010052548741568934 0 0.014832880401086417 -0.00011295810024430111 0 0.014855250837718138 -0.00010052548741568934 0 0.014878193406497504 -5.8284155652683532e-05 0 0.014878193406497504 -5.8284155652683532e-05 0 0.014892518661930032 -6.4105847790109894e-05 0 0.014932113666733922 -1.7194540105596479e-05 0 0.014855250837718138 -0.00010052548741568934 0 0.014878193406497504 -5.8284155652683532e-05 0 0.014892518661930032 -6.4105847790109894e-05 0 0.014892518661930032 -6.4105847790109894e-05 0 0.014932113666733922 -1.7194540105596479e-05 0 0.014942880488814697 -2.687029853465337e-05 0 0.014923023000271859 -5.1601858399566979e-05 0 0.014884405487482509 -7.9782050890468193e-05 0 0.014892518661930032 -6.4105847790109894e-05 0 0.014923023000271859 -5.1601858399566979e-05 0 0.014892518661930032 -6.4105847790109894e-05 0 0.014942880488814697 -2.687029853465337e-05 0 0.01496411421827583 -7.9684164452137768e-06 0 0.014932113666733922 -1.7194540105596479e-05 0 0.014942880488814697 -2.687029853465337e-05 0 0.01496411421827583 -7.9684164452137768e-06 0 0.014932113666733922 -1.7194540105596479e-05 0 0.014965534565707605 3.0573984097806749e-06 0 0.014878193406497504 -5.8284155652683532e-05 0 0.014932113666733922 -1.7194540105596479e-05 0 0.014923121172459041 1.5181745328038607e-05 0 0.014932113666733922 -1.7194540105596479e-05 0 0.014923121172459041 1.5181745328038607e-05 0 0.014965534565707605 3.0573984097806749e-06 0 0.014999878693173865 -1.4610938971078765e-09 0 0.014965534565707605 3.0573984097806749e-06 0 0.014999939499696493 2.5596544774225115e-09 0 0.014923121172459041 1.5181745328038607e-05 0 0.014999878693173865 -1.4610938971078765e-09 0 0.014965534565707605 3.0573984097806749e-06 0 0.01496411421827583 -7.9684164452137768e-06 0 0.014965534565707605 3.0573984097806749e-06 0 0.014999939499696493 2.5596544774225115e-09 0 0.014999939499696493 2.5596544774225115e-09 0 0.014975009008332272 -1.0173080833185059e-05 0 0.014999977762499036 -3.4010962256415975e-09 0 0.01496411421827583 -7.9684164452137768e-06 0 0.014999939499696493 2.5596544774225115e-09 0 0.014975009008332272 -1.0173080833185059e-05 0 0.01496411421827583 -7.9684164452137768e-06 0 0.014975009008332272 -1.0173080833185059e-05 0 0.014942880488814697 -2.687029853465337e-05 0 0.014957634394968642 -2.9734060111085689e-05 0 0.014975009008332272 -1.0173080833185059e-05 0 0.014942880488814697 -2.687029853465337e-05 0 0.014957634394968642 -2.9734060111085689e-05 0 0.014975009008332272 -1.0173080833185059e-05 0 0.014977320192761901 -1.8706481417695124e-05 0 0.014975009008332272 -1.0173080833185059e-05 0 0.014999977762499036 -3.4010962256415975e-09 0 0.014977320192761901 -1.8706481417695124e-05 0 0.014999977762499036 -3.4010962256415975e-09 0 0.014987809521424564 -1.1331382324535799e-05 0 0.014977320192761901 -1.8706481417695124e-05 0 0.014999977762499036 -3.4010962256415975e-09 0 0.014987809521424564 -1.1331382324535799e-05 0 0.014999954107390728 -4.2468708803364476e-08 0 0.014999954107390728 -4.2468708803364476e-08 0 0.014981454379316061 -1.6380036880220759e-05 0 0.014957501379952895 -3.0813250482645338e-05 0 0.014987809521424564 -1.1331382324535799e-05 0 0.014999954107390728 -4.2468708803364476e-08 0 0.014981454379316061 -1.6380036880220759e-05 0 0.014981454379316061 -1.6380036880220759e-05 0 0.014977378150616255 -2.0401664108957158e-05 0 0.014957501379952895 -3.0813250482645338e-05 0 0.014987809521424564 -1.1331382324535799e-05 0 0.014981454379316061 -1.6380036880220759e-05 0 0.014977378150616255 -2.0401664108957158e-05 0 0.014977378150616255 -2.0401664108957158e-05 0 0.014977320192761901 -1.8706481417695124e-05 0 0.014967039160011424 -2.7782179281794288e-05 0 0.014987809521424564 -1.1331382324535799e-05 0 0.014977378150616255 -2.0401664108957158e-05 0 0.014977320192761901 -1.8706481417695124e-05 0 0.014964063308326711 -3.239459657654196e-05 0 0.014977320192761901 -1.8706481417695124e-05 0 0.014967039160011424 -2.7782179281794288e-05 0 0.014964063308326711 -3.239459657654196e-05 0 0.014967039160011424 -2.7782179281794288e-05 0 0.014956754022513096 -4.112188330110024e-05 0 0.014967039160011424 -2.7782179281794288e-05 0 0.014954877243128295 -2.6513069566303329e-05 0 0.014956440985161263 -2.4440605288571326e-05 0 0.014977378150616255 -2.0401664108957158e-05 0 0.014967039160011424 -2.7782179281794288e-05 0 0.014956440985161263 -2.4440605288571326e-05 0 0.014967039160011424 -2.7782179281794288e-05 0 0.014954877243128295 -2.6513069566303329e-05 0 0.014956754022513096 -4.112188330110024e-05 0 0.014954877243128295 -2.6513069566303329e-05 0 0.014956754022513096 -4.112188330110024e-05 0 0.014949742167672744 -2.7207695136803942e-05 0 0.014932894795186842 -1.2752462057246376e-05 0 0.014908744332177011 -2.1605860881780919e-05 0 0.014901749930429189 9.8396981219403737e-06 0 0.014954877243128295 -2.6513069566303329e-05 0 0.014932894795186842 -1.2752462057246376e-05 0 0.014926687715241345 8.5997260777605581e-06 0 0.014954877243128295 -2.6513069566303329e-05 0 0.014932894795186842 -1.2752462057246376e-05 0 0.014956440985161263 -2.4440605288571326e-05 0 0.014932894795186842 -1.2752462057246376e-05 0 0.014956440985161263 -2.4440605288571326e-05 0 0.014908744332177011 -2.1605860881780919e-05 0 0.014956440985161263 -2.4440605288571326e-05 0 0.014908744332177011 -2.1605860881780919e-05 0 0.014957501379952895 -3.0813250482645338e-05 0 0.014935171617103123 -1.2501400902348495e-05 0 0.014974541596756728 -1.4688278622992287e-05 0 0.0149639995699799 -2.5959671108744003e-06 0 0.014992095861035511 -2.508890343369245e-06 0 0.014972680511317841 -6.0146582945563388e-06 0 0.014977378150616255 -2.0401664108957158e-05 0 0.014956440985161263 -2.4440605288571326e-05 0 0.014957501379952895 -3.0813250482645338e-05 0 0.014999995936530707 1.470007920915172e-09 0 0.015000007855652179 5.3319699163930169e-10 0 0.014992095861035511 -2.508890343369245e-06 0 0.014994734036147267 -1.4962279033901733e-06 0 0.014974541596756728 -1.4688278622992287e-05 0 0.014999995936530707 1.470007920915172e-09 0 0.014992095861035511 -2.508890343369245e-06 0 0.014999972209959415 -1.2349445856990804e-08 0 0.014992095861035511 -2.508890343369245e-06 0 0.014999972209959415 -1.2349445856990804e-08 0 0.014972680511317841 -6.0146582945563388e-06 0 0.014999972209959415 -1.2349445856990804e-08 0 0.014999967055656831 1.3720731877418403e-09 0 0.014972680511317841 -6.0146582945563388e-06 0 0.014999967055656831 1.3720731877418403e-09 0 0.014979007065913203 -2.9152803356970592e-06 0 0.014972680511317841 -6.0146582945563388e-06 0 0.014979007065913203 -2.9152803356970592e-06 0 0.014972680511317841 -6.0146582945563388e-06 0 0.014958837933305493 -3.3326167977239607e-06 0 0.014999991038356864 3.8895246733260529e-10 0 0.014982262033122298 -1.5271599226501148e-06 0 0.014999944830584309 -5.6530779738417179e-09 0 0.01497851229438985 -1.2747268386081826e-06 0 0.014974791189357415 -1.7709433729770689e-06 0 0.014999967055656831 1.3720731877418403e-09 0 0.014979007065913203 -2.9152803356970592e-06 0 0.01497851229438985 -1.2747268386081826e-06 0 0.014999967055656831 1.3720731877418403e-09 0 0.014999944830584309 -5.6530779738417179e-09 0 0.01497851229438985 -1.2747268386081826e-06 0 0.01497851229438985 -1.2747268386081826e-06 0 0.014960044508022444 -6.8286801232851997e-06 0 0.014958837933305493 -3.3326167977239607e-06 0 0.014979007065913203 -2.9152803356970592e-06 0 0.01497851229438985 -1.2747268386081826e-06 0 0.014958837933305493 -3.3326167977239607e-06 0 0.01497851229438985 -1.2747268386081826e-06 0 0.014966529287848713 -4.0576059351346214e-06 0 0.014960044508022444 -6.8286801232851997e-06 0 0.01497851229438985 -1.2747268386081826e-06 0 0.014966529287848713 -4.0576059351346214e-06 0 0.014974791189357415 -1.7709433729770689e-06 0 0.014966529287848713 -4.0576059351346214e-06 0 0.014960044508022444 -6.8286801232851997e-06 0 0.014955497990293051 -9.2887606673053736e-06 0 0.014960044508022444 -6.8286801232851997e-06 0 0.014958837933305493 -3.3326167977239607e-06 0 0.014949173097469709 -1.1945535239110903e-05 0 0.014960044508022444 -6.8286801232851997e-06 0 0.014949173097469709 -1.1945535239110903e-05 0 0.014945740222870728 -1.3821662963197979e-05 0 0.014944995621972598 -1.733604061844827e-05 0 0.014949173097469709 -1.1945535239110903e-05 0 0.014945740222870728 -1.3821662963197979e-05 0 0.014960044508022444 -6.8286801232851997e-06 0 0.014945740222870728 -1.3821662963197979e-05 0 0.014955497990293051 -9.2887606673053736e-06 0 0.0149639995699799 -2.5959671108744003e-06 0 0.014972680511317841 -6.0146582945563388e-06 0 0.014924070394474334 -1.1284424851092255e-05 0 0.014972680511317841 -6.0146582945563388e-06 0 0.014958837933305493 -3.3326167977239607e-06 0 0.014924070394474334 -1.1284424851092255e-05 0 0.014958837933305493 -3.3326167977239607e-06 0 0.014949173097469709 -1.1945535239110903e-05 0 0.014924070394474334 -1.1284424851092255e-05 0 0.014812912806446058 1.9223610122238442e-06 0 0.014924070394474334 -1.1284424851092255e-05 0 0.014870669074877543 1.7849360459479517e-05 0 0.014847288005799439 3.6480723027324301e-05 0 0.014920725939227379 -2.4103189712003095e-05 0 0.014944995621972598 -1.733604061844827e-05 0 0.014949173097469709 -1.1945535239110903e-05 0 0.014924070394474334 -1.1284424851092255e-05 0 0.014935171617103123 -1.2501400902348495e-05 0 0.014878837170667326 1.6175406351590631e-05 0 0.0149639995699799 -2.5959671108744003e-06 0 0.014924070394474334 -1.1284424851092255e-05 0 0.014870669074877543 1.7849360459479517e-05 0 0.014908744332177011 -2.1605860881780919e-05 0 0.014870669074877543 1.7849360459479517e-05 0 0.014901749930429189 9.8396981219403737e-06 0 0.014859706290750053 4.9133205650873066e-05 0 0.014901749930429189 9.8396981219403737e-06 0 0.014884384112951449 5.2924351761151752e-05 0 0.014859706290750053 4.9133205650873066e-05 0 0.014870669074877543 1.7849360459479517e-05 0 0.014901749930429189 9.8396981219403737e-06 0 0.014812912806446058 1.9223610122238442e-06 0 0.014870669074877543 1.7849360459479517e-05 0 0.01481408352821373 4.9930551598885123e-05 0 0.014859706290750053 4.9133205650873066e-05 0 0.014870669074877543 1.7849360459479517e-05 0 0.01481408352821373 4.9930551598885123e-05 0 0.014859706290750053 4.9133205650873066e-05 0 0.01481408352821373 4.9930551598885123e-05 0 0.014800861611683475 0.00012453975534330698 0 0.0086268818889789194 -8.1662704092511933e-05 0 0.00870693194909271 -0.00010135375620957776 0 0.0093552450491745254 -0.00059368989848825396 0 0.011703877441461256 1.7332751378105699e-05 0 0.012142724939281056 -0.00026328305602629575 0 0.014859706290750053 4.9133205650873066e-05 0 0.014800861611683475 0.00012453975534330698 0 0.014884384112951449 5.2924351761151752e-05 0 0.014945740222870728 -1.3821662963197979e-05 0 0.014937737526608817 -1.206154223222272e-05 0 0.014932068088953724 -1.1375398620632676e-05 0 0.014945740222870728 -1.3821662963197979e-05 0 0.014932068088953724 -1.1375398620632676e-05 0 0.014938416928062817 -1.1361905682723391e-05 0 0.014847288005799439 3.6480723027324301e-05 0 0.015032064830874775 -0.00012131168382247726 0 0.014944995621972598 -1.733604061844827e-05 0 0.014945740222870728 -1.3821662963197979e-05 0 0.014937737526608817 -1.206154223222272e-05 0 0.014812912806446058 1.9223610122238442e-06 0 0.01481408352821373 4.9930551598885123e-05 0 0.014700223811354532 6.3370347022329802e-05 0 0.014800861611683475 0.00012453975534330698 0 0.014700223811354532 6.3370347022329802e-05 0 0.014595546839533404 0.00018502028220618327 0 0.011703877441461256 1.7332751378105699e-05 0 0.012266051531939793 2.7237827891295314e-05 0 0.01481408352821373 4.9930551598885123e-05 0 0.014800861611683475 0.00012453975534330698 0 0.014700223811354532 6.3370347022329802e-05 0 0.014932068088953724 -1.1375398620632676e-05 0 0.014916353639104226 -6.716255046972078e-06 0 0.014924738330922501 -1.032535100389213e-05 0 0.014937737526608817 -1.206154223222272e-05 0 0.014932068088953724 -1.1375398620632676e-05 0 0.014916353639104226 -6.716255046972078e-06 0 0.015032064830874775 -0.00012131168382247726 0 0.012266051531939793 2.7237827891295314e-05 0 0.0095856348503461364 -3.8118939954930212e-05 0 0.0094702628628628004 -0.00057962297289481583 0 0.0099248723790432911 -0.00049639738827952202 0 0.012266051531939793 2.7237827891295314e-05 0 0.0098584237891038706 -0.00028370753966351365 0 0.0086268818889789194 -8.1662704092511933e-05 0 0.0095856348503461364 -3.8118939954930212e-05 0 0.0090512117147008003 -0.0003357416316315161 0 0.0095856348503461364 -3.8118939954930212e-05 0 0.0090512117147008003 -0.0003357416316315161 0 0.0094702628628628004 -0.00057962297289481583 0 0.0090512117147008003 -0.0003357416316315161 0 0.0094702628628628004 -0.00057962297289481583 0 0.0092002870036433076 -0.00096596992027584642 0 0.0090512117147008003 -0.0003357416316315161 0 0.0086132254731425446 -0.00052712913104209654 0 0.0092002870036433076 -0.00096596992027584642 0 0.0094702628628628004 -0.00057962297289481583 0 0.0098186460115073683 -0.00095619633499174548 0 0.0092002870036433076 -0.00096596992027584642 0 0.0094702628628628004 -0.00057962297289481583 0 0.0099248723790432911 -0.00049639738827952202 0 0.0098186460115073683 -0.00095619633499174548 0 0.00870693194909271 -0.00010135375620957776 0 0.0086132254731425446 -0.00052712913104209654 0 0.0082429605724491459 -0.00062488413293574003 0 0.00870693194909271 -0.00010135375620957776 0 0.0082429605724491459 -0.00062488413293574003 0 0.007918115665235816 -0.0004640478795464168 0 0.00870693194909271 -0.00010135375620957776 0 0.0097045066048276774 0.00061471243149163247 0 0.0093552450491745254 -0.00059368989848825396 0 0.0087484577679097907 -7.9513687601098749e-05 0 0.008702431788203846 9.8401747679910709e-05 0 0.0086268818889789194 -8.1662704092511933e-05 0 0.00870693194909271 -0.00010135375620957776 0 0.0087467012829479836 -0.00025768380628074218 0 0.0090512117147008003 -0.0003357416316315161 0 0.0087467012829479836 -0.00025768380628074218 0 0.0086132254731425446 -0.00052712913104209654 0 0.00870693194909271 -0.00010135375620957776 0 0.0087467012829479836 -0.00025768380628074218 0 0.0086132254731425446 -0.00052712913104209654 0 0.0086268818889789194 -8.1662704092511933e-05 0 0.0090512117147008003 -0.0003357416316315161 0 0.0087467012829479836 -0.00025768380628074218 0 0.0086389222121182625 -0.0005597067685791698 0 0.0091040178813479814 -0.00090653729999093532 0 0.0086132254731425446 -0.00052712913104209654 0 0.0086921406941368271 -0.00088062064940245546 0 0.0090173345375530716 -0.0008654402315159506 0 0.0086132254731425446 -0.00052712913104209654 0 0.0081975610533114723 -0.00096804778650391038 0 0.0086921406941368271 -0.00088062064940245546 0 0.0086132254731425446 -0.00052712913104209654 0 0.0082429605724491459 -0.00062488413293574003 0 0.0081975610533114723 -0.00096804778650391038 0 0.0082429605724491459 -0.00062488413293574003 0 0.007918115665235816 -0.0004640478795464168 0 0.0078623402860509128 -0.00074225505723373667 0 0.0082429605724491459 -0.00062488413293574003 0 0.0078623402860509128 -0.00074225505723373667 0 0.0079836811703736296 -0.00093641042177999975 0 0.0097045066048276774 0.00061471243149163247 0 0.010784394880323503 0.0001085763863825783 0 0.0093552450491745254 -0.00059368989848825396 0 0.007918115665235816 -0.0004640478795464168 0 0.0078623402860509128 -0.00074225505723373667 0 0.007538847425368928 -0.00072939107776640207 0 0.0097045066048276774 0.00061471243149163247 0 0.010784394880323503 0.0001085763863825783 0 0.010962935589157881 0.0013696741015953231 0 0.008702431788203846 9.8401747679910709e-05 0 0.0099221817833963968 -5.9177555972485965e-05 0 0.013663082656412039 0.00028679617616716373 0 0.013931472265449345 0.00023803087803028527 0 0.014023382142523043 9.4786029643551807e-06 0 0.0099221817833963968 -5.9177555972485965e-05 0 0.013322412831754874 0.00023682892779445191 0 0.014305956252301711 3.4134901792925364e-05 0 0.014095371314785428 0.00023345645598656502 0 0.014023382142523043 9.4786029643551807e-06 0 0.014246589593317968 0.00029231510291979836 0 0.014095371314785428 0.00023345645598656502 0 0.014125881992238043 0.00040768648812832269 0 0.013931472265449345 0.00023803087803028527 0 0.014095371314785428 0.00023345645598656502 0 0.013937661975357495 0.00042625321554211879 0 0.013931472265449345 0.00023803087803028527 0 0.014095371314785428 0.00023345645598656502 0 0.014023382142523043 9.4786029643551807e-06 0 0.013530003775599975 -0.00037316554135023673 0 0.013322412831754874 0.00023682892779445191 0 0.014305956252301711 3.4134901792925364e-05 0 0.014306743872804907 -8.7915379062944026e-05 0 0.014023382142523043 9.4786029643551807e-06 0 0.010784394880323503 0.0001085763863825783 0 0.010962935589157881 0.0013696741015953231 0 0.011934688672104773 0.00039344584108651806 0 0.010784394880323503 0.0001085763863825783 0 0.011934688672104773 0.00039344584108651806 0 0.011770728300655665 -0.0004837328450839869 0 0.010784394880323503 0.0001085763863825783 0 0.011770728300655665 -0.0004837328450839869 0 0.010854794227067152 -0.00098921820970128221 0 0.011770728300655665 -0.0004837328450839869 0 0.01237301357347699 -0.0013250730240923108 0 0.010854794227067152 -0.00098921820970128221 0 0.012924609008393151 -0.00061095514490110917 0 0.011934688672104773 0.00039344584108651806 0 0.011770728300655665 -0.0004837328450839869 0 0.012924609008393151 -0.00061095514490110917 0 0.011770728300655665 -0.0004837328450839869 0 0.01237301357347699 -0.0013250730240923108 0 0.014956754022513096 -4.112188330110024e-05 0 0.014949279835560617 -3.8989210770360511e-05 0 0.014949742167672744 -2.7207695136803942e-05 0 0.013648031802989928 -0.0007125807068453162 0 0.012888967825516965 -0.00048490347145058947 0 0.014954877243128295 -2.6513069566303329e-05 0 0.014949742167672744 -2.7207695136803942e-05 0 0.014926687715241345 8.5997260777605581e-06 0 0.014949279835560617 -3.8989210770360511e-05 0 0.014949742167672744 -2.7207695136803942e-05 0 0.014926687715241345 8.5997260777605581e-06 0 0.014932894795186842 -1.2752462057246376e-05 0 0.014901749930429189 9.8396981219403737e-06 0 0.014926687715241345 8.5997260777605581e-06 0 0.014901749930429189 9.8396981219403737e-06 0 0.014884384112951449 5.2924351761151752e-05 0 0.014926687715241345 8.5997260777605581e-06 0 0.012142724939281056 -0.00026328305602629575 0 0.012888967825516965 -0.00048490347145058947 0 0.010784394880323503 0.0001085763863825783 0 0.0093552450491745254 -0.00059368989848825396 0 0.010854794227067152 -0.00098921820970128221 0 0.013356207972783101 -7.0903482279441908e-07 0 0.013606670821546131 -3.6365230607496784e-05 0 0.014999977378942405 2.4625166087716192e-07 0 0.013356207972783101 -7.0903482279441908e-07 0 0.013606670821546131 -3.6365230607496784e-05 0 0.013100703549680648 -8.2621280949819419e-05 0 0.013606670821546131 -3.6365230607496784e-05 0 0.013153948128505483 -0.00010802986838941302 0 0.013100703549680648 -8.2621280949819419e-05 0 0.013606670821546131 -3.6365230607496784e-05 0 0.014999977378942405 2.4625166087716192e-07 0 0.013990339149578885 1.9476691569422356e-05 0 0.014999977378942405 2.4625166087716192e-07 0 0.01499818899032886 -1.0269163857144673e-07 0 0.013990339149578885 1.9476691569422356e-05 0 0.014999775584750566 -1.2473419322792071e-07 0 0.014485245328791771 -3.691683706466093e-05 0 0.014999997548428564 -2.4039396255673592e-09 0 0.014986029241284121 -3.7644516444278986e-06 0 0.014999979898974029 1.6898233456786656e-10 0 0.014986029241284121 -3.7644516444278986e-06 0 0.014999979898974029 1.6898233456786656e-10 0 0.014985416276312256 -2.4049104774749587e-06 0 0.014986029241284121 -3.7644516444278986e-06 0 0.014985416276312256 -2.4049104774749587e-06 0 0.014968261681334626 -7.3847651618585815e-06 0 0.014485245328791771 -3.691683706466093e-05 0 0.014108573378004103 -6.2580765743671759e-05 0 0.013606670821546131 -3.6365230607496784e-05 0 0.013990339149578885 1.9476691569422356e-05 0 0.013267335317321891 -6.4860008877747359e-05 0 0.014986029241284121 -3.7644516444278986e-06 0 0.014968261681334626 -7.3847651618585815e-06 0 0.014965373230889244 -1.0745718282664515e-05 0 0.013606670821546131 -3.6365230607496784e-05 0 0.013267335317321891 -6.4860008877747359e-05 0 0.013153948128505483 -0.00010802986838941302 0 0.014968261681334626 -7.3847651618585815e-06 0 0.014952999558348149 -1.1259707270774398e-05 0 0.014955394388575903 -1.1978065511287646e-05 0 0.014968261681334626 -7.3847651618585815e-06 0 0.014965373230889244 -1.0745718282664515e-05 0 0.014955394388575903 -1.1978065511287646e-05 0 0.014968261681334626 -7.3847651618585815e-06 0 0.014959222575991509 -8.4095699415559137e-06 0 0.014952999558348149 -1.1259707270774398e-05 0 0.014959222575991509 -8.4095699415559137e-06 0 0.014964111329276017 -6.3929586675948404e-06 0 0.014947612969073225 -1.0432244874565311e-05 0 0.014964111329276017 -6.3929586675948404e-06 0 0.014973878958059668 -4.6104171749705081e-06 0 0.014983374933951037 -2.0545168659893371e-06 0 0.014959222575991509 -8.4095699415559137e-06 0 0.014964111329276017 -6.3929586675948404e-06 0 0.014973878958059668 -4.6104171749705081e-06 0 0.014985416276312256 -2.4049104774749587e-06 0 0.014968261681334626 -7.3847651618585815e-06 0 0.014973878958059668 -4.6104171749705081e-06 0 0.014968261681334626 -7.3847651618585815e-06 0 0.014959222575991509 -8.4095699415559137e-06 0 0.014973878958059668 -4.6104171749705081e-06 0 0.014985416276312256 -2.4049104774749587e-06 0 0.014973878958059668 -4.6104171749705081e-06 0 0.014985617519977498 -2.1809229190751352e-06 0 0.014999979898974029 1.6898233456786656e-10 0 0.014985416276312256 -2.4049104774749587e-06 0 0.014999980181318165 -4.6879252424886445e-10 0 0.014985416276312256 -2.4049104774749587e-06 0 0.014985617519977498 -2.1809229190751352e-06 0 0.014999980181318165 -4.6879252424886445e-10 0 0.014999980181318165 -4.6879252424886445e-10 0 0.014983374933951037 -2.0545168659893371e-06 0 0.014999977480181842 -3.8516986033546916e-09 0 0.014985617519977498 -2.1809229190751352e-06 0 0.014999980181318165 -4.6879252424886445e-10 0 0.014983374933951037 -2.0545168659893371e-06 0 0.014973878958059668 -4.6104171749705081e-06 0 0.014985617519977498 -2.1809229190751352e-06 0 0.014983374933951037 -2.0545168659893371e-06 0 0.014983374933951037 -2.0545168659893371e-06 0 0.014989666593969083 -1.6995802906055126e-06 0 0.014968480847622586 -4.6403257671688063e-06 0 0.014983374933951037 -2.0545168659893371e-06 0 0.014999977480181842 -3.8516986033546916e-09 0 0.014989666593969083 -1.6995802906055126e-06 0 0.014999996628007002 8.1858405910396805e-10 0 0.014999977480181842 -3.8516986033546916e-09 0 0.014989666593969083 -1.6995802906055126e-06 0 0.014966529287848713 -4.0576059351346214e-06 0 0.014974791189357415 -1.7709433729770689e-06 0 0.014968480847622586 -4.6403257671688063e-06 0 0.014982262033122298 -1.5271599226501148e-06 0 0.014971997809212186 -4.2824117147063473e-06 0 0.014966529287848713 -4.0576059351346214e-06 0 0.014968480847622586 -4.6403257671688063e-06 0 0.014955497990293051 -9.2887606673053736e-06 0 0.014964111329276017 -6.3929586675948404e-06 0 0.014983374933951037 -2.0545168659893371e-06 0 0.014968480847622586 -4.6403257671688063e-06 0 0.014964111329276017 -6.3929586675948404e-06 0 0.014968480847622586 -4.6403257671688063e-06 0 0.014952264178408637 -9.1233610135108054e-06 0 0.014964111329276017 -6.3929586675948404e-06 0 0.014952264178408637 -9.1233610135108054e-06 0 0.014947612969073225 -1.0432244874565311e-05 0 0.014968480847622586 -4.6403257671688063e-06 0 0.014952264178408637 -9.1233610135108054e-06 0 0.014955497990293051 -9.2887606673053736e-06 0 0.014952264178408637 -9.1233610135108054e-06 0 0.014955497990293051 -9.2887606673053736e-06 0 0.014938416928062817 -1.1361905682723391e-05 0 0.014945740222870728 -1.3821662963197979e-05 0 0.014955497990293051 -9.2887606673053736e-06 0 0.014938416928062817 -1.1361905682723391e-05 0 0.014952264178408637 -9.1233610135108054e-06 0 0.014938909258229147 -1.1150246152690052e-05 0 0.014947612969073225 -1.0432244874565311e-05 0 0.014938416928062817 -1.1361905682723391e-05 0 0.014938909258229147 -1.1150246152690052e-05 0 0.014928930170560859 -1.130362096437568e-05 0 0.014952264178408637 -9.1233610135108054e-06 0 0.014938416928062817 -1.1361905682723391e-05 0 0.014938909258229147 -1.1150246152690052e-05 0 0.014938909258229147 -1.1150246152690052e-05 0 0.014927109539892621 -1.2693474832405226e-05 0 0.014936475255486794 -1.2738940987039161e-05 0 0.014938909258229147 -1.1150246152690052e-05 0 0.014928930170560859 -1.130362096437568e-05 0 0.014927109539892621 -1.2693474832405226e-05 0 0.014928930170560859 -1.130362096437568e-05 0 0.014927109539892621 -1.2693474832405226e-05 0 0.014914042989806914 -1.1714901124688637e-05 0 0.014928930170560859 -1.130362096437568e-05 0 0.014924738330922501 -1.032535100389213e-05 0 0.014914042989806914 -1.1714901124688637e-05 0 0.014932068088953724 -1.1375398620632676e-05 0 0.014938416928062817 -1.1361905682723391e-05 0 0.014924738330922501 -1.032535100389213e-05 0 0.014938416928062817 -1.1361905682723391e-05 0 0.014928930170560859 -1.130362096437568e-05 0 0.014924738330922501 -1.032535100389213e-05 0 0.012266051531939793 2.7237827891295314e-05 0 0.012753341874390521 -3.3754987067032292e-05 0 0.014916353639104226 -6.716255046972078e-06 0 0.014924738330922501 -1.032535100389213e-05 0 0.014914042989806914 -1.1714901124688637e-05 0 0.010585276506174024 -6.0780218267467411e-05 0 0.010068633503840166 -0.00041711850942925818 0 0.010598649224617038 -0.00053852310379111639 0 0.0097895785994661037 9.1763083409855556e-05 0 0.010585276506174024 -6.0780218267467411e-05 0 0.010068633503840166 -0.00041711850942925818 0 0.010068633503840166 -0.00041711850942925818 0 0.010598649224617038 -0.00053852310379111639 0 0.010330915850112787 -0.00098609076805685663 0 0.0099248723790432911 -0.00049639738827952202 0 0.010330915850112787 -0.00098609076805685663 0 0.0098186460115073683 -0.00095619633499174548 0 0.0098584237891038706 -0.00028370753966351365 0 0.010341433583989829 -0.0010104284944293959 0 0.010598649224617038 -0.00053852310379111639 0 0.011035531132211266 -0.00077561650773156862 0 0.010330915850112787 -0.00098609076805685663 0 0.010598649224617038 -0.00053852310379111639 0 0.011035531132211266 -0.00077561650773156862 0 0.011476079317930312 -0.00022671559130496438 0 0.014927109539892621 -1.2693474832405226e-05 0 0.014914042989806914 -1.1714901124688637e-05 0 0.014918252445905656 -1.6541340259748464e-05 0 0.010585276506174024 -6.0780218267467411e-05 0 0.010598649224617038 -0.00053852310379111639 0 0.011476079317930312 -0.00022671559130496438 0 0.012753341874390521 -3.3754987067032292e-05 0 0.013278770861918733 -0.00013291908304625797 0 0.014927109539892621 -1.2693474832405226e-05 0 0.014918252445905656 -1.6541340259748464e-05 0 0.014928249515186369 -1.4893523476877478e-05 0 0.014918252445905656 -1.6541340259748464e-05 0 0.014925224584684919 -1.7030073707813488e-05 0 0.014928249515186369 -1.4893523476877478e-05 0 0.011035531132211266 -0.00077561650773156862 0 0.011476079317930312 -0.00022671559130496438 0 0.011371260575586638 -0.00094106030655613602 0 0.011476079317930312 -0.00022671559130496438 0 0.011899782688137146 -0.00068161187686935961 0 0.011371260575586638 -0.00094106030655613602 0 0.011899782688137146 -0.00068161187686935961 0 0.012266679636425313 -0.00042739507492685916 0 0.011959840389476247 -0.001230272068826183 0 0.011476079317930312 -0.00022671559130496438 0 0.011899782688137146 -0.00068161187686935961 0 0.012266679636425313 -0.00042739507492685916 0 0.014925224584684919 -1.7030073707813488e-05 0 0.014930810000753974 -1.7136545054090102e-05 0 0.01491677094773055 -2.1033211012691641e-05 0 0.013278770861918733 -0.00013291908304625797 0 0.013175885371479271 -0.00022426537674682565 0 0.014918252445905656 -1.6541340259748464e-05 0 0.014925224584684919 -1.7030073707813488e-05 0 0.01491677094773055 -2.1033211012691641e-05 0 0.014930810000753974 -1.7136545054090102e-05 0 0.01493777571354314 -1.5650561306944353e-05 0 0.014934396887623373 -1.4960580504967473e-05 0 0.01493777571354314 -1.5650561306944353e-05 0 0.014934396887623373 -1.4960580504967473e-05 0 0.014943088035839606 -1.3799823767633863e-05 0 0.01493777571354314 -1.5650561306944353e-05 0 0.014943088035839606 -1.3799823767633863e-05 0 0.014942096446202114 -1.5011388508868715e-05 0 0.014934396887623373 -1.4960580504967473e-05 0 0.014943088035839606 -1.3799823767633863e-05 0 0.014944491753250862 -1.2236398348554959e-05 0 0.014925224584684919 -1.7030073707813488e-05 0 0.014934396887623373 -1.4960580504967473e-05 0 0.014928249515186369 -1.4893523476877478e-05 0 0.014925224584684919 -1.7030073707813488e-05 0 0.014930810000753974 -1.7136545054090102e-05 0 0.014934396887623373 -1.4960580504967473e-05 0 0.014934396887623373 -1.4960580504967473e-05 0 0.014928249515186369 -1.4893523476877478e-05 0 0.014936475255486794 -1.2738940987039161e-05 0 0.014927109539892621 -1.2693474832405226e-05 0 0.014928249515186369 -1.4893523476877478e-05 0 0.014936475255486794 -1.2738940987039161e-05 0 0.014934396887623373 -1.4960580504967473e-05 0 0.014936475255486794 -1.2738940987039161e-05 0 0.014944491753250862 -1.2236398348554959e-05 0 0.014936475255486794 -1.2738940987039161e-05 0 0.014947612969073225 -1.0432244874565311e-05 0 0.014944491753250862 -1.2236398348554959e-05 0 0.014959222575991509 -8.4095699415559137e-06 0 0.014947612969073225 -1.0432244874565311e-05 0 0.014944491753250862 -1.2236398348554959e-05 0 0.014938909258229147 -1.1150246152690052e-05 0 0.014936475255486794 -1.2738940987039161e-05 0 0.014947612969073225 -1.0432244874565311e-05 0 0.014959222575991509 -8.4095699415559137e-06 0 0.014952999558348149 -1.1259707270774398e-05 0 0.014944491753250862 -1.2236398348554959e-05 0 0.014952999558348149 -1.1259707270774398e-05 0 0.014943088035839606 -1.3799823767633863e-05 0 0.01494658582778368 -1.3987869314059675e-05 0 0.014952999558348149 -1.1259707270774398e-05 0 0.014943088035839606 -1.3799823767633863e-05 0 0.014944491753250862 -1.2236398348554959e-05 0 0.013356207972783101 -7.0903482279441908e-07 0 0.012621354656244211 -8.637478256832882e-05 0 0.011228098048453051 1.0038996725481732e-06 0 0.013267335317321891 -6.4860008877747359e-05 0 0.012988809937456686 -0.00014869856624738235 0 0.013039246401966022 -0.00013099089442423917 0 0.01494658582778368 -1.3987869314059675e-05 0 0.014955394388575903 -1.1978065511287646e-05 0 0.014941013030249086 -1.6647781662712125e-05 0 0.014965373230889244 -1.0745718282664515e-05 0 0.014955394388575903 -1.1978065511287646e-05 0 0.014941013030249086 -1.6647781662712125e-05 0 0.014108573378004103 -6.2580765743671759e-05 0 0.014074935961115051 -6.7860027352773208e-05 0 0.014943088035839606 -1.3799823767633863e-05 0 0.01494658582778368 -1.3987869314059675e-05 0 0.014942096446202114 -1.5011388508868715e-05 0 0.014952999558348149 -1.1259707270774398e-05 0 0.01494658582778368 -1.3987869314059675e-05 0 0.014955394388575903 -1.1978065511287646e-05 0 0.013267335317321891 -6.4860008877747359e-05 0 0.013153948128505483 -0.00010802986838941302 0 0.013039246401966022 -0.00013099089442423917 0 0.013153948128505483 -0.00010802986838941302 0 0.012959246156799907 -0.00011773909870623822 0 0.013039246401966022 -0.00013099089442423917 0 0.012988809937456686 -0.00014869856624738235 0 0.013039246401966022 -0.00013099089442423917 0 0.01308016338431767 -0.00026157570835030951 0 0.012988809937456686 -0.00014869856624738235 0 0.012981614745910282 -0.00029242194600504644 0 0.01308016338431767 -0.00026157570835030951 0 0.013029166045364644 -0.00014542486214282608 0 0.012949672951092514 -0.00014301905619548775 0 0.012959246156799907 -0.00011773909870623822 0 0.013039246401966022 -0.00013099089442423917 0 0.012851597427668799 -2.6961343511065243e-05 0 0.01494658582778368 -1.3987869314059675e-05 0 0.014941013030249086 -1.6647781662712125e-05 0 0.014942096446202114 -1.5011388508868715e-05 0 0.01493777571354314 -1.5650561306944353e-05 0 0.014941013030249086 -1.6647781662712125e-05 0 0.014942096446202114 -1.5011388508868715e-05 0 0.014930810000753974 -1.7136545054090102e-05 0 0.01493777571354314 -1.5650561306944353e-05 0 0.014941013030249086 -1.6647781662712125e-05 0 0.012981614745910282 -0.00029242194600504644 0 0.012857872388038118 -0.00039767201899129184 0 0.013006330024894536 -0.00036093628734597591 0 0.014074935961115051 -6.7860027352773208e-05 0 0.013175885371479271 -0.00022426537674682565 0 0.014930810000753974 -1.7136545054090102e-05 0 0.014941013030249086 -1.6647781662712125e-05 0 0.01491677094773055 -2.1033211012691641e-05 0 0.012988809937456686 -0.00014869856624738235 0 0.012981614745910282 -0.00029242194600504644 0 0.012857872388038118 -0.00039767201899129184 0 0.012293005412288928 -0.00026233999499379883 0 0.01276216101238736 -0.00063804394395779629 0 0.013038192512158063 -0.00047634094232012857 0 0.013175885371479271 -0.00022426537674682565 0 0.012775844290185672 -0.0004541608356847928 0 0.012857872388038118 -0.00039767201899129184 0 0.013038192512158063 -0.00047634094232012857 0 0.013006330024894536 -0.00036093628734597591 0 0.012293005412288928 -0.00026233999499379883 0 0.012508292627991028 -0.00065396555798158439 0 0.012376586585501087 -0.00096035311443609835 0 0.012293005412288928 -0.00026233999499379883 0 0.012508292627991028 -0.00065396555798158439 0 0.01276216101238736 -0.00063804394395779629 0 0.013038192512158063 -0.00047634094232012857 0 0.013006330024894536 -0.00036093628734597591 0 0.013215358605388951 -0.00045615510457528417 0 0.013111554024357387 -0.00063328351150524831 0 0.013038192512158063 -0.00047634094232012857 0 0.013215358605388951 -0.00045615510457528417 0 0.013111554024357387 -0.00063328351150524831 0 0.013038192512158063 -0.00047634094232012857 0 0.012966283534650451 -0.0006909953904821873 0 0.01276216101238736 -0.00063804394395779629 0 0.013038192512158063 -0.00047634094232012857 0 0.012966283534650451 -0.0006909953904821873 0 0.013006330024894536 -0.00036093628734597591 0 0.01308016338431767 -0.00026157570835030951 0 0.013215358605388951 -0.00045615510457528417 0 0.012981614745910282 -0.00029242194600504644 0 0.013006330024894536 -0.00036093628734597591 0 0.01308016338431767 -0.00026157570835030951 0 0.012851597427668799 -2.6961343511065243e-05 0 0.012397251613566728 8.3064711546252843e-05 0 0.012621354656244211 -8.637478256832882e-05 0 0.012397251613566728 8.3064711546252843e-05 0 0.012621354656244211 -8.637478256832882e-05 0 0.011228098048453051 1.0038996725481732e-06 0 0.012949672951092514 -0.00014301905619548775 0 0.012910394835068712 -0.0002681084127657958 0 0.012910394835068712 -0.0002681084127657958 0 0.011735068643868533 -0.00017844061512006597 0 0.013215358605388951 -0.00045615510457528417 0 0.013442300653623434 -0.00079450647314412051 0 0.013244994531281336 -0.0006898077331334659 0 0.013111554024357387 -0.00063328351150524831 0 0.013215358605388951 -0.00045615510457528417 0 0.013244994531281336 -0.0006898077331334659 0 0.012397251613566728 8.3064711546252843e-05 0 0.01182598472912103 0.00038589145038854273 0 0.011228098048453051 1.0038996725481732e-06 0 0.013356207972783101 -7.0903482279441908e-07 0 0.012621354656244211 -8.637478256832882e-05 0 0.013100703549680648 -8.2621280949819419e-05 0 0.012959246156799907 -0.00011773909870623822 0 0.012621354656244211 -8.637478256832882e-05 0 0.013100703549680648 -8.2621280949819419e-05 0 0.012959246156799907 -0.00011773909870623822 0 0.012851597427668799 -2.6961343511065243e-05 0 0.012621354656244211 -8.637478256832882e-05 0 0.013153948128505483 -0.00010802986838941302 0 0.012959246156799907 -0.00011773909870623822 0 0.013100703549680648 -8.2621280949819419e-05 0 0.0097566830746309823 -3.2363071981217104e-07 0 0.0098057403177596435 -5.4584897016700684e-06 0 0.0090766825833938549 3.2647362950809189e-07 0 0.0097566830746309823 -3.2363071981217104e-07 0 0.0098057403177596435 -5.4584897016700684e-06 0 0.009904879427846576 -2.1694901384737978e-05 0 0.0085930884370799647 0.00065683187122533111 0 0.0083145504652255998 0.001133424016112216 0 0.0080141009006223941 0.00056531744068069568 0 0.0098576941956200013 0.00015486489146874426 0 0.0088601466052810954 0.00022249464133333575 0 0.0085930884370799647 0.00065683187122533111 0 0.0080141009006223941 0.00056531744068069568 0 0.0083513898618921556 0.00016924955088055309 0 0.0098016833998049151 -0.00021752249112176627 0 0.0098270316926334523 -0.00020768206997717073 0 0.0098158236231168736 -0.00019298987168438244 0 0.0098576941956200013 0.00015486489146874426 0 0.0098578144267551567 -0.00022244429779355094 0 0.0090941284380904926 0.00038621864399801835 0 0.0098576941956200013 0.00015486489146874426 0 0.0097566830746309823 -3.2363071981217104e-07 0 0.010044155461162033 -2.7231309484614714e-05 0 0.010435738731568021 3.3015681842567735e-07 0 0.0098057403177596435 -5.4584897016700684e-06 0 0.0098863706847508864 -1.9385919263687847e-05 0 0.009904879427846576 -2.1694901384737978e-05 0 0.0098863706847508864 -1.9385919263687847e-05 0 0.010044155461162033 -2.7231309484614714e-05 0 0.010323581926432394 8.9545578006622583e-05 0 0.0098863706847508864 -1.9385919263687847e-05 0 0.010044155461162033 -2.7231309484614714e-05 0 0.009904879427846576 -2.1694901384737978e-05 0 0.0097566830746309823 -3.2363071981217104e-07 0 0.010044155461162033 -2.7231309484614714e-05 0 0.009904879427846576 -2.1694901384737978e-05 0 0.010044155461162033 -2.7231309484614714e-05 0 0.010323581926432394 8.9545578006622583e-05 0 0.010435738731568021 3.3015681842567735e-07 0 0.0098576941956200013 0.00015486489146874426 0 0.010509287729566514 1.3066090329155005e-05 0 0.010619847609512015 2.4987525559187695e-05 0 0.010584651715743904 5.7723654670128389e-09 0 0.011027844666368695 -1.8486373984320785e-05 0 0.01077027590702774 5.7130845008004477e-05 0 0.010676787120828288 -0.0001636084374718035 0 0.010578067235540844 -8.2915256151414019e-05 0 0.010536645468601884 -1.8016125866413327e-08 0 0.010436883253754284 -1.1077837831350883e-11 0 0.010583138075188786 -7.8012208812119417e-11 0 0.010509287729566514 1.3066090329155005e-05 0 0.010436846237697431 4.8373524424807717e-08 0 0.010509287729566514 1.3066090329155005e-05 0 0.010583150101337712 1.0283007549307292e-07 0 0.010509287729566514 1.3066090329155005e-05 0 0.011735068643868533 -0.00017844061512006597 0 0.010584651715743904 5.7723654670128389e-09 0 0.011027844666368695 -1.8486373984320785e-05 0 0.011224461307837906 -8.1012843350822424e-09 0 0.010676787120828288 -0.0001636084374718035 0 0.010578067235540844 -8.2915256151414019e-05 0 0.010711740917944627 -0.0002785590856913962 0 0.011735068643868533 -0.00017844061512006597 0 0.011225779102134875 -8.6718660808849167e-09 0 0.013442300653623434 -0.00079450647314412051 0 0.013244994531281336 -0.0006898077331334659 0 0.01304523510650442 -0.00081842829026081186 0 0.013442300653623434 -0.00079450647314412051 0 0.012987136945646384 -0.00099680709461251308 0 0.01304523510650442 -0.00081842829026081186 0 0.010676787120828288 -0.0001636084374718035 0 0.010711740917944627 -0.0002785590856913962 0 0.010991199050722817 -0.00017504408545254517 0 0.011735068643868533 -0.00017844061512006597 0 0.011472357555029782 -0.00037077407711507532 0 0.013111554024357387 -0.00063328351150524831 0 0.013244994531281336 -0.0006898077331334659 0 0.01304523510650442 -0.00081842829026081186 0 0.0098576941956200013 0.00015486489146874426 0 0.010881490648613223 -9.5077313640135562e-05 0 0.0098576941956200013 0.00015486489146874426 0 0.011472357555029782 -0.00037077407711507532 0 0.010795470434335789 8.458627517260697e-05 0 0.010676787120828288 -0.0001636084374718035 0 0.010991199050722817 -0.00017504408545254517 0 0.0099438367416090634 -9.4686961457915027e-05 0 0.009906299751302361 -0.000135113415069582 0 0.009935120455991155 -0.00013881531906365758 0 0.0099438367416090634 -9.4686961457915027e-05 0 0.0099046239118865398 -0.00010888536603305774 0 0.009906299751302361 -0.000135113415069582 0 0.009977022783974927 -0.00014866264618644794 0 0.0099438367416090634 -9.4686961457915027e-05 0 0.009935120455991155 -0.00013881531906365758 0 0.011988143592067122 -0.00060421715299161698 0 0.011866909459211417 -0.000419893158573211 0 0.011407916546143671 -0.00083018303545432358 0 0.012356132691794575 -0.00083272449429601099 0 0.011246850673976422 -0.00070040840156888353 0 0.011472357555029782 -0.00037077407711507532 0 0.011246850673976422 -0.00070040840156888353 0 0.012987136945646384 -0.00099680709461251308 0 0.012931819351338445 -0.00091351960119202011 0 0.01304523510650442 -0.00081842829026081186 0 0.012356132691794575 -0.00083272449429601099 0 0.012786089928066421 -0.0006921804298626801 0 0.011472357555029782 -0.00037077407711507532 0 0.012356132691794575 -0.00083272449429601099 0 0.01296347055800439 -0.0010666309863172276 0 0.012820856003673603 -0.00084162725171794397 0 0.012615986477461186 -0.0010836592259734308 0 0.012356132691794575 -0.00083272449429601099 0 0.012643123483312127 -0.00099150523496749376 0 0.012820856003673603 -0.00084162725171794397 0 0.012966283534650451 -0.0006909953904821873 0 0.01304523510650442 -0.00081842829026081186 0 0.012914507480747624 -0.00095670151518374583 0 0.012820856003673603 -0.00084162725171794397 0 0.01304523510650442 -0.00081842829026081186 0 0.01276216101238736 -0.00063804394395779629 0 0.012820856003673603 -0.00084162725171794397 0 0.012966283534650451 -0.0006909953904821873 0 0.013111554024357387 -0.00063328351150524831 0 0.012966283534650451 -0.0006909953904821873 0 0.01304523510650442 -0.00081842829026081186 0 0.012508292627991028 -0.00065396555798158439 0 0.012376586585501087 -0.00096035311443609835 0 0.012619206773031379 -0.00083028025546132784 0 0.01276216101238736 -0.00063804394395779629 0 0.012820856003673603 -0.00084162725171794397 0 0.012619206773031379 -0.00083028025546132784 0 0.012508292627991028 -0.00065396555798158439 0 0.01276216101238736 -0.00063804394395779629 0 0.012619206773031379 -0.00083028025546132784 0 0.012820856003673603 -0.00084162725171794397 0 0.012619206773031379 -0.00083028025546132784 0 0.012615986477461186 -0.0010836592259734308 0 0.012376586585501087 -0.00096035311443609835 0 0.012619206773031379 -0.00083028025546132784 0 0.012615986477461186 -0.0010836592259734308 0 0.01296347055800439 -0.0010666309863172276 0 0.012615986477461186 -0.0010836592259734308 0 0.012587544625682789 -0.0014017445654762992 0 0.012376586585501087 -0.00096035311443609835 0 0.012615986477461186 -0.0010836592259734308 0 0.012273541745914978 -0.0012774772425756956 0 0.011246850673976422 -0.00070040840156888353 0 0.011423807479019216 -0.0011956359727091559 0 0.0099046239118865398 -0.00010888536603305774 0 0.009906299751302361 -0.000135113415069582 0 0.0098645058761107681 -0.00014413953678478502 0 0.012273541745914978 -0.0012774772425756956 0 0.012587544625682789 -0.0014017445654762992 0 0.011843130040201912 -0.0016787606201335949 0 0.012615986477461186 -0.0010836592259734308 0 0.012273541745914978 -0.0012774772425756956 0 0.012587544625682789 -0.0014017445654762992 0 0.011246850673976422 -0.00070040840156888353 0 0.010274139342981591 -0.00046799187507385817 0 0.009906299751302361 -0.000135113415069582 0 0.009892750109554432 -0.00016001846252098966 0 0.0098645058761107681 -0.00014413953678478502 0 0.00986843778842246 -0.00016576756487472698 0 0.009892750109554432 -0.00016001846252098966 0 0.0098645058761107681 -0.00014413953678478502 0 0.009892750109554432 -0.00016001846252098966 0 0.009935120455991155 -0.00013881531906365758 0 0.0099271744401314629 -0.0001786447861011505 0 0.009977022783974927 -0.00014866264618644794 0 0.009935120455991155 -0.00013881531906365758 0 0.0099271744401314629 -0.0001786447861011505 0 0.009906299751302361 -0.000135113415069582 0 0.009892750109554432 -0.00016001846252098966 0 0.009935120455991155 -0.00013881531906365758 0 0.009892750109554432 -0.00016001846252098966 0 0.0099271744401314629 -0.0001786447861011505 0 0.0098764057470747714 -0.00018748046686457972 0 0.0098578144267551567 -0.00022244429779355094 0 0.0098794532227468902 -0.00018408753427723561 0 0.0098270316926334523 -0.00020768206997717073 0 0.0098158236231168736 -0.00019298987168438244 0 0.0098392041325922608 -0.00019193097346094132 0 0.0098270316926334523 -0.00020768206997717073 0 0.0098392041325922608 -0.00019193097346094132 0 0.0098659091220922954 -0.00019167672501884772 0 0.0099271744401314629 -0.0001786447861011505 0 0.0098764057470747714 -0.00018748046686457972 0 0.0098659091220922954 -0.00019167672501884772 0 0.0098764057470747714 -0.00018748046686457972 0 0.0098659091220922954 -0.00019167672501884772 0 0.0098624940079451787 -0.00019472894733723326 0 0.00986843778842246 -0.00016576756487472698 0 0.009892750109554432 -0.00016001846252098966 0 0.0098764057470747714 -0.00018748046686457972 0 0.00986843778842246 -0.00016576756487472698 0 0.0098764057470747714 -0.00018748046686457972 0 0.0098443142284842869 -0.00016767690163523873 0 0.0098764057470747714 -0.00018748046686457972 0 0.0098292560330891249 -0.00017185644877849282 0 0.0098624940079451787 -0.00019472894733723326 0 0.0098645443417650532 -0.00012339296661632474 0 0.0098346032646397276 -0.00038266451942237665 0 0.0098233272565413626 -0.00017668986487244176 0 0.0098292560330891249 -0.00017185644877849282 0 0.0098624940079451787 -0.00019472894733723326 0 0.0091488241316358687 -0.0004675853905992615 0 0.0092856827273571745 -0.00032378309874707433 0 0.0085046804282306876 -0.00037857243077835112 0 0.0085201116441595715 -0.00041763705529847711 0 0.0085389489460943341 -0.00040849895377671823 0 0.0088501329433511508 -0.00072490727173822893 0 0.0088885980625482419 -0.00075375149395666213 0 0.008891436700185636 -0.00068321150875708667 0 0.0085046804282306876 -0.00037857243077835112 0 0.0084929535058792752 -0.00041200321463601792 0 0.0085201116441595715 -0.00041763705529847711 0 0.0085046804282306876 -0.00037857243077835112 0 0.0084665025648524486 -0.00040456136934508485 0 0.0084929535058792752 -0.00041200321463601792 0 0.0091488241316358687 -0.0004675853905992615 0 0.0080836954400902456 -0.00060542717672369575 0 0.010401809871915593 -0.0010660051142221049 0 0.010046440568889405 -0.0009273482261640025 0 0.010528745356558957 -0.00066840357478407508 0 0.010046440568889405 -0.0009273482261640025 0 0.010528745356558957 -0.00066840357478407508 0 0.0099516747576990569 -0.00089010883287287106 0 0.011423807479019216 -0.0011956359727091559 0 0.0097810977216466165 -0.0010183349825340119 0 0.0094054313566236062 -0.00051131237863533856 0 0.0093446639244679774 -0.00056599012766346546 0 0.0096493136449964986 -0.00069071869798837152 0 0.0098346032646397276 -0.00038266451942237665 0 0.0095976200833025171 -0.00081520334795533265 0 0.0091488241316358687 -0.0004675853905992615 0 0.0098346032646397276 -0.00038266451942237665 0 0.0091488241316358687 -0.0004675853905992615 0 0.0095976200833025171 -0.00081520334795533265 0 0.00986843778842246 -0.00016576756487472698 0 0.0098443142284842869 -0.00016767690163523873 0 0.0098645058761107681 -0.00014413953678478502 0 0.010401809871915593 -0.0010660051142221049 0 0.010751533982654111 -0.00075685895226817817 0 0.010528745356558957 -0.00066840357478407508 0 0.0098346032646397276 -0.00038266451942237665 0 0.010274139342981591 -0.00046799187507385817 0 0.011099343630453257 -0.00045054704268675954 0 0.010751533982654111 -0.00075685895226817817 0 0.010528745356558957 -0.00066840357478407508 0 0.011843130040201912 -0.0016787606201335949 0 0.011959840389476247 -0.001230272068826183 0 0.011444678926144213 -0.0012512529292269682 0 0.012273541745914978 -0.0012774772425756956 0 0.011843130040201912 -0.0016787606201335949 0 0.011959840389476247 -0.001230272068826183 0 0.012293005412288928 -0.00026233999499379883 0 0.012376586585501087 -0.00096035311443609835 0 0.011959840389476247 -0.001230272068826183 0 0.011899782688137146 -0.00068161187686935961 0 0.011959840389476247 -0.001230272068826183 0 0.011444678926144213 -0.0012512529292269682 0 0.013175885371479271 -0.00022426537674682565 0 0.011701105055669443 -0.0012861695260334254 0 0.012376586585501087 -0.00096035311443609835 0 0.012273541745914978 -0.0012774772425756956 0 0.011959840389476247 -0.001230272068826183 0 0.011899782688137146 -0.00068161187686935961 0 0.011371260575586638 -0.00094106030655613602 0 0.011391184624791417 -0.0014855414747052922 0 0.011863588966057102 -0.00072517383999926098 0 0.011437881990422925 -0.0013724195003202433 0 0.011371260575586638 -0.00094106030655613602 0 0.011391184624791417 -0.0014855414747052922 0 0.010954925811834149 -0.0011855073364828964 0 0.011843130040201912 -0.0016787606201335949 0 0.011444678926144213 -0.0012512529292269682 0 0.011126683698538512 -0.0019476314849907899 0 0.011437881990422925 -0.0013724195003202433 0 0.010401102577905913 -0.0014527674619169149 0 0.011444678926144213 -0.0012512529292269682 0 0.011092064694401434 -0.0017257863857615681 0 0.011126683698538512 -0.0019476314849907899 0 0.01075217501557355 -0.0019168155497504469 0 0.010936855266800435 -0.0015990953855365975 0 0.010984162771608474 -0.002063941247575851 0 0.010195060462283603 -0.0016420282818663701 0 0.010401102577905913 -0.0014527674619169149 0 0.010195060462283603 -0.0016420282818663701 0 0.010622397913097105 -0.0015674711894506895 0 0.01075217501557355 -0.0019168155497504469 0 0.010936855266800435 -0.0015990953855365975 0 0.010603812264126052 -0.0013641742522043354 0 0.011391184624791417 -0.0014855414747052922 0 0.010936855266800435 -0.0015990953855365975 0 0.010984162771608474 -0.002063941247575851 0 0.011391184624791417 -0.0014855414747052922 0 0.010936855266800435 -0.0015990953855365975 0 0.010954925811834149 -0.0011855073364828964 0 0.010603812264126052 -0.0013641742522043354 0 0.010954925811834149 -0.0011855073364828964 0 0.010330915850112787 -0.00098609076805685663 0 0.011035531132211266 -0.00077561650773156862 0 0.010954925811834149 -0.0011855073364828964 0 0.010330915850112787 -0.00098609076805685663 0 0.010936855266800435 -0.0015990953855365975 0 0.010603812264126052 -0.0013641742522043354 0 0.010954925811834149 -0.0011855073364828964 0 0.011035531132211266 -0.00077561650773156862 0 0.011371260575586638 -0.00094106030655613602 0 0.010954925811834149 -0.0011855073364828964 0 0.010330915850112787 -0.00098609076805685663 0 0.010290277451966551 -0.0013330832609005435 0 0.0098186460115073683 -0.00095619633499174548 0 0.010603812264126052 -0.0013641742522043354 0 0.010330915850112787 -0.00098609076805685663 0 0.010290277451966551 -0.0013330832609005435 0 0.010290277451966551 -0.0013330832609005435 0 0.0099490433763022926 -0.0014461734968094007 0 0.0098186460115073683 -0.00095619633499174548 0 0.010195060462283603 -0.0016420282818663701 0 0.009665803157907148 -0.0012902774100687013 0 0.009678673803043901 -0.0013387551432223132 0 0.0097149826032793159 -0.0014715948615723047 0 0.0093342272981494934 -0.0013252006904213008 0 0.0107484067531157 -0.0019390223802883979 0 0.010603812264126052 -0.0013641742522043354 0 0.010290277451966551 -0.0013330832609005435 0 0.009678673803043901 -0.0013387551432223132 0 0.0093751342012632858 -0.0011368490757711438 0 0.0093342272981494934 -0.0013252006904213008 0 0.0107484067531157 -0.0019390223802883979 0 0.010290277451966551 -0.0013330832609005435 0 0.0099490433763022926 -0.0014461734968094007 0 0.0074149254573909603 -0.00093686673448652071 0 0.007346793849526312 -0.00094168226228955347 0 0.0074538172839670527 -0.00087268883157001656 0 0.0073998006727586082 -0.00099169784783484675 0 0.0073151308431840742 -0.00097359754486057602 0 0.0075153330032533602 -0.0010702903893872969 0 0.0074639354261855353 -0.00098908415086782831 0 0.0073998006727586082 -0.00099169784783484675 0 0.0075153330032533602 -0.0010702903893872969 0 0.0077905036270767229 -0.0011432147174678493 0 0.0072884348556994704 -0.00089292939898830647 0 0.0090910401311419236 -0.0011842533373384952 0 0.008303631295124814 -0.0011832911415398093 0 0.0074639354261855353 -0.00098908415086782831 0 0.0074149254573909603 -0.00093686673448652071 0 0.0075299239665041311 -0.00095504218532375127 0 0.0074149254573909603 -0.00093686673448652071 0 0.0074538172839670527 -0.00087268883157001656 0 0.0075299239665041311 -0.00095504218532375127 0 0.0074149254573909603 -0.00093686673448652071 0 0.0073779317737172351 -0.00095758561725963181 0 0.007346793849526312 -0.00094168226228955347 0 0.0074149254573909603 -0.00093686673448652071 0 0.0073779317737172351 -0.00095758561725963181 0 0.0073998006727586082 -0.00099169784783484675 0 0.0073779317737172351 -0.00095758561725963181 0 0.0073998006727586082 -0.00099169784783484675 0 0.007364825356215565 -0.00097359182756883626 0 0.0074639354261855353 -0.00098908415086782831 0 0.0074149254573909603 -0.00093686673448652071 0 0.0073998006727586082 -0.00099169784783484675 0 0.0073998006727586082 -0.00099169784783484675 0 0.007364825356215565 -0.00097359182756883626 0 0.0073151308431840742 -0.00097359754486057602 0 0.010195060462283603 -0.0016420282818663701 0 0.0090910401311419236 -0.0011842533373384952 0 0.0073475508719172316 -0.00096759198417567657 0 0.007364825356215565 -0.00097359182756883626 0 0.0073151308431840742 -0.00097359754486057602 0 0.0073475508719172316 -0.00096759198417567657 0 0.0073151308431840742 -0.00097359754486057602 0 0.007346793849526312 -0.00094168226228955347 0 0.0073779317737172351 -0.00095758561725963181 0 0.0073475508719172316 -0.00096759198417567657 0 0.007364825356215565 -0.00097359182756883626 0 0.0098591707174017235 -0.001617916489759029 0 0.0096241095106496515 -0.0014693407905454923 0 0.0097578306344163999 -0.0012732972099840836 0 0.010401102577905913 -0.0014527674619169149 0 0.0090910401311419236 -0.0011842533373384952 0 0.011092064694401434 -0.0017257863857615681 0 0.01097203923322646 -0.0018872839522343357 0 0.011126683698538512 -0.0019476314849907899 0 0.0090910401311419236 -0.0011842533373384952 0 0.0097810977216466165 -0.0010183349825340119 0 0.0089927025858561813 -0.00091986804113124057 0 0.0091142651726524478 -0.00096674294291740738 0 0.0090086315045298793 -0.0010075259365133278 0 0.0090910401311419236 -0.0011842533373384952 0 0.0086060148470859053 -0.00093929362898417562 0 0.0088885980625482419 -0.00075375149395666213 0 0.0089014495996074649 -0.00075948031450433207 0 0.0089147663670344126 -0.00075397151741331096 0 0.0095976200833025171 -0.00081520334795533265 0 0.0097810977216466165 -0.0010183349825340119 0 0.0097810977216466165 -0.0010183349825340119 0 0.0086060148470859053 -0.00093929362898417562 0 0.0072098147164836 -0.000904232775779385 0 0.0072411843179563196 -0.00089061108986150759 0 0.0072281898192624924 -0.00080118380148224463 0 0.0073779317737172351 -0.00095758561725963181 0 0.0073475508719172316 -0.00096759198417567657 0 0.007346793849526312 -0.00094168226228955347 0 0.0086060148470859053 -0.00093929362898417562 0 0.0077905036270767229 -0.0011432147174678493 0 0.0086227269170391276 -0.00090003208886974646 0 0.0086569085989420119 -0.0010930376923186937 0 0.0084232458147374956 -0.0011833449523476296 0 0.0090910401311419236 -0.0011842533373384952 0 0.0077905036270767229 -0.0011432147174678493 0 0.0088885980625482419 -0.00075375149395666213 0 0.0089147663670344126 -0.00075397151741331096 0 0.008891436700185636 -0.00068321150875708667 0 0.0072098147164836 -0.000904232775779385 0 0.0072281898192624924 -0.00080118380148224463 0 0.0071641299310050222 -0.00073688303045555369 0 0.0086060148470859053 -0.00093929362898417562 0 0.0080836954400902456 -0.00060542717672369575 0 0.0072281898192624924 -0.00080118380148224463 0 0.0072066992455104405 -0.000737367975268519 0 0.0071641299310050222 -0.00073688303045555369 0 0.0072066992455104405 -0.000737367975268519 0 0.0071769964233465719 -0.00072303022443377597 0 0.0071641299310050222 -0.00073688303045555369 0 0.0079771296289763288 -0.00067046566877460901 0 0.0080836954400902456 -0.00060542717672369575 0 0.0072281898192624924 -0.00080118380148224463 0 0.0072066992455104405 -0.000737367975268519 0 0.0072512928523708175 -0.00071861733557847599 0 0.0077905036270767229 -0.0011432147174678493 0 0.0072152618294038266 -0.00069732056632161251 0 0.0072411843179563196 -0.00089061108986150759 0 0.0072281898192624924 -0.00080118380148224463 0 0.0073645009377245867 -0.00072223886788106199 0 0.007247163835805712 -0.00095753814649445943 0 0.0074538172839670527 -0.00087268883157001656 0 0.0073645009377245867 -0.00072223886788106199 0 0.0072281898192624924 -0.00080118380148224463 0 0.0073645009377245867 -0.00072223886788106199 0 0.0072512928523708175 -0.00071861733557847599 0 0.0073020682740758628 -0.00063317374075656135 0 0.0073645009377245867 -0.00072223886788106199 0 0.0074692203092229445 -0.00070842846888053931 0 0.0073020682740758628 -0.00063317374075656135 0 0.0073645009377245867 -0.00072223886788106199 0 0.0072512928523708175 -0.00071861733557847599 0 0.0073020682740758628 -0.00063317374075656135 0 0.0072512928523708175 -0.00071861733557847599 0 0.0072239013495981729 -0.0006492923273661845 0 0.0071769964233465719 -0.00072303022443377597 0 0.0071677843924652452 -0.00073160757195595688 0 0.0071527468334401604 -0.00062334742616159072 0 0.0072512928523708175 -0.00071861733557847599 0 0.0071984909015038873 -0.00068706126166637334 0 0.0072239013495981729 -0.0006492923273661845 0 0.0071769964233465719 -0.00072303022443377597 0 0.0071984909015038873 -0.00068706126166637334 0 0.0071527468334401604 -0.00062334742616159072 0 0.0072066992455104405 -0.000737367975268519 0 0.0072512928523708175 -0.00071861733557847599 0 0.0071984909015038873 -0.00068706126166637334 0 0.0072066992455104405 -0.000737367975268519 0 0.0071769964233465719 -0.00072303022443377597 0 0.0071984909015038873 -0.00068706126166637334 0 0.0071984909015038873 -0.00068706126166637334 0 0.0072239013495981729 -0.0006492923273661845 0 0.0071527468334401604 -0.00062334742616159072 0 0.0072211073667747087 -0.0006490553794249866 0 0.0071627759497254872 -0.00054431579302076079 0 0.0072239013495981729 -0.0006492923273661845 0 0.0071682693299582774 -0.00056317063357326632 0 0.007232633213778792 -0.0005556292191372797 0 0.0072239013495981729 -0.0006492923273661845 0 0.0071851590653206673 -0.00058000679336426132 0 0.0071527468334401604 -0.00062334742616159072 0 0.0071682693299582774 -0.00056317063357326632 0 0.007232633213778792 -0.0005556292191372797 0 0.007171410712569477 -0.00053324649352522082 0 0.007232633213778792 -0.0005556292191372797 0 0.0072444978212189313 -0.00053953209721254185 0 0.0073654351554019578 -0.00056023828163866585 0 0.0073020682740758628 -0.00063317374075656135 0 0.007232633213778792 -0.0005556292191372797 0 0.0073654351554019578 -0.00056023828163866585 0 0.0073020682740758628 -0.00063317374075656135 0 0.0072239013495981729 -0.0006492923273661845 0 0.007232633213778792 -0.0005556292191372797 0 0.007232633213778792 -0.0005556292191372797 0 0.0072444978212189313 -0.00053953209721254185 0 0.0071764160045860517 -0.00052870982559183083 0 0.007232633213778792 -0.0005556292191372797 0 0.0071764160045860517 -0.00052870982559183083 0 0.007171410712569477 -0.00053324649352522082 0 0.0072444978212189313 -0.00053953209721254185 0 0.0071764160045860517 -0.00052870982559183083 0 0.0071836964164219801 -0.00053698770921778189 0 0.0071764160045860517 -0.00052870982559183083 0 0.0071155621981409877 -0.00053171030636487825 0 0.0071836964164219801 -0.00053698770921778189 0 0.0071764160045860517 -0.00052870982559183083 0 0.0071155621981409877 -0.00053171030636487825 0 0.0071204072331933765 -0.00053219562454582484 0 0.0071066246353637501 -0.00078342153958684034 0 0.0067603232614312789 -0.00085236937400229253 0 0.007171410712569477 -0.00053324649352522082 0 0.0071599525001710589 -0.00053502282089788419 0 0.0071204072331933765 -0.00053219562454582484 0 0.0071764160045860517 -0.00052870982559183083 0 0.007171410712569477 -0.00053324649352522082 0 0.0071204072331933765 -0.00053219562454582484 0 0.0071627759497254872 -0.00054431579302076079 0 0.0071066246353637501 -0.00078342153958684034 0 0.0071682693299582774 -0.00056317063357326632 0 0.007171410712569477 -0.00053324649352522082 0 0.0071599525001710589 -0.00053502282089788419 0 0.0081806735848410743 -0.00038364006952667362 0 0.0082936525739435857 -0.00037665690969186866 0 0.0081319690571677854 -0.00030699318173670894 0 0.0071851590653206673 -0.00058000679336426132 0 0.0071403981648351968 -0.00054805707432402048 0 0.0071548558554917104 -0.00051943587715283903 0 0.0080005659418382977 -0.00047199675918999882 0 0.0080347675329515214 -0.00047062391070054534 0 0.008256452193794981 -0.00045048122286651102 0 0.0082472225180571807 -0.0004125157098768626 0 0.0082936525739435857 -0.00037665690969186866 0 0.0080005659418382977 -0.00047199675918999882 0 0.0071066246353637501 -0.00078342153958684034 0 0.0082472225180571807 -0.0004125157098768626 0 0.0081806735848410743 -0.00038364006952667362 0 0.0082936525739435857 -0.00037665690969186866 0 0.008256911480990203 -0.00044972955612664609 0 0.0081830856789748049 -0.00045320270328217418 0 0.0082472225180571807 -0.0004125157098768626 0 0.0081830856789748049 -0.00045320270328217418 0 0.0082472225180571807 -0.0004125157098768626 0 0.0081806735848410743 -0.00038364006952667362 0 0.0063275252919260975 -0.0014871247360625423 0 0.006127928837029578 -0.0011267506094847501 0 0.0065433182711603314 -0.0010659932024200223 0 0.0071066246353637501 -0.00078342153958684034 0 0.0071889641329297704 -0.00066783729765996103 0 0.0082936525739435857 -0.00037665690969186866 0 0.0081858401277160875 -0.00013800147714042486 0 0.0081319690571677854 -0.00030699318173670894 0 0.0081858401277160875 -0.00013800147714042486 0 0.0080715262529057318 -0.00023024502618356214 0 0.0081319690571677854 -0.00030699318173670894 0 0.0080715262529057318 -0.00023024502618356214 0 0.0079796406380427138 -0.00025137128163751801 0 0.0080381670340673745 -0.00011831932938007366 0 0.0081858401277160875 -0.00013800147714042486 0 0.0080715262529057318 -0.00023024502618356214 0 0.0080381670340673745 -0.00011831932938007366 0 0.0080715262529057318 -0.00023024502618356214 0 0.00803951830890892 -0.0003170380501470611 0 0.0081319690571677854 -0.00030699318173670894 0 0.0080715262529057318 -0.00023024502618356214 0 0.00803951830890892 -0.0003170380501470611 0 0.0079796406380427138 -0.00025137128163751801 0 0.00803951830890892 -0.0003170380501470611 0 0.0081319690571677854 -0.00030699318173670894 0 0.0080719771322864675 -0.00045342391635601293 0 0.00803951830890892 -0.0003170380501470611 0 0.0080719771322864675 -0.00045342391635601293 0 0.0079438468715742512 -0.00032716737218398421 0 0.0081806735848410743 -0.00038364006952667362 0 0.0081319690571677854 -0.00030699318173670894 0 0.0080719771322864675 -0.00045342391635601293 0 0.0081830856789748049 -0.00045320270328217418 0 0.0081806735848410743 -0.00038364006952667362 0 0.0080719771322864675 -0.00045342391635601293 0 0.0085254355187346382 -0.00043637237465333708 0 0.0085237874285430497 -0.00042530217378316122 0 0.0085345772364894511 -0.00042458786631079446 0 0.0085254355187346382 -0.00043637237465333708 0 0.0085237874285430497 -0.00042530217378316122 0 0.0085161399735412032 -0.0004277149594123762 0 0.0081830856789748049 -0.00045320270328217418 0 0.0080719771322864675 -0.00045342391635601293 0 0.0081958786221364311 -0.00057510924375264835 0 0.0083194587258185147 -0.00046504328382083538 0 0.0083937401084802216 -0.00045033870404625516 0 0.0080005659418382977 -0.00047199675918999882 0 0.0083937401084802216 -0.00045033870404625516 0 0.0071851590653206673 -0.00058000679336426132 0 0.0071403981648351968 -0.00054805707432402048 0 0.0071527468334401604 -0.00062334742616159072 0 0.008469569131799002 -0.00046656284686715649 0 0.0084818299448706988 -0.00044960796392897834 0 0.0084692845769409521 -0.00044191299327291523 0 0.0080005659418382977 -0.00047199675918999882 0 0.0078021439109107523 -0.00051626125865236608 0 0.008256911480990203 -0.00044972955612664609 0 0.0081830856789748049 -0.00045320270328217418 0 0.0081958786221364311 -0.00057510924375264835 0 0.0085015572390694533 -0.00045886993288029676 0 0.00849703695033786 -0.00042928994684014591 0 0.0084729368856091211 -0.00043096334121094099 0 0.0080836954400902456 -0.00060542717672369575 0 0.0078021439109107523 -0.00051626125865236608 0 0.0083937401084802216 -0.00045033870404625516 0 0.0084820605812626539 -0.00045445208881549922 0 0.0085015572390694533 -0.00045886993288029676 0 0.00849703695033786 -0.00042928994684014591 0 0.0085201116441595715 -0.00041763705529847711 0 0.0084665025648524486 -0.00040456136934508485 0 0.0084692845769409521 -0.00044191299327291523 0 0.0084729368856091211 -0.00043096334121094099 0 0.0084818299448706988 -0.00044960796392897834 0 0.0084692845769409521 -0.00044191299327291523 0 0.0084729368856091211 -0.00043096334121094099 0 0.0084665025648524486 -0.00040456136934508485 0 0.0084729368856091211 -0.00043096334121094099 0 0.0084929535058792752 -0.00041200321463601792 0 0.00849703695033786 -0.00042928994684014591 0 0.0084929535058792752 -0.00041200321463601792 0 0.0085201116441595715 -0.00041763705529847711 0 0.00849703695033786 -0.00042928994684014591 0 0.0084729368856091211 -0.00043096334121094099 0 0.0084929535058792752 -0.00041200321463601792 0 0.0085201116441595715 -0.00041763705529847711 0 0.0085389489460943341 -0.00040849895377671823 0 0.0085345772364894511 -0.00042458786631079446 0 0.0085237874285430497 -0.00042530217378316122 0 0.0085201116441595715 -0.00041763705529847711 0 0.0085345772364894511 -0.00042458786631079446 0 0.0085237874285430497 -0.00042530217378316122 0 0.0085161399735412032 -0.0004277149594123762 0 0.0085201116441595715 -0.00041763705529847711 0 0.0083937401084802216 -0.00045033870404625516 0 0.0085223876540367911 -0.00040286370142924075 0 0.0085389489460943341 -0.00040849895377671823 0 0.0085519103836228638 -0.00042029179274417975 0 0.0085345772364894511 -0.00042458786631079446 0 0.0098659091220922954 -0.00019167672501884772 0 0.0098624940079451787 -0.00019472894733723326 0 0.0098350434030343367 -0.00015930532385486504 0 0.0092856827273571745 -0.00032378309874707433 0 0.0086966244099950657 -0.00011046329974565695 0 0.0098158236231168736 -0.00019298987168438244 0 0.0098392041325922608 -0.00019193097346094132 0 0.0098350434030343367 -0.00015930532385486504 0 0.0098392041325922608 -0.00019193097346094132 0 0.0098659091220922954 -0.00019167672501884772 0 0.0098350434030343367 -0.00015930532385486504 0 0.0088601466052810954 0.00022249464133333575 0 0.0086966244099950657 -0.00011046329974565695 0 0.0086966244099950657 -0.00011046329974565695 0 0.0082344244906887437 -0.0003014431197828582 0 0.0080029974836923513 -6.412455795593111e-06 0 0.007950986036818217 -9.9569112940545826e-05 0 0.008096790430408389 -7.7855307213967691e-05 0 0.0086966244099950657 -0.00011046329974565695 0 0.0078565783920271689 7.4353609848963563e-05 0 0.0085254355187346382 -0.00043637237465333708 0 0.0085419153457833227 -0.00043345407811231295 0 0.0085345772364894511 -0.00042458786631079446 0 0.0085519103836228638 -0.00042029179274417975 0 0.0085419153457833227 -0.00043345407811231295 0 0.0085345772364894511 -0.00042458786631079446 0 0.0083194587258185147 -0.00046504328382083538 0 0.0081285708220003791 -0.00025517626833812041 0 0.0085254355187346382 -0.00043637237465333708 0 0.0085419153457833227 -0.00043345407811231295 0 0.0085330200927939675 -0.00044397825691425369 0 0.007950986036818217 -9.9569112940545826e-05 0 0.0079642316090014834 -0.00012394494823570639 0 0.0079545410746171274 -0.0001324119951172011 0 0.0082344244906887437 -0.0003014431197828582 0 0.0081285708220003791 -0.00025517626833812041 0 0.00803951830890892 -0.0003170380501470611 0 0.0079438468715742512 -0.00032716737218398421 0 0.0079796406380427138 -0.00025137128163751801 0 0.0081285708220003791 -0.00025517626833812041 0 0.0077868980264878219 -9.3392127911191394e-05 0 0.0079380642683627937 -0.00033504838226719772 0 0.0079796406380427138 -0.00025137128163751801 0 0.0077383331226348736 -0.0001383413676270252 0 0.0079796406380427138 -0.00025137128163751801 0 0.0077383331226348736 -0.0001383413676270252 0 0.0079181145839290184 -5.31753653845883e-05 0 0.0079796406380427138 -0.00025137128163751801 0 0.0079181145839290184 -5.31753653845883e-05 0 0.0080381670340673745 -0.00011831932938007366 0 0.0081285708220003791 -0.00025517626833812041 0 0.0080349835117988835 -0.0003065513604890523 0 0.0079642316090014834 -0.00012394494823570639 0 0.0079173640668718254 -6.8452983592223377e-05 0 0.0079545410746171274 -0.0001324119951172011 0 0.0079173640668718254 -6.8452983592223377e-05 0 0.0079545410746171274 -0.0001324119951172011 0 0.0077610102728903913 -8.7122839382737047e-05 0 0.007950986036818217 -9.9569112940545826e-05 0 0.0079545410746171274 -0.0001324119951172011 0 0.008096790430408389 -7.7855307213967691e-05 0 0.0079545410746171274 -0.0001324119951172011 0 0.0080018384458621136 -0.00011460283376002143 0 0.008096790430408389 -7.7855307213967691e-05 0 0.0079545410746171274 -0.0001324119951172011 0 0.0080018384458621136 -0.00011460283376002143 0 0.0077610102728903913 -8.7122839382737047e-05 0 0.0080018384458621136 -0.00011460283376002143 0 0.0077610102728903913 -8.7122839382737047e-05 0 0.0075938057191517099 -3.2918614277378067e-07 0 0.0080018384458621136 -0.00011460283376002143 0 0.0075938057191517099 -3.2918614277378067e-07 0 0.0083352106694928804 -4.245899380946597e-07 0 0.0080018384458621136 -0.00011460283376002143 0 0.0083352106694928804 -4.245899380946597e-07 0 0.0083728003892819935 -5.5519042253766073e-05 0 0.0083352106694928804 -4.245899380946597e-07 0 0.0083728003892819935 -5.5519042253766073e-05 0 0.0090748918213884328 8.4813293840929175e-07 0 0.0080018384458621136 -0.00011460283376002143 0 0.0083728003892819935 -5.5519042253766073e-05 0 0.008096790430408389 -7.7855307213967691e-05 0 0.0078023549632057331 0.00010133010161250471 0 0.008096790430408389 -7.7855307213967691e-05 0 0.0083513898618921556 0.00016924955088055309 0 0.0083728003892819935 -5.5519042253766073e-05 0 0.008096790430408389 -7.7855307213967691e-05 0 0.0083513898618921556 0.00016924955088055309 0 0.0080141009006223941 0.00056531744068069568 0 0.0078023549632057331 0.00010133010161250471 0 0.0083513898618921556 0.00016924955088055309 0 0.0085930884370799647 0.00065683187122533111 0 0.0083513898618921556 0.00016924955088055309 0 0.0090748918213884328 8.4813293840929175e-07 0 0.0083728003892819935 -5.5519042253766073e-05 0 0.0083513898618921556 0.00016924955088055309 0 0.0090748918213884328 8.4813293840929175e-07 0 0.0090941284380904926 0.00038621864399801835 0 0.0090764639506576653 -1.0887330011102007e-07 0 0.0075820229903712615 -0.0012972245941901405 0 0.0077392535207181749 -0.0012241602707409073 0 0.0077081184470378962 -0.00149658199447664 0 0.0075820229903712615 -0.0012972245941901405 0 0.0077081184470378962 -0.00149658199447664 0 0.0074881687522711177 -0.0014680804822540187 0 0.0081191415777241375 -0.00096821693636590738 0 0.0080390906736415631 -0.0010622712434451317 0 0.0080269820014152778 -0.00095243202822263367 0 0.0077392535207181749 -0.0012241602707409073 0 0.0078818661523922043 -0.0012938504178166576 0 0.0077081184470378962 -0.00149658199447664 0 0.0081191415777241375 -0.00096821693636590738 0 0.0080843324040382868 -0.00086333598285697724 0 0.0080269820014152778 -0.00095243202822263367 0 0.0081191415777241375 -0.00096821693636590738 0 0.0080843324040382868 -0.00086333598285697724 0 0.0081817370512537058 -0.00086830743064064751 0 0.0080190562947783893 -0.0010644441330916537 0 0.0075197581436100376 -0.0013976138402443171 0 0.0080881263260259954 -0.00077084968727168855 0 0.0081817370512537058 -0.00086830743064064751 0 0.008144182789997791 -0.00066986257759825277 0 0.0080843324040382868 -0.00086333598285697724 0 0.0080881263260259954 -0.00077084968727168855 0 0.0081817370512537058 -0.00086830743064064751 0 0.0075197581436100376 -0.0013976138402443171 0 0.007372446186222857 -0.0013264446563926505 0 0.0080843324040382868 -0.00086333598285697724 0 0.0080881263260259954 -0.00077084968727168855 0 0.0080182122720238794 -0.00080028631398208435 0 0.0077081184470378962 -0.00149658199447664 0 0.0074088163896461473 -0.0016106766560772515 0 0.0073861448008899541 -0.0017425145950184676 0 0.0075197581436100376 -0.0013976138402443171 0 0.0071309421925660208 -0.001873343930813937 0 0.0077081184470378962 -0.00149658199447664 0 0.0074881687522711177 -0.0014680804822540187 0 0.0074088163896461473 -0.0016106766560772515 0 0.0074088163896461473 -0.0016106766560772515 0 0.0073111723324491788 -0.0015797445555936012 0 0.0072136719140405824 -0.0017296642607785456 0 0.0073111723324491788 -0.0015797445555936012 0 0.0071949326159805411 -0.0016048819220509903 0 0.0072136719140405824 -0.0017296642607785456 0 0.0073111723324491788 -0.0015797445555936012 0 0.0072398658288445796 -0.0014818566240025121 0 0.0073863577534722617 -0.0013838360641877832 0 0.0074881687522711177 -0.0014680804822540187 0 0.0074088163896461473 -0.0016106766560772515 0 0.0073111723324491788 -0.0015797445555936012 0 0.0074881687522711177 -0.0014680804822540187 0 0.0073111723324491788 -0.0015797445555936012 0 0.0073863577534722617 -0.0013838360641877832 0 0.0074087079704522607 -0.0016615083740627872 0 0.0071813714127639452 -0.0016457444113573906 0 0.0071949326159805411 -0.0016048819220509903 0 0.0070838620807600425 -0.0015354763153206399 0 0.0071300621388940911 -0.0016966756094990362 0 0.0073111723324491788 -0.0015797445555936012 0 0.0071949326159805411 -0.0016048819220509903 0 0.0072398658288445796 -0.0014818566240025121 0 0.0071949326159805411 -0.0016048819220509903 0 0.0072398658288445796 -0.0014818566240025121 0 0.0070838620807600425 -0.0015354763153206399 0 0.0074087079704522607 -0.0016615083740627872 0 0.0077009229396896731 -0.0016349102566351873 0 0.0079956243569542576 -0.0016083366242978401 0 0.0081999251500189489 -0.0012590168236855787 0 0.0079636048983645052 -0.0012875868680849879 0 0.0072398658288445796 -0.0014818566240025121 0 0.0070838620807600425 -0.0015354763153206399 0 0.0072209348971143082 -0.0012838253841988498 0 0.0074087079704522607 -0.0016615083740627872 0 0.0077108955588258239 -0.0012866643691785021 0 0.0081999251500189489 -0.0012590168236855787 0 0.0079636048983645052 -0.0012875868680849879 0 0.0081076058633008478 -0.0011102908286744529 0 0.0075820229903712615 -0.0012972245941901405 0 0.0074881687522711177 -0.0014680804822540187 0 0.0073863577534722617 -0.0013838360641877832 0 0.0072398658288445796 -0.0014818566240025121 0 0.0072209348971143082 -0.0012838253841988498 0 0.0073863577534722617 -0.0013838360641877832 0 0.0072209348971143082 -0.0012838253841988498 0 0.0073863577534722617 -0.0013838360641877832 0 0.0074829365836853621 -0.0011728370156159024 0 0.0075820229903712615 -0.0012972245941901405 0 0.0073863577534722617 -0.0013838360641877832 0 0.0074829365836853621 -0.0011728370156159024 0 0.0077108955588258239 -0.0012866643691785021 0 0.0079510821651048863 -0.00074306412000642579 0 0.0072209348971143082 -0.0012838253841988498 0 0.0074829365836853621 -0.0011728370156159024 0 0.0074195184582960122 -0.0010062245888396793 0 0.0074829365836853621 -0.0011728370156159024 0 0.0074195184582960122 -0.0010062245888396793 0 0.0075709150356194329 -0.0010007628091083592 0 0.0079510821651048863 -0.00074306412000642579 0 0.0075898807517323467 -0.0008615424957440042 0 0.0097048066772746563 0.00023281464477582835 0 0.0082709172386362505 5.6617641245312245e-05 0 0.0086820547093475527 3.4526628520616555e-05 0 0.0081999251500189489 -0.0012590168236855787 0 0.0083928758296360918 -0.0009179283144896389 0 0.0081076058633008478 -0.0011102908286744529 0 0.0079356760930085965 -0.00097274901104504104 0 0.0079636048983645052 -0.0012875868680849879 0 0.0081076058633008478 -0.0011102908286744529 0 0.0079356760930085965 -0.00097274901104504104 0 0.0083928758296360918 -0.0009179283144896389 0 0.0081076058633008478 -0.0011102908286744529 0 0.0093589015890501569 -0.00075600109292430146 0 0.0079510821651048863 -0.00074306412000642579 0 0.009614446076621876 -6.1663892722788781e-05 0 0.0097048066772746563 0.00023281464477582835 0 0.0086820547093475527 3.4526628520616555e-05 0 0.011052666808289164 -7.6249522851767695e-05 0 0.0084039328649207021 7.8724839449605734e-05 0 0.014183306854432089 0.00055753572893908429 0 0.014158226708557419 0.0005415811531531363 0 0.014125881992238043 0.00040768648812832269 0 0.011052666808289164 -7.6249522851767695e-05 0 0.01151057906984552 4.1531384494468835e-05 0 0.014158226708557419 0.0005415811531531363 0 0.013937661975357495 0.00042625321554211879 0 0.014125881992238043 0.00040768648812832269 0 0.0096432034688243209 -6.3713023616230531e-05 0 0.0086820547093475527 3.4526628520616555e-05 0 0.0086527988664060716 -0.0005981575797497663 0 0.014095371314785428 0.00023345645598656502 0 0.013937661975357495 0.00042625321554211879 0 0.014125881992238043 0.00040768648812832269 0 0.0079510821651048863 -0.00074306412000642579 0 0.0077281749185851853 -0.00082091786306281208 0 0.0077083540979294325 -0.00096778308620928467 0 0.0086527988664060716 -0.0005981575797497663 0 0.0077031932511712918 -0.00093214314669953378 0 0.0082709172386362505 5.6617641245312245e-05 0 0.0086527988664060716 -0.0005981575797497663 0 0.0077031932511712918 -0.00093214314669953378 0 0.0075172882590960263 -0.00099801362798212037 0 0.0077031932511712918 -0.00093214314669953378 0 0.0076494198431214869 -0.00096698999355036819 0 0.0075172882590960263 -0.00099801362798212037 0 0.0075709150356194329 -0.0010007628091083592 0 0.0076494198431214869 -0.00096698999355036819 0 0.0082709172386362505 5.6617641245312245e-05 0 0.0086820547093475527 3.4526628520616555e-05 0 0.0086527988664060716 -0.0005981575797497663 0 0.013663082656412039 0.00028679617616716373 0 0.013931472265449345 0.00023803087803028527 0 0.013937661975357495 0.00042625321554211879 0 0.0099221817833963968 -5.9177555972485965e-05 0 0.01151057906984552 4.1531384494468835e-05 0 0.0077083540979294325 -0.00096778308620928467 0 0.0077031932511712918 -0.00093214314669953378 0 0.0077293278263535579 -0.00093800938045429032 0 0.0099221817833963968 -5.9177555972485965e-05 0 0.0074521272087089765 -0.00071711783490327073 0 0.0078623402860509128 -0.00074225505723373667 0 0.007538847425368928 -0.00072939107776640207 0 0.0077293278263535579 -0.00093800938045429032 0 0.0077031932511712918 -0.00093214314669953378 0 0.0077293278263535579 -0.00093800938045429032 0 0.0076494198431214869 -0.00096698999355036819 0 0.0077293278263535579 -0.00093800938045429032 0 0.0076494198431214869 -0.00096698999355036819 0 0.0076569274657578021 -0.0010027333437946486 0 0.0075709150356194329 -0.0010007628091083592 0 0.0076494198431214869 -0.00096698999355036819 0 0.0076569274657578021 -0.0010027333437946486 0 0.0074829365836853621 -0.0011728370156159024 0 0.0075709150356194329 -0.0010007628091083592 0 0.0076804794651583351 -0.0010884495248766745 0 0.0075709150356194329 -0.0010007628091083592 0 0.0076804794651583351 -0.0010884495248766745 0 0.0076569274657578021 -0.0010027333437946486 0 0.0077293278263535579 -0.00093800938045429032 0 0.0076804794651583351 -0.0010884495248766745 0 0.0076569274657578021 -0.0010027333437946486 0 0.0077293278263535579 -0.00093800938045429032 0 0.0076804794651583351 -0.0010884495248766745 0 0.0078440822866598595 -0.0010758216471712754 0 0.0077392535207181749 -0.0012241602707409073 0 0.0076804794651583351 -0.0010884495248766745 0 0.0078440822866598595 -0.0010758216471712754 0 0.0075820229903712615 -0.0012972245941901405 0 0.0077392535207181749 -0.0012241602707409073 0 0.0076804794651583351 -0.0010884495248766745 0 0.0075820229903712615 -0.0012972245941901405 0 0.0074829365836853621 -0.0011728370156159024 0 0.0076804794651583351 -0.0010884495248766745 0 0.0080190562947783893 -0.0010644441330916537 0 0.0080253368635436403 -0.0010837283026567616 0 0.0078818661523922043 -0.0012938504178166576 0 0.0078440822866598595 -0.0010758216471712754 0 0.0080390906736415631 -0.0010622712434451317 0 0.0077392535207181749 -0.0012241602707409073 0 0.0078818661523922043 -0.0012938504178166576 0 0.0078440822866598595 -0.0010758216471712754 0 0.0078440822866598595 -0.0010758216471712754 0 0.0080390906736415631 -0.0010622712434451317 0 0.0079836811703736296 -0.00093641042177999975 0 0.0077293278263535579 -0.00093800938045429032 0 0.0078440822866598595 -0.0010758216471712754 0 0.0079836811703736296 -0.00093641042177999975 0 0.0078623402860509128 -0.00074225505723373667 0 0.0077293278263535579 -0.00093800938045429032 0 0.0079836811703736296 -0.00093641042177999975 0 0.0082429605724491459 -0.00062488413293574003 0 0.0079836811703736296 -0.00093641042177999975 0 0.0081975610533114723 -0.00096804778650391038 0 0.0080390906736415631 -0.0010622712434451317 0 0.0079836811703736296 -0.00093641042177999975 0 0.0081975610533114723 -0.00096804778650391038 0 0.0081753833430493836 -0.0009824382903696647 0 0.0083795114237094764 -0.0011425494706389038 0 0.0081975610533114723 -0.00096804778650391038 0 0.0086921406941368271 -0.00088062064940245546 0 0.0088847466687132243 -0.0011832672526666328 0 0.0081975610533114723 -0.00096804778650391038 0 0.0080118646474828543 -0.0010160680116150483 0 0.007843476040836116 -0.0011196552140138271 0 0.0080118646474828543 -0.0010160680116150483 0 0.007843476040836116 -0.0011196552140138271 0 0.0078378141915254485 -0.00098831260598630181 0 0.0080390906736415631 -0.0010622712434451317 0 0.0080118646474828543 -0.0010160680116150483 0 0.0080269820014152778 -0.00095243202822263367 0 0.0080390906736415631 -0.0010622712434451317 0 0.0081975610533114723 -0.00096804778650391038 0 0.0080118646474828543 -0.0010160680116150483 0 0.0099490433763022926 -0.0014461734968094007 0 0.0098186460115073683 -0.00095619633499174548 0 0.0092002870036433076 -0.00096596992027584642 0 0.0093751342012632858 -0.0011368490757711438 0 0.0091491150148510746 -0.0011279084988124394 0 0.0090173345375530716 -0.0008654402315159506 0 0.009665803157907148 -0.0012902774100687013 0 0.0091040178813479814 -0.00090653729999093532 0 0.0091491150148510746 -0.0011279084988124394 0 0.0090173345375530716 -0.0008654402315159506 0 0.0088847466687132243 -0.0011832672526666328 0 0.0086921406941368271 -0.00088062064940245546 0 0.0090173345375530716 -0.0008654402315159506 0 0.0088847466687132243 -0.0011832672526666328 0 0.007843476040836116 -0.0011196552140138271 0 0.0077167758817639062 -0.001032143016755254 0 0.0075153330032533602 -0.0010702903893872969 0 0.007843476040836116 -0.0011196552140138271 0 0.0077167758817639062 -0.001032143016755254 0 0.0078378141915254485 -0.00098831260598630181 0 0.0083795114237094764 -0.0011425494706389038 0 0.008303631295124814 -0.0011832911415398093 0 0.0077167758817639062 -0.001032143016755254 0 0.0075153330032533602 -0.0010702903893872969 0 0.0076221944676329355 -0.001004410687400664 0 0.0091491150148510746 -0.0011279084988124394 0 0.0088847466687132243 -0.0011832672526666328 0 0.0093342272981494934 -0.0013252006904213008 0 0.0093751342012632858 -0.0011368490757711438 0 0.0091491150148510746 -0.0011279084988124394 0 0.0093342272981494934 -0.0013252006904213008 0 0.0074538172839670527 -0.00087268883157001656 0 0.0075299239665041311 -0.00095504218532375127 0 0.0075907900016083715 -0.00084471346194594718 0 0.0074639354261855353 -0.00098908415086782831 0 0.0075153330032533602 -0.0010702903893872969 0 0.0075299239665041311 -0.00095504218532375127 0 0.0075153330032533602 -0.0010702903893872969 0 0.0075299239665041311 -0.00095504218532375127 0 0.0076221944676329355 -0.001004410687400664 0 0.0075299239665041311 -0.00095504218532375127 0 0.0076221944676329355 -0.001004410687400664 0 0.0076923977855860338 -0.00094416038740254471 0 0.0075299239665041311 -0.00095504218532375127 0 0.0076923977855860338 -0.00094416038740254471 0 0.0075907900016083715 -0.00084471346194594718 0 0.0076923977855860338 -0.00094416038740254471 0 0.0078378141915254485 -0.00098831260598630181 0 0.0077571056656080759 -0.00086679851216977621 0 0.0076923977855860338 -0.00094416038740254471 0 0.0077571056656080759 -0.00086679851216977621 0 0.0075907900016083715 -0.00084471346194594718 0 0.0077167758817639062 -0.001032143016755254 0 0.0076221944676329355 -0.001004410687400664 0 0.0076923977855860338 -0.00094416038740254471 0 0.0077167758817639062 -0.001032143016755254 0 0.0076923977855860338 -0.00094416038740254471 0 0.0078378141915254485 -0.00098831260598630181 0 0.0077571056656080759 -0.00086679851216977621 0 0.0078274963423012548 -0.00077578853993946935 0 0.0076513754735645905 -0.00073752205767122804 0 0.0077571056656080759 -0.00086679851216977621 0 0.0075907900016083715 -0.00084471346194594718 0 0.0076513754735645905 -0.00073752205767122804 0 0.0074538172839670527 -0.00087268883157001656 0 0.0075907900016083715 -0.00084471346194594718 0 0.0074692203092229445 -0.00070842846888053931 0 0.0074538172839670527 -0.00087268883157001656 0 0.0073645009377245867 -0.00072223886788106199 0 0.0074692203092229445 -0.00070842846888053931 0 0.0075907900016083715 -0.00084471346194594718 0 0.0074692203092229445 -0.00070842846888053931 0 0.0076513754735645905 -0.00073752205767122804 0 0.0080118646474828543 -0.0010160680116150483 0 0.0080269820014152778 -0.00095243202822263367 0 0.0079202999397394464 -0.00088609528753411473 0 0.0078378141915254485 -0.00098831260598630181 0 0.0077571056656080759 -0.00086679851216977621 0 0.0079202999397394464 -0.00088609528753411473 0 0.0080118646474828543 -0.0010160680116150483 0 0.0078378141915254485 -0.00098831260598630181 0 0.0079202999397394464 -0.00088609528753411473 0 0.0077571056656080759 -0.00086679851216977621 0 0.0079202999397394464 -0.00088609528753411473 0 0.0078274963423012548 -0.00077578853993946935 0 0.0079202999397394464 -0.00088609528753411473 0 0.0078274963423012548 -0.00077578853993946935 0 0.0079328926176230035 -0.00074893371083795623 0 0.0079202999397394464 -0.00088609528753411473 0 0.0080182122720238794 -0.00080028631398208435 0 0.0079328926176230035 -0.00074893371083795623 0 0.0080843324040382868 -0.00086333598285697724 0 0.0080269820014152778 -0.00095243202822263367 0 0.0080182122720238794 -0.00080028631398208435 0 0.0080269820014152778 -0.00095243202822263367 0 0.0079202999397394464 -0.00088609528753411473 0 0.0080182122720238794 -0.00080028631398208435 0 0.0080881263260259954 -0.00077084968727168855 0 0.0080182122720238794 -0.00080028631398208435 0 0.0080092436315380693 -0.00064925085681363087 0 0.0080182122720238794 -0.00080028631398208435 0 0.0080092436315380693 -0.00064925085681363087 0 0.0079328926176230035 -0.00074893371083795623 0 0.0080092436315380693 -0.00064925085681363087 0 0.0079328926176230035 -0.00074893371083795623 0 0.0078784572303225546 -0.00063252018759231356 0 0.0078274963423012548 -0.00077578853993946935 0 0.0078784572303225546 -0.00063252018759231356 0 0.0076513754735645905 -0.00073752205767122804 0 0.0078274963423012548 -0.00077578853993946935 0 0.0079328926176230035 -0.00074893371083795623 0 0.0078784572303225546 -0.00063252018759231356 0 0.0078682983776956206 -0.00061611978605514224 0 0.0077936620063372075 -0.00045360834171949009 0 0.0078784572303225546 -0.00063252018759231356 0 0.0079069915106247581 -0.00054144278311976299 0 0.0078111139920466113 -0.00052584357765935244 0 0.0080092436315380693 -0.00064925085681363087 0 0.0078784572303225546 -0.00063252018759231356 0 0.0079069915106247581 -0.00054144278311976299 0 0.0080092436315380693 -0.00064925085681363087 0 0.0079069915106247581 -0.00054144278311976299 0 0.0080144336194446341 -0.00052337175377724398 0 0.0074692203092229445 -0.00070842846888053931 0 0.0076513754735645905 -0.00073752205767122804 0 0.0076243111953435113 -0.00057059939943600725 0 0.0074692203092229445 -0.00070842846888053931 0 0.0076243111953435113 -0.00057059939943600725 0 0.0073654351554019578 -0.00056023828163866585 0 0.0073020682740758628 -0.00063317374075656135 0 0.0074692203092229445 -0.00070842846888053931 0 0.0073654351554019578 -0.00056023828163866585 0 0.0078784572303225546 -0.00063252018759231356 0 0.0076513754735645905 -0.00073752205767122804 0 0.0076243111953435113 -0.00057059939943600725 0 0.0076243111953435113 -0.00057059939943600725 0 0.0077430934373090236 -0.00039100646787318556 0 0.007487155863613793 -0.00034569159896456693 0 0.0078784572303225546 -0.00063252018759231356 0 0.0076243111953435113 -0.00057059939943600725 0 0.0077430934373090236 -0.00039100646787318556 0 0.0076243111953435113 -0.00057059939943600725 0 0.0073654351554019578 -0.00056023828163866585 0 0.007487155863613793 -0.00034569159896456693 0 0.0072444978212189313 -0.00053953209721254185 0 0.0073654351554019578 -0.00056023828163866585 0 0.0072371094342047314 -0.00054332403421597335 0 0.0073465157193059408 -0.0005548406641492443 0 0.007372214128328676 -0.00044061711184331355 0 0.0072444978212189313 -0.00053953209721254185 0 0.0072371094342047314 -0.00054332403421597335 0 0.0071836964164219801 -0.00053698770921778189 0 0.0072371094342047314 -0.00054332403421597335 0 0.0072029370582354811 -0.0005352225978613156 0 0.0071836964164219801 -0.00053698770921778189 0 0.007372214128328676 -0.00044061711184331355 0 0.0073864154084143756 -0.00044976806913857358 0 0.0077936620063372075 -0.00045360834171949009 0 0.0073864154084143756 -0.00044976806913857358 0 0.0078111139920466113 -0.00052584357765935244 0 0.0077422449105226552 -0.00042300394570369355 0 0.0078993760206535063 -0.0004091348242955929 0 0.0077430934373090236 -0.00039100646787318556 0 0.007487155863613793 -0.00034569159896456693 0 0.0075866588758629625 -0.00014819931916140857 0 0.0077422449105226552 -0.00042300394570369355 0 0.0078993760206535063 -0.0004091348242955929 0 0.007802068096450788 -0.00030306212193242417 0 0.0070247745685560782 -0.00075092922180883639 0 0.0069581855173579555 -0.00065543656947165518 0 0.0070776929068913415 -0.00064425495150482494 0 0.0073864154084143756 -0.00044976806913857358 0 0.0073674369919630939 -0.00075736840306649632 0 0.0072029370582354811 -0.0005352225978613156 0 0.0071836964164219801 -0.00053698770921778189 0 0.0071242254835677185 -0.00052601691103590592 0 0.0071155621981409877 -0.00053171030636487825 0 0.0071836964164219801 -0.00053698770921778189 0 0.0071242254835677185 -0.00052601691103590592 0 0.0073864154084143756 -0.00044976806913857358 0 0.007017234845428209 -0.00061695875421180252 0 0.0073403407266203514 -0.0011341599923916251 0 0.0073271865635433321 -0.0011116043243398815 0 0.0073501183691368471 -0.0011258941131432544 0 0.0079069915106247581 -0.00054144278311976299 0 0.0080144336194446341 -0.00052337175377724398 0 0.0078993760206535063 -0.0004091348242955929 0 0.0077077404350080325 -0.00077931581622329418 0 0.0076374653694966221 -0.00076820656355329746 0 0.0079069915106247581 -0.00054144278311976299 0 0.0078111139920466113 -0.00052584357765935244 0 0.0078993760206535063 -0.0004091348242955929 0 0.0076374653694966221 -0.00076820656355329746 0 0.0073674369919630939 -0.00075736840306649632 0 0.0073271865635433321 -0.0011116043243398815 0 0.0073501183691368471 -0.0011258941131432544 0 0.0073412511547270047 -0.0011010169399451196 0 0.0069085012302054251 -0.0016756165852265844 0 0.0068274939943406944 -0.0017125664522427999 0 0.0068097413146924824 -0.0015789061493654798 0 0.0070586021415652012 -0.0014584519464441352 0 0.0070824271550643247 -0.0013251043734516705 0 0.0069085012302054251 -0.0016756165852265844 0 0.0068750937770378009 -0.0015950467944286734 0 0.0068097413146924824 -0.0015789061493654798 0 0.0069085012302054251 -0.0016756165852265844 0 0.0068274939943406944 -0.0017125664522427999 0 0.0069228647243764199 -0.0017882493989049499 0 0.0069085012302054251 -0.0016756165852265844 0 0.0069228647243764199 -0.0017882493989049499 0 0.0070719360879261907 -0.001773933232074174 0 0.0068274939943406944 -0.0017125664522427999 0 0.0069228647243764199 -0.0017882493989049499 0 0.00687608714983611 -0.0018692647277104466 0 0.0080092436315380693 -0.00064925085681363087 0 0.0080144336194446341 -0.00052337175377724398 0 0.008144182789997791 -0.00066986257759825277 0 0.0073403407266203514 -0.0011341599923916251 0 0.0073501183691368471 -0.0011258941131432544 0 0.0073597675873149082 -0.0011608664809212065 0 0.0070586021415652012 -0.0014584519464441352 0 0.007372446186222857 -0.0013264446563926505 0 0.0077077404350080325 -0.00077931581622329418 0 0.007372446186222857 -0.0013264446563926505 0 0.0069228647243764199 -0.0017882493989049499 0 0.00691429295712764 -0.0018530837472761923 0 0.0069591812791879506 -0.0018866681062510372 0 0.0069228647243764199 -0.0017882493989049499 0 0.00691429295712764 -0.0018530837472761923 0 0.00687608714983611 -0.0018692647277104466 0 0.00691429295712764 -0.0018530837472761923 0 0.0069591812791879506 -0.0018866681062510372 0 0.0068914847088509682 -0.0018807628474080613 0 0.00691429295712764 -0.0018530837472761923 0 0.00687608714983611 -0.0018692647277104466 0 0.0068914847088509682 -0.0018807628474080613 0 0.00691120399652946 -0.0019566855297695469 0 0.0069591812791879506 -0.0018866681062510372 0 0.0068914847088509682 -0.0018807628474080613 0 0.0080881263260259954 -0.00077084968727168855 0 0.0080092436315380693 -0.00064925085681363087 0 0.008144182789997791 -0.00066986257759825277 0 0.00691120399652946 -0.0019566855297695469 0 0.0068832967157402905 -0.0018714599839221653 0 0.0068914847088509682 -0.0018807628474080613 0 0.007372446186222857 -0.0013264446563926505 0 0.0073415171434311017 -0.0014038126504252128 0 0.0071300621388940911 -0.0016966756094990362 0 0.0072136719140405824 -0.0017296642607785456 0 0.0071281302767974833 -0.0017599216792062631 0 0.0071949326159805411 -0.0016048819220509903 0 0.0071300621388940911 -0.0016966756094990362 0 0.0072136719140405824 -0.0017296642607785456 0 0.0074088163896461473 -0.0016106766560772515 0 0.0073861448008899541 -0.0017425145950184676 0 0.0072136719140405824 -0.0017296642607785456 0 0.0071309421925660208 -0.001873343930813937 0 0.0071166731236217235 -0.0017395978059178692 0 0.0073861448008899541 -0.0017425145950184676 0 0.0072136719140405824 -0.0017296642607785456 0 0.0070719360879261907 -0.001773933232074174 0 0.0069228647243764199 -0.0017882493989049499 0 0.0069591812791879506 -0.0018866681062510372 0 0.0070719360879261907 -0.001773933232074174 0 0.0072136719140405824 -0.0017296642607785456 0 0.0070719360879261907 -0.001773933232074174 0 0.0071281302767974833 -0.0017599216792062631 0 0.0071288131434746726 -0.0017423895347362967 0 0.0070719360879261907 -0.001773933232074174 0 0.0071281302767974833 -0.0017599216792062631 0 0.0071288131434746726 -0.0017423895347362967 0 0.0070719360879261907 -0.001773933232074174 0 0.0070766236276428021 -0.0016840048062370576 0 0.0070719360879261907 -0.001773933232074174 0 0.006983206406729516 -0.0016639438019329859 0 0.0070766236276428021 -0.0016840048062370576 0 0.0069085012302054251 -0.0016756165852265844 0 0.0070719360879261907 -0.001773933232074174 0 0.006983206406729516 -0.0016639438019329859 0 0.006983206406729516 -0.0016639438019329859 0 0.0069726671774987111 -0.0016096956988344742 0 0.0068750937770378009 -0.0015950467944286734 0 0.0069085012302054251 -0.0016756165852265844 0 0.006983206406729516 -0.0016639438019329859 0 0.0068750937770378009 -0.0015950467944286734 0 0.0071128151379202644 -0.001625274151103504 0 0.0070766236276428021 -0.0016840048062370576 0 0.0069726671774987111 -0.0016096956988344742 0 0.006983206406729516 -0.0016639438019329859 0 0.0070766236276428021 -0.0016840048062370576 0 0.0069726671774987111 -0.0016096956988344742 0 0.0071128151379202644 -0.001625274151103504 0 0.0069726671774987111 -0.0016096956988344742 0 0.0070122271565775836 -0.001523650062037348 0 0.0069726671774987111 -0.0016096956988344742 0 0.0068750937770378009 -0.0015950467944286734 0 0.0067201715217638548 -0.0015251232640790756 0 0.0067201715217638548 -0.0015251232640790756 0 0.0062792177873117741 -0.0014139127619569249 0 0.0062497280974402403 -0.0015804887171914233 0 0.0069726671774987111 -0.0016096956988344742 0 0.0067201715217638548 -0.0015251232640790756 0 0.0070122271565775836 -0.001523650062037348 0 0.0067278958915216805 -0.0015250755766134123 0 0.0066578681222465418 -0.0014874691330142723 0 0.0067201715217638548 -0.0015251232640790756 0 0.0065103651426478186 -0.001698682854142431 0 0.0062497280974402403 -0.0015804887171914233 0 0.0065103651426478186 -0.001698682854142431 0 0.0062497280974402403 -0.0015804887171914233 0 0.0062025213207319973 -0.0017428316849801293 0 0.0067201715217638548 -0.0015251232640790756 0 0.0065103651426478186 -0.001698682854142431 0 0.0067126454265854472 -0.001757440513389211 0 0.0065103651426478186 -0.001698682854142431 0 0.0067126454265854472 -0.001757440513389211 0 0.006548635806608482 -0.0018521116512063842 0 0.0065103651426478186 -0.001698682854142431 0 0.006548635806608482 -0.0018521116512063842 0 0.0062025213207319973 -0.0017428316849801293 0 0.0063474439450036547 -0.0018167911007315226 0 0.0062287539179919429 -0.0017542286879817588 0 0.0067975063276129316 -0.0017605248197103175 0 0.0068995454235131447 -0.0017368467205027315 0 0.0068268738096176019 -0.0017903758846104737 0 0.0067975063276129316 -0.0017605248197103175 0 0.0068032278452768626 -0.0016286265817147456 0 0.0068995454235131447 -0.0017368467205027315 0 0.0067975063276129316 -0.0017605248197103175 0 0.0067126454265854472 -0.001757440513389211 0 0.0068032278452768626 -0.0016286265817147456 0 0.0067975063276129316 -0.0017605248197103175 0 0.0067126454265854472 -0.001757440513389211 0 0.0067506466548715024 -0.0017980429649412672 0 0.0067201715217638548 -0.0015251232640790756 0 0.0067126454265854472 -0.001757440513389211 0 0.0068032278452768626 -0.0016286265817147456 0 0.0068032278452768626 -0.0016286265817147456 0 0.006865009765065007 -0.0015925423990800587 0 0.0068995454235131447 -0.0017368467205027315 0 0.0068129193443080297 -0.001560654153240059 0 0.0068097413146924824 -0.0015789061493654798 0 0.006865009765065007 -0.0015925423990800587 0 0.0068032278452768626 -0.0016286265817147456 0 0.0068129193443080297 -0.001560654153240059 0 0.006865009765065007 -0.0015925423990800587 0 0.0068750937770378009 -0.0015950467944286734 0 0.0067201715217638548 -0.0015251232640790756 0 0.0068129193443080297 -0.001560654153240059 0 0.0067201715217638548 -0.0015251232640790756 0 0.0068032278452768626 -0.0016286265817147456 0 0.0068129193443080297 -0.001560654153240059 0 0.0068750937770378009 -0.0015950467944286734 0 0.0068129193443080297 -0.001560654153240059 0 0.0068097413146924824 -0.0015789061493654798 0 0.0073271865635433321 -0.0011116043243398815 0 0.0073412511547270047 -0.0011010169399451196 0 0.007329678864398937 -0.001093997564861129 0 0.0073271865635433321 -0.0011116043243398815 0 0.007329678864398937 -0.001093997564861129 0 0.0073187309005061964 -0.0010951756901256928 0 0.0073674369919630939 -0.00075736840306649632 0 0.0073338384410223442 -0.00070110580744031051 0 0.007329678864398937 -0.001093997564861129 0 0.0073187309005061964 -0.0010951756901256928 0 0.0073270510138640204 -0.0010830367486821325 0 0.0070824271550643247 -0.0013251043734516705 0 0.0070847582181693203 -0.0013904678649665919 0 0.0073412511547270047 -0.0011010169399451196 0 0.007329678864398937 -0.001093997564861129 0 0.0073332587447188496 -0.0010854360336986807 0 0.007329678864398937 -0.001093997564861129 0 0.0073332587447188496 -0.0010854360336986807 0 0.0073270510138640204 -0.0010830367486821325 0 0.0069581855173579555 -0.00065543656947165518 0 0.0069480268951457704 -0.00058214699964724635 0 0.0069092132100900695 -0.00055714706499728807 0 0.0069581855173579555 -0.00065543656947165518 0 0.0070128180291770771 -0.00056716583013010963 0 0.0069480268951457704 -0.00058214699964724635 0 0.0069581855173579555 -0.00065543656947165518 0 0.0070776929068913415 -0.00064425495150482494 0 0.0070128180291770771 -0.00056716583013010963 0 0.0073674369919630939 -0.00075736840306649632 0 0.0069956775937231007 -0.00054729140315336398 0 0.0071802452330186617 -0.00075034453170549941 0 0.0070460051029961447 -0.00058580262819174251 0 0.0073124468421925911 -0.00047270835403353693 0 0.0069956775937231007 -0.00054729140315336398 0 0.0069339816819422601 -0.0004633706358065018 0 0.0070128180291770771 -0.00056716583013010963 0 0.0069109017706162649 -0.00053676113919172354 0 0.0069133224785888668 -0.00044127472151490069 0 0.0070128180291770771 -0.00056716583013010963 0 0.0069109017706162649 -0.00053676113919172354 0 0.0069480268951457704 -0.00058214699964724635 0 0.0069133224785888668 -0.00044127472151490069 0 0.0071096749556377624 -0.00039791963721453049 0 0.0069814840274027489 -0.000302252182760899 0 0.0070460051029961447 -0.00058580262819174251 0 0.0069133224785888668 -0.00044127472151490069 0 0.0071096749556377624 -0.00039791963721453049 0 0.0069133224785888668 -0.00044127472151490069 0 0.0069814840274027489 -0.000302252182760899 0 0.0068224092335139657 -0.0003413737454685027 0 0.0070460051029961447 -0.00058580262819174251 0 0.0071096749556377624 -0.00039791963721453049 0 0.0073124468421925911 -0.00047270835403353693 0 0.0071096749556377624 -0.00039791963721453049 0 0.0071204007988197758 -0.00017520498968605247 0 0.0069814840274027489 -0.000302252182760899 0 0.0071204007988197758 -0.00017520498968605247 0 0.0072456448180955547 -0.00025684621945420755 0 0.0072468624066509002 -7.0809514015505946e-05 0 0.0071096749556377624 -0.00039791963721453049 0 0.0071204007988197758 -0.00017520498968605247 0 0.0072456448180955547 -0.00025684621945420755 0 0.0069814840274027489 -0.000302252182760899 0 0.0068576399187598759 -0.00019987665077262408 0 0.0069565832573110688 -8.2912583731123451e-05 0 0.0071204007988197758 -0.00017520498968605247 0 0.0069814840274027489 -0.000302252182760899 0 0.0069565832573110688 -8.2912583731123451e-05 0 0.0069814840274027489 -0.000302252182760899 0 0.0068576399187598759 -0.00019987665077262408 0 0.0068224092335139657 -0.0003413737454685027 0 0.0073338384410223442 -0.00070110580744031051 0 0.0072368165817071591 -0.0011892619948898086 0 0.0073332587447188496 -0.0010854360336986807 0 0.0073270510138640204 -0.0010830367486821325 0 0.0073290678915700885 -0.0010786875012969649 0 0.0070847582181693203 -0.0013904678649665919 0 0.0072368165817071591 -0.0011892619948898086 0 0.0071096749556377624 -0.00039791963721453049 0 0.0073124468421925911 -0.00047270835403353693 0 0.0072456448180955547 -0.00025684621945420755 0 0.0072456448180955547 -0.00025684621945420755 0 0.0074194094714516486 -0.00020776839766574874 0 0.0072468624066509002 -7.0809514015505946e-05 0 0.0073124468421925911 -0.00047270835403353693 0 0.0072456448180955547 -0.00025684621945420755 0 0.0074194094714516486 -0.00020776839766574874 0 0.0068995454235131447 -0.0017368467205027315 0 0.0068268738096176019 -0.0017903758846104737 0 0.0068260179497782961 -0.0018318246462007963 0 0.0072368165817071591 -0.0011892619948898086 0 0.0061359543750001766 -0.00056017919998185438 0 0.0068545628328211868 -0.0017652777661161956 0 0.0068567627943130049 -0.00184490224928031 0 0.0068420766211790048 -0.0018348938843198036 0 0.0072368165817071591 -0.0011892619948898086 0 0.0067035916648638741 -0.0020568180006848309 0 0.0068545628328211868 -0.0017652777661161956 0 0.0068420766211790048 -0.0018348938843198036 0 0.0068260179497782961 -0.0018318246462007963 0 0.0074194094714516486 -0.00020776839766574874 0 0.0072468624066509002 -7.0809514015505946e-05 0 0.0073517374916936265 4.3337810773174965e-05 0 0.0072980238632278736 5.6249169701274866e-05 0 0.0074506242811429322 0.00024564792576996474 0 0.0072285501239077576 0.00031745940709943313 0 0.0074636235370957845 0.00017457872255291398 0 0.0061359543750001766 -0.00056017919998185438 0 0.0074450979238916623 0.00026969247491219896 0 0.0074506242811429322 0.00024564792576996474 0 0.0072285501239077576 0.00031745940709943313 0 0.0055860136899629122 -0.00059237646594831816 0 0.0063366524797889914 0.00015964366517413266 0 0.0038165787323319318 -0.0014312434132141636 0 0.0039080526147085267 -0.0013981252847622056 0 0.0040216109529665972 -0.0014701488299784732 0 0.0068526678433871767 -0.0018476540557079901 0 0.0068420766211790048 -0.0018348938843198036 0 0.0067971341892278728 -0.0018570380289429844 0 0.0053473106296711087 -0.00091973548926594826 0 0.0053358720630310849 -0.0017401234168345743 0 0.0055860136899629122 -0.00059237646594831816 0 0.0061359543750001766 -0.00056017919998185438 0 0.0058889661702104306 -0.0007212883137783097 0 0.0059611493162969927 -0.0010997504616605104 0 0.0062556989541402369 -0.00077978136622562871 0 0.0055860136899629122 -0.00059237646594831816 0 0.0053473106296711087 -0.00091973548926594826 0 0.0061359543750001766 -0.00056017919998185438 0 0.0053473106296711087 -0.00091973548926594826 0 0.0068567627943130049 -0.00184490224928031 0 0.0068526678433871767 -0.0018476540557079901 0 0.0068420766211790048 -0.0018348938843198036 0 0.0069565832573110688 -8.2912583731123451e-05 0 0.0069603728654428045 0.00014211046355467162 0 0.0067778114925456353 -1.5137469797209209e-05 0 0.0069603728654428045 0.00014211046355467162 0 0.0068276295975608498 0.00020207561275538451 0 0.0067778114925456353 -1.5137469797209209e-05 0 0.0068576399187598759 -0.00019987665077262408 0 0.0069565832573110688 -8.2912583731123451e-05 0 0.0067778114925456353 -1.5137469797209209e-05 0 0.0069565832573110688 -8.2912583731123451e-05 0 0.007131416349561724 0.00014874779792366211 0 0.0069603728654428045 0.00014211046355467162 0 0.0071204007988197758 -0.00017520498968605247 0 0.0072980238632278736 5.6249169701274866e-05 0 0.007131416349561724 0.00014874779792366211 0 0.0071204007988197758 -0.00017520498968605247 0 0.0069565832573110688 -8.2912583731123451e-05 0 0.007131416349561724 0.00014874779792366211 0 0.0070642060388037978 -0.00023329394457009161 0 0.0074636235370957845 0.00017457872255291398 0 0.0072980238632278736 5.6249169701274866e-05 0 0.0072285501239077576 0.00031745940709943313 0 0.007131416349561724 0.00014874779792366211 0 0.0072285501239077576 0.00031745940709943313 0 0.007131416349561724 0.00014874779792366211 0 0.0069901938039754813 0.00037797014419926813 0 0.007131416349561724 0.00014874779792366211 0 0.0069603728654428045 0.00014211046355467162 0 0.0069901938039754813 0.00037797014419926813 0 0.0069603728654428045 0.00014211046355467162 0 0.0068276295975608498 0.00020207561275538451 0 0.0069901938039754813 0.00037797014419926813 0 0.0068069956997608922 0.00035326255988410253 0 0.0068276295975608498 0.00020207561275538451 0 0.0069901938039754813 0.00037797014419926813 0 0.0060413172731208923 0.00038531948513112631 0 0.0057384961108331422 0.00065366839945222492 0 0.0068069956997608922 0.00035326255988410253 0 0.0069864603960759263 0.00039027135772369841 0 0.0066783087118378534 0.00046774711979272692 0 0.0046716192598988768 0.00063482562151988807 0 0.0044705181864322903 0.0008595400082283324 0 0.0049330947926604788 0.00079417616716858253 0 0.0070222929420521562 0.00045399782704701874 0 0.0060413172731208923 0.00038531948513112631 0 0.0046716192598988768 0.00063482562151988807 0 0.0044705181864322903 0.0008595400082283324 0 0.0044149219056187645 0.0005668126970323448 0 0.0060413172731208923 0.00038531948513112631 0 0.0032203938680927238 -0.00011419249759495482 0 0.0044705181864322903 0.0008595400082283324 0 0.0044149219056187645 0.0005668126970323448 0 0.0038129710276225632 0.00068780576587702791 0 0.0052089268022766895 2.7372390407405621e-05 0 0.0059550580575883751 -8.2295693206528581e-05 0 0.0047281086214025353 -0.00040457644350412456 0 0.0063366524797889914 0.00015964366517413266 0 0.0060413172731208923 0.00038531948513112631 0 0.0044149219056187645 0.0005668126970323448 0 0.0041960888803752629 0.00035965303075827926 0 0.0046172426490324117 0.00041082285362457969 0 0.0044149219056187645 0.0005668126970323448 0 0.0041960888803752629 0.00035965303075827926 0 0.0038129710276225632 0.00068780576587702791 0 0.0046172426490324117 0.00041082285362457969 0 0.004879261171715151 0.00023097523376095435 0 0.0045759094424232954 4.5066819527154227e-05 0 0.0041960888803752629 0.00035965303075827926 0 0.0046172426490324117 0.00041082285362457969 0 0.0045759094424232954 4.5066819527154227e-05 0 0.0046716192598988768 0.00063482562151988807 0 0.0044149219056187645 0.0005668126970323448 0 0.0046172426490324117 0.00041082285362457969 0 0.0046716192598988768 0.00063482562151988807 0 0.0046172426490324117 0.00041082285362457969 0 0.0049258678800890091 0.00054228378542228034 0 0.0026710518505481937 -0.00094792852875857556 0 0.0023785430263092446 -0.0016342185488339178 0 0.0038165787323319318 -0.0014312434132141636 0 0.0039080526147085267 -0.0013981252847622056 0 0.0039512168957571842 -0.0012512282229856122 0 0.0053473106296711087 -0.00091973548926594826 0 0.0023785430263092446 -0.0016342185488339178 0 0.0037918647071597069 -0.00058079058322001371 0 0.0040310380345968191 -0.001359400767778141 0 0.0027669112192622082 -0.001682078648093189 0 0.0055860136899629122 -0.00059237646594831816 0 0.0026710518505481937 -0.00094792852875857556 0 0.0038938126968015357 -0.00059686698070154226 0 0.0037918647071597069 -0.00058079058322001371 0 0.0040310380345968191 -0.001359400767778141 0 0.0044679491161731116 0.00013555773509236295 0 0.0052089268022766895 2.7372390407405621e-05 0 0.0047281086214025353 -0.00040457644350412456 0 0.0011654975108939983 -0.00118524753834782 0 0.0011306910036848175 -0.0011937175159423097 0 0.001116139476931136 -0.0010269955454286206 0 0.0044679491161731116 0.00013555773509236295 0 0.0045702595481679868 -0.00044532191811429513 0 0.0047281086214025353 -0.00040457644350412456 0 0.0026710518505481937 -0.00094792852875857556 0 0.0032203938680927238 -0.00011419249759495482 0 0.00096131355758004625 -0.0010588781085381824 0 0.001116139476931136 -0.0010269955454286206 0 0.00097992798354079548 -0.00094244370735754553 0 0.0026710518505481937 -0.00094792852875857556 0 0.0010996314439970947 -0.0011917597817520554 0 0.0024670200863074923 -0.00031480419082481332 0 0.0032203938680927238 -0.00011419249759495482 0 0.00096131355758004625 -0.0010588781085381824 0 0.0011306910036848175 -0.0011937175159423097 0 0.001116139476931136 -0.0010269955454286206 0 0.0010976717611617568 -0.0012925231191596991 0 0.0013358877494441027 -0.0014003808704994847 0 0.001249052367663284 -0.001101025592411813 0 0.0011757132977885049 -0.0016463476788158432 0 0.0010976717611617568 -0.0012925231191596991 0 0.0013358877494441027 -0.0014003808704994847 0 0.0011757132977885049 -0.0016463476788158432 0 0.0013358877494441027 -0.0014003808704994847 0 0.0016141384333894441 -0.0015522127639080283 0 0.0013358877494441027 -0.0014003808704994847 0 0.0016141384333894441 -0.0015522127639080283 0 0.0014567931899106049 -0.0012114981966119137 0 0.0013358877494441027 -0.0014003808704994847 0 0.0014567931899106049 -0.0012114981966119137 0 0.001249052367663284 -0.001101025592411813 0 0.0016141384333894441 -0.0015522127639080283 0 0.0016854975006215676 -0.0010557053002424957 0 0.0014567931899106049 -0.0012114981966119137 0 0.0039080526147085267 -0.0013981252847622056 0 0.0039512168957571842 -0.0012512282229856122 0 0.0040491227766112558 -0.0013525881279656084 0 0.0039512168957571842 -0.0012512282229856122 0 0.0040491227766112558 -0.0013525881279656084 0 0.0042128701396322611 -0.0011491179177733179 0 0.0041794386518040922 -0.0013442741096996241 0 0.0040491227766112558 -0.0013525881279656084 0 0.0042128701396322611 -0.0011491179177733179 0 0.0041794386518040922 -0.0013442741096996241 0 0.0040491227766112558 -0.0013525881279656084 0 0.0041216176158805594 -0.0014401396073644305 0 0.0014303675840472232 -0.0019227626150131265 0 0.0022616279077236957 -0.001718356331466331 0 0.0020734004957080219 -0.0011878815098578719 0 0.0023785430263092446 -0.0016342185488339178 0 0.0017406819448167281 -0.0013066905176673702 0 0.0023785430263092446 -0.0016342185488339178 0 0.0033108779560121022 -0.0014257321439603667 0 0.0033108779560121022 -0.0014257321439603667 0 0.0038180411710894346 -0.0013057270326652464 0 0.0042128701396322611 -0.0011491179177733179 0 0.0044053253425826496 -0.0011986819381506566 0 0.0043093115383866553 -0.0012710583935412211 0 0.0022616279077236957 -0.001718356331466331 0 0.003166326540838902 -0.0015342004511627479 0 0.0025961303113615172 -0.001219877974152299 0 0.0042128701396322611 -0.0011491179177733179 0 0.0045135148527976343 -0.0011044223576681786 0 0.0044053253425826496 -0.0011986819381506566 0 0.0045135148527976343 -0.0011044223576681786 0 0.0044053253425826496 -0.0011986819381506566 0 0.0045138093608197783 -0.0011816190068589152 0 0.0045135148527976343 -0.0011044223576681786 0 0.0045138093608197783 -0.0011816190068589152 0 0.0045028496582125857 -0.0010899664616209623 0 0.0044053253425826496 -0.0011986819381506566 0 0.0045138093608197783 -0.0011816190068589152 0 0.0044347919494273549 -0.00129800154712964 0 0.0044347919494273549 -0.00129800154712964 0 0.0042921298820554239 -0.0014023935033053269 0 0.0044566416259764737 -0.0014726764914637727 0 0.0045138093608197783 -0.0011816190068589152 0 0.0044347919494273549 -0.00129800154712964 0 0.0046670006762895956 -0.0013431520526380884 0 0.0044347919494273549 -0.00129800154712964 0 0.0044566416259764737 -0.0014726764914637727 0 0.0046670006762895956 -0.0013431520526380884 0 0.0041794386518040922 -0.0013442741096996241 0 0.0042128701396322611 -0.0011491179177733179 0 0.0043093115383866553 -0.0012710583935412211 0 0.0044053253425826496 -0.0011986819381506566 0 0.0044347919494273549 -0.00129800154712964 0 0.0043093115383866553 -0.0012710583935412211 0 0.0044347919494273549 -0.00129800154712964 0 0.0043093115383866553 -0.0012710583935412211 0 0.0042921298820554239 -0.0014023935033053269 0 0.0041794386518040922 -0.0013442741096996241 0 0.0043093115383866553 -0.0012710583935412211 0 0.0042921298820554239 -0.0014023935033053269 0 0.0041794386518040922 -0.0013442741096996241 0 0.0042921298820554239 -0.0014023935033053269 0 0.0041999329194085805 -0.0014417794669010775 0 0.0042921298820554239 -0.0014023935033053269 0 0.0042457321824921563 -0.0015638351885332361 0 0.0041999329194085805 -0.0014417794669010775 0 0.0042921298820554239 -0.0014023935033053269 0 0.0042457321824921563 -0.0015638351885332361 0 0.0044566416259764737 -0.0014726764914637727 0 0.0044566416259764737 -0.0014726764914637727 0 0.0046802449318982383 -0.0017659609082974748 0 0.0046670006762895956 -0.0013431520526380884 0 0.0042457321824921563 -0.0015638351885332361 0 0.0044566416259764737 -0.0014726764914637727 0 0.0046802449318982383 -0.0017659609082974748 0 0.005201520251717202 -0.0017229160673190875 0 0.0054476384480943805 -0.0018333621494825755 0 0.0062517246399241408 -0.0018449461888044732 0 0.0062025213207319973 -0.0017428316849801293 0 0.0061728961228191262 -0.0019273770865625062 0 0.0062564172832375751 -0.0018934143887752142 0 0.0062517246399241408 -0.0018449461888044732 0 0.0061728961228191262 -0.0019273770865625062 0 0.0067126454265854472 -0.001757440513389211 0 0.006548635806608482 -0.0018521116512063842 0 0.006718676146084207 -0.0018568256987708527 0 0.0062564172832375751 -0.0018934143887752142 0 0.0062517246399241408 -0.0018449461888044732 0 0.0062502656794134167 -0.0018914377671209004 0 0.0063474439450036547 -0.0018167911007315226 0 0.0066745574015567924 -0.0019556620385968522 0 0.006718676146084207 -0.0018568256987708527 0 0.0067884015321085 -0.0018201720966965372 0 0.0067971341892278728 -0.0018570380289429844 0 0.0067126454265854472 -0.001757440513389211 0 0.006718676146084207 -0.0018568256987708527 0 0.0067506466548715024 -0.0017980429649412672 0 0.006718676146084207 -0.0018568256987708527 0 0.0067506466548715024 -0.0017980429649412672 0 0.0067884015321085 -0.0018201720966965372 0 0.0067975063276129316 -0.0017605248197103175 0 0.0067506466548715024 -0.0017980429649412672 0 0.0067884015321085 -0.0018201720966965372 0 0.0067975063276129316 -0.0017605248197103175 0 0.0068268738096176019 -0.0017903758846104737 0 0.0067884015321085 -0.0018201720966965372 0 0.0068268738096176019 -0.0017903758846104737 0 0.0067884015321085 -0.0018201720966965372 0 0.0068260179497782961 -0.0018318246462007963 0 0.0067884015321085 -0.0018201720966965372 0 0.0068260179497782961 -0.0018318246462007963 0 0.0067971341892278728 -0.0018570380289429844 0 0.0068420766211790048 -0.0018348938843198036 0 0.0068260179497782961 -0.0018318246462007963 0 0.0067971341892278728 -0.0018570380289429844 0 0.0039080526147085267 -0.0013981252847622056 0 0.0040491227766112558 -0.0013525881279656084 0 0.0040048397621775299 -0.0014707903313138286 0 0.0036960529986763439 -0.0011739804587189303 0 0.0053358720630310849 -0.0017401234168345743 0 0.005201520251717202 -0.0017229160673190875 0 0.0053358720630310849 -0.0017401234168345743 0 0.0062564172832375751 -0.0018934143887752142 0 0.0062502656794134167 -0.0018914377671209004 0 0.006205803506856746 -0.0018630173875902776 0 0.0042457321824921563 -0.0015638351885332361 0 0.0040048397621775299 -0.0014707903313138286 0 0.0041216176158805594 -0.0014401396073644305 0 0.0066745574015567924 -0.0019556620385968522 0 0.0053358720630310849 -0.0017401234168345743 0 0.0040491227766112558 -0.0013525881279656084 0 0.0040048397621775299 -0.0014707903313138286 0 0.0041216176158805594 -0.0014401396073644305 0 0.0042457321824921563 -0.0015638351885332361 0 0.0041216176158805594 -0.0014401396073644305 0 0.0041999329194085805 -0.0014417794669010775 0 0.0041794386518040922 -0.0013442741096996241 0 0.0041216176158805594 -0.0014401396073644305 0 0.0041999329194085805 -0.0014417794669010775 0 0.0060563702099279745 -1.0271976575922071e-06 0 0.0061115444231918106 -2.5655753731064729e-08 0 0.0053711052225975343 3.614809597575366e-08 0 0.0071002150569916623 0.00059852953491284675 0 0.0072328675023771802 0.00071189310442873802 0 0.0071438088214301658 0.00093632252774464124 0 0.006620312074591234 0.0002679911672805415 0 0.0058445334100000529 0.00037123340400643329 0 0.0072074054592119775 0.00060267582558717534 0 0.0072328675023771802 0.00071189310442873802 0 0.0073114741749176673 0.00054754307227423374 0 0.0072074054592119775 0.00060267582558717534 0 0.0071002150569916623 0.00059852953491284675 0 0.0072328675023771802 0.00071189310442873802 0 0.0072074054592119775 0.00060267582558717534 0 0.0071883681279729114 0.00054266716967070114 0 0.0073114741749176673 0.00054754307227423374 0 0.0072074054592119775 0.00060267582558717534 0 0.0071002150569916623 0.00059852953491284675 0 0.0071883681279729114 0.00054266716967070114 0 0.0072328675023771802 0.00071189310442873802 0 0.007400907239385658 0.00071597278354300819 0 0.0073347173579234497 0.00086118303863697444 0 0.007400907239385658 0.00071597278354300819 0 0.0074836050213712311 0.00057842452843769542 0 0.0075649959602187237 0.00069703392416664567 0 0.007400907239385658 0.00071597278354300819 0 0.0075649959602187237 0.00069703392416664567 0 0.0075067742094541189 0.00088288441109154179 0 0.0072328675023771802 0.00071189310442873802 0 0.007400907239385658 0.00071597278354300819 0 0.0073114741749176673 0.00054754307227423374 0 0.007400907239385658 0.00071597278354300819 0 0.0074836050213712311 0.00057842452843769542 0 0.0073114741749176673 0.00054754307227423374 0 0.0074760389400040346 0.0004260311643146874 0 0.0073190041411606782 0.00029312951308364696 0 0.0073114741749176673 0.00054754307227423374 0 0.0074836050213712311 0.00057842452843769542 0 0.0074760389400040346 0.0004260311643146874 0 0.0073114741749176673 0.00054754307227423374 0 0.0074836050213712311 0.00057842452843769542 0 0.0074760389400040346 0.0004260311643146874 0 0.0076645596975947923 0.00047679014772177936 0 0.0074760389400040346 0.0004260311643146874 0 0.0075477826503489746 0.00023079333847798742 0 0.0076645596975947923 0.00047679014772177936 0 0.0074760389400040346 0.0004260311643146874 0 0.0073190041411606782 0.00029312951308364696 0 0.0075477826503489746 0.00023079333847798742 0 0.006620312074591234 0.0002679911672805415 0 0.00677396391412112 -3.746225873302003e-05 0 0.0071002150569916623 0.00059852953491284675 0 0.0070411428277678293 0.0002638506133153713 0 0.0068396366870228627 5.807414973542048e-07 0 0.0073190041411606782 0.00029312951308364696 0 0.0071230411533462516 0.00030935962507048961 0 0.0071234133993965535 0.00015312039704366246 0 0.0060563702099279745 -1.0271976575922071e-06 0 0.0061115444231918106 -2.5655753731064729e-08 0 0.0068382008267409864 2.4314398875141987e-08 0 0.0073190041411606782 0.00029312951308364696 0 0.0071862008988959379 0.00043817879290951117 0 0.0071230411533462516 0.00030935962507048961 0 0.0073190041411606782 0.00029312951308364696 0 0.0071862008988959379 0.00043817879290951117 0 0.0073114741749176673 0.00054754307227423374 0 0.0071862008988959379 0.00043817879290951117 0 0.0071883681279729114 0.00054266716967070114 0 0.0073114741749176673 0.00054754307227423374 0 0.0071002150569916623 0.00059852953491284675 0 0.0071862008988959379 0.00043817879290951117 0 0.0071230411533462516 0.00030935962507048961 0 0.0071002150569916623 0.00059852953491284675 0 0.0071862008988959379 0.00043817879290951117 0 0.0071883681279729114 0.00054266716967070114 0 0.0071002150569916623 0.00059852953491284675 0 0.0070411428277678293 0.0002638506133153713 0 0.0071230411533462516 0.00030935962507048961 0 0.0070411428277678293 0.0002638506133153713 0 0.0071230411533462516 0.00030935962507048961 0 0.0071234133993965535 0.00015312039704366246 0 0.0070411428277678293 0.0002638506133153713 0 0.0071234133993965535 0.00015312039704366246 0 0.0068396366870228627 5.807414973542048e-07 0 0.0073190041411606782 0.00029312951308364696 0 0.0071234133993965535 0.00015312039704366246 0 0.0073228202532343144 6.6722209870097188e-05 0 0.0073228202532343144 6.6722209870097188e-05 0 0.0073494825761628267 -2.4768511780460696e-05 0 0.0075562382418998767 4.010433909900805e-05 0 0.0071234133993965535 0.00015312039704366246 0 0.0073228202532343144 6.6722209870097188e-05 0 0.0068396366870228627 5.807414973542048e-07 0 0.0073228202532343144 6.6722209870097188e-05 0 0.0068396366870228627 5.807414973542048e-07 0 0.0073494825761628267 -2.4768511780460696e-05 0 0.0075938057191517099 -3.2918614277378067e-07 0 0.0068396366870228627 5.807414973542048e-07 0 0.0073494825761628267 -2.4768511780460696e-05 0 0.0077610102728903913 -8.7122839382737047e-05 0 0.0075938057191517099 -3.2918614277378067e-07 0 0.0073494825761628267 -2.4768511780460696e-05 0 0.0079173640668718254 -6.8452983592223377e-05 0 0.0077610102728903913 -8.7122839382737047e-05 0 0.0075562382418998767 4.010433909900805e-05 0 0.0077610102728903913 -8.7122839382737047e-05 0 0.0073494825761628267 -2.4768511780460696e-05 0 0.0075562382418998767 4.010433909900805e-05 0 0.0077868980264878219 -9.3392127911191394e-05 0 0.0076048170364308191 2.4037087044506531e-05 0 0.0075562382418998767 4.010433909900805e-05 0 0.0075477826503489746 0.00023079333847798742 0 0.0077809005029501497 0.00014443049563078237 0 0.0073228202532343144 6.6722209870097188e-05 0 0.0075562382418998767 4.010433909900805e-05 0 0.0075477826503489746 0.00023079333847798742 0 0.0073190041411606782 0.00029312951308364696 0 0.0073228202532343144 6.6722209870097188e-05 0 0.0075477826503489746 0.00023079333847798742 0 0.0077383331226348736 -0.0001383413676270252 0 0.0075562382418998767 4.010433909900805e-05 0 0.0077809005029501497 0.00014443049563078237 0 0.0077383331226348736 -0.0001383413676270252 0 0.0077809005029501497 0.00014443049563078237 0 0.0079181145839290184 -5.31753653845883e-05 0 0.0077809005029501497 0.00014443049563078237 0 0.0079181145839290184 -5.31753653845883e-05 0 0.008078848909202371 0.00012986738050903697 0 0.0077809005029501497 0.00014443049563078237 0 0.007951974498143017 0.00045050894248400194 0 0.008078848909202371 0.00012986738050903697 0 0.0068314744204979894 3.5207841058261844e-05 0 0.006992144165873352 -0.00029335255117993273 0 0.0077809005029501497 0.00014443049563078237 0 0.007951974498143017 0.00045050894248400194 0 0.0076645596975947923 0.00047679014772177936 0 0.0075477826503489746 0.00023079333847798742 0 0.0077809005029501497 0.00014443049563078237 0 0.0076645596975947923 0.00047679014772177936 0 0.007951974498143017 0.00045050894248400194 0 0.0076645596975947923 0.00047679014772177936 0 0.0077780246325903088 0.000813013581332883 0 0.0076645596975947923 0.00047679014772177936 0 0.0075649959602187237 0.00069703392416664567 0 0.0077780246325903088 0.000813013581332883 0 0.0074836050213712311 0.00057842452843769542 0 0.0076645596975947923 0.00047679014772177936 0 0.0075649959602187237 0.00069703392416664567 0 0.0068314744204979894 3.5207841058261844e-05 0 0.0067008102359952752 0.00043415987606147959 0 0.0057185022667880217 -0.00036945729477317945 0 0.0058642820720473665 -0.00013371590030224255 0 0.0055412920553371322 -1.3192402674528648e-05 0 0.0058642820720473665 -0.00013371590030224255 0 0.0060808943171951433 -0.00015351614247023103 0 0.0060457763429561774 -0.00040127714374981252 0 0.0057185022667880217 -0.00036945729477317945 0 0.0058642820720473665 -0.00013371590030224255 0 0.0060457763429561774 -0.00040127714374981252 0 0.0058642820720473665 -0.00013371590030224255 0 0.0060808943171951433 -0.00015351614247023103 0 0.0060304444282537747 9.6320639307860244e-06 0 0.0060808943171951433 -0.00015351614247023103 0 0.006223685823256114 -0.00028588784734983144 0 0.0060457763429561774 -0.00040127714374981252 0 0.0060808943171951433 -0.00015351614247023103 0 0.0062981323890215143 -0.00015797240812378985 0 0.0062143820514210203 -4.2898653607280625e-05 0 0.0062981323890215143 -0.00015797240812378985 0 0.006223685823256114 -0.00028588784734983144 0 0.0063806571388261915 -0.00027488258366636475 0 0.0060808943171951433 -0.00015351614247023103 0 0.0062981323890215143 -0.00015797240812378985 0 0.006223685823256114 -0.00028588784734983144 0 0.006223685823256114 -0.00028588784734983144 0 0.006311623177366648 -0.00044472011839983042 0 0.0060457763429561774 -0.00040127714374981252 0 0.006311623177366648 -0.00044472011839983042 0 0.0060457763429561774 -0.00040127714374981252 0 0.0062594611862597386 -0.00072330647715168693 0 0.006223685823256114 -0.00028588784734983144 0 0.006311623177366648 -0.00044472011839983042 0 0.0063806571388261915 -0.00027488258366636475 0 0.0057185022667880217 -0.00036945729477317945 0 0.0060457763429561774 -0.00040127714374981252 0 0.0059182497474781172 -0.00074050801005278995 0 0.0060457763429561774 -0.00040127714374981252 0 0.0059182497474781172 -0.00074050801005278995 0 0.0062594611862597386 -0.00072330647715168693 0 0.0079181145839290184 -5.31753653845883e-05 0 0.008078848909202371 0.00012986738050903697 0 0.0080381670340673745 -0.00011831932938007366 0 0.0071889641329297704 -0.00066783729765996103 0 0.006992144165873352 -0.00029335255117993273 0 0.0081858401277160875 -0.00013800147714042486 0 0.008078848909202371 0.00012986738050903697 0 0.0080381670340673745 -0.00011831932938007366 0 0.006127928837029578 -0.0011267506094847501 0 0.0059182497474781172 -0.00074050801005278995 0 0.0062594611862597386 -0.00072330647715168693 0 0.006127928837029578 -0.0011267506094847501 0 0.0062594611862597386 -0.00072330647715168693 0 0.0065433182711603314 -0.0010659932024200223 0 0.006311623177366648 -0.00044472011839983042 0 0.0062594611862597386 -0.00072330647715168693 0 0.0064446946869920084 -0.00057671720898794796 0 0.0062594611862597386 -0.00072330647715168693 0 0.0065290373915375963 -0.00070064076130223847 0 0.0065433182711603314 -0.0010659932024200223 0 0.0065290373915375963 -0.00070064076130223847 0 0.0065433182711603314 -0.0010659932024200223 0 0.0068420406730387755 -0.0005630505735792692 0 0.0062594611862597386 -0.00072330647715168693 0 0.0064446946869920084 -0.00057671720898794796 0 0.0065290373915375963 -0.00070064076130223847 0 0.0064446946869920084 -0.00057671720898794796 0 0.0065290373915375963 -0.00070064076130223847 0 0.0066019106706040271 -0.00054770077334496373 0 0.0065290373915375963 -0.00070064076130223847 0 0.0068420406730387755 -0.0005630505735792692 0 0.0066019106706040271 -0.00054770077334496373 0 0.0071242254835677185 -0.00052601691103590592 0 0.0070490859461013571 -0.00053628708445753676 0 0.0069092132100900695 -0.00055714706499728807 0 0.007017234845428209 -0.00061695875421180252 0 0.0069424825296993146 -0.00055936090390092531 0 0.0071204072331933765 -0.00053219562454582484 0 0.0070490859461013571 -0.00053628708445753676 0 0.0069092132100900695 -0.00055714706499728807 0 0.0071155621981409877 -0.00053171030636487825 0 0.0071242254835677185 -0.00052601691103590592 0 0.0070490859461013571 -0.00053628708445753676 0 0.0071155621981409877 -0.00053171030636487825 0 0.0071204072331933765 -0.00053219562454582484 0 0.0070490859461013571 -0.00053628708445753676 0 0.0071204072331933765 -0.00053219562454582484 0 0.0069092132100900695 -0.00055714706499728807 0 0.0068420406730387755 -0.0005630505735792692 0 0.0067603232614312789 -0.00085236937400229253 0 0.0068839327157909696 -0.0005360957407973062 0 0.0069109017706162649 -0.00053676113919172354 0 0.0069480268951457704 -0.00058214699964724635 0 0.0069092132100900695 -0.00055714706499728807 0 0.0069109017706162649 -0.00053676113919172354 0 0.0068420406730387755 -0.0005630505735792692 0 0.0068442691342951913 -0.00047181135189228976 0 0.0069109017706162649 -0.00053676113919172354 0 0.0069092132100900695 -0.00055714706499728807 0 0.0068420406730387755 -0.0005630505735792692 0 0.0069109017706162649 -0.00053676113919172354 0 0.0069133224785888668 -0.00044127472151490069 0 0.0068442691342951913 -0.00047181135189228976 0 0.0068442691342951913 -0.00047181135189228976 0 0.0068224092335139657 -0.0003413737454685027 0 0.0067098420214122736 -0.00042628490930863227 0 0.0069133224785888668 -0.00044127472151490069 0 0.0068442691342951913 -0.00047181135189228976 0 0.0068224092335139657 -0.0003413737454685027 0 0.0068224092335139657 -0.0003413737454685027 0 0.0067098420214122736 -0.00042628490930863227 0 0.0066568257003102064 -0.00029026259541566025 0 0.0068420406730387755 -0.0005630505735792692 0 0.0068442691342951913 -0.00047181135189228976 0 0.0067098420214122736 -0.00042628490930863227 0 0.0068420406730387755 -0.0005630505735792692 0 0.0067098420214122736 -0.00042628490930863227 0 0.0066019106706040271 -0.00054770077334496373 0 0.0067098420214122736 -0.00042628490930863227 0 0.0065304751814221386 -0.00046848478270468456 0 0.0066019106706040271 -0.00054770077334496373 0 0.0064446946869920084 -0.00057671720898794796 0 0.0065304751814221386 -0.00046848478270468456 0 0.0066019106706040271 -0.00054770077334496373 0 0.006311623177366648 -0.00044472011839983042 0 0.0064446946869920084 -0.00057671720898794796 0 0.0065304751814221386 -0.00046848478270468456 0 0.006311623177366648 -0.00044472011839983042 0 0.0065170810025613974 -0.00034530474280554727 0 0.0063806571388261915 -0.00027488258366636475 0 0.006311623177366648 -0.00044472011839983042 0 0.0065304751814221386 -0.00046848478270468456 0 0.0065170810025613974 -0.00034530474280554727 0 0.0067098420214122736 -0.00042628490930863227 0 0.0065304751814221386 -0.00046848478270468456 0 0.0065170810025613974 -0.00034530474280554727 0 0.0067098420214122736 -0.00042628490930863227 0 0.0065170810025613974 -0.00034530474280554727 0 0.0066568257003102064 -0.00029026259541566025 0 0.0065170810025613974 -0.00034530474280554727 0 0.0065049274765061164 -0.00018014922606014321 0 0.0066568257003102064 -0.00029026259541566025 0 0.0065170810025613974 -0.00034530474280554727 0 0.0063806571388261915 -0.00027488258366636475 0 0.0065049274765061164 -0.00018014922606014321 0 0.0062981323890215143 -0.00015797240812378985 0 0.0063806571388261915 -0.00027488258366636475 0 0.0065049274765061164 -0.00018014922606014321 0 0.0062981323890215143 -0.00015797240812378985 0 0.0065049274765061164 -0.00018014922606014321 0 0.0063843758758799331 -3.2553929845252755e-05 0 0.0065049274765061164 -0.00018014922606014321 0 0.006623808320799192 -0.00012372527987932887 0 0.0065255053490278544 -4.1680036844063988e-05 0 0.0065049274765061164 -0.00018014922606014321 0 0.006623808320799192 -0.00012372527987932887 0 0.0066568257003102064 -0.00029026259541566025 0 0.006623808320799192 -0.00012372527987932887 0 0.0067369645304474835 -0.00021493631092271034 0 0.0067778114925456353 -1.5137469797209209e-05 0 0.0068576399187598759 -0.00019987665077262408 0 0.0067369645304474835 -0.00021493631092271034 0 0.0067778114925456353 -1.5137469797209209e-05 0 0.0068576399187598759 -0.00019987665077262408 0 0.0068224092335139657 -0.0003413737454685027 0 0.0067369645304474835 -0.00021493631092271034 0 0.0068224092335139657 -0.0003413737454685027 0 0.0067369645304474835 -0.00021493631092271034 0 0.0066568257003102064 -0.00029026259541566025 0 0.006623808320799192 -0.00012372527987932887 0 0.0067369645304474835 -0.00021493631092271034 0 0.0066568257003102064 -0.00029026259541566025 0 0.0066062692095950103 3.048285035909322e-05 0 0.0066822836152534626 0.00010376450169030309 0 0.0065743172135069331 0.00016231855063333339 0 0.0066062692095950103 3.048285035909322e-05 0 0.0066822836152534626 0.00010376450169030309 0 0.0067778114925456353 -1.5137469797209209e-05 0 0.0068276295975608498 0.00020207561275538451 0 0.0066822836152534626 0.00010376450169030309 0 0.0067778114925456353 -1.5137469797209209e-05 0 0.006623808320799192 -0.00012372527987932887 0 0.0066062692095950103 3.048285035909322e-05 0 0.0065255053490278544 -4.1680036844063988e-05 0 0.006623808320799192 -0.00012372527987932887 0 0.0066062692095950103 3.048285035909322e-05 0 0.0067778114925456353 -1.5137469797209209e-05 0 0.0065049274765061164 -0.00018014922606014321 0 0.0065255053490278544 -4.1680036844063988e-05 0 0.0063843758758799331 -3.2553929845252755e-05 0 0.0065255053490278544 -4.1680036844063988e-05 0 0.0063843758758799331 -3.2553929845252755e-05 0 0.0064497141373301694 9.6923589945402012e-05 0 0.0064497141373301694 9.6923589945402012e-05 0 0.0063404355228153008 0.00023414715562440963 0 0.0062521214427928747 0.00010797063698927281 0 0.0063843758758799331 -3.2553929845252755e-05 0 0.0064497141373301694 9.6923589945402012e-05 0 0.0062521214427928747 0.00010797063698927281 0 0.0066062692095950103 3.048285035909322e-05 0 0.0064497141373301694 9.6923589945402012e-05 0 0.0065743172135069331 0.00016231855063333339 0 0.0066062692095950103 3.048285035909322e-05 0 0.0065255053490278544 -4.1680036844063988e-05 0 0.0064497141373301694 9.6923589945402012e-05 0 0.0064497141373301694 9.6923589945402012e-05 0 0.0064673277328704216 0.00022684152690294554 0 0.0063404355228153008 0.00023414715562440963 0 0.0064497141373301694 9.6923589945402012e-05 0 0.0064673277328704216 0.00022684152690294554 0 0.0065743172135069331 0.00016231855063333339 0 0.0064673277328704216 0.00022684152690294554 0 0.0065702232712128213 0.00030706069297259131 0 0.0065743172135069331 0.00016231855063333339 0 0.0064673277328704216 0.00022684152690294554 0 0.0063404355228153008 0.00023414715562440963 0 0.0064340623482366703 0.00031834714861679315 0 0.0063404355228153008 0.00023414715562440963 0 0.0063260476729439597 0.00038565831787703073 0 0.0064340623482366703 0.00031834714861679315 0 0.0063404355228153008 0.00023414715562440963 0 0.0063260476729439597 0.00038565831787703073 0 0.0061693856353546954 0.00028436808238022104 0 0.0064673277328704216 0.00022684152690294554 0 0.0064340623482366703 0.00031834714861679315 0 0.0065702232712128213 0.00030706069297259131 0 0.0063260476729439597 0.00038565831787703073 0 0.0064340623482366703 0.00031834714861679315 0 0.0064679109146576676 0.0004115006879552516 0 0.0064340623482366703 0.00031834714861679315 0 0.0065702232712128213 0.00030706069297259131 0 0.0064679109146576676 0.0004115006879552516 0 0.0065702232712128213 0.00030706069297259131 0 0.0066951125913691989 0.00033191765892578274 0 0.0066783087118378534 0.00046774711979272692 0 0.0065702232712128213 0.00030706069297259131 0 0.0066711458514934034 0.00022041660950529652 0 0.0066951125913691989 0.00033191765892578274 0 0.0065702232712128213 0.00030706069297259131 0 0.0066711458514934034 0.00022041660950529652 0 0.0065743172135069331 0.00016231855063333339 0 0.0066822836152534626 0.00010376450169030309 0 0.0066711458514934034 0.00022041660950529652 0 0.0065743172135069331 0.00016231855063333339 0 0.0068276295975608498 0.00020207561275538451 0 0.0066711458514934034 0.00022041660950529652 0 0.0066951125913691989 0.00033191765892578274 0 0.0068276295975608498 0.00020207561275538451 0 0.0066822836152534626 0.00010376450169030309 0 0.0066711458514934034 0.00022041660950529652 0 0.0068069956997608922 0.00035326255988410253 0 0.0068276295975608498 0.00020207561275538451 0 0.0066951125913691989 0.00033191765892578274 0 0.0068069956997608922 0.00035326255988410253 0 0.0066951125913691989 0.00033191765892578274 0 0.0066783087118378534 0.00046774711979272692 0 0.0065702232712128213 0.00030706069297259131 0 0.0066783087118378534 0.00046774711979272692 0 0.0064679109146576676 0.0004115006879552516 0 0.0049330947926604788 0.00079417616716858253 0 0.0049258678800890091 0.00054228378542228034 0 0.0051602849399323501 0.00060031027359488975 0 0.0046716192598988768 0.00063482562151988807 0 0.0049330947926604788 0.00079417616716858253 0 0.0049258678800890091 0.00054228378542228034 0 0.0046172426490324117 0.00041082285362457969 0 0.0049258678800890091 0.00054228378542228034 0 0.004879261171715151 0.00023097523376095435 0 0.0049258678800890091 0.00054228378542228034 0 0.004879261171715151 0.00023097523376095435 0 0.005139146150709881 0.00039778069924471424 0 0.0049258678800890091 0.00054228378542228034 0 0.005139146150709881 0.00039778069924471424 0 0.0051602849399323501 0.00060031027359488975 0 0.004879261171715151 0.00023097523376095435 0 0.005139146150709881 0.00039778069924471424 0 0.0051470150820482532 0.00011298152998051849 0 0.0053177609275619842 0.00029930248181410862 0 0.005139146150709881 0.00039778069924471424 0 0.0051470150820482532 0.00011298152998051849 0 0.005139146150709881 0.00039778069924471424 0 0.005319619033141907 0.00051885982103656695 0 0.0051602849399323501 0.00060031027359488975 0 0.0053177609275619842 0.00029930248181410862 0 0.005139146150709881 0.00039778069924471424 0 0.005319619033141907 0.00051885982103656695 0 0.0053177609275619842 0.00029930248181410862 0 0.005319619033141907 0.00051885982103656695 0 0.0055331923928040707 0.00059668931908941349 0 0.0066783087118378534 0.00046774711979272692 0 0.0063140873594855762 0.00056078655077546622 0 0.0064679109146576676 0.0004115006879552516 0 0.0057384961108331422 0.00065366839945222492 0 0.0058883644721095477 0.0006212355289949798 0 0.005319619033141907 0.00051885982103656695 0 0.0054544701989531338 0.00070833311440774219 0 0.0055331923928040707 0.00059668931908941349 0 0.0049330947926604788 0.00079417616716858253 0 0.0054544701989531338 0.00070833311440774219 0 0.0051602849399323501 0.00060031027359488975 0 0.005319619033141907 0.00051885982103656695 0 0.0054544701989531338 0.00070833311440774219 0 0.0051602849399323501 0.00060031027359488975 0 0.0063260476729439597 0.00038565831787703073 0 0.0063140873594855762 0.00056078655077546622 0 0.0064679109146576676 0.0004115006879552516 0 0.0054544701989531338 0.00070833311440774219 0 0.0056832906969692103 0.00056832320466693436 0 0.0058204399316901774 0.00057517930630275333 0 0.0058883644721095477 0.0006212355289949798 0 0.0058242789086333678 0.00059363485586160847 0 0.0063260476729439597 0.00038565831787703073 0 0.0063140873594855762 0.00056078655077546622 0 0.0061135035243781201 0.0004297926326838642 0 0.0063140873594855762 0.00056078655077546622 0 0.0061135035243781201 0.0004297926326838642 0 0.0058204399316901774 0.00057517930630275333 0 0.0061135035243781201 0.0004297926326838642 0 0.0058204399316901774 0.00057517930630275333 0 0.0059283303663526295 0.00037351426721042027 0 0.0054544701989531338 0.00070833311440774219 0 0.0056832906969692103 0.00056832320466693436 0 0.0055331923928040707 0.00059668931908941349 0 0.0055208641650430334 0.00057798183624240386 0 0.0056698144335699113 0.00037224078240095324 0 0.0053177609275619842 0.00029930248181410862 0 0.0055331923928040707 0.00059668931908941349 0 0.0054688473833020322 6.5565537250504975e-05 0 0.0056832906969692103 0.00056832320466693436 0 0.0055331923928040707 0.00059668931908941349 0 0.0056831441747672174 0.00055368942414797814 0 0.0055331923928040707 0.00059668931908941349 0 0.0056831441747672174 0.00055368942414797814 0 0.0057207245076122543 0.00054388747707413926 0 0.0056832906969692103 0.00056832320466693436 0 0.0056831441747672174 0.00055368942414797814 0 0.005740624069849147 0.0005512784895717604 0 0.0056832906969692103 0.00056832320466693436 0 0.005740624069849147 0.0005512784895717604 0 0.0058204399316901774 0.00057517930630275333 0 0.0056831441747672174 0.00055368942414797814 0 0.005740624069849147 0.0005512784895717604 0 0.0057039842848526914 0.00055211666246491058 0 0.0056966956632036134 0.00056423101400510708 0 0.0057088060635142202 0.00053798472293027904 0 0.0056547831906965844 0.00056047001657599576 0 0.0056966956632036134 0.00056423101400510708 0 0.005740624069849147 0.0005512784895717604 0 0.0057039842848526914 0.00055211666246491058 0 0.005740624069849147 0.0005512784895717604 0 0.0057088060635142202 0.00053798472293027904 0 0.0058204399316901774 0.00057517930630275333 0 0.0056966956632036134 0.00056423101400510708 0 0.005740624069849147 0.0005512784895717604 0 0.0057088060635142202 0.00053798472293027904 0 0.0057088060635142202 0.00053798472293027904 0 0.0058204399316901774 0.00057517930630275333 0 0.0057299555086274918 0.00046218207217971452 0 0.0058204399316901774 0.00057517930630275333 0 0.0057299555086274918 0.00046218207217971452 0 0.0059283303663526295 0.00037351426721042027 0 0.0057299555086274918 0.00046218207217971452 0 0.0057628881126207485 0.00031099608712915905 0 0.0059283303663526295 0.00037351426721042027 0 0.0057628881126207485 0.00031099608712915905 0 0.0059946680023658357 0.00018358663646318089 0 0.0057886512877741002 0.00010464968266546628 0 0.0057628881126207485 0.00031099608712915905 0 0.0059946680023658357 0.00018358663646318089 0 0.0059283303663526295 0.00037351426721042027 0 0.0059946680023658357 0.00018358663646318089 0 0.0059283303663526295 0.00037351426721042027 0 0.0061693856353546954 0.00028436808238022104 0 0.0061135035243781201 0.0004297926326838642 0 0.0059283303663526295 0.00037351426721042027 0 0.0061693856353546954 0.00028436808238022104 0 0.0063260476729439597 0.00038565831787703073 0 0.0061135035243781201 0.0004297926326838642 0 0.0061693856353546954 0.00028436808238022104 0 0.0063404355228153008 0.00023414715562440963 0 0.0061693856353546954 0.00028436808238022104 0 0.0062521214427928747 0.00010797063698927281 0 0.0059946680023658357 0.00018358663646318089 0 0.0061693856353546954 0.00028436808238022104 0 0.0062521214427928747 0.00010797063698927281 0 0.0059946680023658357 0.00018358663646318089 0 0.0062521214427928747 0.00010797063698927281 0 0.0060304444282537747 9.6320639307860244e-06 0 0.0062981323890215143 -0.00015797240812378985 0 0.0063843758758799331 -3.2553929845252755e-05 0 0.0062143820514210203 -4.2898653607280625e-05 0 0.0062521214427928747 0.00010797063698927281 0 0.0062143820514210203 -4.2898653607280625e-05 0 0.0060304444282537747 9.6320639307860244e-06 0 0.0063843758758799331 -3.2553929845252755e-05 0 0.0062521214427928747 0.00010797063698927281 0 0.0062143820514210203 -4.2898653607280625e-05 0 0.0060808943171951433 -0.00015351614247023103 0 0.0062143820514210203 -4.2898653607280625e-05 0 0.0060304444282537747 9.6320639307860244e-06 0 0.0058642820720473665 -0.00013371590030224255 0 0.0060304444282537747 9.6320639307860244e-06 0 0.0057886512877741002 0.00010464968266546628 0 0.0059946680023658357 0.00018358663646318089 0 0.0060304444282537747 9.6320639307860244e-06 0 0.0057886512877741002 0.00010464968266546628 0 0.0058642820720473665 -0.00013371590030224255 0 0.0057886512877741002 0.00010464968266546628 0 0.0055412920553371322 -1.3192402674528648e-05 0 0.0057886512877741002 0.00010464968266546628 0 0.0055412920553371322 -1.3192402674528648e-05 0 0.0056049484384894169 0.00024695521969999559 0 0.0077780246325903088 0.000813013581332883 0 0.007584475304242071 0.0011547814855094492 0 0.0075067742094541189 0.00088288441109154179 0 0.0067008102359952752 0.00043415987606147959 0 0.00607378520103884 0.00043749887934705104 0 0.0075649959602187237 0.00069703392416664567 0 0.0077780246325903088 0.000813013581332883 0 0.0075067742094541189 0.00088288441109154179 0 0.0054108671730019641 0.00029890538619576197 0 0.005511263398270445 0.00034491969829145733 0 0.0056049484384894169 0.00024695521969999559 0 0.0055412920553371322 -1.3192402674528648e-05 0 0.0054108671730019641 0.00029890538619576197 0 0.0056049484384894169 0.00024695521969999559 0 0.00607378520103884 0.00043749887934705104 0 0.0055413321716228821 0.00026478544950977979 0 0.005511263398270445 0.00034491969829145733 0 0.0056049484384894169 0.00024695521969999559 0 0.0056204539761893057 0.00039577726330519946 0 0.0057628881126207485 0.00031099608712915905 0 0.0057886512877741002 0.00010464968266546628 0 0.0056049484384894169 0.00024695521969999559 0 0.0057628881126207485 0.00031099608712915905 0 0.0056049484384894169 0.00024695521969999559 0 0.0056204539761893057 0.00039577726330519946 0 0.0057299555086274918 0.00046218207217971452 0 0.0056204539761893057 0.00039577726330519946 0 0.0056191243112536891 0.00049005339569544598 0 0.0057299555086274918 0.00046218207217971452 0 0.0057628881126207485 0.00031099608712915905 0 0.0056204539761893057 0.00039577726330519946 0 0.0055666764013383606 0.00042272479466994977 0 0.0056204539761893057 0.00039577726330519946 0 0.0056191243112536891 0.00049005339569544598 0 0.005511263398270445 0.00034491969829145733 0 0.0055666764013383606 0.00042272479466994977 0 0.0056204539761893057 0.00039577726330519946 0 0.0057088060635142202 0.00053798472293027904 0 0.0057299555086274918 0.00046218207217971452 0 0.0056191243112536891 0.00049005339569544598 0 0.0057088060635142202 0.00053798472293027904 0 0.0056191243112536891 0.00049005339569544598 0 0.0056547831906965844 0.00056047001657599576 0 0.0056191243112536891 0.00049005339569544598 0 0.0055849861620549581 0.00054391719123993696 0 0.0056547831906965844 0.00056047001657599576 0 0.0056191243112536891 0.00049005339569544598 0 0.0055849861620549581 0.00054391719123993696 0 0.0055141987569331625 0.00045569644307321794 0 0.0055849861620549581 0.00054391719123993696 0 0.0056547831906965844 0.00056047001657599576 0 0.0056039826307160414 0.00059560206810757392 0 0.0055057940936114359 0.00054371843141843245 0 0.0055141987569331625 0.00045569644307321794 0 0.0053853728679361971 0.00049174061159269061 0 0.0055057940936114359 0.00054371843141843245 0 0.0054258997300740998 0.00056103643964863629 0 0.0054874053317618262 0.00059007896523175939 0 0.0055849861620549581 0.00054391719123993696 0 0.0055057940936114359 0.00054371843141843245 0 0.0055407045403237411 0.00058905744522335301 0 0.0055849861620549581 0.00054391719123993696 0 0.0055057940936114359 0.00054371843141843245 0 0.0055141987569331625 0.00045569644307321794 0 0.0054639548262590803 0.00032115487947697436 0 0.0055141987569331625 0.00045569644307321794 0 0.0053853728679361971 0.00049174061159269061 0 0.0054639548262590803 0.00032115487947697436 0 0.005511263398270445 0.00034491969829145733 0 0.0055141987569331625 0.00045569644307321794 0 0.0055666764013383606 0.00042272479466994977 0 0.0056191243112536891 0.00049005339569544598 0 0.0055141987569331625 0.00045569644307321794 0 0.005511263398270445 0.00034491969829145733 0 0.0055666764013383606 0.00042272479466994977 0 0.0055141987569331625 0.00045569644307321794 0 0.0055351151771040477 0.00031227614549477324 0 0.0054648997570272426 0.00042259739970811424 0 0.0054658837097554709 0.00033903116087494124 0 0.0054648997570272426 0.00042259739970811424 0 0.0053993520360509344 0.00034082651190109065 0 0.0054658837097554709 0.00033903116087494124 0 0.00607378520103884 0.00043749887934705104 0 0.0055413742949498813 0.00044571477029558708 0 0.0053853728679361971 0.00049174061159269061 0 0.0054258997300740998 0.00056103643964863629 0 0.0052834033021767366 0.0006497591979341236 0 0.0055057940936114359 0.00054371843141843245 0 0.0053853728679361971 0.00049174061159269061 0 0.0054258997300740998 0.00056103643964863629 0 0.0054648997570272426 0.00042259739970811424 0 0.0053922814324243789 0.0004379974313539965 0 0.0053794324924724265 0.00054383324285332726 0 0.0040920655078252269 -1.1174893501117453e-07 0 0.0040319398045804578 -1.7311937579257549e-05 0 0.0034539397126311356 1.7692424750494861e-07 0 0.0055413742949498813 0.00044571477029558708 0 0.0040118954490521459 0.00040600735046289639 0 0.0040920655078252269 -1.1174893501117453e-07 0 0.0040319398045804578 -1.7311937579257549e-05 0 0.0046443872068619415 -6.3336814268606492e-07 0 0.0040920655078252269 -1.1174893501117453e-07 0 0.0046443872068619415 -6.3336814268606492e-07 0 0.0047315728087327716 -1.5433708386284072e-08 0 0.0047619801712866713 0.0001656139702739477 0 0.0049789567072246951 7.9025273035206948e-05 0 0.0054648997570272426 0.00042259739970811424 0 0.0053922814324243789 0.0004379974313539965 0 0.0053993520360509344 0.00034082651190109065 0 0.0046443872068619415 -6.3336814268606492e-07 0 0.0047315728087327716 -1.5433708386284072e-08 0 0.0052262448405502168 4.400019573795009e-06 0 0.0049789567072246951 7.9025273035206948e-05 0 0.0058445334100000529 0.00037123340400643329 0 0.0047315728087327716 -1.5433708386284072e-08 0 0.0052262448405502168 4.400019573795009e-06 0 0.0053701610043647386 9.0513639779873174e-08 0 0.0053993520360509344 0.00034082651190109065 0 0.0054655747828250877 0.00028155877317132954 0 0.0054023208015858632 0.00025224362025470245 0 0.0053993520360509344 0.00034082651190109065 0 0.0054658837097554709 0.00033903116087494124 0 0.0054655747828250877 0.00028155877317132954 0 0.007584475304242071 0.0011547814855094492 0 0.0073612768060452392 0.0010462816820537356 0 0.0075067742094541189 0.00088288441109154179 0 0.0055351151771040477 0.00031227614549477324 0 0.0054658837097554709 0.00033903116087494124 0 0.0054655747828250877 0.00028155877317132954 0 0.00607378520103884 0.00043749887934705104 0 0.0065639900947026316 0.00073402396088969517 0 0.0073612768060452392 0.0010462816820537356 0 0.0075067742094541189 0.00088288441109154179 0 0.0073347173579234497 0.00086118303863697444 0 0.007400907239385658 0.00071597278354300819 0 0.0075067742094541189 0.00088288441109154179 0 0.0073347173579234497 0.00086118303863697444 0 0.0072328675023771802 0.00071189310442873802 0 0.0073347173579234497 0.00086118303863697444 0 0.0071438088214301658 0.00093632252774464124 0 0.0060563702099279745 -1.0271976575922071e-06 0 0.0053420133614611323 3.315315113345608e-06 0 0.0053711052225975343 3.614809597575366e-08 0 0.0058445334100000529 0.00037123340400643329 0 0.0053708194711271692 3.3488561586568639e-07 0 0.0065639900947026316 0.00073402396088969517 0 0.0058445334100000529 0.00037123340400643329 0 0.0073612768060452392 0.0010462816820537356 0 0.0073347173579234497 0.00086118303863697444 0 0.0071438088214301658 0.00093632252774464124 0 0.0023247980697101767 1.3534122574055838e-05 0 0.0022480704723382271 -1.8931629528380997e-07 0 0.0016401182529040784 1.9500435028490092e-07 0 0.0017822745461776985 0.00030084217682335284 0 0.0016398242915532605 -5.4597288487548387e-08 0 0.0005364936285073915 0.00032104279640020621 0 0.00045152239171386403 0.00026666168528703698 0 0.00043786462115214322 0.00034835103359253283 0 0.00045152239171386403 0.00026666168528703698 0 0.00043786462115214322 0.00034835103359253283 0 0.00038103576659260743 0.00029029053476808644 0 0.00048330315686653672 0.00040959463733863613 0 0.00043786462115214322 0.00034835103359253283 0 0.00042483778736323924 0.00043649288288758554 0 0.0005364936285073915 0.00032104279640020621 0 0.00048330315686653672 0.00040959463733863613 0 0.00043786462115214322 0.00034835103359253283 0 0.0017822745461776985 0.00030084217682335284 0 0.0014809736728100043 0.00057001774955047955 0 0.0017822745461776985 0.00030084217682335284 0 0.0026671044215795009 0.00023698452679020792 0 0.0028008292823848199 0.00048124810409537846 0 0.0027889184862519602 0.00051647787115681942 0 0.0028168202096058846 0.00052204433952189957 0 0.0022480704723382271 -1.8931629528380997e-07 0 0.0026020365144925751 -3.3876760240586032e-05 0 0.0028553768963767968 1.9202851837816911e-07 0 0.0023247980697101767 1.3534122574055838e-05 0 0.0022480704723382271 -1.8931629528380997e-07 0 0.0026020365144925751 -3.3876760240586032e-05 0 0.0028560737594673013 1.619334767043548e-07 0 0.0040118954490521459 0.00040600735046289639 0 0.0026671044215795009 0.00023698452679020792 0 0.0040118954490521459 0.00040600735046289639 0 0.0028569859859767046 2.3460540168442351e-09 0 0.0034523427352405943 1.6982861182871985e-09 0 0.0033864431399365973 1.1320305490405363e-06 0 0.0026020365144925751 -3.3876760240586032e-05 0 0.0028553768963767968 1.9202851837816911e-07 0 0.0026648218085458344 0.00040571619353764834 0 0.0027889184862519602 0.00051647787115681942 0 0.0028168202096058846 0.00052204433952189957 0 0.0028317604385546566 0.00056415931646695827 0 0.0047619801712866713 0.0001656139702739477 0 0.0040118954490521459 0.00040600735046289639 0 0.0034530628623404853 1.8710291223552524e-07 0 0.0040118954490521459 0.00040600735046289639 0 0.0040319398045804578 -1.7311937579257549e-05 0 0.0034539397126311356 1.7692424750494861e-07 0 0.0035833636582763323 3.8459795297137058e-05 0 0.0052834033021767366 0.0006497591979341236 0 0.0053811528500351371 0.00063357255848853569 0 0.0054592369444499177 0.00068861372775693385 0 0.0040118954490521459 0.00040600735046289639 0 0.0033572328191624284 0.00073432445799968393 0 0.0054258997300740998 0.00056103643964863629 0 0.0052834033021767366 0.0006497591979341236 0 0.0053811528500351371 0.00063357255848853569 0 0.0054258997300740998 0.00056103643964863629 0 0.0053811528500351371 0.00063357255848853569 0 0.005452131644812527 0.0006251972442820298 0 0.0053811528500351371 0.00063357255848853569 0 0.0054592369444499177 0.00068861372775693385 0 0.005452131644812527 0.0006251972442820298 0 0.0027889184862519602 0.00051647787115681942 0 0.0028317604385546566 0.00056415931646695827 0 0.0027736142926157279 0.00055215153635852223 0 0.00048330315686653672 0.00040959463733863613 0 0.00042483778736323924 0.00043649288288758554 0 0.00044304377111378969 0.00050135053371108576 0 0.0014809736728100043 0.00057001774955047955 0 0.0033572328191624284 0.00073432445799968393 0 0.00042483778736323924 0.00043649288288758554 0 0.0003970601168511979 0.00049212373866457364 0 0.0003812558426212564 0.00038615431496183715 0 0.0055178891076795413 0.00067975473985241216 0 0.0055115246915480578 0.00065425867053330033 0 0.0055510764867160323 0.00063111050834338523 0 0.003250805049321097 0.00039080656047730627 0 0.0035558033514392247 0.00057090420270212918 0 0.0055178891076795413 0.00067975473985241216 0 0.0055026262521239693 0.00067491856349258218 0 0.0055115246915480578 0.00065425867053330033 0 0.0055026262521239693 0.00067491856349258218 0 0.0054833434591212774 0.00065768721260371589 0 0.0055115246915480578 0.00065425867053330033 0 0.00042483778736323924 0.00043649288288758554 0 0.0003970601168511979 0.00049212373866457364 0 0.00044304377111378969 0.00050135053371108576 0 0.003250805049321097 0.00039080656047730627 0 0.0033572328191624284 0.00073432445799968393 0 0.0055026262521239693 0.00067491856349258218 0 0.0054650665870913315 0.00067695942729271595 0 0.0054833434591212774 0.00065768721260371589 0 0.0033572328191624284 0.00073432445799968393 0 0.0040219535184649862 0.00034526752199148114 0 0.0055116865158219269 0.00068211842038393719 0 0.0055026262521239693 0.00067491856349258218 0 0.0054650665870913315 0.00067695942729271595 0 0.0054592369444499177 0.00068861372775693385 0 0.005452131644812527 0.0006251972442820298 0 0.0054833434591212774 0.00065768721260371589 0 0.005452131644812527 0.0006251972442820298 0 0.0054833434591212774 0.00065768721260371589 0 0.0055023260311724753 0.00062723739998140488 0 0.0055115246915480578 0.00065425867053330033 0 0.0055510764867160323 0.00063111050834338523 0 0.0055023260311724753 0.00062723739998140488 0 0.0054833434591212774 0.00065768721260371589 0 0.0055115246915480578 0.00065425867053330033 0 0.0055023260311724753 0.00062723739998140488 0 0.0055510764867160323 0.00063111050834338523 0 0.0055023260311724753 0.00062723739998140488 0 0.0055407045403237411 0.00058905744522335301 0 0.0055023260311724753 0.00062723739998140488 0 0.0055407045403237411 0.00058905744522335301 0 0.0054874053317618262 0.00059007896523175939 0 0.0055057940936114359 0.00054371843141843245 0 0.0055407045403237411 0.00058905744522335301 0 0.0054874053317618262 0.00059007896523175939 0 0.0054258997300740998 0.00056103643964863629 0 0.005452131644812527 0.0006251972442820298 0 0.0054874053317618262 0.00059007896523175939 0 0.005452131644812527 0.0006251972442820298 0 0.0055023260311724753 0.00062723739998140488 0 0.0054874053317618262 0.00059007896523175939 0 0.0056547831906965844 0.00056047001657599576 0 0.0056039826307160414 0.00059560206810757392 0 0.0056531984087698443 0.00059828293160971038 0 0.0055849861620549581 0.00054391719123993696 0 0.0055407045403237411 0.00058905744522335301 0 0.0056039826307160414 0.00059560206810757392 0 0.0055510764867160323 0.00063111050834338523 0 0.0055407045403237411 0.00058905744522335301 0 0.0056039826307160414 0.00059560206810757392 0 0.0055510764867160323 0.00063111050834338523 0 0.0056039826307160414 0.00059560206810757392 0 0.0055966712833676472 0.00063462021964050437 0 0.0056039826307160414 0.00059560206810757392 0 0.0055966712833676472 0.00063462021964050437 0 0.0056531984087698443 0.00059828293160971038 0 0.003250805049321097 0.00039080656047730627 0 0.0014711716528621288 0.00021818323545943642 0 0.0055966712833676472 0.00063462021964050437 0 0.0056338488262632378 0.00066140759088075224 0 0.0056531984087698443 0.00059828293160971038 0 0.0055178891076795413 0.00067975473985241216 0 0.0055966712833676472 0.00063462021964050437 0 0.0056338488262632378 0.00066140759088075224 0 0.0032218878974088669 0.00029886258002881269 0 0.0030747682466383693 0.00016793945490472877 0 0.0030652924749911825 0.00025312240758356737 0 0.003250805049321097 0.00039080656047730627 0 0.0044891531509954489 0.00052824623931294068 0 0.0055178891076795413 0.00067975473985241216 0 0.0055510764867160323 0.00063111050834338523 0 0.0055966712833676472 0.00063462021964050437 0 0.0003970601168511979 0.00049212373866457364 0 0.0002710265229353786 0.00039179373500570716 0 0.0003812558426212564 0.00038615431496183715 0 0.0002710265229353786 0.00039179373500570716 0 0.0003812558426212564 0.00038615431496183715 0 0.00030680600495993184 0.00030160162651783102 0 0.00043786462115214322 0.00034835103359253283 0 0.00042483778736323924 0.00043649288288758554 0 0.0003812558426212564 0.00038615431496183715 0 0.00043786462115214322 0.00034835103359253283 0 0.0003812558426212564 0.00038615431496183715 0 0.00038103576659260743 0.00029029053476808644 0 0.0003812558426212564 0.00038615431496183715 0 0.00038103576659260743 0.00029029053476808644 0 0.00030680600495993184 0.00030160162651783102 0 0.00038103576659260743 0.00029029053476808644 0 0.00030680600495993184 0.00030160162651783102 0 0.0003217013461483342 0.00023058115980056741 0 0.00030680600495993184 0.00030160162651783102 0 0.00025044494127419851 0.00030439048487572624 0 0.00024637436849510151 0.00022034814705589563 0 0.0002710265229353786 0.00039179373500570716 0 0.00030680600495993184 0.00030160162651783102 0 0.00025044494127419851 0.00030439048487572624 0 0.0002710265229353786 0.00039179373500570716 0 0.00025044494127419851 0.00030439048487572624 0 0.00017667561414807584 0.00030111400733034559 0 0.00025044494127419851 0.00030439048487572624 0 0.00017667561414807584 0.00030111400733034559 0 0.00024637436849510151 0.00022034814705589563 0 0.0013191267426580888 0.00019420135248888597 0 -6.908322142685148e-05 0.00036984040270628197 0 0.00019976778857277986 -0.00020233253865210222 0 0.00013966266918928976 -0.0002085457737700324 0 0.00029143155182206036 -7.9094594061655701e-05 0 0.00013966266918928976 -0.0002085457737700324 0 0.00026455887731812719 -0.0003682303597513306 0 0.00023965085222130711 -0.00025530969734495788 0 0.0013191267426580888 0.00019420135248888597 0 0.00013107559948438293 0.00053130430465324699 0 0.00019976778857277986 -0.00020233253865210222 0 0.00013966266918928976 -0.0002085457737700324 0 0.00023965085222130711 -0.00025530969734495788 0 0.0013191267426580888 0.00019420135248888597 0 0.002931474631594236 -0.00038006911707627063 0 0.0044946002703914727 0.0004429082464424655 0 0.0048422539437497731 -0.00012536654329001299 0 0.0052505625783088282 -0.00029248092916224922 0 0.0029257114834859619 4.5587120520237882e-05 0 0.0029151850514782915 0.00020931987088291786 0 0.002976561057531254 0.00013866261986074035 0 0.0044946002703914727 0.0004429082464424655 0 0.0048422539437497731 -0.00012536654329001299 0 0.0046875686929214004 -0.00054331070542420513 0 0.0013191267426580888 0.00019420135248888597 0 0.004776476269957996 -9.8563895886108867e-05 0 0.004776476269957996 -9.8563895886108867e-05 0 0.0052435016539145703 -0.0002721239194574997 0 0.0049937453431786469 -0.0002798457362615253 0 0.0046875686929214004 -0.00054331070542420513 0 0.0052406953925943868 -0.00030906658461034715 0 0.0048422539437497731 -0.00012536654329001299 0 0.0049937453431786469 -0.0002798457362615253 0 0.0046875686929214004 -0.00054331070542420513 0 0.0048422539437497731 -0.00012536654329001299 0 0.0049937453431786469 -0.0002798457362615253 0 0.0052505625783088282 -0.00029248092916224922 0 0.0014711716528621288 0.00021818323545943642 0 0.0013191267426580888 0.00019420135248888597 0 0.0029151850514782915 0.00020931987088291786 0 0.002976561057531254 0.00013866261986074035 0 0.0030652924749911825 0.00025312240758356737 0 0.0030747682466383693 0.00016793945490472877 0 0.0029257114834859619 4.5587120520237882e-05 0 0.002976561057531254 0.00013866261986074035 0 0.0030747682466383693 0.00016793945490472877 0 0.002976561057531254 0.00013866261986074035 0 0.0030652924749911825 0.00025312240758356737 0 0.0056338488262632378 0.00066140759088075224 0 0.0056531984087698443 0.00059828293160971038 0 0.0056830394816418149 0.0005961237313589331 0 0.004776476269957996 -9.8563895886108867e-05 0 0.0044891531509954489 0.00052824623931294068 0 0.0057131882831733668 0.00066208337244059697 0 0.0056338488262632378 0.00066140759088075224 0 0.0056830394816418149 0.0005961237313589331 0 0.0056966956632036134 0.00056423101400510708 0 0.0056830394816418149 0.0005961237313589331 0 0.0057039842848526914 0.00055211666246491058 0 0.0056966956632036134 0.00056423101400510708 0 0.0056531984087698443 0.00059828293160971038 0 0.0056830394816418149 0.0005961237313589331 0 0.0056966956632036134 0.00056423101400510708 0 0.0056547831906965844 0.00056047001657599576 0 0.0056531984087698443 0.00059828293160971038 0 0.0056831441747672174 0.00055368942414797814 0 0.0057207245076122543 0.00054388747707413926 0 0.0057039842848526914 0.00055211666246491058 0 0.0056830394816418149 0.0005961237313589331 0 0.0057207245076122543 0.00054388747707413926 0 0.0057039842848526914 0.00055211666246491058 0 0.004776476269957996 -9.8563895886108867e-05 0 0.0056698144335699113 0.00037224078240095324 0 0.0054449877654187554 -0.00029287236620855758 0 0.0054688473833020322 6.5565537250504975e-05 0 0.0053220568746739656 -0.00018552219511421263 0 0.0057131882831733668 0.00066208337244059697 0 0.0056830394816418149 0.0005961237313589331 0 0.0057207245076122543 0.00054388747707413926 0 0.0054449877654187554 -0.00029287236620855758 0 0.0053220568746739656 -0.00018552219511421263 0 0.0052406953925943868 -0.00030906658461034715 0 0.0051938360616358399 -0.00021973912748931497 0 0.0050496789726285057 -0.00020024060622183656 0 0.0052505625783088282 -0.00029248092916224922 0 0.0053220568746739656 -0.00018552219511421263 0 0.0051938360616358399 -0.00021973912748931497 0 0.0052406953925943868 -0.00030906658461034715 0 0.0061002688730604666 0.00016893724743632552 0 0.0025240301310688303 -0.00051337300427702016 0 0.0051938360616358399 -0.00021973912748931497 0 0.0052894460618437677 -8.3462126568551031e-05 0 0.0050496789726285057 -0.00020024060622183656 0 0.0025240301310688303 -0.00051337300427702016 0 0.002931474631594236 -0.00038006911707627063 0 0.0053220568746739656 -0.00018552219511421263 0 0.0051938360616358399 -0.00021973912748931497 0 0.0052894460618437677 -8.3462126568551031e-05 0 0.0052894460618437677 -8.3462126568551031e-05 0 0.0051470150820482532 0.00011298152998051849 0 0.0049324970135481211 -0.00024574373558030785 0 0.0054688473833020322 6.5565537250504975e-05 0 0.0053220568746739656 -0.00018552219511421263 0 0.0052894460618437677 -8.3462126568551031e-05 0 0.0054688473833020322 6.5565537250504975e-05 0 0.0052894460618437677 -8.3462126568551031e-05 0 0.0053070669417748404 9.501800445193973e-05 0 0.0052894460618437677 -8.3462126568551031e-05 0 0.0051470150820482532 0.00011298152998051849 0 0.0053070669417748404 9.501800445193973e-05 0 0.0053177609275619842 0.00029930248181410862 0 0.0054688473833020322 6.5565537250504975e-05 0 0.0053070669417748404 9.501800445193973e-05 0 0.0053177609275619842 0.00029930248181410862 0 0.0051470150820482532 0.00011298152998051849 0 0.0053070669417748404 9.501800445193973e-05 0 0.004879261171715151 0.00023097523376095435 0 0.0051470150820482532 0.00011298152998051849 0 0.0049324970135481211 -0.00024574373558030785 0 0.0025240301310688303 -0.00051337300427702016 0 0.0027463519823205215 -0.00045872721820902629 0 0.004879261171715151 0.00023097523376095435 0 0.0049324970135481211 -0.00024574373558030785 0 0.0045759094424232954 4.5066819527154227e-05 0 0.0004612629270439461 -0.00058805198783264373 0 0.00039994761995452586 -0.00036921367480626275 0 0.00058166242195862824 -0.00038970816198120384 0 0.00039994761995452586 -0.00036921367480626275 0 0.00038328146727694123 -0.00022206155977422417 0 0.00058166242195862824 -0.00038970816198120384 0 0.00039994761995452586 -0.00036921367480626275 0 0.00031122043372857581 -0.00028507448619167401 0 0.00038328146727694123 -0.00022206155977422417 0 0.0004612629270439461 -0.00058805198783264373 0 0.00039994761995452586 -0.00036921367480626275 0 0.00026455887731812719 -0.0003682303597513306 0 0.0051938360616358399 -0.00021973912748931497 0 0.0052406953925943868 -0.00030906658461034715 0 0.0052505625783088282 -0.00029248092916224922 0 0.0049937453431786469 -0.0002798457362615253 0 0.0052406953925943868 -0.00030906658461034715 0 0.0052505625783088282 -0.00029248092916224922 0 0.00026455887731812719 -0.0003682303597513306 0 0.00031122043372857581 -0.00028507448619167401 0 0.00023965085222130711 -0.00025530969734495788 0 0.00039994761995452586 -0.00036921367480626275 0 0.00026455887731812719 -0.0003682303597513306 0 0.00031122043372857581 -0.00028507448619167401 0 0.00019976778857277986 -0.00020233253865210222 0 0.0002859678203666639 -0.00020944126610298214 0 0.00029143155182206036 -7.9094594061655701e-05 0 0.0002859678203666639 -0.00020944126610298214 0 0.00038328146727694123 -0.00022206155977422417 0 0.00029143155182206036 -7.9094594061655701e-05 0 0.00031122043372857581 -0.00028507448619167401 0 0.0002859678203666639 -0.00020944126610298214 0 0.00038328146727694123 -0.00022206155977422417 0 0.00019976778857277986 -0.00020233253865210222 0 0.00023965085222130711 -0.00025530969734495788 0 0.0002859678203666639 -0.00020944126610298214 0 0.00031122043372857581 -0.00028507448619167401 0 0.00023965085222130711 -0.00025530969734495788 0 0.0002859678203666639 -0.00020944126610298214 0 0.00038328146727694123 -0.00022206155977422417 0 0.00029143155182206036 -7.9094594061655701e-05 0 0.00041961807381811939 -0.00014565921119355336 0 -0.00045695169459703189 0.00025495712694467417 0 -0.00059003606014770978 -0.00017939275130481007 0 -0.00027522431385585338 -1.638084614863416e-05 0 -0.00045695169459703189 0.00025495712694467417 0 -0.00069784531953805346 -6.6765942061162208e-05 0 -0.00059003606014770978 -0.00017939275130481007 0 0.0003996212307447283 -5.1833973909715281e-05 0 0.00029143155182206036 -7.9094594061655701e-05 0 0.00041961807381811939 -0.00014565921119355336 0 0.0003996212307447283 -5.1833973909715281e-05 0 0.00029143155182206036 -7.9094594061655701e-05 0 0.00039274110372988232 2.8235880290559501e-05 0 -0.00032961625460738712 1.9695919375791552e-05 0 -9.2357169318546946e-05 2.8165379075698478e-06 0 -0.00069784531953805346 -6.6765942061162208e-05 0 -0.00059003606014770978 -0.00017939275130481007 0 -0.00066504468899980453 -0.00020959954581317386 0 -0.00065949978232850669 -0.0001704638941021704 0 -0.00059003606014770978 -0.00017939275130481007 0 -0.00066504468899980453 -0.00020959954581317386 0 -0.00064037562472296281 -0.00013067017679597922 0 -0.00065949978232850669 -0.0001704638941021704 0 -0.00064790519751391001 -0.00017381971451783292 0 -0.00065949978232850669 -0.0001704638941021704 0 -0.00064790519751391001 -0.00017381971451783292 0 -0.00066504468899980453 -0.00020959954581317386 0 -0.00067454247020991114 -0.00016715447267812373 0 -0.00059003606014770978 -0.00017939275130481007 0 -0.00078971710373323424 -0.00021002793569543493 0 -0.00065949978232850669 -0.0001704638941021704 0 -0.00067454247020991114 -0.00016715447267812373 0 -0.00059003606014770978 -0.00017939275130481007 0 -0.00069075228465058131 -0.00014647576169690788 0 -0.00067454247020991114 -0.00016715447267812373 0 -0.00075668816357413638 -0.00014394177441142699 0 -0.00065949978232850669 -0.0001704638941021704 0 -0.00069075228465058131 -0.00014647576169690788 0 -0.00067454247020991114 -0.00016715447267812373 0 -0.00067454247020991114 -0.00016715447267812373 0 -0.00078971710373323424 -0.00021002793569543493 0 -0.00075668816357413638 -0.00014394177441142699 0 -0.0006250227162960144 -0.00016979464187045446 0 -0.00045252295878786834 -0.00023989999498888299 0 -0.00059003606014770978 -0.00017939275130481007 0 -0.00027522431385585338 -1.638084614863416e-05 0 -0.00025500478390248017 -0.0002324349397427679 0 -0.00027522431385585338 -1.638084614863416e-05 0 -0.00018251460815933831 -0.00012166287896757463 0 -0.00025500478390248017 -0.0002324349397427679 0 -0.00027522431385585338 -1.638084614863416e-05 0 -0.00018251460815933831 -0.00012166287896757463 0 -0.00010655762911022854 -6.5557652466600411e-05 0 -0.00027522431385585338 -1.638084614863416e-05 0 -0.00010655762911022854 -6.5557652466600411e-05 0 -5.7833989223446145e-05 4.3322391110611667e-05 0 -0.00018251460815933831 -0.00012166287896757463 0 -0.00025500478390248017 -0.0002324349397427679 0 -0.00010091378264129006 -0.00016772273653218965 0 -0.00018251460815933831 -0.00012166287896757463 0 -0.00010091378264129006 -0.00016772273653218965 0 -0.00010655762911022854 -6.5557652466600411e-05 0 -0.00025500478390248017 -0.0002324349397427679 0 2.2437200569972518e-05 -0.00023760712416878997 0 -0.00010091378264129006 -0.00016772273653218965 0 -0.00078971710373323424 -0.00021002793569543493 0 -0.00083806624704859333 -0.00014838854890296269 0 -0.00095007680725388624 -0.00015722357509440418 0 -0.00045252295878786834 -0.00023989999498888299 0 -0.00085832550902831609 -6.5986885329106875e-05 0 -0.00086065881678577816 -8.3267768556293342e-05 0 -0.00083806624704859333 -0.00014838854890296269 0 -0.00075668816357413638 -0.00014394177441142699 0 -0.00078971710373323424 -0.00021002793569543493 0 -0.00083806624704859333 -0.00014838854890296269 0 -0.00075668816357413638 -0.00014394177441142699 0 -0.00085832550902831609 -6.5986885329106875e-05 0 -0.00076755554982217385 -9.1676427145892707e-05 0 -0.00086065881678577816 -8.3267768556293342e-05 0 -0.00083806624704859333 -0.00014838854890296269 0 -0.00095007680725388624 -0.00015722357509440418 0 2.2437200569972518e-05 -0.00023760712416878997 0 -0.00010091378264129006 -0.00016772273653218965 0 2.8045219236837211e-05 -0.0001948270438016226 0 -0.00010091378264129006 -0.00016772273653218965 0 -8.3225937859333062e-06 -0.00014653451567479768 0 2.8045219236837211e-05 -0.0001948270438016226 0 3.6676612298358458e-05 -0.00014086289790911699 0 2.8045219236837211e-05 -0.0001948270438016226 0 0.0001094844393674293 -0.00014089091982072744 0 -8.3225937859333062e-06 -0.00014653451567479768 0 3.6676612298358458e-05 -0.00014086289790911699 0 2.8045219236837211e-05 -0.0001948270438016226 0 3.1686816226953107e-05 -0.00020954059504573911 0 2.8045219236837211e-05 -0.0001948270438016226 0 0.0001094844393674293 -0.00014089091982072744 0 3.6676612298358458e-05 -0.00014086289790911699 0 1.7091148607434233e-05 -7.8840620331915539e-05 0 0.0001094844393674293 -0.00014089091982072744 0 -8.3225937859333062e-06 -0.00014653451567479768 0 3.6676612298358458e-05 -0.00014086289790911699 0 1.7091148607434233e-05 -7.8840620331915539e-05 0 -0.00010091378264129006 -0.00016772273653218965 0 1.7091148607434233e-05 -7.8840620331915539e-05 0 -0.00010655762911022854 -6.5557652466600411e-05 0 -0.00010091378264129006 -0.00016772273653218965 0 -8.3225937859333062e-06 -0.00014653451567479768 0 1.7091148607434233e-05 -7.8840620331915539e-05 0 1.7091148607434233e-05 -7.8840620331915539e-05 0 -0.00010655762911022854 -6.5557652466600411e-05 0 -5.7833989223446145e-05 4.3322391110611667e-05 0 1.7091148607434233e-05 -7.8840620331915539e-05 0 5.3052739327494218e-05 9.8510090626317428e-06 0 -5.7833989223446145e-05 4.3322391110611667e-05 0 1.7091148607434233e-05 -7.8840620331915539e-05 0 5.3052739327494218e-05 9.8510090626317428e-06 0 0.0001500382734855104 -2.4336372806296585e-05 0 -2.7205742422583048e-05 0.00018727440685793848 0 7.3553445065836147e-05 0.00030480455665979589 0 9.7923449872346316e-05 0.00010312742440759982 0 -2.7205742422583048e-05 0.00018727440685793848 0 -5.7833989223446145e-05 4.3322391110611667e-05 0 9.7923449872346316e-05 0.00010312742440759982 0 5.3052739327494218e-05 9.8510090626317428e-06 0 -5.7833989223446145e-05 4.3322391110611667e-05 0 9.7923449872346316e-05 0.00010312742440759982 0 -2.7205742422583048e-05 0.00018727440685793848 0 -5.7833989223446145e-05 4.3322391110611667e-05 0 -0.00018397208250363025 0.00016123816591397637 0 -0.00045695169459703189 0.00025495712694467417 0 -0.00027522431385585338 -1.638084614863416e-05 0 -0.00018397208250363025 0.00016123816591397637 0 -0.00027522431385585338 -1.638084614863416e-05 0 -5.7833989223446145e-05 4.3322391110611667e-05 0 -0.00018397208250363025 0.00016123816591397637 0 -0.00045695169459703189 0.00025495712694467417 0 -0.00018397208250363025 0.00016123816591397637 0 -0.00011949956214264396 0.00034196293507049528 0 -0.00013941341927628471 0.00053045914502359442 0 -0.00045695169459703189 0.00025495712694467417 0 -0.00011949956214264396 0.00034196293507049528 0 0.0013191267426580888 0.00019420135248888597 0 -0.00032961625460738712 1.9695919375791552e-05 0 -2.7205742422583048e-05 0.00018727440685793848 0 -0.00011949956214264396 0.00034196293507049528 0 7.3553445065836147e-05 0.00030480455665979589 0 -0.00013391984939882862 0.00049468456189867777 0 -0.00011949956214264396 0.00034196293507049528 0 7.3553445065836147e-05 0.00030480455665979589 0 -2.7205742422583048e-05 0.00018727440685793848 0 -0.00018397208250363025 0.00016123816591397637 0 -0.00011949956214264396 0.00034196293507049528 0 0.00030680600495993184 0.00030160162651783102 0 0.00024637436849510151 0.00022034814705589563 0 0.0003217013461483342 0.00023058115980056741 0 0.00024637436849510151 0.00022034814705589563 0 0.0003217013461483342 0.00023058115980056741 0 0.00028487475777775755 0.00011361646670749023 0 0.00045152239171386403 0.00026666168528703698 0 0.00038103576659260743 0.00029029053476808644 0 0.00039154002559130822 0.00019402876053386449 0 0.00039154002559130822 0.00019402876053386449 0 0.0003217013461483342 0.00023058115980056741 0 0.00028487475777775755 0.00011361646670749023 0 0.00038103576659260743 0.00029029053476808644 0 0.00039154002559130822 0.00019402876053386449 0 0.0003217013461483342 0.00023058115980056741 0 0.00039154002559130822 0.00019402876053386449 0 0.00028487475777775755 0.00011361646670749023 0 0.00038058694206648464 6.4441731010699539e-05 0 0.00028487475777775755 0.00011361646670749023 0 0.00026872804383887695 -8.5453292823250331e-06 0 0.00038058694206648464 6.4441731010699539e-05 0 0.00028487475777775755 0.00011361646670749023 0 9.7923449872346316e-05 0.00010312742440759982 0 0.0001500382734855104 -2.4336372806296585e-05 0 -6.908322142685148e-05 0.00036984040270628197 0 0.00036613835279189065 6.7705419413304288e-05 0 7.3553445065836147e-05 0.00030480455665979589 0 0.00028487475777775755 0.00011361646670749023 0 9.7923449872346316e-05 0.00010312742440759982 0 5.3052739327494218e-05 9.8510090626317428e-06 0 9.7923449872346316e-05 0.00010312742440759982 0 0.0001500382734855104 -2.4336372806296585e-05 0 0.00028487475777775755 0.00011361646670749023 0 0.0001500382734855104 -2.4336372806296585e-05 0 0.00026872804383887695 -8.5453292823250331e-06 0 0.0001500382734855104 -2.4336372806296585e-05 0 0.00021877957556909244 -9.2041296638973281e-05 0 0.00026872804383887695 -8.5453292823250331e-06 0 0.0001500382734855104 -2.4336372806296585e-05 0 0.0001094844393674293 -0.00014089091982072744 0 0.00021877957556909244 -9.2041296638973281e-05 0 1.7091148607434233e-05 -7.8840620331915539e-05 0 0.0001500382734855104 -2.4336372806296585e-05 0 0.0001094844393674293 -0.00014089091982072744 0 0.00023684109023648504 -0.00014387339346320834 0 3.1686816226953107e-05 -0.00020954059504573911 0 0.0001094844393674293 -0.00014089091982072744 0 -0.00081291203656559067 0.00016525161308478603 0 -0.00085832550902831609 -6.5986885329106875e-05 0 0.00023684109023648504 -0.00014387339346320834 0 0.0001094844393674293 -0.00014089091982072744 0 0.00021877957556909244 -9.2041296638973281e-05 0 0.00023684109023648504 -0.00014387339346320834 0 0.00021877957556909244 -9.2041296638973281e-05 0 0.00030537038685252865 -7.5608301194782059e-05 0 0.00023684109023648504 -0.00014387339346320834 0 0.00030537038685252865 -7.5608301194782059e-05 0 0.00028205556881580758 -7.1166883323119838e-05 0 0.00030537038685252865 -7.5608301194782059e-05 0 0.00026872804383887695 -8.5453292823250331e-06 0 0.00038058694206648464 6.4441731010699539e-05 0 0.00021877957556909244 -9.2041296638973281e-05 0 0.00030537038685252865 -7.5608301194782059e-05 0 0.00026872804383887695 -8.5453292823250331e-06 0 0.00030537038685252865 -7.5608301194782059e-05 0 0.0005135343894595119 -4.6400996016518905e-05 0 0.00038058694206648464 6.4441731010699539e-05 0 0.00030537038685252865 -7.5608301194782059e-05 0 0.0005135343894595119 -4.6400996016518905e-05 0 0.00028205556881580758 -7.1166883323119838e-05 0 0.0005135343894595119 -4.6400996016518905e-05 0 0.00028205556881580758 -7.1166883323119838e-05 0 8.1974854059756617e-05 -4.5130764224016302e-07 0 0.0005135343894595119 -4.6400996016518905e-05 0 8.1974854059756617e-05 -4.5130764224016302e-07 0 0.00086111469589845102 -1.8827196522183958e-07 0 0.0005135343894595119 -4.6400996016518905e-05 0 0.00086111469589845102 -1.8827196522183958e-07 0 0.001157005661584623 -5.2933520878565204e-05 0 0.00086111469589845102 -1.8827196522183958e-07 0 0.0016384952492242324 4.9373968665427408e-07 0 0.001157005661584623 -5.2933520878565204e-05 0 0.00059855611385754089 -9.1990864989855355e-05 0 0.00070441135390458083 7.1277993493656174e-05 0 0.0005135343894595119 -4.6400996016518905e-05 0 0.00038058694206648464 6.4441731010699539e-05 0 0.00051994778184286821 0.00016898457519273137 0 0.00039154002559130822 0.00019402876053386449 0 0.00038058694206648464 6.4441731010699539e-05 0 0.00051994778184286821 0.00016898457519273137 0 0.00045152239171386403 0.00026666168528703698 0 0.00039154002559130822 0.00019402876053386449 0 0.00051994778184286821 0.00016898457519273137 0 0.0005364936285073915 0.00032104279640020621 0 0.00045152239171386403 0.00026666168528703698 0 0.00051994778184286821 0.00016898457519273137 0 0.0012840875382729737 0.00053785594969232538 0 0.0016384952492242324 4.9373968665427408e-07 0 0.001157005661584623 -5.2933520878565204e-05 0 0.0017822745461776985 0.00030084217682335284 0 0.00070441135390458083 7.1277993493656174e-05 0 0.0018399247734201829 -0.00033965357167714218 0 0.0023452080004815728 -0.00024498879259889604 0 0.0019861725842534586 -0.00065907561771550403 0 0.0018399247734201829 -0.00033965357167714218 0 0.0016585969436467732 -0.00053920475624574988 0 0.0019861725842534586 -0.00065907561771550403 0 0.0016585969436467732 -0.00053920475624574988 0 0.0014275422726370069 -0.00051300723275173184 0 0.0014733716759688853 -0.0002816799737564501 0 0.0018399247734201829 -0.00033965357167714218 0 0.0016585969436467732 -0.00053920475624574988 0 0.0014733716759688853 -0.0002816799737564501 0 0.0014275422726370069 -0.00051300723275173184 0 0.0014733716759688853 -0.0002816799737564501 0 0.0013022211181733464 -0.00040911691412967566 0 0.0016585969436467732 -0.00053920475624574988 0 0.0014275422726370069 -0.00051300723275173184 0 0.0015290555177067198 -0.00073546695873537076 0 0.0014733716759688853 -0.0002816799737564501 0 0.0012456816033811823 -0.00012116072091462407 0 0.0010352977995456607 -0.00019573313869381559 0 0.0012456816033811823 -0.00012116072091462407 0 0.0010352977995456607 -0.00019573313869381559 0 0.0010399895572900861 -8.4215717218441287e-06 0 0.0014733716759688853 -0.0002816799737564501 0 0.0012456816033811823 -0.00012116072091462407 0 0.0014106414854175304 -4.6829394631530895e-06 0 0.0014733716759688853 -0.0002816799737564501 0 0.0017893314833415464 -4.4814202667255152e-05 0 0.0014106414854175304 -4.6829394631530895e-06 0 0.0018399247734201829 -0.00033965357167714218 0 0.0014733716759688853 -0.0002816799737564501 0 0.0017893314833415464 -4.4814202667255152e-05 0 0.0018399247734201829 -0.00033965357167714218 0 0.0017893314833415464 -4.4814202667255152e-05 0 0.0023452080004815728 -0.00024498879259889604 0 0.0019004532380021012 0.00017925814655453482 0 0.0022971403761088702 -0.00025233850831591026 0 0.0027234093970255461 0.00038685351730913253 0 0.0030206149269835468 -0.00018631063933838719 0 0.0023452080004815728 -0.00024498879259889604 0 0.00194705091815305 0.00039014460106226326 0 0.0027234093970255461 0.00038685351730913253 0 0.0023452080004815728 -0.00024498879259889604 0 0.0027234093970255461 0.00038685351730913253 0 0.0030206149269835468 -0.00018631063933838719 0 0.0033905923734704546 0.00030455854117775611 0 0.0030206149269835468 -0.00018631063933838719 0 0.0032252064613886595 -0.00054921909047629777 0 0.0036212571840523026 -0.00025665905861041991 0 0.0030206149269835468 -0.00018631063933838719 0 0.0023452080004815728 -0.00024498879259889604 0 0.0027455237495106503 -0.0006981700116484318 0 0.0023452080004815728 -0.00024498879259889604 0 0.0027455237495106503 -0.0006981700116484318 0 0.0023181133331824371 -0.00087372754661530936 0 0.0023452080004815728 -0.00024498879259889604 0 0.0023181133331824371 -0.00087372754661530936 0 0.0019861725842534586 -0.00065907561771550403 0 0.0027455237495106503 -0.0006981700116484318 0 0.0023181133331824371 -0.00087372754661530936 0 0.0025961303113615172 -0.001219877974152299 0 0.0030206149269835468 -0.00018631063933838719 0 0.0027455237495106503 -0.0006981700116484318 0 0.0032252064613886595 -0.00054921909047629777 0 0.0027455237495106503 -0.0006981700116484318 0 0.0032252064613886595 -0.00054921909047629777 0 0.0030199296767555893 -0.0010627177493000039 0 0.0032252064613886595 -0.00054921909047629777 0 0.0030199296767555893 -0.0010627177493000039 0 0.0035302057488853789 -0.00086039034816565911 0 0.003166326540838902 -0.0015342004511627479 0 0.0030199296767555893 -0.0010627177493000039 0 0.0035302057488853789 -0.00086039034816565911 0 0.0027455237495106503 -0.0006981700116484318 0 0.0030199296767555893 -0.0010627177493000039 0 0.0025961303113615172 -0.001219877974152299 0 0.003166326540838902 -0.0015342004511627479 0 0.0030199296767555893 -0.0010627177493000039 0 0.0025961303113615172 -0.001219877974152299 0 0.0023181133331824371 -0.00087372754661530936 0 0.0025961303113615172 -0.001219877974152299 0 0.0020734004957080219 -0.0011878815098578719 0 0.0022616279077236957 -0.001718356331466331 0 0.0025961303113615172 -0.001219877974152299 0 0.0020734004957080219 -0.0011878815098578719 0 0.0020734004957080219 -0.0011878815098578719 0 0.0017469308529472513 -0.00081401469185128097 0 0.0016854975006215676 -0.0010557053002424957 0 0.0020734004957080219 -0.0011878815098578719 0 0.0019861725842534586 -0.00065907561771550403 0 0.0017469308529472513 -0.00081401469185128097 0 0.0023181133331824371 -0.00087372754661530936 0 0.0020734004957080219 -0.0011878815098578719 0 0.0019861725842534586 -0.00065907561771550403 0 0.0016585969436467732 -0.00053920475624574988 0 0.0019861725842534586 -0.00065907561771550403 0 0.0017469308529472513 -0.00081401469185128097 0 0.0015290555177067198 -0.00073546695873537076 0 0.0016854975006215676 -0.0010557053002424957 0 0.0013527209949489171 -0.00090109209051427309 0 0.0014275422726370069 -0.00051300723275173184 0 0.0015290555177067198 -0.00073546695873537076 0 0.0013571160546597346 -0.00067000653324876167 0 0.0016585969436467732 -0.00053920475624574988 0 0.0015290555177067198 -0.00073546695873537076 0 0.0017469308529472513 -0.00081401469185128097 0 0.0015290555177067198 -0.00073546695873537076 0 0.0017469308529472513 -0.00081401469185128097 0 0.0016854975006215676 -0.0010557053002424957 0 0.0016854975006215676 -0.0010557053002424957 0 0.0014567931899106049 -0.0012114981966119137 0 0.0013527209949489171 -0.00090109209051427309 0 0.0016141384333894441 -0.0015522127639080283 0 0.0020734004957080219 -0.0011878815098578719 0 0.0016854975006215676 -0.0010557053002424957 0 0.0014567931899106049 -0.0012114981966119137 0 0.001249052367663284 -0.001101025592411813 0 0.0013527209949489171 -0.00090109209051427309 0 0.001249052367663284 -0.001101025592411813 0 0.0010689887982576834 -0.00089307809851061194 0 0.0013527209949489171 -0.00090109209051427309 0 0.001116139476931136 -0.0010269955454286206 0 0.0010689887982576834 -0.00089307809851061194 0 0.00097992798354079548 -0.00094244370735754553 0 0.0010996314439970947 -0.0011917597817520554 0 0.0010699020970691864 -0.00091747571251986652 0 0.0010976717611617568 -0.0012925231191596991 0 0.001249052367663284 -0.001101025592411813 0 0.0010689887982576834 -0.00089307809851061194 0 0.0010689887982576834 -0.00089307809851061194 0 0.0011931235676086126 -0.00069021143226276522 0 0.0010430329307236739 -0.00061592997010181158 0 0.0010689887982576834 -0.00089307809851061194 0 0.00094544925698127156 -0.0008152493060876808 0 0.0010430329307236739 -0.00061592997010181158 0 0.0010689887982576834 -0.00089307809851061194 0 0.0011931235676086126 -0.00069021143226276522 0 0.0013527209949489171 -0.00090109209051427309 0 0.0011931235676086126 -0.00069021143226276522 0 0.0013571160546597346 -0.00067000653324876167 0 0.0013527209949489171 -0.00090109209051427309 0 0.0011931235676086126 -0.00069021143226276522 0 0.0013571160546597346 -0.00067000653324876167 0 0.0012645921701976237 -0.00053926846823652082 0 0.0015290555177067198 -0.00073546695873537076 0 0.0013571160546597346 -0.00067000653324876167 0 0.0013527209949489171 -0.00090109209051427309 0 0.0024670200863074923 -0.00031480419082481332 0 0.0027463519823205215 -0.00045872721820902629 0 0.00096131355758004625 -0.0010588781085381824 0 0.00079936543784229163 -0.00091068515898444188 0 0.00097992798354079548 -0.00094244370735754553 0 0.00079936543784229163 -0.00091068515898444188 0 0.00097992798354079548 -0.00094244370735754553 0 0.00094544925698127156 -0.0008152493060876808 0 0.0010689887982576834 -0.00089307809851061194 0 0.00097992798354079548 -0.00094244370735754553 0 0.00094544925698127156 -0.0008152493060876808 0 0.00094544925698127156 -0.0008152493060876808 0 0.00086752909961425372 -0.00066199580991684612 0 0.0010430329307236739 -0.00061592997010181158 0 0.00079936543784229163 -0.00091068515898444188 0 0.00094544925698127156 -0.0008152493060876808 0 0.00086752909961425372 -0.00066199580991684612 0 0.0025240301310688303 -0.00051337300427702016 0 0.00039329591043562294 -0.00065817486250904181 0 0.00066930206503901008 -0.00077302944434203534 0 0.00079936543784229163 -0.00091068515898444188 0 0.00086752909961425372 -0.00066199580991684612 0 0.00058166242195862824 -0.00038970816198120384 0 0.00081520204332601802 -0.00048940947582180384 0 0.0007793758738800032 -0.0002616308987468288 0 0.0004612629270439461 -0.00058805198783264373 0 0.00058166242195862824 -0.00038970816198120384 0 0.00081520204332601802 -0.00048940947582180384 0 0.00097193020326904295 -0.00037632383795139807 0 0.00081520204332601802 -0.00048940947582180384 0 0.0007793758738800032 -0.0002616308987468288 0 0.00045968466289416976 -0.00018789218135682677 0 0.00049457703150904771 -0.00013320781012243001 0 0.00056781424278073826 -0.00018168845479346919 0 0.00045968466289416976 -0.00018789218135682677 0 0.00066106580743169915 -0.000305354439301005 0 0.00056781424278073826 -0.00018168845479346919 0 0.00061491148698723851 -0.00023345640674622112 0 0.00092473524448374845 -0.00030239016854491829 0 0.00097193020326904295 -0.00037632383795139807 0 0.0007793758738800032 -0.0002616308987468288 0 0.0011557460774129663 -0.00032335394016488146 0 0.00049457703150904771 -0.00013320781012243001 0 0.00056781424278073826 -0.00018168845479346919 0 0.00059288646089444602 -0.00010003782122103707 0 0.00038328146727694123 -0.00022206155977422417 0 0.00058166242195862824 -0.00038970816198120384 0 0.0007793758738800032 -0.0002616308987468288 0 0.00039126875985434075 -0.00022013854839082126 0 0.00061491148698723851 -0.00023345640674622112 0 0.00038328146727694123 -0.00022206155977422417 0 0.00045968466289416976 -0.00018789218135682677 0 0.00041961807381811939 -0.00014565921119355336 0 0.00045968466289416976 -0.00018789218135682677 0 0.00049457703150904771 -0.00013320781012243001 0 0.00041961807381811939 -0.00014565921119355336 0 0.0011833223251929434 -0.0004193560022734378 0 0.0013022211181733464 -0.00040911691412967566 0 0.0011557460774129663 -0.00032335394016488146 0 0.0011833223251929434 -0.0004193560022734378 0 0.0013022211181733464 -0.00040911691412967566 0 0.0012645921701976237 -0.00053926846823652082 0 0.0014275422726370069 -0.00051300723275173184 0 0.0013571160546597346 -0.00067000653324876167 0 0.0012645921701976237 -0.00053926846823652082 0 0.0014275422726370069 -0.00051300723275173184 0 0.0013022211181733464 -0.00040911691412967566 0 0.0012645921701976237 -0.00053926846823652082 0 0.0011833223251929434 -0.0004193560022734378 0 0.0012645921701976237 -0.00053926846823652082 0 0.0011697052776374782 -0.00056655242328259323 0 0.0011931235676086126 -0.00069021143226276522 0 0.0012645921701976237 -0.00053926846823652082 0 0.0011697052776374782 -0.00056655242328259323 0 0.00097193020326904295 -0.00037632383795139807 0 0.0011833223251929434 -0.0004193560022734378 0 0.0011557460774129663 -0.00032335394016488146 0 0.0011931235676086126 -0.00069021143226276522 0 0.0011697052776374782 -0.00056655242328259323 0 0.0010430329307236739 -0.00061592997010181158 0 0.0011833223251929434 -0.0004193560022734378 0 0.0011697052776374782 -0.00056655242328259323 0 0.0010430329307236739 -0.00061592997010181158 0 0.00097193020326904295 -0.00037632383795139807 0 0.00081520204332601802 -0.00048940947582180384 0 0.0011833223251929434 -0.0004193560022734378 0 0.00086752909961425372 -0.00066199580991684612 0 0.0011833223251929434 -0.0004193560022734378 0 0.0010430329307236739 -0.00061592997010181158 0 0.00039329591043562294 -0.00065817486250904181 0 0.0013727230895484129 -0.00037622241792842522 0 0.00056781424278073826 -0.00018168845479346919 0 0.00069641853326763651 -0.0001369934227558804 0 0.00059288646089444602 -0.00010003782122103707 0 0.00066106580743169915 -0.000305354439301005 0 0.00069641853326763651 -0.0001369934227558804 0 0.0008281378686680631 -0.00017391998584840256 0 0.00066106580743169915 -0.000305354439301005 0 0.00056781424278073826 -0.00018168845479346919 0 0.00069641853326763651 -0.0001369934227558804 0 0.0014419633420683505 -0.00029014129412711632 0 0.00092473524448374845 -0.00030239016854491829 0 0.00069641853326763651 -0.0001369934227558804 0 0.0008281378686680631 -0.00017391998584840256 0 0.0009093232615304869 -8.8927029473543409e-05 0 0.0014733716759688853 -0.0002816799737564501 0 0.00066106580743169915 -0.000305354439301005 0 0.0010352977995456607 -0.00019573313869381559 0 0.00066106580743169915 -0.000305354439301005 0 0.0008281378686680631 -0.00017391998584840256 0 0.0010352977995456607 -0.00019573313869381559 0 0.0014733716759688853 -0.0002816799737564501 0 0.0013022211181733464 -0.00040911691412967566 0 0.0011557460774129663 -0.00032335394016488146 0 0.0010352977995456607 -0.00019573313869381559 0 0.0009093232615304869 -8.8927029473543409e-05 0 0.0010399895572900861 -8.4215717218441287e-06 0 0.0008281378686680631 -0.00017391998584840256 0 0.0010352977995456607 -0.00019573313869381559 0 0.0009093232615304869 -8.8927029473543409e-05 0 0.0009093232615304869 -8.8927029473543409e-05 0 0.00078564978983418907 -2.2931093134821589e-05 0 0.0010399895572900861 -8.4215717218441287e-06 0 0.00088187596096989649 7.4095151788327351e-05 0 0.00078564978983418907 -2.2931093134821589e-05 0 0.0010399895572900861 -8.4215717218441287e-06 0 0.00073856498481537241 4.2079888084312207e-05 0 0.00078564978983418907 -2.2931093134821589e-05 0 0.00063642844803679134 -9.8452128495437084e-06 0 0.00088187596096989649 7.4095151788327351e-05 0 0.00073856498481537241 4.2079888084312207e-05 0 0.00072414454117034684 9.1210939621928959e-05 0 0.00088187596096989649 7.4095151788327351e-05 0 0.00073856498481537241 4.2079888084312207e-05 0 0.00078564978983418907 -2.2931093134821589e-05 0 0.00069641853326763651 -0.0001369934227558804 0 0.0009093232615304869 -8.8927029473543409e-05 0 0.00078564978983418907 -2.2931093134821589e-05 0 0.00078564978983418907 -2.2931093134821589e-05 0 0.00067191295410871964 -6.8396980034846788e-05 0 0.00063642844803679134 -9.8452128495437084e-06 0 0.00069641853326763651 -0.0001369934227558804 0 0.00078564978983418907 -2.2931093134821589e-05 0 0.00067191295410871964 -6.8396980034846788e-05 0 0.00069641853326763651 -0.0001369934227558804 0 0.00067191295410871964 -6.8396980034846788e-05 0 0.00059288646089444602 -0.00010003782122103707 0 0.00067191295410871964 -6.8396980034846788e-05 0 0.00059288646089444602 -0.00010003782122103707 0 0.00063642844803679134 -9.8452128495437084e-06 0 0.00059288646089444602 -0.00010003782122103707 0 0.00063642844803679134 -9.8452128495437084e-06 0 0.00052209218044606189 -3.7169010652831396e-05 0 0.00063642844803679134 -9.8452128495437084e-06 0 0.00056806932921917128 3.6093697542904136e-05 0 0.00052209218044606189 -3.7169010652831396e-05 0 0.00073856498481537241 4.2079888084312207e-05 0 0.00063642844803679134 -9.8452128495437084e-06 0 0.00064906780738544 5.4436948266438678e-05 0 0.00064906780738544 5.4436948266438678e-05 0 0.00056806932921917128 3.6093697542904136e-05 0 0.00058093816191917688 8.3324298903463928e-05 0 0.00063642844803679134 -9.8452128495437084e-06 0 0.00064906780738544 5.4436948266438678e-05 0 0.00056806932921917128 3.6093697542904136e-05 0 0.00056806932921917128 3.6093697542904136e-05 0 0.00050883990312036644 6.6261711236415664e-05 0 0.00050602814147426606 1.9129268020001249e-05 0 0.00056806932921917128 3.6093697542904136e-05 0 0.00050883990312036644 6.6261711236415664e-05 0 0.00058093816191917688 8.3324298903463928e-05 0 0.00050883990312036644 6.6261711236415664e-05 0 0.00058093816191917688 8.3324298903463928e-05 0 0.00047575626200084705 8.0959410329718197e-05 0 0.00058093816191917688 8.3324298903463928e-05 0 0.00065431818020694364 0.00010909535329684817 0 0.00072414454117034684 9.1210939621928959e-05 0 0.00065431818020694364 0.00010909535329684817 0 0.00083267504949701473 0.00012288398112871563 0 0.00082656568559128201 0.00014604091796822428 0 0.00065431818020694364 0.00010909535329684817 0 0.00083267504949701473 0.00012288398112871563 0 0.00072414454117034684 9.1210939621928959e-05 0 0.00088187596096989649 7.4095151788327351e-05 0 0.00083267504949701473 0.00012288398112871563 0 0.0010112433399731072 0.00015416142398460994 0 0.00088187596096989649 7.4095151788327351e-05 0 0.00083267504949701473 0.00012288398112871563 0 0.00072414454117034684 9.1210939621928959e-05 0 0.00064906780738544 5.4436948266438678e-05 0 0.00058093816191917688 8.3324298903463928e-05 0 0.00072414454117034684 9.1210939621928959e-05 0 0.00073856498481537241 4.2079888084312207e-05 0 0.00064906780738544 5.4436948266438678e-05 0 0.00072414454117034684 9.1210939621928959e-05 0 0.00049457703150904771 -0.00013320781012243001 0 0.00041961807381811939 -0.00014565921119355336 0 0.00046344766500210571 -3.6236530156068016e-05 0 0.0003996212307447283 -5.1833973909715281e-05 0 0.00041961807381811939 -0.00014565921119355336 0 0.00046344766500210571 -3.6236530156068016e-05 0 0.00049457703150904771 -0.00013320781012243001 0 0.00046344766500210571 -3.6236530156068016e-05 0 0.00052209218044606189 -3.7169010652831396e-05 0 0.00046344766500210571 -3.6236530156068016e-05 0 0.00052209218044606189 -3.7169010652831396e-05 0 0.00050602814147426606 1.9129268020001249e-05 0 0.00049457703150904771 -0.00013320781012243001 0 0.00059288646089444602 -0.00010003782122103707 0 0.00052209218044606189 -3.7169010652831396e-05 0 0.00056806932921917128 3.6093697542904136e-05 0 0.00052209218044606189 -3.7169010652831396e-05 0 0.00050602814147426606 1.9129268020001249e-05 0 0.00050883990312036644 6.6261711236415664e-05 0 0.00050602814147426606 1.9129268020001249e-05 0 0.0004760939810636539 4.8888834971644326e-05 0 0.00046344766500210571 -3.6236530156068016e-05 0 0.00050602814147426606 1.9129268020001249e-05 0 0.0004760939810636539 4.8888834971644326e-05 0 0.00046344766500210571 -3.6236530156068016e-05 0 0.0004760939810636539 4.8888834971644326e-05 0 0.0004417834029146454 2.47402485043787e-05 0 0.0003996212307447283 -5.1833973909715281e-05 0 0.00046344766500210571 -3.6236530156068016e-05 0 0.0004417834029146454 2.47402485043787e-05 0 0.0003996212307447283 -5.1833973909715281e-05 0 0.00039274110372988232 2.8235880290559501e-05 0 0.0004417834029146454 2.47402485043787e-05 0 -0.00069784531953805346 -6.6765942061162208e-05 0 -0.00062922069441492519 -0.00031996523962612321 0 -0.00066504468899980453 -0.00020959954581317386 0 0.00039274110372988232 2.8235880290559501e-05 0 0.0004417834029146454 2.47402485043787e-05 0 0.0004701904233662914 7.1345391280946204e-05 0 -9.2357169318546946e-05 2.8165379075698478e-06 0 -7.6612382391685337e-05 -0.00010961466071606622 0 0.0004760939810636539 4.8888834971644326e-05 0 0.0004701904233662914 7.1345391280946204e-05 0 0.00047022432294074672 7.7324621343040231e-05 0 0.0004701904233662914 7.1345391280946204e-05 0 0.00047022432294074672 7.7324621343040231e-05 0 0.0003862947915770735 5.9475765947178061e-05 0 0.0004760939810636539 4.8888834971644326e-05 0 0.0004417834029146454 2.47402485043787e-05 0 0.0004701904233662914 7.1345391280946204e-05 0 0.00050883990312036644 6.6261711236415664e-05 0 0.0004760939810636539 4.8888834971644326e-05 0 0.00047022432294074672 7.7324621343040231e-05 0 -0.00035833007020987586 1.6769955814795076e-06 0 -0.00062922069441492519 -0.00031996523962612321 0 -0.00062918558017949862 -0.00019342654521827297 0 0.00014418246953918425 1.3564975654076907e-05 0 -0.00035833007020987586 1.6769955814795076e-06 0 -0.00062922069441492519 -0.00031996523962612321 0 0.00014897234890254949 2.3791518881382945e-05 0 -7.6612382391685337e-05 -0.00010961466071606622 0 -0.00064037562472296281 -0.00013067017679597922 0 -0.00062918558017949862 -0.00019342654521827297 0 -0.00064790519751391001 -0.00017381971451783292 0 -0.00062922069441492519 -0.00031996523962612321 0 -0.00062918558017949862 -0.00019342654521827297 0 -0.00066504468899980453 -0.00020959954581317386 0 -0.00062918558017949862 -0.00019342654521827297 0 -0.00064790519751391001 -0.00017381971451783292 0 -0.00066504468899980453 -0.00020959954581317386 0 0.00051006597414515579 5.5680946210728824e-05 0 0.00052336791541687995 8.3825388190397637e-05 0 0.0003862947915770735 5.9475765947178061e-05 0 0.00051006597414515579 5.5680946210728824e-05 0 0.00045884915955482768 6.1200359429030887e-05 0 0.00056690900373454738 3.9936332714726082e-06 0 0.00065431818020694364 0.00010909535329684817 0 0.00051006597414515579 5.5680946210728824e-05 0 0.00082656568559128201 0.00014604091796822428 0 0.00056705718949579074 4.7553424301584939e-05 0 0.00070629295401183412 -1.7155419673073658e-05 0 0.00058093816191917688 8.3324298903463928e-05 0 0.00065431818020694364 0.00010909535329684817 0 0.00052336791541687995 8.3825388190397637e-05 0 0.00065431818020694364 0.00010909535329684817 0 0.00051006597414515579 5.5680946210728824e-05 0 0.00052336791541687995 8.3825388190397637e-05 0 0.00058093816191917688 8.3324298903463928e-05 0 0.00052336791541687995 8.3825388190397637e-05 0 0.00047575626200084705 8.0959410329718197e-05 0 0.00050883990312036644 6.6261711236415664e-05 0 0.00047022432294074672 7.7324621343040231e-05 0 0.00047575626200084705 8.0959410329718197e-05 0 0.00047022432294074672 7.7324621343040231e-05 0 0.00047575626200084705 8.0959410329718197e-05 0 0.0003862947915770735 5.9475765947178061e-05 0 0.00052336791541687995 8.3825388190397637e-05 0 0.00047575626200084705 8.0959410329718197e-05 0 0.0003862947915770735 5.9475765947178061e-05 0 0.00014418246953918425 1.3564975654076907e-05 0 0.0004701904233662914 7.1345391280946204e-05 0 0.0003862947915770735 5.9475765947178061e-05 0 0.00014418246953918425 1.3564975654076907e-05 0 0.0003862947915770735 5.9475765947178061e-05 0 0.00045884915955482768 6.1200359429030887e-05 0 0.00051006597414515579 5.5680946210728824e-05 0 0.0003862947915770735 5.9475765947178061e-05 0 0.00045884915955482768 6.1200359429030887e-05 0 0.00058814335890259987 0.00016080107919600215 0 0.00045884915955482768 6.1200359429030887e-05 0 0.00060332230430309162 6.5150626374187908e-05 0 0.00058814335890259987 0.00016080107919600215 0 0.00060332230430309162 6.5150626374187908e-05 0 0.00068316967874799213 9.7235314481044707e-05 0 0.00045884915955482768 6.1200359429030887e-05 0 0.00060332230430309162 6.5150626374187908e-05 0 0.00056690900373454738 3.9936332714726082e-06 0 0.00070651806714598013 0.00017022383973290165 0 0.00076022963101229695 0.00010997911264447177 0 0.00068316967874799213 9.7235314481044707e-05 0 0.00070651806714598013 0.00017022383973290165 0 0.00076022963101229695 0.00010997911264447177 0 0.00083152376883211486 0.00014533196116298677 0 0.00058814335890259987 0.00016080107919600215 0 0.00070651806714598013 0.00017022383973290165 0 0.00068316967874799213 9.7235314481044707e-05 0 0.00060332230430309162 6.5150626374187908e-05 0 0.00068316967874799213 9.7235314481044707e-05 0 0.00067242938876367424 1.2005866635036388e-05 0 0.00068316967874799213 9.7235314481044707e-05 0 0.00076304921111110659 4.6827982256714711e-05 0 0.00067242938876367424 1.2005866635036388e-05 0 0.00076022963101229695 0.00010997911264447177 0 0.00068316967874799213 9.7235314481044707e-05 0 0.00076304921111110659 4.6827982256714711e-05 0 0.00076022963101229695 0.00010997911264447177 0 0.00076304921111110659 4.6827982256714711e-05 0 0.0008053524960181409 8.2500637674683049e-05 0 0.00076304921111110659 4.6827982256714711e-05 0 0.00067242938876367424 1.2005866635036388e-05 0 0.00077458015983640678 -5.8105945023680871e-05 0 0.00067242938876367424 1.2005866635036388e-05 0 0.00065783088526881809 -0.00010045492271453435 0 0.00077458015983640678 -5.8105945023680871e-05 0 0.00065783088526881809 -0.00010045492271453435 0 0.00077458015983640678 -5.8105945023680871e-05 0 0.00075732744945123081 -0.00016614117309774509 0 0.00067242938876367424 1.2005866635036388e-05 0 0.00065783088526881809 -0.00010045492271453435 0 0.00056690900373454738 3.9936332714726082e-06 0 0.00060332230430309162 6.5150626374187908e-05 0 0.00067242938876367424 1.2005866635036388e-05 0 0.00056690900373454738 3.9936332714726082e-06 0 0.00065783088526881809 -0.00010045492271453435 0 0.00056690900373454738 3.9936332714726082e-06 0 0.00053119867224795552 -0.00010520160101448949 0 0.00051006597414515579 5.5680946210728824e-05 0 0.00056690900373454738 3.9936332714726082e-06 0 0.00053119867224795552 -0.00010520160101448949 0 0.00065783088526881809 -0.00010045492271453435 0 0.00053119867224795552 -0.00010520160101448949 0 0.00061030535849382252 -0.00025282861576527506 0 0.00082656568559128201 0.00014604091796822428 0 0.0010112433399731072 0.00015416142398460994 0 0.0010357960984123315 0.0001563171241068762 0 0.00083267504949701473 0.00012288398112871563 0 0.00082656568559128201 0.00014604091796822428 0 0.0010112433399731072 0.00015416142398460994 0 0.00070629295401183412 -1.7155419673073658e-05 0 0.0011626759243745478 0.00035191555028073494 0 0.00075732744945123081 -0.00016614117309774509 0 0.00061030535849382252 -0.00025282861576527506 0 0.00084161122591063203 -0.00028887965190561263 0 0.00065783088526881809 -0.00010045492271453435 0 0.00075732744945123081 -0.00016614117309774509 0 0.00061030535849382252 -0.00025282861576527506 0 0.0011626759243745478 0.00035191555028073494 0 0.0016064977173035897 0.00035225462491145053 0 0.0017893314833415464 -4.4814202667255152e-05 0 0.0014106414854175304 -4.6829394631530895e-06 0 0.0013017976579370691 0.00022381095279809272 0 0.00194705091815305 0.00039014460106226326 0 0.0015206394088107017 0.0010144189464649871 0 0.0023761939217948396 0.00099178610636329548 0 0.0019004532380021012 0.00017925814655453482 0 0.0011626759243745478 0.00035191555028073494 0 0.0012456816033811823 -0.00012116072091462407 0 0.0014106414854175304 -4.6829394631530895e-06 0 0.0011943570130093194 4.2962676312396758e-05 0 0.0012456816033811823 -0.00012116072091462407 0 0.0010399895572900861 -8.4215717218441287e-06 0 0.0011943570130093194 4.2962676312396758e-05 0 0.00088187596096989649 7.4095151788327351e-05 0 0.0010399895572900861 -8.4215717218441287e-06 0 0.0010112433399731072 0.00015416142398460994 0 0.0010399895572900861 -8.4215717218441287e-06 0 0.0011943570130093194 4.2962676312396758e-05 0 0.0010112433399731072 0.00015416142398460994 0 0.0010876620517391705 0.00027680965046665557 0 0.0011626759243745478 0.00035191555028073494 0 0.0011943570130093194 4.2962676312396758e-05 0 0.0010112433399731072 0.00015416142398460994 0 0.0013017976579370691 0.00022381095279809272 0 0.0014106414854175304 -4.6829394631530895e-06 0 0.0011943570130093194 4.2962676312396758e-05 0 0.0013017976579370691 0.00022381095279809272 0 0.0027234093970255461 0.00038685351730913253 0 0.0032242639762342382 0.00093502925972399219 0 0.0023761939217948396 0.00099178610636329548 0 0.0020917672629459051 0.00029409593330339059 0 0.0016064977173035897 0.00035225462491145053 0 0.0027234093970255461 0.00038685351730913253 0 0.0032242639762342382 0.00093502925972399219 0 0.0033905923734704546 0.00030455854117775611 0 0.00194705091815305 0.00039014460106226326 0 0.0027234093970255461 0.00038685351730913253 0 0.0023761939217948396 0.00099178610636329548 0 0.00075732744945123081 -0.00016614117309774509 0 0.00084161122591063203 -0.00028887965190561263 0 0.00091330701151663197 -0.00012837514666934766 0 0.00084161122591063203 -0.00028887965190561263 0 0.00091330701151663197 -0.00012837514666934766 0 0.00098699784962334291 -0.00023340096306150561 0 0.00077458015983640678 -5.8105945023680871e-05 0 0.00075732744945123081 -0.00016614117309774509 0 0.00091330701151663197 -0.00012837514666934766 0 0.00091330701151663197 -0.00012837514666934766 0 0.00098699784962334291 -0.00023340096306150561 0 0.0010878662419141496 -0.00017813618040965631 0 0.0011119517725352802 -0.00033737601608480619 0 0.00084161122591063203 -0.00028887965190561263 0 0.00098699784962334291 -0.00023340096306150561 0 0.0011119517725352802 -0.00033737601608480619 0 0.00098699784962334291 -0.00023340096306150561 0 0.0010878662419141496 -0.00017813618040965631 0 0.00091330701151663197 -0.00012837514666934766 0 0.0010878662419141496 -0.00017813618040965631 0 0.0010501505999348435 -5.6953978088968836e-06 0 0.00091330701151663197 -0.00012837514666934766 0 0.0010501505999348435 -5.6953978088968836e-06 0 0.00086840021547878636 2.6040148581914558e-05 0 0.00077458015983640678 -5.8105945023680871e-05 0 0.00091330701151663197 -0.00012837514666934766 0 0.00086840021547878636 2.6040148581914558e-05 0 0.00076304921111110659 4.6827982256714711e-05 0 0.00077458015983640678 -5.8105945023680871e-05 0 0.00086840021547878636 2.6040148581914558e-05 0 0.00039299417637655184 0.00067159666369860605 0 0.00034397145477873257 0.00048976387573298661 0 0.00095744369049490191 0.0003821538265149861 0 0.00091834771483617855 4.6192478299388181e-05 0 0.00084869215195417598 0.0003268671160552205 0 0.0010501505999348435 -5.6953978088968836e-06 0 0.00086840021547878636 2.6040148581914558e-05 0 0.00083152376883211486 0.00014533196116298677 0 0.00076304921111110659 4.6827982256714711e-05 0 0.00086840021547878636 2.6040148581914558e-05 0 0.0008053524960181409 8.2500637674683049e-05 0 0.00086840021547878636 2.6040148581914558e-05 0 0.0008053524960181409 8.2500637674683049e-05 0 0.00083152376883211486 0.00014533196116298677 0 0.00076022963101229695 0.00010997911264447177 0 0.0008053524960181409 8.2500637674683049e-05 0 0.00083152376883211486 0.00014533196116298677 0 0.00087295677734187938 7.1855449301572044e-05 0 0.00034397145477873257 0.00048976387573298661 0 0.00095744369049490191 0.0003821538265149861 0 -0.0011085496421545749 -0.0002902346872347042 0 2.8297788643444657e-05 -0.0009621883254068757 0 -0.0024517720783644005 -0.0013351880417553509 0 -0.0017816657113167351 -0.0013166418356101695 0 -0.00092564709549926077 -0.0021815777463900215 0 0.00087295677734187938 7.1855449301572044e-05 0 0.00095744369049490191 0.0003821538265149861 0 0.0011212542270070424 0.00017421730900723771 0 -0.001246140581150046 -0.0015517070870259017 0 -0.00092564709549926077 -0.0021815777463900215 0 -0.00055172966193162913 -0.0016537200465792114 0 -0.0017816657113167351 -0.0013166418356101695 0 -0.001246140581150046 -0.0015517070870259017 0 -0.00092564709549926077 -0.0021815777463900215 0 -0.00015251537205948003 -0.0018609866773113444 0 0.00050244860087536743 -0.0021872285221500314 0 0.00069513168238774861 -0.0027953101588398034 0 -0.00092564709549926077 -0.0021815777463900215 0 0.00069513168238774861 -0.0027953101588398034 0 0.00075621732795504702 -0.0029675059148168161 0 -0.0002502020856741011 -0.0017931573538452288 0 0.00059085328516997456 -0.0027108302701735706 0 -0.00092564709549926077 -0.0021815777463900215 0 -0.00055172966193162913 -0.0016537200465792114 0 0.00069513168238774861 -0.0027953101588398034 0 0.00095744369049490191 0.0003821538265149861 0 0.0014129327670133491 0.00012724235513190954 0 0.0011212542270070424 0.00017421730900723771 0 2.8297788643444657e-05 -0.0009621883254068757 0 0.001256646349556843 -0.00083405996428629291 0 -0.00015251537205948003 -0.0018609866773113444 0 0.00050244860087536743 -0.0021872285221500314 0 0.00043723423241717328 -0.0018064469247288154 0 0.00050244860087536743 -0.0021872285221500314 0 0.00043723423241717328 -0.0018064469247288154 0 0.00074342462989034086 -0.0020015066553831762 0 0.00082716720338128118 -0.0024644875957063471 0 0.00075621732795504702 -0.0029675059148168161 0 0.0016840081918101297 -0.0020026206683846164 0 0.0026202645539988613 -0.000450186532437686 0 0.00234342462445162 -0.0005434236538789213 0 0.0027176191543777793 -0.00018304388598809892 0 0.001256646349556843 -0.00083405996428629291 0 0.0021790945573956083 -0.0012129521146104958 0 0.00050244860087536743 -0.0021872285221500314 0 0.00074342462989034086 -0.0020015066553831762 0 0.00082716720338128118 -0.0024644875957063471 0 0.00074342462989034086 -0.0020015066553831762 0 0.0010726656970526183 -0.0020231635362644332 0 0.00082716720338128118 -0.0024644875957063471 0 0.00095459612760567109 -0.0015203991482517208 0 0.00074342462989034086 -0.0020015066553831762 0 0.0010726656970526183 -0.0020231635362644332 0 0.0010726656970526183 -0.0020231635362644332 0 0.00082716720338128118 -0.0024644875957063471 0 0.0016840081918101297 -0.0020026206683846164 0 0.0013115057554657274 -0.0016992690051077437 0 0.0010726656970526183 -0.0020231635362644332 0 0.0016840081918101297 -0.0020026206683846164 0 0.00050244860087536743 -0.0021872285221500314 0 0.00082716720338128118 -0.0024644875957063471 0 0.00069513168238774861 -0.0027953101588398034 0 0.00082716720338128118 -0.0024644875957063471 0 0.00069513168238774861 -0.0027953101588398034 0 0.00075621732795504702 -0.0029675059148168161 0 0.0014023214505805746 0.00012018978810381811 0 0.0013565239587990229 7.7790687109535839e-05 0 0.0014961271488596482 -1.7889788639454909e-05 0 0.001256646349556843 -0.00083405996428629291 0 0.001406612433535378 -0.00059131279757275218 0 0.001256646349556843 -0.00083405996428629291 0 0.003313373869270682 0.00018975758692463778 0 0.0026202645539988613 -0.000450186532437686 0 0.00234342462445162 -0.0005434236538789213 0 0.0026874316854770979 -0.00072485960561865723 0 0.0014023214505805746 0.00012018978810381811 0 0.0014961271488596482 -1.7889788639454909e-05 0 0.0016634075221919834 -2.2031400695266738e-05 0 0.0013565239587990229 7.7790687109535839e-05 0 0.0014961271488596482 -1.7889788639454909e-05 0 0.0013390864304180703 -4.101955225825371e-05 0 0.00087295677734187938 7.1855449301572044e-05 0 0.0012012865102022942 1.88936934236622e-05 0 0.0013080563341827938 -0.0002221267141000209 0 0.0013390864304180703 -4.101955225825371e-05 0 0.0012012865102022942 1.88936934236622e-05 0 0.0013080563341827938 -0.0002221267141000209 0 0.00091834771483617855 4.6192478299388181e-05 0 0.0012969462767673291 -0.00021913401484223037 0 0.0013565239587990229 7.7790687109535839e-05 0 0.0013390864304180703 -4.101955225825371e-05 0 0.0012012865102022942 1.88936934236622e-05 0 0.00087295677734187938 7.1855449301572044e-05 0 0.0012012865102022942 1.88936934236622e-05 0 0.0011212542270070424 0.00017421730900723771 0 0.0014129327670133491 0.00012724235513190954 0 0.0011212542270070424 0.00017421730900723771 0 0.0012612385015353792 0.00010176711276314399 0 0.0014129327670133491 0.00012724235513190954 0 0.0013565239587990229 7.7790687109535839e-05 0 0.0012612385015353792 0.00010176711276314399 0 0.0012012865102022942 1.88936934236622e-05 0 0.0011212542270070424 0.00017421730900723771 0 0.0012612385015353792 0.00010176711276314399 0 0.0013565239587990229 7.7790687109535839e-05 0 0.0012012865102022942 1.88936934236622e-05 0 0.0012612385015353792 0.00010176711276314399 0 0.0047133227397099641 0.00074391882563172649 0 0.0046425130051945271 0.00079369936133425541 0 0.0046925451541508468 0.00062740276857465324 0 0.0047959188851916211 0.00075434096092479952 0 0.0047244951167409368 0.00078983376850183225 0 0.0047133227397099641 0.00074391882563172649 0 0.0048803202910609033 0.00086159247747450069 0 0.0047503094762243866 0.00085392970827184278 0 0.0047959188851916211 0.00075434096092479952 0 0.0047503094762243866 0.00085392970827184278 0 0.0047959188851916211 0.00075434096092479952 0 0.0047244951167409368 0.00078983376850183225 0 0.0047503094762243866 0.00085392970827184278 0 0.0047244951167409368 0.00078983376850183225 0 0.0046425130051945271 0.00079369936133425541 0 0.0047244951167409368 0.00078983376850183225 0 0.0047133227397099641 0.00074391882563172649 0 0.0046425130051945271 0.00079369936133425541 0 0.0047959188851916211 0.00075434096092479952 0 0.0047133227397099641 0.00074391882563172649 0 0.0046925451541508468 0.00062740276857465324 0 0.0026202645539988613 -0.000450186532437686 0 0.0029562152912278525 -0.00021830427396868254 0 0.0027176191543777793 -0.00018304388598809892 0 0.0038757743700838006 0.00031784427637952437 0 0.003313373869270682 0.00018975758692463778 0 0.0046425130051945271 0.00079369936133425541 0 0.0045057577944626623 0.00056672444575687738 0 0.0046925451541508468 0.00062740276857465324 0 0.0026202645539988613 -0.000450186532437686 0 0.0029562152912278525 -0.00021830427396868254 0 0.0026874316854770979 -0.00072485960561865723 0 0.0045057577944626623 0.00056672444575687738 0 0.0046925451541508468 0.00062740276857465324 0 0.004739008699280913 0.00044015338235750431 0 0.0047959188851916211 0.00075434096092479952 0 0.0048288840521053594 0.00057083957472471212 0 0.0046925451541508468 0.00062740276857465324 0 0.0048288840521053594 0.00057083957472471212 0 0.0046925451541508468 0.00062740276857465324 0 0.004739008699280913 0.00044015338235750431 0 0.0047459936502310925 0.00077512191086010005 0 0.0043795567668665075 0.00050849186328605627 0 0.0048128055222135804 0.00052988326232121432 0 0.003313373869270682 0.00018975758692463778 0 0.0049032767105657762 0.00063311620173466107 0 0.0042114113376145144 0.0010633526749267905 0 0.0047459936502310925 0.00077512191086010005 0 0.0043795567668665075 0.00050849186328605627 0 0.0044532205646216783 0.00064912918454291591 0 0.004631184570533904 0.0004450236531253103 0 0.0042412254844568717 0.00050953157320752813 0 0.004631184570533904 0.0004450236531253103 0 0.0042412254844568717 0.00050953157320752813 0 0.004323266784116403 0.00023147720573777451 0 0.0047459936502310925 0.00077512191086010005 0 0.0048128055222135804 0.00052988326232121432 0 0.0051462401943036511 0.00047347877854100445 0 0.00456381387371601 0.00057795753780155831 0 0.0047074389328756608 0.00054484959167364782 0 0.0044532205646216783 0.00064912918454291591 0 0.0048128055222135804 0.00052988326232121432 0 0.004631184570533904 0.0004450236531253103 0 0.0048128055222135804 0.00052988326232121432 0 0.004631184570533904 0.0004450236531253103 0 0.0049356764097509597 0.00029872664251639997 0 0.0010878662419141496 -0.00017813618040965631 0 0.0010501505999348435 -5.6953978088968836e-06 0 0.0013080563341827938 -0.0002221267141000209 0 0.0011119517725352802 -0.00033737601608480619 0 0.0010878662419141496 -0.00017813618040965631 0 0.0013080563341827938 -0.0002221267141000209 0 0.0011119517725352802 -0.00033737601608480619 0 0.0013080563341827938 -0.0002221267141000209 0 0.0014577175274176277 -0.0003815314958428839 0 0.0042114113376145144 0.0010633526749267905 0 0.0043795567668665075 0.00050849186328605627 0 0.0039244166194530705 0.00051570565000909254 0 0.0014961271488596482 -1.7889788639454909e-05 0 0.0013080563341827938 -0.0002221267141000209 0 0.0014577175274176277 -0.0003815314958428839 0 0.003313373869270682 0.00018975758692463778 0 0.0031186080398178878 0.00028288844337229766 0 0.0014961271488596482 -1.7889788639454909e-05 0 0.0016634075221919834 -2.2031400695266738e-05 0 0.0014577175274176277 -0.0003815314958428839 0 0.0014961271488596482 -1.7889788639454909e-05 0 0.0013390864304180703 -4.101955225825371e-05 0 0.0013080563341827938 -0.0002221267141000209 0 0.0040262878384685827 0.00084877294953816644 0 0.0039106294422353643 0.00061025373180431479 0 0.0036547703162129342 0.00061474929952193595 0 0.0044532205646216783 0.00064912918454291591 0 0.0040088838716188418 0.00074487912125693412 0 0.0042412254844568717 0.00050953157320752813 0 0.0040088838716188418 0.00074487912125693412 0 0.0042412254844568717 0.00050953157320752813 0 0.0039106294422353643 0.00061025373180431479 0 0.00456381387371601 0.00057795753780155831 0 0.0031186080398178878 0.00028288844337229766 0 0.0031186080398178878 0.00028288844337229766 0 0.0036398881265559792 0.0007668902698336925 0 0.0042412254844568717 0.00050953157320752813 0 0.0039106294422353643 0.00061025373180431479 0 0.0040273992365893602 0.0003789358161715938 0 0.0039106294422353643 0.00061025373180431479 0 0.0037287494041813012 0.00039578071603944809 0 0.0040273992365893602 0.0003789358161715938 0 0.0032242639762342382 0.00093502925972399219 0 0.0036547703162129342 0.00061474929952193595 0 0.0033905923734704546 0.00030455854117775611 0 0.0039106294422353643 0.00061025373180431479 0 0.0036547703162129342 0.00061474929952193595 0 0.0037287494041813012 0.00039578071603944809 0 0.0032242639762342382 0.00093502925972399219 0 0.0040262878384685827 0.00084877294953816644 0 0.0036547703162129342 0.00061474929952193595 0 0.0020917672629459051 0.00029409593330339059 0 0.0031186080398178878 0.00028288844337229766 0 0.0033905923734704546 0.00030455854117775611 0 0.0036212571840523026 -0.00025665905861041991 0 0.0038890652417955681 0.00014609322220996465 0 0.0033905923734704546 0.00030455854117775611 0 0.0037287494041813012 0.00039578071603944809 0 0.0038890652417955681 0.00014609322220996465 0 0.0036547703162129342 0.00061474929952193595 0 0.0033905923734704546 0.00030455854117775611 0 0.0037287494041813012 0.00039578071603944809 0 0.0030206149269835468 -0.00018631063933838719 0 0.0033905923734704546 0.00030455854117775611 0 0.0036212571840523026 -0.00025665905861041991 0 0.0036212571840523026 -0.00025665905861041991 0 0.004110143975793454 -0.00014945923738888682 0 0.0041482293877615232 -0.00056406476721616318 0 0.0036212571840523026 -0.00025665905861041991 0 0.004110143975793454 -0.00014945923738888682 0 0.0038890652417955681 0.00014609322220996465 0 0.004110143975793454 -0.00014945923738888682 0 0.0044647006860175616 -0.00025517315349264359 0 0.0041482293877615232 -0.00056406476721616318 0 0.004110143975793454 -0.00014945923738888682 0 0.0038890652417955681 0.00014609322220996465 0 0.004323266784116403 0.00023147720573777451 0 0.0038890652417955681 0.00014609322220996465 0 0.0040273992365893602 0.0003789358161715938 0 0.004323266784116403 0.00023147720573777451 0 0.0037287494041813012 0.00039578071603944809 0 0.0038890652417955681 0.00014609322220996465 0 0.0040273992365893602 0.0003789358161715938 0 0.0042412254844568717 0.00050953157320752813 0 0.0040273992365893602 0.0003789358161715938 0 0.004323266784116403 0.00023147720573777451 0 0.004631184570533904 0.0004450236531253103 0 0.004323266784116403 0.00023147720573777451 0 0.0047246435153979124 0.00021227207025865559 0 0.004323266784116403 0.00023147720573777451 0 0.0047246435153979124 0.00021227207025865559 0 0.0047297384084152546 -6.2290467364998456e-05 0 0.0047246435153979124 0.00021227207025865559 0 0.0049914752428189425 5.9084549067032736e-06 0 0.0049356764097509597 0.00029872664251639997 0 0.004631184570533904 0.0004450236531253103 0 0.0047246435153979124 0.00021227207025865559 0 0.0049356764097509597 0.00029872664251639997 0 0.0047246435153979124 0.00021227207025865559 0 0.0047297384084152546 -6.2290467364998456e-05 0 0.0049914752428189425 5.9084549067032736e-06 0 0.0047297384084152546 -6.2290467364998456e-05 0 0.0048561880437642301 -0.00031307162672907326 0 0.0049914752428189425 5.9084549067032736e-06 0 0.0047297384084152546 -6.2290467364998456e-05 0 0.0044647006860175616 -0.00025517315349264359 0 0.0048561880437642301 -0.00031307162672907326 0 0.004323266784116403 0.00023147720573777451 0 0.0047297384084152546 -6.2290467364998456e-05 0 0.0044647006860175616 -0.00025517315349264359 0 0.004110143975793454 -0.00014945923738888682 0 0.004323266784116403 0.00023147720573777451 0 0.0044647006860175616 -0.00025517315349264359 0 0.0044647006860175616 -0.00025517315349264359 0 0.0046044938594968273 -0.00071793759303606609 0 0.0041482293877615232 -0.00056406476721616318 0 0.0044647006860175616 -0.00025517315349264359 0 0.0048561880437642301 -0.00031307162672907326 0 0.0046044938594968273 -0.00071793759303606609 0 0.0048561880437642301 -0.00031307162672907326 0 0.0046044938594968273 -0.00071793759303606609 0 0.0049639566599968534 -0.00061117460848855915 0 0.0046044938594968273 -0.00071793759303606609 0 0.0049639566599968534 -0.00061117460848855915 0 0.0049258642377950331 -0.00090901053725398015 0 0.0046044938594968273 -0.00071793759303606609 0 0.0045816396401285684 -0.0010701001226128544 0 0.0049258642377950331 -0.00090901053725398015 0 0.0046044938594968273 -0.00071793759303606609 0 0.0042382740390382364 -0.0010904292438625521 0 0.0045816396401285684 -0.0010701001226128544 0 0.0042382740390382364 -0.0010904292438625521 0 0.0035302057488853789 -0.00086039034816565911 0 0.0041482293877615232 -0.00056406476721616318 0 0.0046044938594968273 -0.00071793759303606609 0 0.0042382740390382364 -0.0010904292438625521 0 0.0041482293877615232 -0.00056406476721616318 0 0.003166326540838902 -0.0015342004511627479 0 0.0042382740390382364 -0.0010904292438625521 0 0.0035302057488853789 -0.00086039034816565911 0 0.0038180411710894346 -0.0013057270326652464 0 0.0042247022846682554 -0.0011209320305799731 0 0.0036212571840523026 -0.00025665905861041991 0 0.0035302057488853789 -0.00086039034816565911 0 0.0041482293877615232 -0.00056406476721616318 0 0.0032252064613886595 -0.00054921909047629777 0 0.0036212571840523026 -0.00025665905861041991 0 0.0035302057488853789 -0.00086039034816565911 0 0.0057400514105370812 -0.00037033923842146163 0 0.0053234424880390235 -0.00025171314260173471 0 0.0056009802573687931 -7.5034073798452416e-05 0 0.0057400514105370812 -0.00037033923842146163 0 0.0056009802573687931 -7.5034073798452416e-05 0 0.0058679654652775146 -0.00023550738323882482 0 0.0057872021138885062 -0.00035151105580069419 0 0.0063500486116604372 -0.00034642673267418033 0 0.0057400514105370812 -0.00037033923842146163 0 0.0067868227708567956 -0.00027753935283197592 0 0.0062706912411758476 -0.0007220666150100488 0 0.0057400514105370812 -0.00037033923842146163 0 0.0058679654652775146 -0.00023550738323882482 0 0.0059089257259071042 -0.00039125476652732355 0 0.0057400514105370812 -0.00037033923842146163 0 0.0052768877938971443 -0.00057303292592572879 0 0.0053595708951586401 -0.00095228825203240973 0 0.0052768877938971443 -0.00057303292592572879 0 0.0049639566599968534 -0.00061117460848855915 0 0.0049258642377950331 -0.00090901053725398015 0 0.0052768877938971443 -0.00057303292592572879 0 0.0049639566599968534 -0.00061117460848855915 0 0.0053234424880390235 -0.00025171314260173471 0 0.0048561880437642301 -0.00031307162672907326 0 0.0049639566599968534 -0.00061117460848855915 0 0.0053234424880390235 -0.00025171314260173471 0 0.0057400514105370812 -0.00037033923842146163 0 0.0052768877938971443 -0.00057303292592572879 0 0.0053234424880390235 -0.00025171314260173471 0 0.0053234424880390235 -0.00025171314260173471 0 0.005246216131296306 9.6261336177789225e-05 0 0.0056009802573687931 -7.5034073798452416e-05 0 0.0053234424880390235 -0.00025171314260173471 0 0.0049914752428189425 5.9084549067032736e-06 0 0.005246216131296306 9.6261336177789225e-05 0 0.0048561880437642301 -0.00031307162672907326 0 0.0053234424880390235 -0.00025171314260173471 0 0.0049914752428189425 5.9084549067032736e-06 0 0.0049914752428189425 5.9084549067032736e-06 0 0.0049356764097509597 0.00029872664251639997 0 0.005246216131296306 9.6261336177789225e-05 0 0.005246216131296306 9.6261336177789225e-05 0 0.0053917135332807375 0.00019392650171864851 0 0.0056009802573687931 -7.5034073798452416e-05 0 0.0053917135332807375 0.00019392650171864851 0 0.0056009802573687931 -7.5034073798452416e-05 0 0.0056542848661474609 0.00015878477369505356 0 0.0056009802573687931 -7.5034073798452416e-05 0 0.0056542848661474609 0.00015878477369505356 0 0.0058948642931163624 1.3560705157180812e-06 0 0.0056542848661474609 0.00015878477369505356 0 0.0054854557373393087 0.00033214170137110176 0 0.0058289227925753632 0.00030932294368410872 0 0.0053917135332807375 0.00019392650171864851 0 0.0056542848661474609 0.00015878477369505356 0 0.0054854557373393087 0.00033214170137110176 0 0.0053917135332807375 0.00019392650171864851 0 0.0054854557373393087 0.00033214170137110176 0 0.0052841546209100327 0.0004467524705897188 0 0.0054854557373393087 0.00033214170137110176 0 0.0052841546209100327 0.0004467524705897188 0 0.0055215109414446673 0.00053704420855687845 0 0.0054854557373393087 0.00033214170137110176 0 0.0055215109414446673 0.00053704420855687845 0 0.0058289227925753632 0.00030932294368410872 0 0.0049356764097509597 0.00029872664251639997 0 0.005246216131296306 9.6261336177789225e-05 0 0.0051462401943036511 0.00047347877854100445 0 0.0048128055222135804 0.00052988326232121432 0 0.0049356764097509597 0.00029872664251639997 0 0.0051462401943036511 0.00047347877854100445 0 0.0053917135332807375 0.00019392650171864851 0 0.0052841546209100327 0.0004467524705897188 0 0.0050193804641844838 0.00030350916430478509 0 0.005246216131296306 9.6261336177789225e-05 0 0.0053917135332807375 0.00019392650171864851 0 0.0051462401943036511 0.00047347877854100445 0 0.0053741249028424649 0.00021067234533917844 0 0.0050488274739902105 0.00039621169193860764 0 0.0052841546209100327 0.0004467524705897188 0 0.0050193804641844838 0.00030350916430478509 0 0.0049680518343211723 0.0006355643355256314 0 0.0048288840521053594 0.00057083957472471212 0 0.0050193804641844838 0.00030350916430478509 0 0.0049680518343211723 0.0006355643355256314 0 0.0048288840521053594 0.00057083957472471212 0 0.004739008699280913 0.00044015338235750431 0 0.0050193804641844838 0.00030350916430478509 0 0.0049032767105657762 0.00063311620173466107 0 0.0050488274739902105 0.00039621169193860764 0 0.0047959188851916211 0.00075434096092479952 0 0.0048288840521053594 0.00057083957472471212 0 0.0049680518343211723 0.0006355643355256314 0 0.0049680518343211723 0.0006355643355256314 0 0.0050564091967800519 0.0007983044708543786 0 0.0052695056437750167 0.00067855399547462421 0 0.0052841546209100327 0.0004467524705897188 0 0.0049680518343211723 0.0006355643355256314 0 0.0052695056437750167 0.00067855399547462421 0 0.0048923268000730597 0.00088087963530627091 0 0.0049680518343211723 0.0006355643355256314 0 0.0050564091967800519 0.0007983044708543786 0 0.0049634412833540779 0.00097586354828476285 0 0.0049441352689502003 0.00060524555988661073 0 0.0048803202910609033 0.00086159247747450069 0 0.0047959188851916211 0.00075434096092479952 0 0.0049680518343211723 0.0006355643355256314 0 0.0055215109414446673 0.00053704420855687845 0 0.0052695056437750167 0.00067855399547462421 0 0.0054986246090073347 0.00078373297456137473 0 0.0055215109414446673 0.00053704420855687845 0 0.0054986246090073347 0.00078373297456137473 0 0.0057368200841329516 0.00066406890875399423 0 0.0052841546209100327 0.0004467524705897188 0 0.0055215109414446673 0.00053704420855687845 0 0.0052695056437750167 0.00067855399547462421 0 0.0050564091967800519 0.0007983044708543786 0 0.0052695056437750167 0.00067855399547462421 0 0.0052206415883553087 0.00088988891728666419 0 0.0052695056437750167 0.00067855399547462421 0 0.0052206415883553087 0.00088988891728666419 0 0.0054986246090073347 0.00078373297456137473 0 0.0057372317593740929 0.00094650247685306474 0 0.0055031067616510398 0.0010439317888254818 0 0.0054986246090073347 0.00078373297456137473 0 0.0055031067616510398 0.0010439317888254818 0 0.0052206415883553087 0.00088988891728666419 0 0.0054986246090073347 0.00078373297456137473 0 0.0057372317593740929 0.00094650247685306474 0 0.0054986246090073347 0.00078373297456137473 0 0.0057368200841329516 0.00066406890875399423 0 0.0057368200841329516 0.00066406890875399423 0 0.0059942210035475469 0.00055983987605266598 0 0.0060529256965138022 0.0009002270676213731 0 0.0057372317593740929 0.00094650247685306474 0 0.0057368200841329516 0.00066406890875399423 0 0.0060529256965138022 0.0009002270676213731 0 0.0059942210035475469 0.00055983987605266598 0 0.0060529256965138022 0.0009002270676213731 0 0.0063645010113557027 0.00079043169829268471 0 0.0064994597675700613 0.001144946960661969 0 0.0063505453700291245 0.00078572588101034793 0 0.0062589200514764813 0.000990030544651457 0 0.0060529256965138022 0.0009002270676213731 0 0.0063645010113557027 0.00079043169829268471 0 0.0063645010113557027 0.00079043169829268471 0 0.006273904775415202 0.00042079947440451146 0 0.0066436460052271837 0.00061492713581051412 0 0.0059942210035475469 0.00055983987605266598 0 0.0063645010113557027 0.00079043169829268471 0 0.006273904775415202 0.00042079947440451146 0 0.0060161235305902436 0.00055245984493645754 0 0.0062706311716152251 0.00042613820078230577 0 0.0059942210035475469 0.00055983987605266598 0 0.0062818212380898785 0.00042464161685384347 0 0.0060635017424196793 0.00035470760932551474 0 0.0062818212380898785 0.00042464161685384347 0 0.0061556869064933158 0.00012980171603217688 0 0.0063754683146532752 0.00013562109153184297 0 0.0062818212380898785 0.00042464161685384347 0 0.0065409679274155558 0.00029291762633941942 0 0.0063754683146532752 0.00013562109153184297 0 0.0062706311716152251 0.00042613820078230577 0 0.0065716211646430671 0.00028332773306658963 0 0.0062818212380898785 0.00042464161685384347 0 0.0060635017424196793 0.00035470760932551474 0 0.0061556869064933158 0.00012980171603217688 0 0.0060635017424196793 0.00035470760932551474 0 0.0058289227925753632 0.00030932294368410872 0 0.0061556869064933158 0.00012980171603217688 0 0.0055215109414446673 0.00053704420855687845 0 0.0057368200841329516 0.00066406890875399423 0 0.0058289227925753632 0.00030932294368410872 0 0.0057368200841329516 0.00066406890875399423 0 0.0059942210035475469 0.00055983987605266598 0 0.0058289227925753632 0.00030932294368410872 0 0.0059942210035475469 0.00055983987605266598 0 0.0060635017424196793 0.00035470760932551474 0 0.0058289227925753632 0.00030932294368410872 0 0.0073618286223834069 0.00078098922405663604 0 0.0071193000866778683 0.00081068974674578214 0 0.0072502675501119902 0.00060456192263804354 0 0.0071193000866778683 0.00081068974674578214 0 0.0069993810340554553 0.00063650135486337201 0 0.0072502675501119902 0.00060456192263804354 0 0.0069489257363640512 0.00095913446670543661 0 0.0072863829447642053 0.0010300164337621006 0 0.0071193000866778683 0.00081068974674578214 0 0.0072863829447642053 0.0010300164337621006 0 0.0073618286223834069 0.00078098922405663604 0 0.0071193000866778683 0.00081068974674578214 0 0.0069489257363640512 0.00095913446670543661 0 0.0071193000866778683 0.00081068974674578214 0 0.0068319828343258856 0.0008257541345600616 0 0.0071193000866778683 0.00081068974674578214 0 0.0069993810340554553 0.00063650135486337201 0 0.0068319828343258856 0.0008257541345600616 0 0.0069993810340554553 0.00063650135486337201 0 0.0068319828343258856 0.0008257541345600616 0 0.0066436460052271837 0.00061492713581051412 0 0.0067355833808468504 0.001039382533900836 0 0.0068319828343258856 0.0008257541345600616 0 0.0065643934044030145 0.00092318124057309651 0 0.0068319828343258856 0.0008257541345600616 0 0.0065643934044030145 0.00092318124057309651 0 0.0066436460052271837 0.00061492713581051412 0 0.0069489257363640512 0.00095913446670543661 0 0.0067355833808468504 0.001039382533900836 0 0.0068319828343258856 0.0008257541345600616 0 0.0063645010113557027 0.00079043169829268471 0 0.0065643934044030145 0.00092318124057309651 0 0.0066436460052271837 0.00061492713581051412 0 0.0064714670666024586 0.0011182849432731126 0 0.0063645010113557027 0.00079043169829268471 0 0.0065643934044030145 0.00092318124057309651 0 0.006273904775415202 0.00042079947440451146 0 0.0066436460052271837 0.00061492713581051412 0 0.0065754145441954594 0.00028341656277339964 0 0.0065754145441954594 0.00028341656277339964 0 0.0068957641566872478 0.00039094477094814604 0 0.0068859920497535759 0.00015246282726243034 0 0.0065716211646430671 0.00028332773306658963 0 0.006777483094210582 0.00017191568203685529 0 0.0066436460052271837 0.00061492713581051412 0 0.0065754145441954594 0.00028341656277339964 0 0.0068957641566872478 0.00039094477094814604 0 0.0069993810340554553 0.00063650135486337201 0 0.0066436460052271837 0.00061492713581051412 0 0.0068957641566872478 0.00039094477094814604 0 0.0069993810340554553 0.00063650135486337201 0 0.0068957641566872478 0.00039094477094814604 0 0.0071698088231429181 0.00041450129918433579 0 0.0068957641566872478 0.00039094477094814604 0 0.0071698088231429181 0.00041450129918433579 0 0.0071220715372975214 0.0002138798160627819 0 0.0068957641566872478 0.00039094477094814604 0 0.0071220715372975214 0.0002138798160627819 0 0.0068859920497535759 0.00015246282726243034 0 0.0074307209727074277 0.00036007866843144822 0 0.0074693448707593962 0.00015449844166090111 0 0.0072997751454699058 0.00024098193419242665 0 0.0074307209727074277 0.00036007866843144822 0 0.0071698088231429181 0.00041450129918433579 0 0.0072997751454699058 0.00024098193419242665 0 0.0071698088231429181 0.00041450129918433579 0 0.0072997751454699058 0.00024098193419242665 0 0.0071220715372975214 0.0002138798160627819 0 0.0069993810340554553 0.00063650135486337201 0 0.0071698088231429181 0.00041450129918433579 0 0.0072502675501119902 0.00060456192263804354 0 0.0074307209727074277 0.00036007866843144822 0 0.0071698088231429181 0.00041450129918433579 0 0.0072502675501119902 0.00060456192263804354 0 0.0076677821064708241 -0.00010880574848381459 0 0.0072968056955710599 6.7111922356956452e-05 0 0.0072192944670568422 1.9578337815232542e-05 0 0.0080512656462154737 -7.9580789826733036e-05 0 0.0075120534941263825 3.5384777509155446e-05 0 0.0083596879974380464 -6.1085314924589176e-05 0 0.0082506532877941619 -3.2754013806072603e-05 0 0.0082140785729718866 6.0912837433086833e-05 0 0.0082506532877941619 -3.2754013806072603e-05 0 0.0082140785729718866 6.0912837433086833e-05 0 0.0081757254417959523 -2.3479793430487049e-05 0 0.0082506532877941619 -3.2754013806072603e-05 0 0.0081757254417959523 -2.3479793430487049e-05 0 0.0082085296968098503 -7.5807673819040103e-05 0 0.0074693448707593962 0.00015449844166090111 0 0.0072997751454699058 0.00024098193419242665 0 0.0072968056955710599 6.7111922356956452e-05 0 0.0072997751454699058 0.00024098193419242665 0 0.0072968056955710599 6.7111922356956452e-05 0 0.0071220715372975214 0.0002138798160627819 0 0.0072968056955710599 6.7111922356956452e-05 0 0.0072206004823577837 1.9118575884729967e-05 0 0.0071220715372975214 0.0002138798160627819 0 0.0073872613372996674 -8.9019866896244701e-07 0 0.0075120534941263825 3.5384777509155446e-05 0 0.0070780228749385268 1.0862760745569875e-05 0 0.0068276983681019327 -0.00012743935970858426 0 0.0068051575965256501 0.00015815990324216097 0 0.0075120534941263825 3.5384777509155446e-05 0 0.006777483094210582 0.00017191568203685529 0 0.0072206004823577837 1.9118575884729967e-05 0 0.0071220715372975214 0.0002138798160627819 0 0.0068859920497535759 0.00015246282726243034 0 0.0075120534941263825 3.5384777509155446e-05 0 0.0075026087815197673 -5.8533061535403024e-05 0 0.0082140785729718866 6.0912837433086833e-05 0 0.0081757254417959523 -2.3479793430487049e-05 0 0.0080698655914749843 -5.7890949258833456e-06 0 0.0081757254417959523 -2.3479793430487049e-05 0 0.0080698655914749843 -5.7890949258833456e-06 0 0.0081360389922980163 -7.2884700163300414e-05 0 0.0068276983681019327 -0.00012743935970858426 0 0.0065749102343295451 1.3635320084806952e-05 0 0.0065847186637396603 -0.00025842888971765486 0 0.0068276983681019327 -0.00012743935970858426 0 0.0068051575965256501 0.00015815990324216097 0 0.0065749102343295451 1.3635320084806952e-05 0 0.0065409679274155558 0.00029291762633941942 0 0.0065749102343295451 1.3635320084806952e-05 0 0.0063754683146532752 0.00013562109153184297 0 0.0065409679274155558 0.00029291762633941942 0 0.0068051575965256501 0.00015815990324216097 0 0.0065749102343295451 1.3635320084806952e-05 0 0.0065749102343295451 1.3635320084806952e-05 0 0.0065847186637396603 -0.00025842888971765486 0 0.0063325327519632357 -0.00012175669253573044 0 0.0072270841374134495 0.00032453092032230004 0 0.0070243298056893019 -0.0001637564103885848 0 0.0066536414455867984 -2.6161929954604498e-06 0 0.0072270841374134495 0.00032453092032230004 0 0.0070243298056893019 -0.0001637564103885848 0 0.0074516076799573559 -0.00020645360768019113 0 0.0070243298056893019 -0.0001637564103885848 0 0.0067734426320311238 -0.00029097186465342796 0 0.0071099916470005776 -0.00056288420107699093 0 0.0070243298056893019 -0.0001637564103885848 0 0.0074516076799573559 -0.00020645360768019113 0 0.0071099916470005776 -0.00056288420107699093 0 0.0072270841374134495 0.00032453092032230004 0 0.0074516076799573559 -0.00020645360768019113 0 0.0077206217755523502 6.607047181862571e-05 0 0.0074516076799573559 -0.00020645360768019113 0 0.0077206217755523502 6.607047181862571e-05 0 0.0078365823535500173 -0.00025501129824544334 0 0.0070318797655685369 -8.4830845368880108e-05 0 0.0079665514913679 -5.7951179562322586e-05 0 0.0075026087815197673 -5.8533061535403024e-05 0 0.0070318797655685369 -8.4830845368880108e-05 0 0.0080698655914749843 -5.7890949258833456e-06 0 0.0079084421418495459 -8.7472208590917521e-05 0 0.0080633719963321415 -0.00015761519712788517 0 0.0080698655914749843 -5.7890949258833456e-06 0 0.0080633719963321415 -0.00015761519712788517 0 0.0081360389922980163 -7.2884700163300414e-05 0 0.0081757254417959523 -2.3479793430487049e-05 0 0.0081360389922980163 -7.2884700163300414e-05 0 0.0082085296968098503 -7.5807673819040103e-05 0 0.0081360389922980163 -7.2884700163300414e-05 0 0.0081651462193458278 -0.00012873846787349997 0 0.0082085296968098503 -7.5807673819040103e-05 0 0.0080633719963321415 -0.00015761519712788517 0 0.0081360389922980163 -7.2884700163300414e-05 0 0.0081651462193458278 -0.00012873846787349997 0 0.0079665514913679 -5.7951179562322586e-05 0 0.0081499554342715896 -0.00017827535119637966 0 0.0077206217755523502 6.607047181862571e-05 0 0.0078365823535500173 -0.00025501129824544334 0 0.0081272912434770788 -0.00016991587055199844 0 0.0080633719963321415 -0.00015761519712788517 0 0.0081651462193458278 -0.00012873846787349997 0 0.0082049625481696621 -0.00020715721071985901 0 0.0081651462193458278 -0.00012873846787349997 0 0.0082049625481696621 -0.00020715721071985901 0 0.0082352361142334091 -0.00012735824634497328 0 0.0083193163155545532 -0.00013144578747835306 0 0.0082049625481696621 -0.00020715721071985901 0 0.0082352361142334091 -0.00012735824634497328 0 0.0083292707467970076 -0.00025631765729283213 0 0.0081499554342715896 -0.00017827535119637966 0 0.0083193163155545532 -0.00013144578747835306 0 0.0083381398892469049 -0.00025500062593102535 0 0.0082049625481696621 -0.00020715721071985901 0 0.0083193163155545532 -0.00013144578747835306 0 0.0082352361142334091 -0.00012735824634497328 0 0.0082795682859018484 -8.226453737265432e-05 0 0.0083596879974380464 -6.1085314924589176e-05 0 0.0082506532877941619 -3.2754013806072603e-05 0 0.0082795682859018484 -8.226453737265432e-05 0 0.0081651462193458278 -0.00012873846787349997 0 0.0082352361142334091 -0.00012735824634497328 0 0.0082085296968098503 -7.5807673819040103e-05 0 0.0082352361142334091 -0.00012735824634497328 0 0.0082085296968098503 -7.5807673819040103e-05 0 0.0082795682859018484 -8.226453737265432e-05 0 0.0082506532877941619 -3.2754013806072603e-05 0 0.0082085296968098503 -7.5807673819040103e-05 0 0.0082795682859018484 -8.226453737265432e-05 0 0.0058948642931163624 1.3560705157180812e-06 0 0.006155429557073825 -6.0462506278998947e-05 0 0.0060295940356155653 -0.00018029625086680046 0 0.0056009802573687931 -7.5034073798452416e-05 0 0.0058948642931163624 1.3560705157180812e-06 0 0.0058679654652775146 -0.00023550738323882482 0 0.0058948642931163624 1.3560705157180812e-06 0 0.0060295940356155653 -0.00018029625086680046 0 0.0058679654652775146 -0.00023550738323882482 0 0.0056542848661474609 0.00015878477369505356 0 0.0058289227925753632 0.00030932294368410872 0 0.0058948642931163624 1.3560705157180812e-06 0 0.0058289227925753632 0.00030932294368410872 0 0.0058948642931163624 1.3560705157180812e-06 0 0.0061556869064933158 0.00012980171603217688 0 0.0058948642931163624 1.3560705157180812e-06 0 0.0061556869064933158 0.00012980171603217688 0 0.006155429557073825 -6.0462506278998947e-05 0 0.0061556869064933158 0.00012980171603217688 0 0.0063754683146532752 0.00013562109153184297 0 0.006155429557073825 -6.0462506278998947e-05 0 0.0063754683146532752 0.00013562109153184297 0 0.0063325327519632357 -0.00012175669253573044 0 0.006155429557073825 -6.0462506278998947e-05 0 0.0065749102343295451 1.3635320084806952e-05 0 0.0063754683146532752 0.00013562109153184297 0 0.0063325327519632357 -0.00012175669253573044 0 0.0063325327519632357 -0.00012175669253573044 0 0.006155429557073825 -6.0462506278998947e-05 0 0.006190179797305787 -0.00025354163195354719 0 0.006155429557073825 -6.0462506278998947e-05 0 0.006190179797305787 -0.00025354163195354719 0 0.0060295940356155653 -0.00018029625086680046 0 0.0063325327519632357 -0.00012175669253573044 0 0.006190179797305787 -0.00025354163195354719 0 0.0063328313290037302 -0.00031588329694224313 0 0.0070318797655685369 -8.4830845368880108e-05 0 0.0064757631565542251 -0.00015918886049070077 0 0.0065210762607135269 -0.00021344929058872926 0 0.0063325327519632357 -0.00012175669253573044 0 0.0063328313290037302 -0.00031588329694224313 0 0.0070318797655685369 -8.4830845368880108e-05 0 0.0061936641896632857 -0.00011720395553806471 0 0.0066536414455867984 -2.6161929954604498e-06 0 0.0067734426320311238 -0.00029097186465342796 0 0.0063045162133308621 -0.00042899573620553837 0 0.0070243298056893019 -0.0001637564103885848 0 0.0066536414455867984 -2.6161929954604498e-06 0 0.0067734426320311238 -0.00029097186465342796 0 0.0066536414455867984 -2.6161929954604498e-06 0 0.006193610868107549 -0.00040144693988109913 0 0.0063045162133308621 -0.00042899573620553837 0 0.006190179797305787 -0.00025354163195354719 0 0.0063328313290037302 -0.00031588329694224313 0 0.006193610868107549 -0.00040144693988109913 0 0.0064757631565542251 -0.00015918886049070077 0 0.006222197413871213 -0.00037109473967944533 0 0.006193610868107549 -0.00040144693988109913 0 0.0059089257259071042 -0.00039125476652732355 0 0.0063045162133308621 -0.00042899573620553837 0 0.006190179797305787 -0.00025354163195354719 0 0.006193610868107549 -0.00040144693988109913 0 0.0060444167378400949 -0.00029481311718265453 0 0.0063500486116604372 -0.00034642673267418033 0 0.0070239321863484498 -0.00043002473976001707 0 0.006193610868107549 -0.00040144693988109913 0 0.0060444167378400949 -0.00029481311718265453 0 0.0059089257259071042 -0.00039125476652732355 0 0.0060444167378400949 -0.00029481311718265453 0 0.0060295940356155653 -0.00018029625086680046 0 0.0058679654652775146 -0.00023550738323882482 0 0.006190179797305787 -0.00025354163195354719 0 0.0060444167378400949 -0.00029481311718265453 0 0.0060295940356155653 -0.00018029625086680046 0 0.0060444167378400949 -0.00029481311718265453 0 0.0058679654652775146 -0.00023550738323882482 0 0.0059089257259071042 -0.00039125476652732355 0 0.0067868227708567956 -0.00027753935283197592 0 0.006804385608827495 -0.00078154958187046921 0 0.0062706912411758476 -0.0007220666150100488 0 0.0067868227708567956 -0.00027753935283197592 0 0.006804385608827495 -0.00078154958187046921 0 0.0071376137779273494 -0.00077428668235003672 0 0.006804385608827495 -0.00078154958187046921 0 0.0064648618811262316 -0.00094112203895630191 0 0.0062706912411758476 -0.0007220666150100488 0 0.0064648618811262316 -0.00094112203895630191 0 0.0065793989750292624 -0.0011776787712775108 0 0.0062243332326124322 -0.0010820320751729997 0 0.006804385608827495 -0.00078154958187046921 0 0.0064648618811262316 -0.00094112203895630191 0 0.0065793989750292624 -0.0011776787712775108 0 0.006804385608827495 -0.00078154958187046921 0 0.0069602668186452251 -0.0010741662441759265 0 0.0065793989750292624 -0.0011776787712775108 0 0.0068493874166284897 -0.0013977585564376026 0 0.0065793989750292624 -0.0011776787712775108 0 0.0065888281233780887 -0.0014123643275706086 0 0.0069602668186452251 -0.0010741662441759265 0 0.0068493874166284897 -0.0013977585564376026 0 0.0065793989750292624 -0.0011776787712775108 0 0.0065793989750292624 -0.0011776787712775108 0 0.0065888281233780887 -0.0014123643275706086 0 0.0063055137803747522 -0.0014047656465198219 0 0.0071327124812811046 -0.0012879365336999715 0 0.007426486815892511 -0.00091247187267462027 0 0.0070816709003072272 -0.0017223458774816068 0 0.0074037960612728599 -0.0010699794299770878 0 0.0075108544294859129 -0.0009899846482330128 0 0.0075861939372451103 -0.00096676930257817055 0 0.007426486815892511 -0.00091247187267462027 0 0.0077142214102989921 -0.0010217425386901304 0 0.0075686078532344481 -0.00093727803262913078 0 0.0075861939372451103 -0.00096676930257817055 0 0.007426486815892511 -0.00091247187267462027 0 0.0075861939372451103 -0.00096676930257817055 0 0.007647583536193831 -0.00096052890796857933 0 0.0076711729156949777 -0.00099262904351938522 0 0.0075686078532344481 -0.00093727803262913078 0 0.0075861939372451103 -0.00096676930257817055 0 0.007647583536193831 -0.00096052890796857933 0 0.0069602668186452251 -0.0010741662441759265 0 0.0068493874166284897 -0.0013977585564376026 0 0.0071327124812811046 -0.0012879365336999715 0 0.0069602668186452251 -0.0010741662441759265 0 0.0071327124812811046 -0.0012879365336999715 0 0.0071634068511705964 -0.0010066673341802945 0 0.0071327124812811046 -0.0012879365336999715 0 0.0071634068511705964 -0.0010066673341802945 0 0.007426486815892511 -0.00091247187267462027 0 0.0069602668186452251 -0.0010741662441759265 0 0.0071634068511705964 -0.0010066673341802945 0 0.0071376137779273494 -0.00077428668235003672 0 0.0071634068511705964 -0.0010066673341802945 0 0.007426486815892511 -0.00091247187267462027 0 0.0071376137779273494 -0.00077428668235003672 0 0.007426486815892511 -0.00091247187267462027 0 0.0075734995086689924 -0.00075269276886435023 0 0.007611716443513104 -0.00089682266445140777 0 0.0075686078532344481 -0.00093727803262913078 0 0.007426486815892511 -0.00091247187267462027 0 0.007611716443513104 -0.00089682266445140777 0 0.0067868227708567956 -0.00027753935283197592 0 0.0071376137779273494 -0.00077428668235003672 0 0.0074019916933407886 -0.0006154630954162796 0 0.007426486815892511 -0.00091247187267462027 0 0.0071376137779273494 -0.00077428668235003672 0 0.0074019916933407886 -0.0006154630954162796 0 0.007426486815892511 -0.00091247187267462027 0 0.0074019916933407886 -0.0006154630954162796 0 0.0075734995086689924 -0.00075269276886435023 0 0.0067868227708567956 -0.00027753935283197592 0 0.0074019916933407886 -0.0006154630954162796 0 0.007758113004102847 -0.00042290006810954766 0 0.006804385608827495 -0.00078154958187046921 0 0.0069602668186452251 -0.0010741662441759265 0 0.0071376137779273494 -0.00077428668235003672 0 0.0074197285585686275 -0.00060751996002516152 0 0.0079875346229454549 -0.00060272444172456265 0 0.0074019916933407886 -0.0006154630954162796 0 0.0075734995086689924 -0.00075269276886435023 0 0.0078504964530181111 -0.00059839221425415218 0 0.0074019916933407886 -0.0006154630954162796 0 0.007758113004102847 -0.00042290006810954766 0 0.00798493237856579 -0.00059568003344106807 0 0.0077201384810665734 -0.00074771021962064281 0 0.0075734995086689924 -0.00075269276886435023 0 0.0078504964530181111 -0.00059839221425415218 0 0.0077201384810665734 -0.00074771021962064281 0 0.0078504964530181111 -0.00059839221425415218 0 0.0078274614632855895 -0.00070043307461472486 0 0.0078504964530181111 -0.00059839221425415218 0 0.0079227135723677709 -0.0006416243391996775 0 0.0080279042456599618 -0.00058039147368299537 0 0.0070239321863484498 -0.00043002473976001707 0 0.0078423886879854729 -0.00056964573449841285 0 0.0067734426320311238 -0.00029097186465342796 0 0.0063045162133308621 -0.00042899573620553837 0 0.0071099916470005776 -0.00056288420107699093 0 0.007758113004102847 -0.00042290006810954766 0 0.00798493237856579 -0.00059568003344106807 0 0.0085077330239508656 -0.00061477656806813738 0 0.0079875346229454549 -0.00060272444172456265 0 0.0078423886879854729 -0.00056964573449841285 0 0.0078504964530181111 -0.00059839221425415218 0 0.0078274614632855895 -0.00070043307461472486 0 0.0079227135723677709 -0.0006416243391996775 0 0.0078274614632855895 -0.00070043307461472486 0 0.0079227135723677709 -0.0006416243391996775 0 0.0078558379783137278 -0.00074538779864225533 0 0.0079227135723677709 -0.0006416243391996775 0 0.0079723304580747271 -0.00065485644715686687 0 0.0080097498909677163 -0.00062204453469969813 0 0.0082691823161559572 -0.00039931349849428637 0 0.0074953907188256676 -0.0009859055843705845 0 0.0080050243269060416 -0.00072304046618708534 0 0.0078558379783137278 -0.00074538779864225533 0 0.0077805657066280223 -0.00077979652766347945 0 0.0079548916596436613 -0.00086968711949724159 0 0.0077455337024671111 -0.00094413487281358249 0 0.007812589748479766 -0.00098551873075936264 0 0.0080050243269060416 -0.00072304046618708534 0 0.0079488887418974908 -0.00068589696232227576 0 0.0078558379783137278 -0.00074538779864225533 0 0.0080050243269060416 -0.00072304046618708534 0 0.0079488887418974908 -0.00068589696232227576 0 0.0080034219365497129 -0.00066846908399897497 0 0.0082691823161559572 -0.00039931349849428637 0 0.0082273571624558069 -0.00050612577676327941 0 0.0079723304580747271 -0.00065485644715686687 0 0.0079488887418974908 -0.00068589696232227576 0 0.0080034219365497129 -0.00066846908399897497 0 0.0079227135723677709 -0.0006416243391996775 0 0.0079488887418974908 -0.00068589696232227576 0 0.0078558379783137278 -0.00074538779864225533 0 0.0079227135723677709 -0.0006416243391996775 0 0.0079723304580747271 -0.00065485644715686687 0 0.0079488887418974908 -0.00068589696232227576 0 0.0078274614632855895 -0.00070043307461472486 0 0.0078558379783137278 -0.00074538779864225533 0 0.0077805657066280223 -0.00077979652766347945 0 0.0079548916596436613 -0.00086968711949724159 0 0.007611716443513104 -0.00089682266445140777 0 0.0077455337024671111 -0.00094413487281358249 0 0.0080050243269060416 -0.00072304046618708534 0 0.007611716443513104 -0.00089682266445140777 0 0.0077805657066280223 -0.00077979652766347945 0 0.0077201384810665734 -0.00074771021962064281 0 0.0075734995086689924 -0.00075269276886435023 0 0.007611716443513104 -0.00089682266445140777 0 0.0077201384810665734 -0.00074771021962064281 0 0.007611716443513104 -0.00089682266445140777 0 0.0077805657066280223 -0.00077979652766347945 0 0.0077201384810665734 -0.00074771021962064281 0 0.0078274614632855895 -0.00070043307461472486 0 0.0077805657066280223 -0.00077979652766347945 0 0.0077455337024671111 -0.00094413487281358249 0 0.007647583536193831 -0.00096052890796857933 0 0.0077303470367979816 -0.00099223307655467766 0 0.007611716443513104 -0.00089682266445140777 0 0.0077455337024671111 -0.00094413487281358249 0 0.007647583536193831 -0.00096052890796857933 0 0.0075686078532344481 -0.00093727803262913078 0 0.007611716443513104 -0.00089682266445140777 0 0.007647583536193831 -0.00096052890796857933 0 0.007647583536193831 -0.00096052890796857933 0 0.0077303470367979816 -0.00099223307655467766 0 0.0076711729156949777 -0.00099262904351938522 0 0.0077303470367979816 -0.00099223307655467766 0 0.0076711729156949777 -0.00099262904351938522 0 0.0077286182004207673 -0.0010152047026797057 0 0.0077455337024671111 -0.00094413487281358249 0 0.0077303470367979816 -0.00099223307655467766 0 0.007812589748479766 -0.00098551873075936264 0 0.0077303470367979816 -0.00099223307655467766 0 0.007812589748479766 -0.00098551873075936264 0 0.0078074455268130876 -0.0010375196596449233 0 0.0077303470367979816 -0.00099223307655467766 0 0.0078074455268130876 -0.0010375196596449233 0 0.0077286182004207673 -0.0010152047026797057 0 0.0078074455268130876 -0.0010375196596449233 0 0.0077564211237224935 -0.0010317616359265948 0 0.0077286182004207673 -0.0010152047026797057 0 0.0082691823161559572 -0.00039931349849428637 0 0.0083139409953001675 -0.00053949818591967778 0 0.0079548916596436613 -0.00086968711949724159 0 0.007812589748479766 -0.00098551873075936264 0 0.0079037541615233232 -0.0010493821937386752 0 0.007812589748479766 -0.00098551873075936264 0 0.0079037541615233232 -0.0010493821937386752 0 0.0078074455268130876 -0.0010375196596449233 0 0.0083139409953001675 -0.00053949818591967778 0 0.0082896548581998398 -0.00086658553118630318 0 0.0079037541615233232 -0.0010493821937386752 0 0.0078969619868258876 -0.0010822166721109927 0 0.0079927990318455853 -0.0011222850267524462 0 0.0079037541615233232 -0.0010493821937386752 0 0.0078074455268130876 -0.0010375196596449233 0 0.0078969619868258876 -0.0010822166721109927 0 0.0078074455268130876 -0.0010375196596449233 0 0.0078302135843589561 -0.001073004221148843 0 0.0077564211237224935 -0.0010317616359265948 0 0.0078074455268130876 -0.0010375196596449233 0 0.0078969619868258876 -0.0010822166721109927 0 0.0078302135843589561 -0.001073004221148843 0 0.0075108544294859129 -0.0009899846482330128 0 0.0078215963240479327 -0.00080380563562596939 0 0.0077564211237224935 -0.0010317616359265948 0 0.0077134939164074596 -0.0010083249890350846 0 0.0077578549826516569 -0.0010748345257803806 0 0.0078302135843589561 -0.001073004221148843 0 0.0077564211237224935 -0.0010317616359265948 0 0.0077578549826516569 -0.0010748345257803806 0 0.0079080091217167831 -0.00024939077880937685 0 0.0077887707544657342 -0.00070558034234797422 0 0.0074517315557639458 -0.00045767431942837994 0 0.0067006195267829208 -0.0016499135573967534 0 0.0070816709003072272 -0.0017223458774816068 0 0.0062200440519930515 -0.0020234398048014973 0 0.0075108544294859129 -0.0009899846482330128 0 0.0068929894174204849 -0.0012061377707157908 0 0.0067006195267829208 -0.0016499135573967534 0 0.0063628153323749756 -0.0016523035302712199 0 0.0062200440519930515 -0.0020234398048014973 0 0.0067006195267829208 -0.0016499135573967534 0 0.0065129507336964846 -0.0015657087157795297 0 0.0063628153323749756 -0.0016523035302712199 0 0.0065129507336964846 -0.0015657087157795297 0 0.0065888281233780887 -0.0014123643275706086 0 0.0063055137803747522 -0.0014047656465198219 0 0.0067006195267829208 -0.0016499135573967534 0 0.0065129507336964846 -0.0015657087157795297 0 0.0065888281233780887 -0.0014123643275706086 0 0.0068493874166284897 -0.0013977585564376026 0 0.0067006195267829208 -0.0016499135573967534 0 0.0065888281233780887 -0.0014123643275706086 0 0.0067006195267829208 -0.0016499135573967534 0 0.0069507478614700014 -0.0015313136720295386 0 0.0070816709003072272 -0.0017223458774816068 0 0.0068493874166284897 -0.0013977585564376026 0 0.0067006195267829208 -0.0016499135573967534 0 0.0069507478614700014 -0.0015313136720295386 0 0.0071327124812811046 -0.0012879365336999715 0 0.0069507478614700014 -0.0015313136720295386 0 0.0070816709003072272 -0.0017223458774816068 0 0.0068493874166284897 -0.0013977585564376026 0 0.0071327124812811046 -0.0012879365336999715 0 0.0069507478614700014 -0.0015313136720295386 0 0.0075861939372451103 -0.00096676930257817055 0 0.0076711729156949777 -0.00099262904351938522 0 0.0076868321101838154 -0.0010083876534189833 0 0.0075861939372451103 -0.00096676930257817055 0 0.0076868321101838154 -0.0010083876534189833 0 0.0077142214102989921 -0.0010217425386901304 0 0.0076711729156949777 -0.00099262904351938522 0 0.0076868321101838154 -0.0010083876534189833 0 0.0077286182004207673 -0.0010152047026797057 0 0.0076868321101838154 -0.0010083876534189833 0 0.0077184227435401348 -0.0010161611498762568 0 0.0077286182004207673 -0.0010152047026797057 0 0.0077564211237224935 -0.0010317616359265948 0 0.0077184227435401348 -0.0010161611498762568 0 0.0077134939164074596 -0.0010083249890350846 0 0.0077564211237224935 -0.0010317616359265948 0 0.0077184227435401348 -0.0010161611498762568 0 0.0077286182004207673 -0.0010152047026797057 0 0.0076868321101838154 -0.0010083876534189833 0 0.0077184227435401348 -0.0010161611498762568 0 0.0077134939164074596 -0.0010083249890350846 0 0.0075910176138990933 -0.0009703499833310634 0 0.0075108544294859129 -0.0009899846482330128 0 0.010003370856423581 0.00032703367095117392 0 0.0096007165499188887 0.00034639764837299085 0 0.0097170630755844048 9.9862364690864815e-05 0 0.0093890967511300587 -5.6113187597697403e-05 0 0.0088101502478119924 -8.3159934592943408e-05 0 0.0082977377997827569 -0.00047724323641825192 0 0.0082254108115487647 -0.00044099199408099033 0 0.0081254845778136464 -0.00050716318113738464 0 0.0082254108115487647 -0.00044099199408099033 0 0.0081363994549382389 -0.00040661780582930163 0 0.0081254845778136464 -0.00050716318113738464 0 0.0083064646986763992 -0.0004451905470687817 0 0.0082977377997827569 -0.00047724323641825192 0 0.0082254108115487647 -0.00044099199408099033 0 0.0083064646986763992 -0.0004451905470687817 0 0.0082254108115487647 -0.00044099199408099033 0 0.0082743940014042613 -0.00037377688916515696 0 0.0083381398892469049 -0.00025500062593102535 0 0.0081272912434770788 -0.00016991587055199844 0 0.0081363994549382389 -0.00040661780582930163 0 0.0083381398892469049 -0.00025500062593102535 0 0.0082743940014042613 -0.00037377688916515696 0 0.0081363994549382389 -0.00040661780582930163 0 0.0082254108115487647 -0.00044099199408099033 0 0.0082743940014042613 -0.00037377688916515696 0 0.0081363994549382389 -0.00040661780582930163 0 0.00813333663697937 -0.00043600109749341323 0 0.0078191864135106134 -0.00050295707587190409 0 0.0078365823535500173 -0.00025501129824544334 0 0.0081363994549382389 -0.00040661780582930163 0 0.0076660874822556176 -0.000513016949653445 0 0.0081363994549382389 -0.00040661780582930163 0 0.0081254845778136464 -0.00050716318113738464 0 0.0080777802091932492 -0.00050864376913071086 0 0.0078365823535500173 -0.00025501129824544334 0 0.0081272912434770788 -0.00016991587055199844 0 0.0081363994549382389 -0.00040661780582930163 0 0.0096007165499188887 0.00034639764837299085 0 0.0091878029719201903 0.00036429041082624127 0 0.0094052584296985871 0.00013581191062297053 0 0.0088101502478119924 -8.3159934592943408e-05 0 0.0086526428860222541 -9.2445575215161066e-05 0 0.0081254845778136464 -0.00050716318113738464 0 0.008068238745631227 -0.00057524544671643028 0 0.0080777802091932492 -0.00050864376913071086 0 0.008068238745631227 -0.00057524544671643028 0 0.0080777802091932492 -0.00050864376913071086 0 0.0080383030152997598 -0.00060078352503932758 0 0.0078191864135106134 -0.00050295707587190409 0 0.0078423886879854729 -0.00056964573449841285 0 0.0074516076799573559 -0.00020645360768019113 0 0.0076660874822556176 -0.000513016949653445 0 0.0071099916470005776 -0.00056288420107699093 0 0.0074516076799573559 -0.00020645360768019113 0 0.0078365823535500173 -0.00025501129824544334 0 0.0076660874822556176 -0.000513016949653445 0 0.0080777802091932492 -0.00050864376913071086 0 0.0080279042456599618 -0.00058039147368299537 0 0.0080383030152997598 -0.00060078352503932758 0 0.0079227135723677709 -0.0006416243391996775 0 0.0080279042456599618 -0.00058039147368299537 0 0.0080097498909677163 -0.00062204453469969813 0 0.0080279042456599618 -0.00058039147368299537 0 0.0080097498909677163 -0.00062204453469969813 0 0.0080383030152997598 -0.00060078352503932758 0 0.0082691823161559572 -0.00039931349849428637 0 0.0086526428860222541 -9.2445575215161066e-05 0 0.0080097498909677163 -0.00062204453469969813 0 0.0080034219365497129 -0.00066846908399897497 0 0.0080383030152997598 -0.00060078352503932758 0 0.0080018624543269096 -0.00067191733445313452 0 0.008068238745631227 -0.00057524544671643028 0 0.0080383030152997598 -0.00060078352503932758 0 0.0080018624543269096 -0.00067191733445313452 0 0.0080034219365497129 -0.00066846908399897497 0 0.0080383030152997598 -0.00060078352503932758 0 0.0087745883226662495 0.00037674163255328215 0 0.0091878029719201903 0.00036429041082624127 0 0.0090974985841880962 1.9272594152851421e-05 0 0.0079723304580747271 -0.00065485644715686687 0 0.0080097498909677163 -0.00062204453469969813 0 0.0080034219365497129 -0.00066846908399897497 0 0.0087745883226662495 0.00037674163255328215 0 0.0086874157738120305 -9.7523234996242851e-05 0 0.0090974985841880962 1.9272594152851421e-05 0 0.0086874157738120305 -9.7523234996242851e-05 0 0.0090756657373231332 -0.00040179518532831691 0 0.0085876646539697066 -0.00057716548456208418 0 0.0086874157738120305 -9.7523234996242851e-05 0 0.0090974985841880962 1.9272594152851421e-05 0 0.0090756657373231332 -0.00040179518532831691 0 0.0090974985841880962 1.9272594152851421e-05 0 0.0094940196996893163 -0.00021517148672079665 0 0.0090756657373231332 -0.00040179518532831691 0 0.0091878029719201903 0.00036429041082624127 0 0.0090974985841880962 1.9272594152851421e-05 0 0.0094052584296985871 0.00013581191062297053 0 0.0090974985841880962 1.9272594152851421e-05 0 0.0094052584296985871 0.00013581191062297053 0 0.0094940196996893163 -0.00021517148672079665 0 0.0096007165499188887 0.00034639764837299085 0 0.0094052584296985871 0.00013581191062297053 0 0.0097170630755844048 9.9862364690864815e-05 0 0.0094052584296985871 0.00013581191062297053 0 0.0094940196996893163 -0.00021517148672079665 0 0.0097170630755844048 9.9862364690864815e-05 0 0.0094940196996893163 -0.00021517148672079665 0 0.0099270277916378678 -0.00015135491815516233 0 0.0097170630755844048 9.9862364690864815e-05 0 0.0094940196996893163 -0.00021517148672079665 0 0.0099270277916378678 -0.00015135491815516233 0 0.0098592826537021484 -0.00063992310955901001 0 0.010439325407397726 -0.00017848954963960587 0 0.010229041832547772 -0.00010741879282880526 0 0.010004502174817213 -0.00055715070364894517 0 0.010003370856423581 0.00032703367095117392 0 0.0099270277916378678 -0.00015135491815516233 0 0.0097170630755844048 9.9862364690864815e-05 0 0.0093890967511300587 -5.6113187597697403e-05 0 0.010173381036333078 -8.4365110694414853e-05 0 0.010498463510765181 -0.0011201193022052853 0 0.010004502174817213 -0.00055715070364894517 0 0.0098113988846581825 -0.0011448588095660302 0 0.0099197092602353494 -0.00062893973392813367 0 0.0098223901825545967 -0.0011115918661184019 0 0.010173381036333078 -8.4365110694414853e-05 0 0.0099197092602353494 -0.00062893973392813367 0 0.0094940196996893163 -0.00021517148672079665 0 0.0098592826537021484 -0.00063992310955901001 0 0.0094755107290973861 -0.00066121789444590273 0 0.0098592826537021484 -0.00063992310955901001 0 0.0094755107290973861 -0.00066121789444590273 0 0.0098113988846581825 -0.0011448588095660302 0 0.0094755107290973861 -0.00066121789444590273 0 0.0091444217489863068 -0.0009291887572332666 0 0.0098113988846581825 -0.0011448588095660302 0 0.0094755107290973861 -0.00066121789444590273 0 0.0091444217489863068 -0.0009291887572332666 0 0.0090756657373231332 -0.00040179518532831691 0 0.0094940196996893163 -0.00021517148672079665 0 0.0094755107290973861 -0.00066121789444590273 0 0.0090756657373231332 -0.00040179518532831691 0 0.0091444217489863068 -0.0009291887572332666 0 0.0090756657373231332 -0.00040179518532831691 0 0.0085876646539697066 -0.00057716548456208418 0 0.0091444217489863068 -0.0009291887572332666 0 0.008887763811470965 -0.0014348398000436106 0 0.008478806187112168 -0.0010728043839157487 0 0.0091375545046588867 -0.0018513057513637598 0 0.008887763811470965 -0.0014348398000436106 0 0.0093155651869754243 -0.0013948094547801451 0 0.0091444217489863068 -0.0009291887572332666 0 0.0093155651869754243 -0.0013948094547801451 0 0.0098113988846581825 -0.0011448588095660302 0 0.0091444217489863068 -0.0009291887572332666 0 0.008887763811470965 -0.0014348398000436106 0 0.0093155651869754243 -0.0013948094547801451 0 0.0095952157034847538 -0.0017449778644907405 0 0.0093155651869754243 -0.0013948094547801451 0 0.0098113988846581825 -0.0011448588095660302 0 0.010149838432133997 -0.0016646336077117171 0 0.0095952157034847538 -0.0017449778644907405 0 0.0098113988846581825 -0.0011448588095660302 0 0.0076832916699827638 -0.0012234848376242449 0 0.0077578549826516569 -0.0010748345257803806 0 0.0079167293498680763 -0.0011505932833777131 0 0.0076832916699827638 -0.0012234848376242449 0 0.0079167293498680763 -0.0011505932833777131 0 0.0079753186004108342 -0.0014071757951316603 0 0.007668489457710038 -0.0012506402424116627 0 0.0078215963240479327 -0.00080380563562596939 0 0.0076832916699827638 -0.0012234848376242449 0 0.0077887707544657342 -0.00070558034234797422 0 0.0073711921795420752 -0.0008886152097203324 0 0.0078302135843589561 -0.001073004221148843 0 0.0077578549826516569 -0.0010748345257803806 0 0.0079167293498680763 -0.0011505932833777131 0 0.0078969619868258876 -0.0010822166721109927 0 0.0079927990318455853 -0.0011222850267524462 0 0.0079167293498680763 -0.0011505932833777131 0 0.0078969619868258876 -0.0010822166721109927 0 0.0078302135843589561 -0.001073004221148843 0 0.0079167293498680763 -0.0011505932833777131 0 0.0091444217489863068 -0.0009291887572332666 0 0.0085876646539697066 -0.00057716548456208418 0 0.008478806187112168 -0.0010728043839157487 0 0.0082896548581998398 -0.00086658553118630318 0 0.0083185491331349073 -0.0012051318717607859 0 0.0079927990318455853 -0.0011222850267524462 0 0.0079167293498680763 -0.0011505932833777131 0 0.0081572530471980369 -0.0012997238484818874 0 0.0079167293498680763 -0.0011505932833777131 0 0.0081572530471980369 -0.0012997238484818874 0 0.0079753186004108342 -0.0014071757951316603 0 0.0081572530471980369 -0.0012997238484818874 0 0.0083494258975134027 -0.0016127191756555173 0 0.0079753186004108342 -0.0014071757951316603 0 0.008887763811470965 -0.0014348398000436106 0 0.008478806187112168 -0.0010728043839157487 0 0.0083494258975134027 -0.0016127191756555173 0 0.0080829287410825821 -0.0017626789831471331 0 0.0083494258975134027 -0.0016127191756555173 0 0.0079753186004108342 -0.0014071757951316603 0 0.0083185491331349073 -0.0012051318717607859 0 0.0083305084404088174 -0.0015977029948556144 0 0.0077904997875440441 -0.0017198675354719909 0 0.0076832916699827638 -0.0012234848376242449 0 0.0079753186004108342 -0.0014071757951316603 0 0.0080829287410825821 -0.0017626789831471331 0 0.0077904997875440441 -0.0017198675354719909 0 0.0079753186004108342 -0.0014071757951316603 0 0.0077904997875440441 -0.0017198675354719909 0 0.0076832916699827638 -0.0012234848376242449 0 0.0074004968227766406 -0.0015543824021140966 0 0.0077904997875440441 -0.0017198675354719909 0 0.0075169331036977457 -0.001870025412974185 0 0.0074004968227766406 -0.0015543824021140966 0 0.0072042701747076577 -0.0018891132138604883 0 0.0074004968227766406 -0.0015543824021140966 0 0.0070040838542254971 -0.0016619640455533215 0 0.0074004968227766406 -0.0015543824021140966 0 0.0070040838542254971 -0.0016619640455533215 0 0.0070037138174052866 -0.0013874487566523748 0 0.0074004968227766406 -0.0015543824021140966 0 0.0070037138174052866 -0.0013874487566523748 0 0.0073054498813376898 -0.0012195735326682904 0 0.0070037138174052866 -0.0013874487566523748 0 0.0070534060611324141 -0.0010325253077607748 0 0.0068338851910003133 -0.0011574634900021774 0 0.0070037138174052866 -0.0013874487566523748 0 0.0073054498813376898 -0.0012195735326682904 0 0.0070534060611324141 -0.0010325253077607748 0 0.0076832916699827638 -0.0012234848376242449 0 0.0074004968227766406 -0.0015543824021140966 0 0.0073054498813376898 -0.0012195735326682904 0 0.0076832916699827638 -0.0012234848376242449 0 0.0073054498813376898 -0.0012195735326682904 0 0.0073711921795420752 -0.0008886152097203324 0 0.0073054498813376898 -0.0012195735326682904 0 0.0070534060611324141 -0.0010325253077607748 0 0.0073711921795420752 -0.0008886152097203324 0 0.0070534060611324141 -0.0010325253077607748 0 0.0073711921795420752 -0.0008886152097203324 0 0.0069494694923170185 -0.0006732929304975046 0 0.0073711921795420752 -0.0008886152097203324 0 0.0069494694923170185 -0.0006732929304975046 0 0.0074517315557639458 -0.00045767431942837994 0 0.0077887707544657342 -0.00070558034234797422 0 0.0073711921795420752 -0.0008886152097203324 0 0.0074517315557639458 -0.00045767431942837994 0 0.0051826557884587059 -0.0021421794648797568 0 0.0050065002838640977 -0.0019664594914307505 0 0.0052522237914701146 -0.0018620779004336512 0 0.0051826557884587059 -0.0021421794648797568 0 0.0049854313907627531 -0.0021653109388237684 0 0.0050065002838640977 -0.0019664594914307505 0 0.0051826557884587059 -0.0021421794648797568 0 0.0056012754131707053 -0.0019279526201404487 0 0.0052994996781895671 -0.0022756756219898889 0 0.0051826557884587059 -0.0021421794648797568 0 0.0055519374702584674 -0.0020070429158481388 0 0.0052522237914701146 -0.0018620779004336512 0 0.0070534060611324141 -0.0010325253077607748 0 0.0069494694923170185 -0.0006732929304975046 0 0.0068694992424248895 -0.00096140884182103093 0 0.0069494694923170185 -0.0006732929304975046 0 0.0066405595869652757 -0.00098628541771174773 0 0.0068694992424248895 -0.00096140884182103093 0 0.0050389962875694019 -0.0022330218798736726 0 0.005986142089946727 -0.0016775064832605098 0 0.005986142089946727 -0.0016775064832605098 0 0.0060010567584021877 -0.0015969575416317013 0 0.0070534060611324141 -0.0010325253077607748 0 0.0068694992424248895 -0.00096140884182103093 0 0.0068338851910003133 -0.0011574634900021774 0 0.0066405595869652757 -0.00098628541771174773 0 0.0068694992424248895 -0.00096140884182103093 0 0.0068338851910003133 -0.0011574634900021774 0 0.0066405595869652757 -0.00098628541771174773 0 0.0068338851910003133 -0.0011574634900021774 0 0.0066557641681661475 -0.0012553342746783509 0 0.0060010567584021877 -0.0015969575416317013 0 0.0057780282935809713 -0.0017415344250157779 0 0.0052994996781895671 -0.0022756756219898889 0 0.0050705452747820323 -0.0023443070171944211 0 0.0050400011340426178 -0.0025698167971736417 0 0.0051826557884587059 -0.0021421794648797568 0 0.0052994996781895671 -0.0022756756219898889 0 0.0051332556986313522 -0.0022312486389879553 0 0.0052994996781895671 -0.0022756756219898889 0 0.0051332556986313522 -0.0022312486389879553 0 0.0050705452747820323 -0.0023443070171944211 0 0.0051332556986313522 -0.0022312486389879553 0 0.0050705452747820323 -0.0023443070171944211 0 0.0049854313907627531 -0.0021653109388237684 0 0.0051826557884587059 -0.0021421794648797568 0 0.0051332556986313522 -0.0022312486389879553 0 0.0049854313907627531 -0.0021653109388237684 0 0.0066405595869652757 -0.00098628541771174773 0 0.006504155751768167 -0.0013034953898347725 0 0.0062894228871981225 -0.0013374166352307117 0 0.0066405595869652757 -0.00098628541771174773 0 0.006504155751768167 -0.0013034953898347725 0 0.0066557641681661475 -0.0012553342746783509 0 0.006504155751768167 -0.0013034953898347725 0 0.0065681550046301305 -0.0014533701531477847 0 0.0066557641681661475 -0.0012553342746783509 0 0.006504155751768167 -0.0013034953898347725 0 0.0065681550046301305 -0.0014533701531477847 0 0.0063739586296478164 -0.0014979041696526214 0 0.0063739586296478164 -0.0014979041696526214 0 0.0062476398465756413 -0.0013875251593992797 0 0.0061628435861361608 -0.0014972292718504355 0 0.006504155751768167 -0.0013034953898347725 0 0.0063739586296478164 -0.0014979041696526214 0 0.0062894228871981225 -0.0013374166352307117 0 0.0060688842404521678 -0.0016326875583443346 0 0.0057780282935809713 -0.0017415344250157779 0 0.0070037138174052866 -0.0013874487566523748 0 0.0068338851910003133 -0.0011574634900021774 0 0.0067818970340851369 -0.0013516886111377354 0 0.0068338851910003133 -0.0011574634900021774 0 0.0066557641681661475 -0.0012553342746783509 0 0.0067818970340851369 -0.0013516886111377354 0 0.0065681550046301305 -0.0014533701531477847 0 0.0067818970340851369 -0.0013516886111377354 0 0.006726862558452386 -0.001550285401237644 0 0.0065681550046301305 -0.0014533701531477847 0 0.0066557641681661475 -0.0012553342746783509 0 0.0067818970340851369 -0.0013516886111377354 0 0.0070037138174052866 -0.0013874487566523748 0 0.0067818970340851369 -0.0013516886111377354 0 0.006726862558452386 -0.001550285401237644 0 0.0066952638217163546 -0.0019229910287659594 0 0.006726862558452386 -0.001550285401237644 0 0.0064384915775226132 -0.0016739368784466761 0 0.0066952638217163546 -0.0019229910287659594 0 0.0070040838542254971 -0.0016619640455533215 0 0.006726862558452386 -0.001550285401237644 0 0.0070040838542254971 -0.0016619640455533215 0 0.0070037138174052866 -0.0013874487566523748 0 0.006726862558452386 -0.001550285401237644 0 0.0063739586296478164 -0.0014979041696526214 0 0.0064384915775226132 -0.0016739368784466761 0 0.0062362928531348493 -0.0016070805558053266 0 0.0063739586296478164 -0.0014979041696526214 0 0.0062362928531348493 -0.0016070805558053266 0 0.0061628435861361608 -0.0014972292718504355 0 0.0065681550046301305 -0.0014533701531477847 0 0.0063739586296478164 -0.0014979041696526214 0 0.0064384915775226132 -0.0016739368784466761 0 0.0065681550046301305 -0.0014533701531477847 0 0.006726862558452386 -0.001550285401237644 0 0.0064384915775226132 -0.0016739368784466761 0 0.0064384915775226132 -0.0016739368784466761 0 0.0061883297857925285 -0.0017034425027480349 0 0.0062362928531348493 -0.0016070805558053266 0 0.0062539433335523816 -0.0018407201975197277 0 0.0064384915775226132 -0.0016739368784466761 0 0.0061883297857925285 -0.0017034425027480349 0 0.0060448885988457855 -0.0016974003643383531 0 0.0061883297857925285 -0.0017034425027480349 0 0.0061160134185366801 -0.0016255585318999152 0 0.0061883297857925285 -0.0017034425027480349 0 0.0062362928531348493 -0.0016070805558053266 0 0.0061160134185366801 -0.0016255585318999152 0 0.0062362928531348493 -0.0016070805558053266 0 0.0061373911743838796 -0.0015548143939519287 0 0.0061160134185366801 -0.0016255585318999152 0 0.0062362928531348493 -0.0016070805558053266 0 0.0061373911743838796 -0.0015548143939519287 0 0.0061628435861361608 -0.0014972292718504355 0 0.0060848129081042326 -0.0015597159636498719 0 0.0061160134185366801 -0.0016255585318999152 0 0.0060774431719732768 -0.0015866265415174568 0 0.0060848129081042326 -0.0015597159636498719 0 0.0061373911743838796 -0.0015548143939519287 0 0.0061160134185366801 -0.0016255585318999152 0 0.0060448885988457855 -0.0016974003643383531 0 0.0061160134185366801 -0.0016255585318999152 0 0.0060630848471200129 -0.0016024430921291128 0 0.0060448885988457855 -0.0016974003643383531 0 0.0060630848471200129 -0.0016024430921291128 0 0.0060490443006865954 -0.0015681244555275423 0 0.0060630848471200129 -0.0016024430921291128 0 0.0060490443006865954 -0.0015681244555275423 0 0.0060508747021948027 -0.0015582428571333992 0 0.0060490443006865954 -0.0015681244555275423 0 0.0060508747021948027 -0.0015582428571333992 0 0.0060552901149922176 -0.0015354956953751245 0 0.0060848129081042326 -0.0015597159636498719 0 0.0060508747021948027 -0.0015582428571333992 0 0.0060774431719732768 -0.0015866265415174568 0 0.0061160134185366801 -0.0016255585318999152 0 0.0060630848471200129 -0.0016024430921291128 0 0.0060774431719732768 -0.0015866265415174568 0 0.0060630848471200129 -0.0016024430921291128 0 0.0060508747021948027 -0.0015582428571333992 0 0.0060774431719732768 -0.0015866265415174568 0 0.0060848129081042326 -0.0015597159636498719 0 0.0060508747021948027 -0.0015582428571333992 0 0.0060530877008099643 -0.0015537845647896962 0 0.0060508747021948027 -0.0015582428571333992 0 0.0060291578188354823 -0.0015695337714486865 0 0.0060530877008099643 -0.0015537845647896962 0 0.0060508747021948027 -0.0015582428571333992 0 0.0060291578188354823 -0.0015695337714486865 0 0.0060552901149922176 -0.0015354956953751245 0 0.0060291578188354823 -0.0015695337714486865 0 0.0060530877008099643 -0.0015537845647896962 0 0.0060448978278607526 -0.0015643920781936754 0 0.0060530877008099643 -0.0015537845647896962 0 0.0060448978278607526 -0.0015643920781936754 0 0.006096893282051187 -0.0015320136730410433 0 0.006124413882773877 -0.0015140299050547005 0 0.0060448978278607526 -0.0015643920781936754 0 0.006096893282051187 -0.0015320136730410433 0 0.0061373911743838796 -0.0015548143939519287 0 0.0061628435861361608 -0.0014972292718504355 0 0.006096893282051187 -0.0015320136730410433 0 0.006124413882773877 -0.0015140299050547005 0 0.0061628435861361608 -0.0014972292718504355 0 0.006096893282051187 -0.0015320136730410433 0 0.0057780282935809713 -0.0017415344250157779 0 0.0059926712982495143 -0.0015361595980442357 0 0.0060848129081042326 -0.0015597159636498719 0 0.0061373911743838796 -0.0015548143939519287 0 0.006096893282051187 -0.0015320136730410433 0 0.0060848129081042326 -0.0015597159636498719 0 0.0060530877008099643 -0.0015537845647896962 0 0.006096893282051187 -0.0015320136730410433 0 0.0066578681222465418 -0.0014874691330142723 0 0.0066244276948353512 -0.0015411767605753048 0 0.0071128151379202644 -0.001625274151103504 0 0.0070122271565775836 -0.001523650062037348 0 0.0071816621259357342 -0.0015783080295078589 0 0.0062792177873117741 -0.0014139127619569249 0 0.0060571578839291934 -0.0015105238964359773 0 0.0061298543440137304 -0.0015075021181915579 0 0.0060448885988457855 -0.0016974003643383531 0 0.0060490443006865954 -0.0015681244555275423 0 0.0060571578839291934 -0.0015105238964359773 0 0.0060571578839291934 -0.0015105238964359773 0 0.0060552901149922176 -0.0015354956953751245 0 0.0061298543440137304 -0.0015075021181915579 0 0.0060490443006865954 -0.0015681244555275423 0 0.0060571578839291934 -0.0015105238964359773 0 0.0060552901149922176 -0.0015354956953751245 0 0.0060291578188354823 -0.0015695337714486865 0 0.0060552901149922176 -0.0015354956953751245 0 0.0060743663168107845 -0.001577222371373112 0 0.0060552901149922176 -0.0015354956953751245 0 0.0061298543440137304 -0.0015075021181915579 0 0.0060743663168107845 -0.001577222371373112 0 0.0061298543440137304 -0.0015075021181915579 0 0.0062497280974402403 -0.0015804887171914233 0 0.0060743663168107845 -0.001577222371373112 0 0.0062792177873117741 -0.0014139127619569249 0 0.0061298543440137304 -0.0015075021181915579 0 0.0062497280974402403 -0.0015804887171914233 0 0.0062497280974402403 -0.0015804887171914233 0 0.00610165394653158 -0.0016617838396578454 0 0.0060743663168107845 -0.001577222371373112 0 0.0062497280974402403 -0.0015804887171914233 0 0.00610165394653158 -0.0016617838396578454 0 0.0062025213207319973 -0.0017428316849801293 0 0.0060291578188354823 -0.0015695337714486865 0 0.0060743663168107845 -0.001577222371373112 0 0.0060293258008642736 -0.0016553517647653476 0 0.00610165394653158 -0.0016617838396578454 0 0.0060293258008642736 -0.0016553517647653476 0 0.0059983520996077268 -0.0017398535224411996 0 0.00610165394653158 -0.0016617838396578454 0 0.0060743663168107845 -0.001577222371373112 0 0.0060293258008642736 -0.0016553517647653476 0 0.0060293258008642736 -0.0016553517647653476 0 0.0059983520996077268 -0.0017398535224411996 0 0.0059721791261922062 -0.0017189315256948723 0 0.0059078646282568394 -0.0018081424816411219 0 0.0059983520996077268 -0.0017398535224411996 0 0.0059721791261922062 -0.0017189315256948723 0 0.0059078646282568394 -0.0018081424816411219 0 0.0059983520996077268 -0.0017398535224411996 0 0.0059871931124200464 -0.0017915339640314451 0 0.00610165394653158 -0.0016617838396578454 0 0.0059983520996077268 -0.0017398535224411996 0 0.0062025213207319973 -0.0017428316849801293 0 0.0059983520996077268 -0.0017398535224411996 0 0.0062025213207319973 -0.0017428316849801293 0 0.0059871931124200464 -0.0017915339640314451 0 0.0050705452747820323 -0.0023443070171944211 0 0.0050400011340426178 -0.0025698167971736417 0 0.0047886484154567952 -0.0021951735195854596 0 0.006124413882773877 -0.0015140299050547005 0 0.0060448978278607526 -0.0015643920781936754 0 0.005962199416433874 -0.0016346829678399745 0 0.0050705452747820323 -0.0023443070171944211 0 0.0047886484154567952 -0.0021951735195854596 0 0.0049854313907627531 -0.0021653109388237684 0 0.0057780282935809713 -0.0017415344250157779 0 0.0053707704603507224 -0.0019735620329155066 0 0.0060291578188354823 -0.0015695337714486865 0 0.005962199416433874 -0.0016346829678399745 0 0.0059721791261922062 -0.0017189315256948723 0 0.0060291578188354823 -0.0015695337714486865 0 0.0060448978278607526 -0.0015643920781936754 0 0.005962199416433874 -0.0016346829678399745 0 0.0060291578188354823 -0.0015695337714486865 0 0.0060293258008642736 -0.0016553517647653476 0 0.0059721791261922062 -0.0017189315256948723 0 0.005962199416433874 -0.0016346829678399745 0 0.0059721791261922062 -0.0017189315256948723 0 0.0059429728735807229 -0.00187493159971472 0 0.0059078646282568394 -0.0018081424816411219 0 0.0059721791261922062 -0.0017189315256948723 0 0.0059429728735807229 -0.00187493159971472 0 0.0047886484154567952 -0.0021951735195854596 0 0.0048055961646185589 -0.0018145263993243836 0 0.0045334186296296011 -0.0017878067882882392 0 0.0053707704603507224 -0.0019735620329155066 0 0.0052364002931004072 -0.0018198595551583709 0 0.0047886484154567952 -0.0021951735195854596 0 0.0050065002838640977 -0.0019664594914307505 0 0.0048055961646185589 -0.0018145263993243836 0 0.0047886484154567952 -0.0021951735195854596 0 0.0049854313907627531 -0.0021653109388237684 0 0.0050065002838640977 -0.0019664594914307505 0 0.0050065002838640977 -0.0019664594914307505 0 0.0048055961646185589 -0.0018145263993243836 0 0.0050114995824215918 -0.0017047768236580405 0 0.0048055961646185589 -0.0018145263993243836 0 0.0048273338916027019 -0.0016105928572490449 0 0.0050114995824215918 -0.0017047768236580405 0 0.0048055961646185589 -0.0018145263993243836 0 0.0046724495229895757 -0.0016227144893121619 0 0.0048273338916027019 -0.0016105928572490449 0 0.0045334186296296011 -0.0017878067882882392 0 0.0046724495229895757 -0.0016227144893121619 0 0.0045594995895846093 -0.001483527646048055 0 0.0048055961646185589 -0.0018145263993243836 0 0.0045334186296296011 -0.0017878067882882392 0 0.0046724495229895757 -0.0016227144893121619 0 0.0046724495229895757 -0.0016227144893121619 0 0.0045594995895846093 -0.001483527646048055 0 0.0046904117151064413 -0.0014369945955327661 0 0.0045594995895846093 -0.001483527646048055 0 0.0046904117151064413 -0.0014369945955327661 0 0.0045354008299352848 -0.0012795017170967272 0 0.0046904117151064413 -0.0014369945955327661 0 0.0049636903312591458 -0.0014377282329974326 0 0.0047695137569261498 -0.001221581363343005 0 0.0046904117151064413 -0.0014369945955327661 0 0.0049636903312591458 -0.0014377282329974326 0 0.0048273338916027019 -0.0016105928572490449 0 0.0049636903312591458 -0.0014377282329974326 0 0.0048273338916027019 -0.0016105928572490449 0 0.0050114995824215918 -0.0017047768236580405 0 0.0046724495229895757 -0.0016227144893121619 0 0.0046904117151064413 -0.0014369945955327661 0 0.0048273338916027019 -0.0016105928572490449 0 0.0061728961228191262 -0.0019273770865625062 0 0.0059871931124200464 -0.0017915339640314451 0 0.0057097416648659435 -0.0018174964981047417 0 0.0054476384480943805 -0.0018333621494825755 0 0.0056806905229342128 -0.001829805876744062 0 0.0062025213207319973 -0.0017428316849801293 0 0.0061728961228191262 -0.0019273770865625062 0 0.0059871931124200464 -0.0017915339640314451 0 0.0059429728735807229 -0.00187493159971472 0 0.0057097416648659435 -0.0018174964981047417 0 0.0053670879854664528 -0.0014380166609871336 0 0.0059078646282568394 -0.0018081424816411219 0 0.0059871931124200464 -0.0017915339640314451 0 0.0057097416648659435 -0.0018174964981047417 0 0.0059078646282568394 -0.0018081424816411219 0 0.0059429728735807229 -0.00187493159971472 0 0.0057097416648659435 -0.0018174964981047417 0 0.0046802449318982383 -0.0017659609082974748 0 0.0057097416648659435 -0.0018174964981047417 0 0.0053670879854664528 -0.0014380166609871336 0 0.0045334186296296011 -0.0017878067882882392 0 0.0045594995895846093 -0.001483527646048055 0 0.0043654357365922412 -0.0013403177998514777 0 0.0052364002931004072 -0.0018198595551583709 0 0.0048741922410121333 -0.0014205398409166397 0 0.0045594995895846093 -0.001483527646048055 0 0.0043654357365922412 -0.0013403177998514777 0 0.0045354008299352848 -0.0012795017170967272 0 0.0046802449318982383 -0.0017659609082974748 0 0.0053670879854664528 -0.0014380166609871336 0 0.0046670006762895956 -0.0013431520526380884 0 0.0053670879854664528 -0.0014380166609871336 0 0.0046670006762895956 -0.0013431520526380884 0 0.0045028496582125857 -0.0010899664616209623 0 0.0048741922410121333 -0.0014205398409166397 0 0.00456115439325096 -0.0011286238707884744 0 0.0045138093608197783 -0.0011816190068589152 0 0.0046670006762895956 -0.0013431520526380884 0 0.0045028496582125857 -0.0010899664616209623 0 0.0043654357365922412 -0.0013403177998514777 0 0.0044148067797352818 -0.0011543534580282951 0 0.0045028496582125857 -0.0010899664616209623 0 0.0043654357365922412 -0.0013403177998514777 0 0.0044148067797352818 -0.0011543534580282951 0 0.0045354008299352848 -0.0012795017170967272 0 0.0042382740390382364 -0.0010904292438625521 0 0.0044148067797352818 -0.0011543534580282951 0 0.0045028496582125857 -0.0010899664616209623 0 0.0042382740390382364 -0.0010904292438625521 0 0.0044148067797352818 -0.0011543534580282951 0 0.0045816396401285684 -0.0010701001226128544 0 0.0045135148527976343 -0.0011044223576681786 0 0.0042382740390382364 -0.0010904292438625521 0 0.0045028496582125857 -0.0010899664616209623 0 0.0049636903312591458 -0.0014377282329974326 0 0.0047695137569261498 -0.001221581363343005 0 0.0050400572144149941 -0.0011581636677971048 0 0.0047695137569261498 -0.001221581363343005 0 0.0045354008299352848 -0.0012795017170967272 0 0.0045816396401285684 -0.0010701001226128544 0 0.0046904117151064413 -0.0014369945955327661 0 0.0047695137569261498 -0.001221581363343005 0 0.0045354008299352848 -0.0012795017170967272 0 0.0044148067797352818 -0.0011543534580282951 0 0.0045354008299352848 -0.0012795017170967272 0 0.0045816396401285684 -0.0010701001226128544 0 0.0047695137569261498 -0.001221581363343005 0 0.0045816396401285684 -0.0010701001226128544 0 0.0049258642377950331 -0.00090901053725398015 0 0.0047695137569261498 -0.001221581363343005 0 0.0049258642377950331 -0.00090901053725398015 0 0.0050400572144149941 -0.0011581636677971048 0 0.0049258642377950331 -0.00090901053725398015 0 0.0050400572144149941 -0.0011581636677971048 0 0.0053595708951586401 -0.00095228825203240973 0 0.0052768877938971443 -0.00057303292592572879 0 0.0049258642377950331 -0.00090901053725398015 0 0.0053595708951586401 -0.00095228825203240973 0 0.0049636903312591458 -0.0014377282329974326 0 0.0052403618299570838 -0.0013275152907659985 0 0.0050400572144149941 -0.0011581636677971048 0 0.0052403618299570838 -0.0013275152907659985 0 0.0050400572144149941 -0.0011581636677971048 0 0.0053595708951586401 -0.00095228825203240973 0 0.0052403618299570838 -0.0013275152907659985 0 0.0053595708951586401 -0.00095228825203240973 0 0.0055494611785867204 -0.0013788545584327691 0 0.0057400514105370812 -0.00037033923842146163 0 0.0053595708951586401 -0.00095228825203240973 0 0.0058255707471359898 -0.00095881198060464995 0 0.0058255707471359898 -0.00095881198060464995 0 0.0062706912411758476 -0.0007220666150100488 0 0.0062243332326124322 -0.0010820320751729997 0 0.0057400514105370812 -0.00037033923842146163 0 0.0058255707471359898 -0.00095881198060464995 0 0.0062706912411758476 -0.0007220666150100488 0 0.0064648618811262316 -0.00094112203895630191 0 0.0062706912411758476 -0.0007220666150100488 0 0.0062243332326124322 -0.0010820320751729997 0 0.0058255707471359898 -0.00095881198060464995 0 0.0062243332326124322 -0.0010820320751729997 0 0.0059394178516293293 -0.0013476351756337628 0 0.0062243332326124322 -0.0010820320751729997 0 0.0059394178516293293 -0.0013476351756337628 0 0.0063055137803747522 -0.0014047656465198219 0 0.0065793989750292624 -0.0011776787712775108 0 0.0062243332326124322 -0.0010820320751729997 0 0.0063055137803747522 -0.0014047656465198219 0 0.0058255707471359898 -0.00095881198060464995 0 0.0059394178516293293 -0.0013476351756337628 0 0.0055494611785867204 -0.0013788545584327691 0 0.0053595708951586401 -0.00095228825203240973 0 0.0058255707471359898 -0.00095881198060464995 0 0.0055494611785867204 -0.0013788545584327691 0 0.0057553024941708565 -0.0015893769469286462 0 0.0055144063454853551 -0.0017134439460207065 0 0.0055494611785867204 -0.0013788545584327691 0 0.0059394178516293293 -0.0013476351756337628 0 0.0057553024941708565 -0.0015893769469286462 0 0.0055494611785867204 -0.0013788545584327691 0 0.0059394178516293293 -0.0013476351756337628 0 0.0057553024941708565 -0.0015893769469286462 0 0.0060818649688395322 -0.0016267064568244282 0 0.0060697439497783183 -0.001618835180874743 0 0.0057290952617979991 -0.0019873408915115306 0 0.0057553024941708565 -0.0015893769469286462 0 0.0060818649688395322 -0.0016267064568244282 0 0.0057756490384293343 -0.0018168599971832386 0 0.0063055137803747522 -0.0014047656465198219 0 0.0060818649688395322 -0.0016267064568244282 0 0.0063628153323749756 -0.0016523035302712199 0 0.0065129507336964846 -0.0015657087157795297 0 0.0063055137803747522 -0.0014047656465198219 0 0.0063628153323749756 -0.0016523035302712199 0 0.0059394178516293293 -0.0013476351756337628 0 0.0063055137803747522 -0.0014047656465198219 0 0.0060818649688395322 -0.0016267064568244282 0 0.0060818649688395322 -0.0016267064568244282 0 0.0063628153323749756 -0.0016523035302712199 0 0.0062200440519930515 -0.0020234398048014973 0 0.0060818649688395322 -0.0016267064568244282 0 0.0062200440519930515 -0.0020234398048014973 0 0.0058036751598788336 -0.0020064890439421049 0 0.0055156202946321916 -0.0023326384688974965 0 0.0062200440519930515 -0.0020234398048014973 0 0.0058036751598788336 -0.0020064890439421049 0 0.005986142089946727 -0.0016775064832605098 0 0.0068929894174204849 -0.0012061377707157908 0 0.0055519374702584674 -0.0020070429158481388 0 0.0057756490384293343 -0.0018168599971832386 0 0.0055144063454853551 -0.0017134439460207065 0 0.0057553024941708565 -0.0015893769469286462 0 0.0057756490384293343 -0.0018168599971832386 0 0.0055144063454853551 -0.0017134439460207065 0 0.005986142089946727 -0.0016775064832605098 0 0.0057290952617979991 -0.0019873408915115306 0 0.0055519374702584674 -0.0020070429158481388 0 0.0055144063454853551 -0.0017134439460207065 0 0.0052522237914701146 -0.0018620779004336512 0 0.0055144063454853551 -0.0017134439460207065 0 0.0052522237914701146 -0.0018620779004336512 0 0.0052379162467686893 -0.0015823233705766486 0 0.0052522237914701146 -0.0018620779004336512 0 0.0050114995824215918 -0.0017047768236580405 0 0.0052379162467686893 -0.0015823233705766486 0 0.0050065002838640977 -0.0019664594914307505 0 0.0052522237914701146 -0.0018620779004336512 0 0.0050114995824215918 -0.0017047768236580405 0 0.0049636903312591458 -0.0014377282329974326 0 0.0052403618299570838 -0.0013275152907659985 0 0.0052379162467686893 -0.0015823233705766486 0 0.0049636903312591458 -0.0014377282329974326 0 0.0050114995824215918 -0.0017047768236580405 0 0.0052379162467686893 -0.0015823233705766486 0 0.0052403618299570838 -0.0013275152907659985 0 0.0052379162467686893 -0.0015823233705766486 0 0.0055494611785867204 -0.0013788545584327691 0 0.0055144063454853551 -0.0017134439460207065 0 0.0052379162467686893 -0.0015823233705766486 0 0.0055494611785867204 -0.0013788545584327691 0 
</DataArray>
</PointData>
<CellData Scalars="region_id,cross_section_updated," Vectors="" Tensors="stress,">
<DataArray type="Float64" Name="region_id" format="ascii">
5 5 5 5 6 5 5 5 5 5 5 5 5 5 5 5 5 5 5 5 5 5 5 5 5 5 5 5 6 5 5 5 5 6 5 5 5 5 5 5 5 5 6 5 5 5 5 6 6 5 5 5 5 5 5 5 6 5 5 6 6 6 5 6 6 6 5 5 5 6 5 5 5 5 5 5 5 5 5 5 5 5 5 5 5 5 5 5 5 5 5 6 5 5 5 5 5 5 6 5 5 6 5 6 5 5 5 5 6 5 5 6 5 5 6 5 5 5 6 5 5 5 5 5 5 5 5 5 5 5 5 5 5 5 5 5 5 5 5 5 5 5 5 5 5 6 5 5 5 6 5 5 5 5 5 5 5 6 5 5 5 5 6 5 5 5 6 5 5 5 5 5 5 5 5 5 5 5 5 6 5 6 5 5 5 6 5 5 5 5 5 5 5 5 5 5 5 5 6 6 5 5 5 5 6 5 6 5 5 5 5 5 5 5 5 5 5 5 5 5 5 5 5 5 5 5 5 5 5 5 5 6 5 5 5 5 5 5 5 5 5 6 5 6 5 5 5 5 5 6 5 5 5 5 5 5 5 6 5 5 5 5 6 5 5 5 5 5 5 5 5 5 6 5 5 5 5 5 5 5 5 6 5 6 5 5 6 5 5 5 5 5 6 5 5 5 5 5 6 5 5 5 5 5 6 5 5 5 5 5 5 5 5 5 5 6 5 6 5 5 5 5 6 5 6 5 5 5 6 5 5 5 6 5 5 5 5 5 5 6 5 5 6 5 5 5 5 5 5 5 5 5 5 5 6 6 5 5 6 5 5 5 5 5 5 5 6 5 5 5 5 5 5 5 6 5 6 5 5 5 5 5 5 5 5 5 5 5 6 5 5 5 5 5 5 6 5 5 5 5 5 5 5 6 5 5 6 5 5 5 6 5 5 5 5 5 5 6 5 5 5 6 5 5 5 6 5 5 6 5 5 5 5 6 6 5 5 6 6 5 5 5 5 6 5 5 5 5 5 5 5 6 5 5 5 5 6 5 5 5 5 5 5 5 6 5 5 5 6 5 6 5 6 5 5 5 5 5 6 5 5 5 6 5 6 5 5 6 5 5 6 5 5 5 5 5 5 5 5 5 5 5 5 5 5 6 5 5 5 5 5 5 6 5 6 5 5 5 5 6 5 5 5 5 6 5 5 5 5 5 5 6 5 5 5 5 5 5 5 6 5 5 5 5 5 6 5 5 5 5 6 5 5 5 5 6 5 5 5 5 5 5 5 6 5 5 5 5 5 5 5 5 5 5 5 6 5 5 5 5 5 5 5 5 6 5 5 5 5 5 5 5 5 5 5 5 5 5 5 5 5 6 5 5 5 5 5 5 5 5 5 5 5 5 5 5 5 5 5 5 5 5 5 5 5 5 5 5 5 5 5 5 5 5 5 5 5 5 5 5 5 5 5 5 5 5 5 5 5 5 5 5 5 5 5 5 5 5 5 5 5 5 6 5 5 6 5 5 5 5 5 5 5 5 5 6 5 5 5 5 6 5 5 5 5 5 5 5 5 5 5 5 5 5 5 5 6 5 5 5 5 5 5 5 5 5 5 5 5 5 5 6 5 5 5 5 5 5 5 5 5 6 6 5 5 5 6 5 5 5 5 5 5 5 5 5 5 5 5 6 5 5 5 5 5 5 5 5 5 5 5 5 5 5 5 5 5 5 5 5 5 5 5 5 5 5 5 5 5 5 5 5 5 5 5 5 5 5 5 5 5 5 5 6 5 5 5 5 5 5 6 5 5 6 5 5 5 6 5 5 5 5 5 5 5 5 5 5 5 5 5 5 5 5 5 5 5 5 5 5 5 5 5 5 5 5 5 5 5 5 5 5 5 5 5 5 5 5 5 5 5 5 5 5 5 5 5 5 5 5 5 5 5 5 5 5 5 5 5 5 6 5 5 5 5 5 5 5 5 5 5 5 5 6 5 5 5 5 5 5 5 5 5 5 5 5 5 5 6 5 6 5 5 6 5 5 5 6 5 5 5 5 5 5 5 6 5 6 5 5 5 5 5 6 5 5 5 5 5 6 5 5 5 5 5 6 6 5 5 5 5 5 6 5 5 5 6 5 6 5 5 5 6 5 6 5 5 5 6 5 6 5 5 5 5 6 5 5 5 5 5 5 5 5 5 5 6 6 5 6 5 5 6 5 5 6 5 5 5 5 6 5 5 5 5 5 5 5 5 5 5 5 5 5 5 5 5 5 5 5 5 5 5 5 5 5 5 5 5 5 5 5 6 5 6 6 5 5 6 5 5 5 5 5 5 5 5 5 5 5 5 5 5 5 6 5 5 5 5 5 5 5 6 5 5 5 5 5 5 5 6 5 5 5 5 5 5 5 6 5 5 6 5 5 5 5 5 6 6 5 5 5 5 5 6 5 5 5 5 6 5 5 6 5 5 5 5 5 6 6 5 5 5 5 5 5 5 5 5 5 5 5 6 5 5 5 5 5 5 5 5 5 5 5 5 5 5 5 5 5 5 5 5 5 5 5 5 6 5 5 5 5 6 5 5 5 6 5 5 5 5 5 5 5 6 5 5 5 5 5 6 5 5 5 5 5 5 5 5 5 5 5 5 5 5 5 5 5 5 6 5 5 5 5 5 5 5 5 5 5 5 6 6 5 5 5 6 6 5 5 5 6 5 5 6 5 5 5 6 5 6 6 5 5 5 5 5 5 5 5 5 5 5 5 6 5 5 6 5 5 6 5 6 5 5 5 6 5 5 5 5 5 5 5 5 6 5 5 5 5 5 6 5 5 5 5 5 5 5 6 5 5 5 5 5 5 5 5 6 5 6 5 5 5 5 6 5 6 5 6 5 6 5 5 5 5 5 5 5 6 5 5 6 5 6 5 6 5 5 6 5 5 5 5 5 5 5 5 6 5 5 5 5 5 5 6 5 5 5 5 5 5 5 5 5 5 5 5 6 5 5 5 6 5 5 5 5 5 5 6 5 5 5 5 5 5 5 5 5 5 5 5 5 5 5 5 5 5 5 5 5 5 5 5 5 5 5 6 5 6 5 5 5 5 5 5 5 5 5 5 5 5 6 5 5 6 5 5 6 5 5 5 5 5 5 5 5 5 5 5 6 5 6 5 5 5 5 5 5 5 5 5 5 5 5 5 5 5 5 5 5 5 6 5 5 5 5 6 5 5 5 5 6 5 5 6 6 5 5 5 5 5 5 5 5 5 5 5 5 5 6 5 5 5 5 5 5 5 5 5 6 5 6 5 5 5 5 5 5 5 5 5 5 5 5 5 5 5 5 5 5 6 5 5 5 5 5 5 5 5 5 5 5 5 5 5 5 5 5 5 5 5 5 5 5 5 5 5 5 5 5 5 5 5 5 5 5 5 5 5 5 5 5 5 5 5 6 5 5 5 5 5 5 5 6 5 5 5 5 5 5 5 5 5 5 6 5 5 5 5 5 6 5 5 5 5 5 5 5 5 5 5 5 5 5 6 5 5 6 5 6 5 5 5 5 5 5 5 5 5 5 5 5 5 5 5 5 5 6 6 5 6 5 5 5 5 5 5 6 6 5 6 5 5 5 5 5 5 6 5 5 5 5 5 5 5 5 5 5 5 5 6 5 5 6 5 5 5 5 5 6 5 6 5 6 5 5 5 5 5 5 5 5 5 5 5 6 5 6 5 5 6 5 5 5 5 5 5 5 5 5 6 6 5 5 5 5 6 6 5 5 5 6 5 5 5 6 5 5 5 5 5 6 5 5 6 5 6 5 5 5 6 5 5 5 5 5 5 6 5 6 6 5 5 5 5 5 5 5 6 5 5 6 5 6 5 5 5 5 5 5 5 5 5 5 5 5 5 5 5 5 5 5 5 5 5 5 5 5 5 6 5 5 5 5 5 5 5 6 5 5 5 5 6 5 5 5 5 5 5 5 5 5 5 5 6 5 5 5 5 5 5 5 5 5 6 5 5 5 5 5 5 5 5 5 5 6 5 5 6 5 5 5 5 5 5 5 6 5 5 5 6 5 6 5 6 5 5 5 5 5 5 5 5 5 5 5 5 5 5 6 5 5 5 6 5 5 6 5 5 5 5 5 5 5 5 5 5 5 5 5 6 5 6 5 5 6 5 6 5 5 5 5 5 5 5 6 5 5 5 5 5 5 5 6 5 5 5 6 5 5 5 5 5 5 6 5 5 5 5 6 5 5 5 5 5 5 5 5 5 5 5 6 5 5 5 5 5 6 6 5 5 5 6 6 5 5 5 6 5 5 6 5 5 6 5 6 6 5 5 5 5 6 5 5 5 5 5 5 6 5 5 5 5 5 6 5 5 5 5 5 6 5 5 5 5 5 5 5 5 5 5 5 5 5 6 5 5 5 5 5 6 5 6 5 5 5 5 5 5 6 5 5 5 5 5 5 6 6 6 5 5 5 6 5 5 5 5 5 5 5 5 5 5 5 6 5 5 5 5 5 5 5 5 5 5 5 5 6 6 6 5 5 6 5 5 5 6 5 5 6 5 6 5 6 5 6 6 6 5 5 5 5 5 6 5 5 6 5 5 5 6 5 6 5 5 5 5 6 5 5 5 5 5 5 5 6 5 5 5 5 6 5 5 5 5 5 5 5 6 5 5 6 5 5 5 5 5 6 5 5 5 5 5 5 5 5 5 6 5 5 5 5 5 5 5 6 5 5 5 5 5 6 5 5 6 5 5 5 5 5 5 5 5 5 5 5 5 5 5 5 5 5 5 5 5 5 5 5 5 5 5 5 5 5 5 5 5 5 5 5 5 5 5 5 5 6 5 6 5 6 5 5 6 5 5 5 5 5 5 5 5 5 6 6 5 5 5 5 6 5 5 6 5 5 5 5 5 6 5 5 5 6 5 6 6 6 5 5 5 5 5 5 5 5 5 5 5 5 5 5 5 5 5 5 5 5 5 5 5 5 5 5 5 6 5 5 6 5 5 6 5 5 5 5 5 6 5 5 6 5 5 6 6 5 6 6 5 5 5 6 5 6 5 5 5 5 5 5 5 6 5 5 5 5 5 5 5 5 5 5 5 5 5 5 5 5 5 5 5 5 5 5 5 5 5 5 5 5 5 5 5 5 5 5 5 5 5 5 5 5 5 5 6 5 5 5 5 5 5 6 5 5 5 5 5 5 5 5 5 5 5 5 5 6 5 5 5 6 5 5 5 5 5 5 5 6 5 5 5 5 5 5 5 5 5 5 5 5 5 5 5 5 6 5 6 5 5 6 5 5 5 5 6 5 5 5 5 5 5 5 5 5 6 5 5 6 5 6 5 5 5 5 5 6 5 5 6 5 5 5 5 5 6 5 5 5 6 5 5 5 5 6 5 5 5 6 5 5 5 5 5 5 6 5 5 5 6 5 5 6 5 5 6 5 6 6 5 5 5 5 5 5 5 5 5 5 5 5 5 5 5 5 5 5 5 5 5 5 5 5 5 5 5 5 5 5 5 5 5 5 5 5 5 5 5 5 5 5 5 6 5 5 6 5 5 5 6 5 5 5 5 5 5 5 5 5 5 5 6 5 5 5 5 5 5 5 5 6 5 5 5 5 5 5 5 5 5 5 6 5 5 6 5 5 6 6 5 5 6 5 5 5 5 5 5 5 5 5 5 5 5 5 6 5 5 6 5 5 5 5 5 5 5 5 6 5 5 6 6 5 6 5 5 5 5 6 5 5 5 5 6 5 5 5 5 5 5 5 5 5 5 5 5 6 5 5 5 6 5 5 5 5 5 5 6 5 5 5 5 6 5 5 6 6 5 5 5 5 5 6 5 5 6 5 5 5 5 5 5 5 6 5 6 5 5 5 5 5 5 5 6 5 5 5 5 5 5 6 5 5 5 5 6 5 5 5 5 5 6 5 5 5 5 6 5 5 5 5 5 5 5 5 5 5 6 5 5 6 5 6 5 5 6 6 5 5 5 6 5 5 5 5 5 5 5 6 5 5 5 5 5 5 6 5 5 5 5 5 5 6 5 6 6 5 5 5 5 6 5 5 5 6 5 5 5 5 5 5 5 5 5 5 5 5 5 5 5 5 5 5 5 5 5 5 5 5 6 5 5 6 5 5 5 5 5 6 6 5 5 6 5 5 5 5 6 5 6 5 5 5 5 6 5 5 5 5 5 5 5 6 5 5 5 5 5 5 6 5 5 6 5 5 6 5 5 5 6 6 5 5 6 5 5 5 5 5 6 5 5 5 5 5 5 5 5 5 6 6 5 5 6 5 5 5 5 5 5 5 5 5 6 5 5 6 5 6 5 5 6 5 6 5 5 5 6 5 5 6 5 6 5 5 5 5 5 5 5 5 6 5 6 5 5 5 6 5 5 5 5 5 5 6 5 5 5 5 5 6 5 6 6 5 5 5 5 5 6 5 5 5 6 5 6 5 5 5 5 5 5 5 5 5 6 5 5 6 6 5 5 5 6 5 5 5 5 6 5 6 5 5 5 5 5 5 5 5 6 5 6 5 5 5 5 5 5 5 5 5 5 5 6 5 5 5 5 5 5 5 5 6 5 6 6 5 6 5 5 5 5 6 5 5 5 6 5 5 5 5 5 5 6 5 5 5 5 5 6 6 5 5 5 5 5 5 5 5 5 6 5 5 5 5 5 5 5 5 5 5 6 5 5 5 5 5 6 5 6 5 6 5 5 5 5 5 5 5 5 6 5 5 5 5 5 5 5 5 5 5 5 5 5 5 5 5 5 5 5 5 6 5 5 5 5 5 5 5 5 5 6 5 5 5 5 5 6 5 5 5 5 5 5 5 6 6 5 5 6 5 5 5 5 5 5 5 5 5 6 5 6 5 5 5 5 5 6 5 5 5 5 5 5 5 5 5 5 5 5 5 6 6 5 5 5 5 5 5 5 5 5 5 5 6 5 5 6 5 6 6 5 6 5 6 5 5 6 5 5 5 5 6 6 5 5 5 5 5 5 5 5 5 5 5 5 6 5 5 5 5 5 5 5 6 6 5 6 5 6 5 5 5 5 5 5 6 5 6 5 5 5 5 5 5 6 5 6 5 5 5 5 5 5 5 5 5 5 5 5 5 5 5 5 5 5 5 5 5 5 5 6 5 5 5 6 5 5 6 5 5 6 5 5 5 5 5 5 5 5 5 6 5 5 5 6 5 5 5 5 6 5 5 5 6 5 5 5 6 5 5 6 5 5 5 5 5 5 5 5 6 6 6 5 6 5 5 5 6 5 5 5 5 5 5 6 6 5 5 5 5 5 5 5 6 5 5 6 5 5 5 6 5 5 5 6 5 5 5 5 5 6 5 5 5 5 5 5 6 5 5 5 6 5 5 5 5 6 5 6 6 5 5 6 5 6 5 6 5 5 6 5 5 5 5 5 5 5 5 5 5 5 6 5 6 5 5 5 5 5 5 5 5 5 5 5 5 5 5 5 5 5 5 6 5 5 5 5 5 5 5 5 5 5 5 5 5 5 5 6 5 5 5 5 5 6 5 5 5 5 5 5 5 5 5 5 6 5 5 5 5 5 5 6 5 5 5 5 5 5 5 5 5 5 5 5 5 5 5 5 5 5 5 5 5 5 5 5 5 5 5 5 5 5 5 6 5 5 5 5 5 5 5 5 5 5 5 5 5 5 6 6 5 5 5 5 5 5 5 6 5 5 5 5 5 6 5 5 5 5 5 5 5 6 5 5 5 5 6 5 5 5 5 5 5 5 6 5 5 5 5 6 6 5 6 5 5 6 6 5 6 5 5 6 6 5 5 5 5 5 5 5 5 6 5 5 5 5 5 5 5 5 5 5 5 5 5 5 6 5 6 5 6 5 5 6 5 5 6 5 6 5 5 5 6 6 5 5 6 5 5 6 5 5 5 5 5 5 5 5 5 5 5 6 5 5 5 5 5 5 5 5 5 5 5 5 5 5 5 5 5 5 5 5 5 5 5 5 5 5 5 5 6 5 5 5 5 6 5 5 5 5 5 6 5 6 5 6 5 5 6 5 5 5 5 6 6 5 5 5 5 5 5 5 5 5 5 5 6 5 5 6 5 5 5 5 5 5 6 5 5 5 5 5 5 6 5 5 5 5 5 5 5 5 5 5 5 6 5 5 5 5 6 5 5 5 6 5 5 5 5 5 6 5 5 5 5 6 5 5 6 5 6 5 5 5 5 5 5 5 5 5 5 6 5 5 5 5 5 5 5 6 5 5 5 5 5 5 5 5 5 5 5 5 5 5 5 5 5 5 6 6 5 5 5 5 5 5 5 6 5 5 5 5 5 5 6 5 5 5 5 5 5 5 5 6 5 5 6 5 5 5 5 5 5 5 5 5 5 6 5 5 5 5 5 5 5 5 5 5 5 5 5 5 5 5 5 6 6 5 6 5 5 5 5 5 6 5 5 5 5 5 5 5 6 5 5 5 5 5 5 5 5 5 5 5 5 5 5 6 5 5 5 5 5 5 6 5 5 5 5 5 5 5 5 5 5 5 5 5 5 5 6 5 5 6 5 6 5 5 5 5 5 6 6 5 5 5 5 6 6 5 5 5 5 5 5 5 5 5 5 6 5 5 5 5 5 5 5 5 5 6 5 5 6 6 6 5 5 6 5 5 5 6 5 5 5 5 6 5 5 5 6 5 5 5 5 5 5 5 6 5 5 5 6 5 5 5 5 5 5 5 5 5 5 5 5 5 5 6 5 5 5 6 5 5 5 5 5 5 6 5 5 5 5 5 5 5 5 6 5 5 5 5 5 5 5 5 5 5 5 5 5 5 5 5 5 5 5 5 5 5 5 6 5 5 6 5 5 6 6 5 5 6 5 5 5 5 5 5 5 5 6 5 5 5 5 5 5 5 5 5 5 6 5 5 5 5 5 5 5 5 5 5 5 5 5 5 5 5 5 5 5 5 5 5 5 5 5 5 5 6 5 6 5 5 5 5 5 6 5 5 6 5 5 6 5 5 5 5 5 5 5 5 5 5 5 6 5 5 5 6 5 5 5 5 5 5 5 5 5 5 6 5 5 5 5 5 5 6 5 5 5 5 5 5 5 5 6 5 5 5 5 6 5 5 5 5 5 5 5 5 5 5 5 5 5 5 5 5 5 5 5 5 6 5 5 5 5 6 5 5 5 5 5 5 5 5 5 5 5 5 5 6 5 5 5 5 6 5 5 5 5 5 6 6 5 5 5 5 6 5 5 5 5 5 5 5 5 5 5 5 5 5 5 5 5 5 5 5 5 5 5 5 5 5 5 5 6 5 5 5 5 6 5 5 5 5 5 6 5 5 5 6 5 5 5 5 5 5 5 5 6 5 5 5 5 5 5 6 5 5 5 5 6 5 5 5 5 5 5 5 5 5 5 5 6 5 5 5 5 5 5 5 5 6 5 5 5 5 6 5 5 5 5 6 5 5 5 6 5 5 5 5 5 5 5 5 5 6 5 6 5 5 5 5 6 5 6 5 5 5 5 5 6 5 5 6 5 5 6 5 5 6 5 5 6 6 6 5 6 5 6 5 5 5 6 5 5 6 6 5 6 5 6 5 5 5 5 5 5 5 5 5 5 5 5 5 5 5 5 5 5 5 5 5 5 5 5 6 5 5 5 5 5 5 5 5 5 5 5 5 5 5 5 5 5 5 5 5 5 6 5 5 5 5 5 5 5 5 5 5 5 5 5 5 5 5 5 5 5 5 5 5 5 5 5 5 5 5 6 5 6 5 5 5 5 5 5 5 5 5 5 5 5 5 5 5 5 5 5 5 5 5 5 5 6 5 5 6 5 5 5 6 5 5 5 6 5 5 5 5 5 5 5 5 5 5 5 5 5 5 5 5 6 5 6 6 6 5 5 5 5 6 5 5 6 6 5 5 5 6 6 5 5 5 5 5 5 5 5 6 6 5 5 5 6 5 6 5 5 5 6 5 5 5 5 6 5 6 5 5 5 5 5 5 5 5 5 5 5 5 5 6 5 5 6 5 6 5 6 6 5 5 5 5 5 6 6 5 5 5 5 6 5 5 5 5 5 5 6 5 6 5 5 5 6 5 5 6 5 5 5 5 5 5 6 5 6 5 5 5 5 6 5 5 5 5 5 5 5 6 5 5 5 5 5 5 6 5 5 6 5 5 6 5 5 5 5 5 5 5 5 5 5 5 5 5 6 5 5 5 5 5 5 5 6 6 5 5 5 5 6 5 5 5 5 5 5 5 6 5 5 6 5 6 5 6 6 5 5 5 5 5 5 5 6 5 5 5 5 6 5 6 5 5 6 5 5 5 5 5 5 5 5 5 5 5 5 5 5 5 5 5 5 5 5 5 6 5 5 5 5 5 5 5 5 5 6 5 5 5 5 5 5 6 5 5 5 5 5 5 5 5 5 5 5 5 5 5 5 5 6 5 5 5 5 5 6 5 5 5 5 5 5 5 5 5 5 5 5 5 5 5 5 5 5 5 5 5 6 5 5 5 5 5 6 5 5 5 5 5 5 5 5 6 5 5 5 5 5 5 5 5 5 5 5 5 6 5 5 5 5 6 5 5 5 5 6 5 5 5 5 5 5 5 5 5 5 5 5 6 5 5 5 5 5 5 5 5 5 5 5 5 5 5 5 5 5 6 6 5 5 5 6 5 6 5 6 5 5 6 5 5 5 5 5 5 6 5 6 5 5 5 5 5 6 5 6 5 5 5 5 5 5 5 5 5 5 5 5 5 5 5 5 5 5 6 5 5 5 5 5 6 5 5 5 5 5 5 5 5 5 5 5 5 5 5 5 6 5 5 6 5 5 5 5 6 5 5 6 6 5 5 5 6 5 6 6 5 5 6 5 6 5 6 5 5 6 5 6 5 6 5 5 5 5 5 6 5 5 5 5 5 5 5 6 6 5 5 5 6 5 6 5 5 5 5 5 5 5 6 5 5 5 5 5 6 5 5 5 5 5 6 6 5 5 5 5 5 5 5 5 5 5 5 5 5 5 5 5 5 5 5 5 5 5 5 5 5 5 5 6 5 5 6 6 5 5 5 5 6 5 5 6 5 5 5 5 5 5 5 5 5 5 6 5 5 5 6 5 5 5 6 5 6 5 5 5 5 5 5 6 5 6 5 5 5 5 5 5 6 5 5 5 5 6 6 6 5 6 5 5 5 5 5 5 5 6 5 5 5 5 5 5 5 5 5 5 5 6 5 5 5 5 6 5 5 6 5 5 6 5 6 5 6 5 6 6 5 5 6 5 6 5 5 5 5 5 5 5 6 5 5 5 5 5 5 5 5 5 6 5 5 6 5 5 5 5 5 5 5 5 5 6 5 5 6 5 5 5 5 5 5 5 5 5 5 5 5 5 5 5 5 5 5 5 5 5 5 5 5 5 5 5 5 5 5 5 5 5 5 5 5 5 5 5 5 5 5 5 5 6 6 5 5 5 5 5 5 5 6 5 5 5 6 5 5 5 5 6 5 5 6 5 5 5 5 5 5 5 5 5 5 5 5 5 5 5 5 5 5 5 5 5 5 5 5 5 5 6 5 6 5 5 5 5 6 6 6 5 5 5 5 5 6 5 6 5 5 5 5 5 5 5 5 5 5 5 5 5 5 5 5 5 5 5 6 5 5 6 5 5 5 5 5 5 5 5 5 5 5 5 5 5 5 5 5 5 5 5 5 5 6 5 5 5 5 6 6 6 5 5 5 5 5 5 6 5 5 5 5 5 5 5 5 5 5 5 5 5 5 5 5 6 5 5 5 5 6 5 5 5 5 5 5 5 5 6 5 5 5 5 5 5 5 5 6 5 6 5 5 6 5 6 5 5 6 5 5 6 5 6 5 5 5 5 5 6 5 5 5 5 5 6 5 5 5 5 5 5 5 5 6 5 5 5 5 5 6 5 5 6 6 5 6 5 5 5 5 5 5 5 5 5 6 5 5 5 6 5 5 5 6 5 5 6 5 5 5 5 5 5 5 5 5 5 5 5 5 5 5 5 5 5 5 6 6 5 6 5 5 5 5 5 5 5 6 5 5 5 5 5 6 5 6 5 5 5 5 5 5 5 5 5 5 5 5 5 5 5 5 5 5 5 5 5 5 5 5 6 5 6 5 5 5 5 5 5 6 6 5 5 5 6 5 5 5 6 5 5 5 6 5 6 5 5 5 5 5 5 5 5 5 5 5 5 5 6 5 5 5 5 6 5 5 5 5 5 5 5 5 5 5 5 5 5 6 5 5 5 5 5 5 5 5 5 6 5 5 6 6 5 5 5 5 5 6 5 5 5 5 5 5 5 6 5 5 5 5 5 5 5 6 5 5 5 5 5 5 6 6 5 6 5 5 5 5 5 5 6 5 6 5 6 5 5 5 5 6 5 6 5 6 5 5 5 5 5 5 5 5 5 5 5 5 5 5 5 5 5 6 5 5 5 5 6 5 5 5 5 5 6 5 6 5 5 5 5 5 5 5 5 5 5 6 5 5 5 5 5 5 5 5 5 5 5 6 5 5 5 5 5 5 5 5 5 5 5 5 5 5 5 6 6 5 5 6 5 5 6 6 5 5 5 5 6 5 5 5 5 5 5 6 6 5 5 5 6 5 5 5 6 5 6 5 5 5 6 5 5 6 5 5 5 6 5 5 5 5 5 5 5 5 5 5 5 5 5 5 5 5 5 5 5 6 5 5 5 5 5 5 5 5 6 5 5 5 5 5 5 5 6 5 5 5 5 5 5 5 5 5 5 5 5 5 5 5 5 5 5 5 5 5 5 5 5 5 5 5 5 5 5 5 5 5 5 5 5 5 5 5 5 5 5 5 5 5 5 5 5 5 5 5 5 5 5 5 5 5 5 5 5 5 5 5 5 5 5 5 5 5 5 5 5 6 5 5 5 5 5 5 5 6 5 5 5 5 5 5 5 6 5 5 5 5 5 5 5 5 5 5 5 5 5 5 5 5 5 5 5 5 5 5 5 5 5 5 5 5 5 5 5 5 5 6 5 5 6 5 5 5 6 5 5 5 5 5 5 5 5 5 5 5 5 6 5 5 5 5 5 5 5 5 5 5 5 5 5 5 5 5 5 5 5 5 5 5 5 5 5 5 5 5 5 5 5 5 5 5 5 5 5 5 5 5 6 5 5 5 5 5 5 5 5 5 5 5 5 5 5 5 5 5 5 5 6 5 5 5 5 6 5 5 6 5 5 5 5 5 5 5 5 5 5 5 5 5 5 5 5 5 6 5 6 5 5 5 5 6 5 5 5 5 5 5 5 5 5 5 5 5 5 5 5 5 5 5 5 5 5 5 5 5 5 5 5 5 5 5 5 5 5 5 5 5 5 5 5 5 5 5 5 5 5 5 5 5 5 5 5 5 5 5 5 5 5 5 5 5 5 5 5 5 5 5 5 5 5 5 5 5 5 5 5 5 5 5 5 5 5 5 5 5 5 5 5 5 5 5 5 5 5 5 5 5 5 5 5 5 5 5 5 5 5 5 5 5 5 5 5 6 5 5 6 5 5 6 5 5 5 6 5 5 5 5 5 6 5 5 5 5 5 5 5 5 5 6 5 5 5 5 5 5 5 5 5 6 5 5 5 5 5 5 5 5 5 5 5 5 5 5 5 5 5 5 5 5 5 5 5 5 5 5 5 5 5 5 5 5 6 5 5 5 5 5 5 5 5 5 5 5 5 5 5 5 5 5 5 5 5 5 5 5 5 5 5 5 5 5 5 5 5 5 5 5 5 5 5 5 5 5 5 5 5 5 5 6 5 5 6 5 5 5 5 5 5 5 5 5 5 5 5 5 5 6 5 5 5 6 5 5 5 5 5 5 5 5 5 5 5 5 5 5 5 5 5 5 5 5 5 5 5 5 5 5 5 5 5 5 5 5 5 5 5 5 5 5 5 5 5 5 5 5 5 5 5 5 5 5 5 5 5 5 5 5 5 5 5 5 5 5 5 5 6 5 5 5 5 5 5 5 5 5 5 5 5 6 5 5 5 5 5 6 6 5 5 5 5 6 5 6 6 5 6 5 5 6 5 6 5 5 5 5 5 5 5 6 5 5 5 5 5 6 5 5 5 5 6 5 5 5 6 5 6 5 5 5 5 5 5 6 5 5 5 5 5 5 5 5 5 5 5 6 5 5 5 5 5 5 6 5 5 5 5 5 5 5 5 5 5 5 5 6 5 5 6 5 5 6 5 5 5 5 5 5 5 5 5 5 5 5 5 5 5 5 6 5 5 5 5 5 6 5 5 5 5 5 5 5 5 5 5 5 5 5 5 5 6 5 5 5 5 5 5 5 5 5 5 6 5 5 5 5 5 5 5 6 5 5 5 5 5 5 6 5 5 5 5 5 5 5 5 5 5 5 5 5 5 5 5 5 5 5 5 5 5 5 5 5 5 5 5 5 5 5 5 5 5 5 5 5 5 5 5 5 5 5 5 5 5 5 5 5 5 5 5 5 6 5 5 5 5 5 5 5 5 5 5 5 5 5 5 5 5 5 5 5 5 5 5 5 5 5 5 5 5 6 5 5 5 5 5 5 5 5 5 6 5 5 5 5 5 5 6 6 5 5 5 5 5 5 5 5 5 5 5 5 6 5 5 5 6 6 5 5 5 5 5 5 5 5 5 5 5 5 5 5 5 5 6 6 5 5 5 5 5 6 5 5 6 5 5 5 5 5 6 5 5 5 5 6 5 5 5 5 5 5 5 5 5 6 5 5 5 5 5 5 5 5 5 5 5 5 5 5 5 5 5 5 5 5 5 5 6 5 5 5 5 5 5 6 5 5 5 5 5 5 5 5 5 5 5 5 6 5 5 5 6 5 6 5 5 5 5 5 5 6 5 5 5 5 5 6 5 5 5 5 5 5 5 5 5 5 5 6 6 5 5 5 5 5 5 5 5 5 5 5 6 5 5 5 5 5 5 5 5 5 5 5 5 6 5 5 5 5 5 5 5 5 6 5 5 6 5 5 5 5 6 6 5 5 5 5 6 6 5 5 5 5 5 5 5 5 5 5 5 5 5 5 5 5 5 5 5 5 5 5 6 5 5 5 5 5 5 5 5 6 5 6 5 5 5 5 5 5 5 5 5 5 5 5 5 6 5 5 5 5 5 5 6 5 5 6 6 6 5 5 5 5 5 5 5 6 6 5 5 5 5 5 6 5 6 6 6 5 5 6 5 5 5 5 5 5 6 5 5 5 6 5 5 5 5 5 5 6 5 5 5 5 5 5 5 5 5 5 5 5 5 5 5 5 5 5 5 5 5 5 5 5 5 5 5 5 5 5 5 5 5 5 5 5 5 5 5 6 5 5 5 5 5 5 5 5 5 5 5 5 5 6 5 5 5 5 5 5 5 5 5 5 5 5 5 5 5 5 5 5 5 5 5 5 5 5 5 5 5 5 5 5 5 5 5 5 5 5 5 5 5 5 5 5 5 5 5 5 5 5 5 5 5 5 5 5 5 5 5 5 5 5 5 5 5 5 5 5 5 5 5 5 5 5 5 5 5 6 5 5 5 5 6 6 5 5 5 5 5 5 5 6 6 5 5 5 5 5 6 5 5 6 5 5 5 5 5 5 6 5 5 5 5 5 5 5 5 5 5 6 5 5 5 5 5 5 5 5 5 5 5 6 5 5 6 5 5 5 6 5 5 5 5 6 5 5 5 5 5 5 5 5 5 5 5 5 5 5 5 5 5 5 5 5 5 5 5 5 5 5 5 5 5 5 5 5 5 5 5 5 5 5 5 5 5 5 5 5 5 5 5 5 5 5 5 5 5 5 5 5 5 5 5 5 5 5 5 5 5 5 5 5 5 5 5 5 5 5 5 5 5 5 6 5 5 5 5 6 5 5 5 5 6 5 5 6 5 5 5 5 5 6 5 5 5 5 5 5 6 5 5 5 5 6 5 5 5 5 5 5 5 5 5 5 5 5 5 5 6 5 6 5 5 5 5 5 5 5 5 5 5 5 5 5 5 5 5 5 5 5 5 6 5 5 5 6 5 5 5 5 5 5 5 5 5 5 5 5 5 5 5 5 5 6 5 5 5 5 5 6 5 5 5 5 6 5 5 6 5 5 5 5 5 5 5 5 5 5 6 5 5 5 5 5 5 5 5 5 5 6 5 5 6 5 5 6 5 5 6 5 5 5 5 5 5 5 5 5 5 6 5 5 6 6 5 5 5 5 5 5 5 5 5 5 5 5 5 5 5 5 5 5 5 5 5 5 5 5 5 5 5 5 5 6 5 5 5 5 5 5 5 5 6 5 5 6 5 5 5 5 6 5 5 5 5 5 6 5 5 5 5 5 5 5 6 5 5 5 5 5 5 5 5 6 5 5 5 5 5 5 5 5 5 5 5 5 5 5 5 5 5 5 5 5 5 5 5 5 5 5 5 5 5 5 5 5 5 5 5 5 5 5 5 5 5 5 5 5 5 5 5 5 5 5 5 5 5 5 5 6 5 5 5 6 5 5 5 5 5 5 6 5 6 5 5 6 5 5 5 6 5 5 5 5 5 5 5 5 6 5 5 6 5 5 5 5 5 5 5 5 5 6 5 5 5 5 5 5 5 5 5 5 5 5 5 5 5 5 5 5 5 5 5 5 5 5 5 6 5 5 5 6 5 5 5 5 5 5 6 5 6 5 5 6 5 5 5 6 5 5 5 6 6 5 5 5 6 6 5 5 5 5 5 5 5 6 6 5 5 6 5 6 5 5 5 5 5 5 5 6 5 5 5 5 5 6 5 5 5 5 5 5 5 5 5 6 5 5 6 5 5 5 5 5 5 5 5 6 5 5 5 5 5 6 5 5 5 5 5 5 5 5 5 5 6 5 5 5 6 5 5 5 5 5 5 5 5 5 5 5 5 6 5 5 5 5 6 5 6 5 6 5 5 5 5 5 5 5 5 5 5 5 5 5 5 5 5 5 6 5 5 5 6 5 6 5 6 6 5 5 5 5 5 5 5 6 6 5 5 5 6 5 6 5 5 5 5 5 5 5 5 5 5 5 6 5 6 5 5 5 6 5 5 5 5 5 5 5 5 5 5 6 6 5 5 5 5 6 5 5 5 5 6 5 5 5 5 5 5 6 5 5 5 6 5 6 5 5 5 5 6 5 5 5 5 5 5 5 5 6 5 5 5 5 5 5 5 5 5 5 5 5 5 5 5 5 6 5 5 6 5 6 5 5 5 5 5 5 5 5 6 5 5 5 5 5 6 5 5 5 5 5 6 5 5 5 5 5 5 5 5 6 5 5 5 5 5 5 6 6 5 5 5 5 5 5 5 5 6 5 5 5 5 5 5 6 5 5 6 5 5 6 5 5 5 5 5 5 5 5 5 5 5 5 5 5 5 5 5 5 5 5 5 5 5 5 5 5 5 5 5 5 5 5 5 5 5 5 5 5 5 5 5 5 5 5 5 5 5 5 5 5 5 5 5 5 5 5 5 5 5 5 5 5 6 5 5 5 5 5 5 5 5 5 5 5 5 5 5 5 5 5 5 5 5 5 5 5 5 5 5 5 5 5 5 5 5 5 5 5 5 5 5 5 5 5 5 5 5 5 5 5 5 5 5 5 5 5 5 5 5 5 5 5 5 5 5 5 5 5 5 5 5 5 5 5 5 5 5 5 5 5 5 6 5 5 5 6 5 5 5 5 5 6 6 5 5 6 5 5 5 5 5 5 6 6 5 5 5 5 5 5 5 5 5 5 5 5 5 5 5 5 5 6 5 5 5 5 5 5 5 5 5 5 5 5 5 5 5 6 6 5 5 5 5 5 5 5 5 5 5 5 5 5 5 5 5 5 5 5 6 5 5 5 5 5 5 5 5 5 5 5 5 5 5 5 6 5 5 5 6 6 6 5 6 5 5 5 6 6 5 5 6 5 5 6 5 5 5 5 6 5 5 6 6 5 5 5 5 5 5 6 5 5 5 5 5 5 5 5 5 5 5 6 5 5 5 5 5 5 5 5 5 5 5 5 5 5 5 5 5 5 5 6 5 6 5 5 5 5 5 5 5 5 5 5 5 5 5 5 5 5 5 5 5 5 5 6 5 5 5 5 5 5 5 5 5 5 5 5 5 5 5 5 6 5 6 5 5 6 5 5 5 5 5 5 5 5 5 5 5 5 5 5 6 5 5 5 5 5 5 5 5 5 5 5 6 5 5 5 5 5 5 5 5 5 5 5 5 6 5 5 5 5 5 5 5 5 5 5 5 5 5 6 5 5 5 5 5 5 5 5 5 5 5 5 5 5 5 5 5 5 5 5 5 5 5 6 5 5 5 5 6 5 5 5 5 5 5 5 5 5 5 5 6 5 5 5 5 5 5 5 5 5 5 5 5 5 5 5 5 5 5 5 5 5 5 6 5 5 5 5 6 5 5 5 5 5 5 5 5 5 5 5 5 5 5 6 5 6 5 5 5 6 5 5 5 5 6 6 5 5 5 5 5 5 5 5 5 5 5 5 6 5 5 6 5 5 5 5 5 5 5 5 5 5 5 5 5 5 5 5 5 5 5 5 5 5 5 5 5 5 5 5 5 5 5 5 5 5 6 5 5 5 5 6 5 5 5 5 5 6 5 5 5 6 5 5 5 5 6 5 5 5 5 6 5 5 5 6 5 5 5 5 5 5 6 5 5 5 5 5 5 5 6 6 5 5 5 5 5 5 5 6 5 5 5 5 6 5 5 5 5 6 5 5 5 5 5 5 5 5 5 5 5 5 5 5 5 5 5 5 5 5 5 6 5 5 5 5 5 5 5 5 5 5 5 5 5 5 6 6 5 5 5 5 6 6 5 5 6 5 5 5 5 5 5 5 5 5 5 5 5 5 6 5 5 5 5 5 5 5 6 5 5 5 6 5 5 5 5 5 6 5 5 5 5 5 5 5 5 5 5 5 5 5 5 5 5 5 6 5 5 5 5 5 5 5 5 5 5 5 5 5 5 5 5 5 6 5 5 5 6 5 5 5 5 5 5 5 5 5 5 5 5 5 5 5 5 5 5 5 5 5 5 5 5 5 5 5 5 5 5 5 5 5 5 5 5 5 5 5 5 5 5 5 5 5 5 5 5 6 5 5 5 5 5 6 5 5 5 5 5 5 5 5 6 5 5 6 5 5 5 5 5 5 5 5 5 5 6 5 6 6 5 5 5 6 5 5 5 5 5 6 6 5 5 5 5 5 5 5 5 5 5 5 5 5 5 5 6 5 5 5 5 6 6 5 5 5 5 5 5 5 5 5 5 5 5 5 6 5 5 5 5 5 5 5 5 5 5 5 5 5 5 5 5 5 5 5 5 5 5 5 5 5 5 5 5 5 5 5 5 5 5 5 5 6 5 5 5 5 5 5 5 5 5 5 5 5 5 5 5 5 5 5 5 5 5 6 5 5 5 5 6 5 5 5 5 5 5 5 5 5 6 5 6 5 5 5 5 6 5 5 5 6 5 5 5 5 6 6 6 5 6 5 5 5 6 5 6 5 5 5 5 6 5 5 5 5 6 5 5 6 5 5 5 5 6 5 5 5 5 5 5 5 5 5 5 5 5 5 5 5 5 5 5 5 6 5 5 5 5 5 5 5 5 5 5 5 5 5 5 5 5 5 5 5 5 5 5 5 5 5 5 5 5 5 5 5 5 5 5 5 5 5 5 5 5 5 5 5 5 5 5 5 5 5 5 5 5 5 5 6 5 5 5 6 6 5 5 6 6 5 6 6 5 5 5 5 6 6 5 5 6 5 5 5 5 5 5 5 5 5 5 5 5 5 5 5 6 5 5 5 5 5 5 5 6 5 5 6 5 5 5 6 5 5 5 5 5 5 5 5 6 5 5 5 5 5 5 5 5 5 5 5 5 5 6 5 5 5 5 5 6 6 5 6 5 5 6 5 5 5 5 5 6 5 5 5 5 5 5 6 5 5 5 5 5 5 5 5 5 5 6 5 5 5 6 5 5 5 5 5 5 5 6 5 5 5 5 5 5 5 5 5 5 5 5 5 5 5 5 5 6 5 5 5 5 5 5 5 5 5 5 5 5 5 5 5 5 5 5 5 5 5 5 5 5 5 5 5 5 5 5 5 5 5 5 5 5 5 5 5 5 5 5 5 5 5 5 5 6 5 5 5 6 5 5 5 5 5 6 5 5 5 5 5 5 5 5 5 5 5 5 5 5 5 5 6 5 6 5 5 5 5 5 5 5 5 6 5 5 5 6 5 5 5 6 5 5 5 6 5 6 5 5 5 5 5 5 5 5 5 6 5 5 5 5 6 5 5 5 5 5 5 5 5 6 5 6 5 5 5 5 6 5 5 5 5 5 5 5 5 6 5 5 5 5 6 5 5 5 5 5 5 6 5 5 5 6 5 5 5 5 5 5 5 5 5 5 5 5 5 5 5 5 5 5 5 5 5 6 5 5 5 5 5 5 5 5 5 5 5 5 5 5 5 5 6 5 5 5 5 5 6 5 5 5 5 6 5 5 5 5 5 5 5 6 5 5 5 5 5 5 5 5 5 5 5 5 5 5 5 5 5 5 5 5 6 5 5 5 5 5 5 6 5 5 5 5 5 6 5 5 5 6 5 5 5 5 5 5 5 5 5 5 5 6 6 5 5 5 5 5 5 5 5 5 5 6 5 5 6 6 5 5 5 5 5 5 6 5 5 5 6 6 6 5 5 6 5 5 5 6 5 6 6 5 5 5 5 5 6 6 5 6 6 5 6 5 5 5 5 5 5 5 5 5 5 5 6 5 5 5 6 5 5 5 5 5 5 6 5 5 5 5 5 5 5 6 5 6 5 5 5 5 6 5 5 6 5 6 6 6 5 5 6 5 5 5 5 5 6 5 5 6 5 5 6 5 5 6 6 5 5 5 5 5 5 5 5 5 5 6 5 5 5 5 5 5 5 6 6 5 5 5 5 5 5 5 6 5 5 5 5 6 5 6 5 6 5 6 6 5 5 6 5 6 5 5 6 5 5 6 5 6 5 5 5 5 5 5 5 5 5 5 5 5 6 5 5 5 5 5 5 5 5 5 5 5 6 5 5 6 5 5 5 6 5 6 5 5 5 5 6 5 5 5 5 5 5 5 5 5 5 5 5 5 6 6 5 5 6 5 5 6 6 5 5 5 5 5 5 5 5 5 6 5 5 6 5 5 6 6 5 6 5 5 6 5 5 6 5 6 5 5 5 6 5 5 5 5 5 5 5 5 5 5 5 5 5 5 5 6 5 5 5 5 5 5 6 5 5 6 5 5 6 5 5 5 5 5 5 6 5 5 5 6 5 5 6 5 5 5 5 5 6 5 5 6 5 5 5 5 6 5 6 5 6 5 5 5 6 5 5 5 5 5 5 6 5 6 5 5 5 5 5 5 5 5 5 5 5 6 5 5 5 5 5 5 5 6 5 5 5 5 5 5 5 6 5 5 5 5 6 5 5 5 5 5 5 5 5 5 5 5 5 5 5 5 5 5 5 5 5 5 5 5 5 5 5 5 5 5 5 6 5 5 5 5 5 5 5 5 5 5 5 6 5 5 6 6 5 5 5 5 6 5 5 6 5 5 6 5 6 5 5 6 5 5 5 5 5 5 6 6 5 5 5 5 5 5 5 6 5 5 5 6 5 5 5 5 5 5 5 5 5 5 5 5 5 5 5 6 5 5 5 5 5 6 5 5 5 5 5 5 5 5 5 5 5 5 5 6 5 6 5 5 5 5 5 6 5 6 5 5 5 5 5 5 5 5 5 5 5 5 6 5 6 5 5 5 5 6 5 6 5 5 5 6 5 6 5 5 6 6 5 6 6 5 5 5 5 5 5 5 6 5 5 5 5 5 6 5 5 6 5 6 5 5 6 5 5 5 5 5 5 6 5 6 5 6 5 5 5 5 6 5 6 6 5 5 5 5 5 5 5 5 5 5 5 5 6 6 6 5 5 5 5 5 5 5 5 5 5 5 5 5 5 5 5 5 5 6 5 5 5 5 6 5 5 5 5 5 5 5 5 5 6 6 5 5 6 5 5 5 5 5 6 5 5 5 5 5 5 5 5 5 5 5 5 5 5 6 5 5 5 5 5 5 5 5 5 5 5 5 5 5 5 5 5 5 5 6 5 5 5 5 5 5 5 6 5 5 5 5 5 6 5 5 5 5 5 5 5 5 5 5 5 5 5 5 6 5 5 5 5 5 5 5 5 5 5 6 5 5 5 5 6 5 5 5 5 5 5 5 5 5 5 5 5 5 5 5 5 5 5 5 5 5 5 5 5 5 5 5 5 5 5 5 5 5 5 5 5 5 5 5 5 5 5 5 5 5 5 5 5 5 5 5 5 5 5 5 5 5 5 5 5 5 5 5 5 5 5 5 6 5 5 5 5 5 6 5 5 5 5 6 5 5 5 5 5 5 5 5 5 5 5 5 5 5 5 5 5 5 5 5 5 5 5 5 5 5 5 5 5 5 6 5 5 5 6 5 5 5 5 5 5 5 5 5 5 5 5 5 5 5 5 5 5 5 5 5 5 6 5 5 5 5 6 5 5 6 5 5 6 5 5 5 5 5 6 5 5 5 5 6 6 5 5 6 5 5 5 5 6 6 5 5 5 6 6 5 5 5 6 6 5 5 6 5 5 5 5 5 6 5 5 6 5 5 5 6 5 6 5 5 5 5 5 5 5 5 5 5 5 5 5 5 5 6 5 5 5 6 5 5 5 5 5 5 5 5 5 5 5 6 5 5 6 5 6 5 5 5 6 6 5 5 5 6 5 5 5 5 6 5 5 5 5 5 5 6 5 5 5 5 5 6 5 6 5 5 5 5 5 5 5 5 6 5 5 5 5 5 5 5 5 5 5 5 5 5 5 5 5 5 5 5 6 5 5 5 5 5 5 5 5 5 6 5 5 5 5 5 5 5 5 6 5 5 6 5 5 5 5 5 5 5 5 5 5 5 5 5 5 5 5 5 5 5 5 5 6 5 5 5 5 5 5 5 5 5 5 5 6 5 5 5 5 5 5 5 6 5 5 5 5 5 5 5 5 5 5 5 6 5 5 5 5 5 6 5 5 5 5 5 5 5 5 5 5 5 5 6 5 5 5 5 5 5 5 5 5 5 5 5 5 5 5 5 5 5 5 5 5 5 5 5 5 5 5 5 5 6 5 5 5 5 5 5 5 6 5 5 5 5 5 6 5 5 5 5 5 5 6 5 5 5 6 5 5 5 5 5 5 5 5 5 5 5 5 5 6 5 5 5 6 5 5 5 5 5 5 5 5 5 5 5 5 5 5 5 5 5 5 5 5 5 5 5 5 5 5 5 5 5 5 5 5 5 5 5 5 5 5 5 5 5 5 5 5 6 5 5 5 5 5 5 6 5 5 5 5 5 5 6 5 5 5 5 5 5 5 5 5 5 5 5 5 5 5 5 5 5 5 5 5 5 5 5 5 5 5 5 5 6 5 5 6 5 5 6 5 5 5 5 6 5 5 5 6 5 5 5 5 5 5 5 5 5 5 5 5 5 6 5 5 5 5 5 6 5 5 5 5 5 5 6 5 5 6 5 5 5 5 6 5 5 5 5 5 5 5 5 6 6 5 5 5 5 5 6 5 5 5 5 5 5 5 5 5 5 5 5 5 5 6 5 5 5 5 5 5 6 5 5 5 5 6 5 5 5 5 5 5 5 6 5 5 5 5 5 6 6 5 5 5 5 5 6 5 5 5 5 5 5 5 5 5 5 5 5 5 5 5 5 5 5 5 5 5 5 5 5 5 5 5 5 5 6 5 5 5 5 6 5 5 5 5 5 5 5 5 5 5 5 5 5 5 5 5 5 5 5 5 5 5 5 6 5 5 5 6 5 5 5 5 6 5 5 5 5 5 5 5 5 5 5 5 5 6 5 5 5 6 5 5 5 6 5 5 5 5 5 5 5 5 5 5 5 5 5 5 5 5 5 5 5 6 5 5 5 5 5 5 5 5 5 5 5 6 5 5 5 5 5 5 6 5 6 5 6 5 5 5 5 5 5 5 5 5 5 5 5 5 6 6 5 5 5 5 5 6 5 5 5 5 6 5 5 5 5 5 5 5 5 5 5 5 5 5 5 5 5 5 5 6 5 6 5 5 5 5 6 5 5 6 5 5 5 5 5 5 5 5 5 5 5 5 5 5 6 5 5 5 5 5 5 5 5 5 5 5 5 5 5 5 5 6 5 5 5 5 5 6 5 5 6 5 5 5 6 5 5 5 5 6 5 5 5 5 5 5 5 5 5 5 5 5 5 5 5 5 5 5 6 5 5 6 5 5 5 5 6 5 5 5 5 6 5 5 5 5 5 5 5 5 5 5 5 5 5 5 5 5 6 5 6 5 5 5 5 5 5 5 6 5 5 5 5 6 5 5 6 5 5 5 5 5 6 5 5 5 5 5 5 5 5 5 5 5 5 5 5 5 5 5 6 5 6 6 5 5 5 5 5 5 5 5 5 5 5 5 5 5 6 5 5 5 5 5 6 5 5 5 5 5 6 5 5 5 5 5 5 5 5 5 5 5 5 5 5 5 5 5 5 5 5 5 6 6 5 5 5 6 5 5 5 5 5 5 5 5 5 5 5 6 5 5 5 5 5 5 5 5 5 5 5 5 5 5 5 5 5 5 5 5 5 5 5 5 5 5 5 5 5 5 5 5 5 5 5 6 5 5 6 5 5 5 5 5 5 5 5 5 5 5 5 5 5 5 5 5 5 5 5 5 5 6 5 5 5 5 5 5 6 5 5 5 5 5 5 5 5 5 5 5 5 5 5 6 5 5 5 5 5 5 6 5 5 5 6 5 5 5 5 5 5 5 5 5 5 5 5 5 5 5 5 5 5 5 5 5 5 5 5 5 5 5 5 5 6 5 5 5 5 5 5 5 6 5 5 6 5 5 5 5 5 5 5 5 
</DataArray>
<DataArray type="Float64" Name="stress" NumberOfComponents="9" format="ascii">
1372.2781755742908 201.97090605578626 0 201.97090605578626 -216.49804218353256 0 0 0 0 2083.0918858177029 -120.41156801409988 0 -120.41156801409988 2.3470891130935505 0 0 0 0 1304.9734320608331 217.42042611422136 0 217.42042611422136 -111.26815132315394 0 0 0 0 1500.1334107500243 -3.5815444192998287 0 -3.5815444192998287 -222.09714730399591 0 0 0 0 5.7435364415448191 0.51144829020827132 0 0.51144829020827132 -0.071216413572008933 0 0 0 0 765.62952231205418 660.89915058203383 0 660.89915058203383 242.61046801028928 0 0 0 0 1265.0566563012253 664.68496707794316 0 664.68496707794316 9.5557429989501372 0 0 0 0 731.93995645410905 408.83640560221113 0 408.83640560221113 -63.503106547143602 0 0 0 0 1306.9409972418844 230.33098232434969 0 230.33098232434969 -157.45132484914308 0 0 0 0 792.28537493907788 518.28522929182054 0 518.28522929182054 -109.31064012731889 0 0 0 0 683.33175272030348 168.70728655797836 0 168.70728655797836 -83.90800243192507 0 0 0 0 1225.7177211255621 -50.785271987881472 0 -50.785271987881472 -51.835980133624389 0 0 0 0 819.71767153976543 -67.055938844593157 0 -67.055938844593157 -2.2348712093400849 0 0 0 0 333.00162761439969 -194.3849390147374 0 -194.3849390147374 123.50082343970922 0 0 0 0 736.91694641403592 -224.46040143405628 0 -224.46040143405628 88.072809647871722 0 0 0 0 656.73898058809209 203.34301389600267 0 203.34301389600267 47.148579202922122 0 0 0 0 358.25017589035633 -136.29929252182603 0 -136.29929252182603 256.03770691621219 0 0 0 0 312.31834897759109 -56.4825322081889 0 -56.4825322081889 286.93370289971773 0 0 0 0 313.20982567866304 79.85713801164556 0 79.85713801164556 73.37424855492219 0 0 0 0 76.569808621217817 -116.90997344965058 0 -116.90997344965058 23.97198075963388 0 0 0 0 265.70507633896523 -29.429170388552933 0 -29.429170388552933 -218.9840188815557 0 0 0 0 98.403892114874907 160.18908852513368 0 160.18908852513368 -426.93593548425162 0 0 0 0 142.74779979434607 270.0334597067951 0 270.0334597067951 111.34918488600124 0 0 0 0 444.03171815875976 151.59826426397171 0 151.59826426397171 45.618996240589112 0 0 0 0 6.6248289077047957 -2.9619435898918698 0 -2.9619435898918698 -0.066769257681153368 0 0 0 0 144.82426444096927 548.67307989174253 0 548.67307989174253 229.41635894141842 0 0 0 0 -93.832331337278447 -335.41381279840101 0 -335.41381279840101 -275.31665873657255 0 0 0 0 -281.77865175692568 -61.298910755493594 0 -61.298910755493594 29.29524246224976 0 0 0 0 9.9384869820247559 -1.7992872085102256 0 -1.7992872085102256 -0.29429261032568077 0 0 0 0 -40.270944833115209 -81.118312517550194 0 -81.118312517550194 0.096016714412961696 0 0 0 0 228.61024472723511 -247.17369306614501 0 -247.17369306614501 -644.22964226550118 0 0 0 0 -3.7269897278856661 -29.531820906287209 0 -29.531820906287209 -62.172882160031115 0 0 0 0 139.03530064952974 53.359387544523472 0 53.359387544523472 -96.604819775741277 0 0 0 0 4.4832341189197678 -1.6254623076005466 0 -1.6254623076005466 0.36200389250478171 0 0 0 0 499.48500734101617 -161.51521754117402 0 -161.51521754117402 -0.36504357109527663 0 0 0 0 138.72580009460944 -402.05767450564582 0 -402.05767450564582 -33.573464185536722 0 0 0 0 51.817277922753419 -405.5753772899281 0 -405.5753772899281 201.41550536519327 0 0 0 0 394.96317733300384 -761.34512710809895 0 -761.34512710809895 91.292931631736735 0 0 0 0 194.83137419515697 -296.5881643657882 0 -296.5881643657882 67.467802923238082 0 0 0 0 -192.76885417056474 -262.91827340013322 0 -262.91827340013322 120.01890487025238 0 0 0 0 31.326529991500138 67.169376058731189 0 67.169376058731189 0.19263077234112594 0 0 0 0 -31.910362474292924 11.488658501965311 0 11.488658501965311 -5.3222724967811246 0 0 0 0 0.70065566701760673 -0.12149125099401203 0 -0.12149125099401203 0.89430231547670413 0 0 0 0 503.97635040495697 -9.4672305096770319 0 -9.4672305096770319 532.35505266937992 0 0 0 0 286.39245939686225 -28.658482251997235 0 -28.658482251997235 -18.290066924911351 0 0 0 0 5.8670427830511471 4.9943146724461371 0 4.9943146724461371 27.585151671801555 0 0 0 0 49.622473146700941 87.185057971481058 0 87.185057971481058 -28.983559145108345 0 0 0 0 42.415244768123557 14.41425674274857 0 14.41425674274857 -6.0702006217368298 0 0 0 0 43.556392777988847 13.609146943174682 0 13.609146943174682 -4.8761825806280221 0 0 0 0 109.94487529122125 58.275657170069195 0 58.275657170069195 -50.835692612207026 0 0 0 0 45.53025475339382 20.42806442733297 0 20.42806442733297 -24.385705556081575 0 0 0 0 59.410340425095455 25.617408631616442 0 25.617408631616442 -34.283096547134164 0 0 0 0 62.545524433666969 5.6101524944983012 0 5.6101524944983012 -23.68728428131385 0 0 0 0 94.11292696018063 -274.82007942230899 0 -274.82007942230899 335.51166749566039 0 0 0 0 203.29676378072782 -387.35490883352855 0 -387.35490883352855 179.40992962289033 0 0 0 0 156.04004688305577 -260.94242327373831 0 -260.94242327373831 110.4555937733644 0 0 0 0 -0.43494538640457847 0.09301122418794705 0 0.09301122418794705 0.51161015120086417 0 0 0 0 120.37754184122969 -86.074292497430463 0 -86.074292497430463 29.80770046780799 0 0 0 0 111.5872033681153 -1.8622997267108303 0 -1.8622997267108303 -51.538297631474052 0 0 0 0 40.537777255453932 14.790815247000801 0 14.790815247000801 -5.9830424179061872 0 0 0 0 6.5565621273136969 -3.2317930571327906 0 -3.2317930571327906 -1.1360612167976996 0 0 0 0 5.9862317907310825 -0.27702211840431801 0 -0.27702211840431801 3.9626889314733598 0 0 0 0 38.413553625905479 31.43195618989364 0 31.43195618989364 178.08153443482024 0 0 0 0 4.3769265087845781 11.941776204425125 0 11.941776204425125 -4.9113425961835739 0 0 0 0 4.1215444866392943 -1.273560530601145 0 -1.273560530601145 0.96112146772634111 0 0 0 0 14.215988719623084 6.5658837299696771 0 6.5658837299696771 1.6039890811736046 0 0 0 0 27.724582744815052 39.187166053197814 0 39.187166053197814 -8.5767711912012601 0 0 0 0 31.582649241368927 42.001870699642495 0 42.001870699642495 -21.727206831638682 0 0 0 0 34.960449414011237 29.103792508840172 0 29.103792508840172 -11.101578118539578 0 0 0 0 -6.8193790422619713 9.4296128511597672 0 9.4296128511597672 2.0685743840699411 0 0 0 0 25.99642198181391 26.347362412464349 0 26.347362412464349 7.6181741530183444 0 0 0 0 16.295889697925304 33.582440373311883 0 33.582440373311883 4.0912645075931096 0 0 0 0 24.831371806023526 38.642569279253905 0 38.642569279253905 15.653671534808382 0 0 0 0 61.66364694870208 -2.6561971110197504 0 -2.6561971110197504 -21.209379792382322 0 0 0 0 16.964408827721854 7.6425216860053808 0 7.6425216860053808 1.4494457411778967 0 0 0 0 95.085450472179218 41.284600613182022 0 41.284600613182022 -27.056170145719193 0 0 0 0 94.804825586646885 1.3809661934248243 0 1.3809661934248243 -27.521000471743605 0 0 0 0 48.612753929315659 47.557028598734348 0 47.557028598734348 -5.3321162358229799 0 0 0 0 67.358397873205831 26.003354696383269 0 26.003354696383269 -23.072613921658984 0 0 0 0 13.087347324142684 41.135714053014482 0 41.135714053014482 0.19171528137326277 0 0 0 0 70.317825682406692 78.47660061562884 0 78.47660061562884 12.940737731088859 0 0 0 0 188.26768091783561 -31.058832453944618 0 -31.058832453944618 -26.519496513221839 0 0 0 0 96.67598125447148 40.009044984524408 0 40.009044984524408 -26.361250793478575 0 0 0 0 143.73654353197344 48.588537803645977 0 48.588537803645977 -82.849940346000949 0 0 0 0 224.9221532853644 -90.770360870749002 0 -90.770360870749002 -27.369894425847576 0 0 0 0 229.53231067579418 -120.22304287806861 0 -120.22304287806861 35.62561762441976 0 0 0 0 388.518037040114 -24.260069071829832 0 -24.260069071829832 -62.243844160812898 0 0 0 0 448.39661816437001 -300.84838213746502 0 -300.84838213746502 138.97905037277178 0 0 0 0 -107.20969399988826 109.21010568383947 0 109.21010568383947 7.638721099745112 0 0 0 0 832.95185058226343 132.60123341975725 0 132.60123341975725 -302.33063481711645 0 0 0 0 137.1581043711285 277.58230242054555 0 277.58230242054555 -175.55123704653198 0 0 0 0 2.9652581593476981 3.2939373554443279 0 3.2939373554443279 3.478747372434956 0 0 0 0 -181.27162666166623 -153.04257310944843 0 -153.04257310944843 378.72600663621876 0 0 0 0 383.57915487828723 53.625071586635727 0 53.625071586635727 12.587793239819575 0 0 0 0 386.708250053347 15.052791005435438 0 15.052791005435438 45.390867895899646 0 0 0 0 174.46217652406631 -89.678272495849825 0 -89.678272495849825 306.20509460989666 0 0 0 0 36.366509280211176 19.512937309493225 0 19.512937309493225 -7.6499429145203237 0 0 0 0 21.854635426205277 17.577137526721827 0 17.577137526721827 -14.782526447538658 0 0 0 0 12.046126636707996 4.9326566241908667 0 4.9326566241908667 -2.0991950309520195 0 0 0 0 59.578891024350014 15.454287829636883 0 15.454287829636883 -10.758069687571208 0 0 0 0 -24.759502880797299 16.391564664008307 0 16.391564664008307 35.85432602950749 0 0 0 0 -2.2621438690784998 3.4868022346812122 0 3.4868022346812122 0.76720115850033754 0 0 0 0 -9.8063580869347788 40.775261766330061 0 40.775261766330061 -97.174738011746769 0 0 0 0 1.5002823173824922 0.91053887723042237 0 0.91053887723042237 0.22654742763191427 0 0 0 0 -27.633400581322348 -23.628812151472715 0 -23.628812151472715 -17.16027277434398 0 0 0 0 -12.028194925911521 136.29599886275116 0 136.29599886275116 8.4966029613871399 0 0 0 0 27.627025629008131 76.514084450747873 0 76.514084450747873 -77.203110621722544 0 0 0 0 -22.375610039514868 96.403791580449138 0 96.403791580449138 121.76673417415748 0 0 0 0 -1.3412989961844914 5.4928590367499375 0 5.4928590367499375 -1.4320738420868031 0 0 0 0 65.627807772281813 13.088558289524713 0 13.088558289524713 -7.5279868839739947 0 0 0 0 -40.17115129744343 283.04941193655361 0 283.04941193655361 49.34793891266682 0 0 0 0 0.35514784994710169 1.6266672598321676 0 1.6266672598321676 -1.8348512581610315 0 0 0 0 62.168032005263285 36.672866511764326 0 36.672866511764326 8.7309023047055803 0 0 0 0 80.238832724553504 458.4500621834909 0 458.4500621834909 134.46572755894448 0 0 0 0 9.2305380938680912 4.7202663952293715 0 4.7202663952293715 -2.0870650519541423 0 0 0 0 41.703258414941956 25.637895932663795 0 25.637895932663795 11.083569349471361 0 0 0 0 83.125435507390648 176.5644582295165 0 176.5644582295165 101.29548964880871 0 0 0 0 -40.125318159305607 310.67032504143731 0 310.67032504143731 926.10028013987994 0 0 0 0 2.9055341322087287 -0.81019463667679048 0 -0.81019463667679048 -2.0967445087311565 0 0 0 0 493.59188583883224 338.70725084377955 0 338.70725084377955 187.73537813574768 0 0 0 0 993.59047866463516 291.53369062526144 0 291.53369062526144 109.65560073597985 0 0 0 0 367.18334419210441 177.50825196278132 0 177.50825196278132 64.863138130456605 0 0 0 0 420.30627301498316 283.09683735745585 0 283.09683735745585 -31.136043338972968 0 0 0 0 1500.0167610993249 -210.62958328977203 0 -210.62958328977203 362.59765242219373 0 0 0 0 444.96939983774064 2.8731142848527043 0 2.8731142848527043 -11.71948726594853 0 0 0 0 877.16189136358298 -26.32827489984922 0 -26.32827489984922 -15.424617641181015 0 0 0 0 1445.7966189910003 -442.90237106776078 0 -442.90237106776078 -125.3680519135664 0 0 0 0 1189.5019105797728 188.15191270393552 0 188.15191270393552 77.976398432630049 0 0 0 0 910.99560935858426 123.14978330867223 0 123.14978330867223 396.44360569570767 0 0 0 0 2718.2019950954564 101.80553762160662 0 101.80553762160662 394.08908067994878 0 0 0 0 1383.1020324889068 -52.513357043924344 0 -52.513357043924344 1123.4122834128721 0 0 0 0 1894.8744909815723 -247.86730335041722 0 -247.86730335041722 -20.487370227350425 0 0 0 0 1387.6680504229989 -50.919935492811142 0 -50.919935492811142 136.01724211010924 0 0 0 0 1306.5335919502068 26.114453936589868 0 26.114453936589868 93.242926798114254 0 0 0 0 925.66158210030699 -276.05161635289267 0 -276.05161635289267 26.829439906182728 0 0 0 0 1322.7407594725983 -195.49413915137382 0 -195.49413915137382 -88.563855648045617 0 0 0 0 505.17055185577192 -239.67349115528518 0 -239.67349115528518 96.52603228211332 0 0 0 0 449.77226889897429 -376.95780066469962 0 -376.95780066469962 151.92552632809634 0 0 0 0 905.92276134683925 -225.45131886063717 0 -225.45131886063717 -6.2339430743111564 0 0 0 0 451.33819400778157 -274.79341983451513 0 -274.79341983451513 107.07058669242485 0 0 0 0 185.25132341272547 21.296209053598503 0 21.296209053598503 -47.376460664819973 0 0 0 0 82.897671469996567 149.36641841117995 0 149.36641841117995 -16.895615939778097 0 0 0 0 -60.561869890007074 -96.073535736245788 0 -96.073535736245788 130.07841641846787 0 0 0 0 -4.6584601457325334 23.009901433517939 0 23.009901433517939 10.219924832641254 0 0 0 0 9.6084761066645115 -30.958133422050047 0 -30.958133422050047 -10.70255453043751 0 0 0 0 11.344153710747548 0.91676258764599083 0 0.91676258764599083 -3.0604623727397815 0 0 0 0 237.32645549731387 7.5682979886277622 0 7.5682979886277622 95.364125508848673 0 0 0 0 518.8166707495111 -783.19612268267451 0 -783.19612268267451 653.13911651184662 0 0 0 0 569.36450462818902 687.16675211483653 0 687.16675211483653 843.66243375850172 0 0 0 0 7.3231197088888393 -0.3084359223615678 0 -0.3084359223615678 -1.2220341158863723 0 0 0 0 -28.767933331939275 19.249113494846153 0 19.249113494846153 15.241668228130067 0 0 0 0 -4.1459053108374064 9.6837720892051973 0 9.6837720892051973 1.0523774262808416 0 0 0 0 -3.2172583867359208 15.368742684700543 0 15.368742684700543 32.044144682540548 0 0 0 0 39.643544432280578 -18.974282752368136 0 -18.974282752368136 64.930535448943402 0 0 0 0 35.598028466207325 2.440941634907162 0 2.440941634907162 11.384657138000961 0 0 0 0 -3.8880843577499036 1.29068615773852 0 1.29068615773852 27.154379849848439 0 0 0 0 60.639253536544857 -0.49939170110251752 0 -0.49939170110251752 -8.4102988695810836 0 0 0 0 4.8371593846829342 1.2764778674330444 0 1.2764778674330444 0.25029586371786383 0 0 0 0 -4.9954635949397925 -4.8968194105032001 0 -4.8968194105032001 1.8280565179561563 0 0 0 0 6.1596212768199621 -2.0290503078069171 0 -2.0290503078069171 1.3638522222686305 0 0 0 0 11.711266649366735 5.2452121520983619 0 5.2452121520983619 1.7798063095973469 0 0 0 0 0.63186540764945676 -1.4056074771456062 0 -1.4056074771456062 0.00089261327323023575 0 0 0 0 0.20674357005509592 -0.57452020718348962 0 -0.57452020718348962 0.42731438046093528 0 0 0 0 44.653238887200132 -16.363487092860836 0 -16.363487092860836 -4.3261503747910552 0 0 0 0 128.46446203330561 0.20974333224270936 0 0.20974333224270936 -20.151564346268628 0 0 0 0 72.762615995798114 15.239430185760732 0 15.239430185760732 -14.283834207846006 0 0 0 0 0.52642995208142906 -0.15758932489779909 0 -0.15758932489779909 -0.022593630949728299 0 0 0 0 164.76186670091556 38.903521303674303 0 38.903521303674303 -8.8591653618423081 0 0 0 0 122.94009380986427 -24.276810119535742 0 -24.276810119535742 0.025852857783295737 0 0 0 0 74.709937873794843 1.2070798918684305 0 1.2070798918684305 -5.4850185655124273 0 0 0 0 100.42546583829244 -8.2721198045641309 0 -8.2721198045641309 -8.8784473416048186 0 0 0 0 87.479414276844182 45.922776997086515 0 45.922776997086515 20.714357692949051 0 0 0 0 165.3343346745387 1.5964583135366581 0 1.5964583135366581 -20.205576955506341 0 0 0 0 127.06395459144915 4.4825700841706606 0 4.4825700841706606 -20.421837467173532 0 0 0 0 65.611524400161215 -12.042828154382789 0 -12.042828154382789 1.8185362349696561 0 0 0 0 130.86246867875161 -27.714563181787497 0 -27.714563181787497 5.1898833208691997 0 0 0 0 123.86683971921047 -8.8637352837874026 0 -8.8637352837874026 0.010181932171121844 0 0 0 0 223.40457781191071 -23.558064031561457 0 -23.558064031561457 0.10132206034604962 0 0 0 0 201.12314635432995 67.032117820303455 0 67.032117820303455 19.574952594612675 0 0 0 0 1.5317739572500813 -1.4496564696678362 0 -1.4496564696678362 1.6136724961479074 0 0 0 0 16.65051939838304 19.772094580600765 0 19.772094580600765 17.481777359287079 0 0 0 0 24.172781752741805 -16.908212802412464 0 -16.908212802412464 1.1110816598664739 0 0 0 0 31.090850292683172 -56.595396108992645 0 -56.595396108992645 -70.836978619031697 0 0 0 0 -69.662864492343942 -34.417366982128954 0 -34.417366982128954 14.117548006503966 0 0 0 0 -10.824833031794697 -21.420840426602922 0 -21.420840426602922 -4.0379402149958423 0 0 0 0 4.7754650826482532 -4.4443950844282796 0 -4.4443950844282796 4.3330667395718994 0 0 0 0 26.520721457520267 11.057363011722622 0 11.057363011722622 17.415680645586662 0 0 0 0 35.129462373224669 -9.9059514033381184 0 -9.9059514033381184 -0.76246875603317221 0 0 0 0 82.417554550294881 17.13920392036982 0 17.13920392036982 -3.1890260632831513 0 0 0 0 44.009759131015016 -4.6485973043125668 0 -4.6485973043125668 -3.1329314614980994 0 0 0 0 74.534808841403901 2.7128411250435382 0 2.7128411250435382 -11.662446978937787 0 0 0 0 34.605621788774442 -16.454476315754412 0 -16.454476315754412 0.0055582695173882445 0 0 0 0 13.020480796418269 -3.6256066125369117 0 -3.6256066125369117 3.4786855977702804 0 0 0 0 -4.3619553140706557 -15.200341538752918 0 -15.200341538752918 7.588390892816637 0 0 0 0 28.767804925741075 8.7857841106770813 0 8.7857841106770813 -2.8826771567131146 0 0 0 0 3.4701140832112287 -22.229723510232166 0 -22.229723510232166 -3.574844413551066 0 0 0 0 -1.7161425207741559 -24.465385635372513 0 -24.465385635372513 -11.934309264059266 0 0 0 0 -4.4172792349054362 -22.337818029340269 0 -22.337818029340269 -13.505571806990474 0 0 0 0 7.499076004553018 -7.7586696158955561 0 -7.7586696158955561 6.3256690144252481 0 0 0 0 25.389679458734307 -14.7093948817013 0 -14.7093948817013 -1.713796649772604 0 0 0 0 -1.3955773315319675 -13.779719824545326 0 -13.779719824545326 -0.0080871117668037552 0 0 0 0 11.215818715588284 -12.982888957013664 0 -12.982888957013664 -7.7112961358722707 0 0 0 0 -31.87100773754355 11.868007754901399 0 11.868007754901399 -5.0282264291278977 0 0 0 0 -31.473447448137449 8.148179248474051 0 8.148179248474051 -7.6473869581312073 0 0 0 0 2.7603214087806407 0.93301457580818692 0 0.93301457580818692 -1.7110199694639252 0 0 0 0 -21.088890428189188 9.7905968711104663 0 9.7905968711104663 -8.4126457984744718 0 0 0 0 30.169147322926719 -13.5271841936652 0 -13.5271841936652 -3.4133120560614465 0 0 0 0 53.959091333024844 -1.7200053485648255 0 -1.7200053485648255 -10.943801088905275 0 0 0 0 53.882764154759798 -3.3246996307782872 0 -3.3246996307782872 -11.407907690059119 0 0 0 0 34.757789371786203 -17.221816897436781 0 -17.221816897436781 -19.028457847297432 0 0 0 0 77.016842609569721 -17.770643353225807 0 -17.770643353225807 -45.969075974639964 0 0 0 0 69.921662683798786 4.1256808252657606 0 4.1256808252657606 -32.66589639580252 0 0 0 0 95.316417686888599 3.1962342740587815 0 3.1962342740587815 -32.738960216897176 0 0 0 0 77.081803798682813 -23.926068957227102 0 -23.926068957227102 11.572303912464747 0 0 0 0 58.92225874907308 5.4780601308797259 0 5.4780601308797259 -27.165140023108279 0 0 0 0 57.150993867493071 -14.914779117650546 0 -14.914779117650546 -28.583926371180496 0 0 0 0 32.923348029711747 -32.00561692902447 0 -32.00561692902447 49.925009405825563 0 0 0 0 64.472769037893158 -24.056235035568733 0 -24.056235035568733 12.608302065330122 0 0 0 0 32.845088708122603 -35.647743304317906 0 -35.647743304317906 112.95479720237665 0 0 0 0 51.649770494339464 -60.966434682667398 0 -60.966434682667398 85.225396017309976 0 0 0 0 106.7513457328896 -83.110248706562373 0 -83.110248706562373 51.286557930703964 0 0 0 0 75.858931566996034 -46.472038853631148 0 -46.472038853631148 30.367891933477068 0 0 0 0 116.37218423424201 -57.046245129284557 0 -57.046245129284557 0.54782649170661557 0 0 0 0 61.347114783740835 -75.139929659576694 0 -75.139929659576694 66.118296373002892 0 0 0 0 56.656875408571068 -80.332789485437175 0 -80.332789485437175 66.994021021563043 0 0 0 0 100.65217975667474 -135.73025890457583 0 -135.73025890457583 119.98352580092711 0 0 0 0 172.14875575326414 -66.345524783611111 0 -66.345524783611111 98.058193075624999 0 0 0 0 33.079202242348401 -127.66818870937885 0 -127.66818870937885 119.5959643128549 0 0 0 0 17.683828500012169 -48.176807534901421 0 -48.176807534901421 101.72532809089618 0 0 0 0 16.98441052755561 -11.938071176345222 0 -11.938071176345222 56.588818672521938 0 0 0 0 -78.525386575194716 -57.279469721545865 0 -57.279469721545865 114.23046984643103 0 0 0 0 0.62084038113890472 2.003569986188289 0 2.003569986188289 2.3217694019840751 0 0 0 0 -21.156806734328711 15.521753762754884 0 15.521753762754884 46.410735824272024 0 0 0 0 4.7554796160193291 5.7740528376146187 0 5.7740528376146187 5.055627061438372 0 0 0 0 -9.8874507429936784 -23.225461005653187 0 -23.225461005653187 53.29248864591716 0 0 0 0 49.226289917754912 -71.871044016618882 0 -71.871044016618882 65.000266885048973 0 0 0 0 30.531382845565531 -13.866174308256015 0 -13.866174308256015 8.7869779927100637 0 0 0 0 47.696039683116396 -65.475032088646117 0 -65.475032088646117 43.019595087644177 0 0 0 0 34.670611585977895 -67.807630973056561 0 -67.807630973056561 82.868991055398766 0 0 0 0 48.359482533185655 -83.85935852355469 0 -83.85935852355469 121.04342233141011 0 0 0 0 76.005459291554871 -7.4145127242735498 0 -7.4145127242735498 -13.722649087437389 0 0 0 0 0.85562213271685295 0.75990161406263468 0 0.75990161406263468 0.69222969551466018 0 0 0 0 43.721595959148544 8.2668327361661795 0 8.2668327361661795 3.5355219318424815 0 0 0 0 3.6698971277627521 1.4383896467364039 0 1.4383896467364039 -1.6589663906790406 0 0 0 0 6.5380008689826354 3.1314700982322847 0 3.1314700982322847 6.5508848638971813 0 0 0 0 44.581158775064978 12.002844622317753 0 12.002844622317753 -3.6877015501818278 0 0 0 0 4.6635709512629546 5.8677985712647569 0 5.8677985712647569 11.430454642115933 0 0 0 0 18.940838035545312 16.61879022822859 0 16.61879022822859 12.247006735373361 0 0 0 0 35.200433591962792 11.531426408668494 0 11.531426408668494 -1.1453488685665434 0 0 0 0 -0.30144973995587065 -0.085189838781428051 0 -0.085189838781428051 0.9979662023939464 0 0 0 0 19.359014649075107 16.528031236723564 0 16.528031236723564 12.263718987701679 0 0 0 0 16.471817782330618 16.178692264468054 0 16.178692264468054 13.952933245795975 0 0 0 0 14.781170164969808 12.747960977039497 0 12.747960977039497 9.2399961461715066 0 0 0 0 20.188667747101135 6.8965725957555151 0 6.8965725957555151 2.5844148573642087 0 0 0 0 -65.455355763493571 -16.361376581329012 0 -16.361376581329012 43.331032058322762 0 0 0 0 70.727829649840714 16.319467228366364 0 16.319467228366364 -29.706077713132601 0 0 0 0 5.6210996047116168 8.4526576651602596 0 8.4526576651602596 11.902597265916484 0 0 0 0 -0.077700939361342591 0.38302004508121712 0 0.38302004508121712 2.5205433824581318 0 0 0 0 -3.2561938145154272 11.705294845439084 0 11.705294845439084 14.622839426273572 0 0 0 0 44.157430962595754 9.7285419254047838 0 9.7285419254047838 5.5199932599796284 0 0 0 0 8.9536773498330149 29.638733334387155 0 29.638733334387155 -4.2438661099602086 0 0 0 0 77.353337237967935 -70.254449078434249 0 -70.254449078434249 169.09726870369218 0 0 0 0 -0.46010644604212558 0.26382838997120928 0 0.26382838997120928 1.0276928426677032 0 0 0 0 16.740625363076106 33.705622327467395 0 33.705622327467395 -83.392971307635776 0 0 0 0 32.772021839016816 -21.958261399906348 0 -21.958261399906348 66.316640940687989 0 0 0 0 22.686588903819938 -13.152664671728303 0 -13.152664671728303 161.84256909000823 0 0 0 0 143.95348535763333 -0.17593151811473717 0 -0.17593151811473717 47.813720216168363 0 0 0 0 33.788314264958899 -38.981386537366916 0 -38.981386537366916 47.938907055927508 0 0 0 0 -45.384830825092649 18.240500686905392 0 18.240500686905392 7.9111511228916243 0 0 0 0 55.940507625426108 10.993468016545307 0 10.993468016545307 -91.400903067640144 0 0 0 0 15.208702198528044 28.132267659496733 0 28.132267659496733 41.015382173920045 0 0 0 0 -15.745864966454974 -187.98682511608905 0 -187.98682511608905 75.455490273071405 0 0 0 0 24.814713933632262 -17.845730736252897 0 -17.845730736252897 1.9678101496641014 0 0 0 0 -73.66986591544628 -135.44637676232102 0 -135.44637676232102 83.306860173996967 0 0 0 0 111.14703926424772 104.01045946058343 0 104.01045946058343 54.429551845766085 0 0 0 0 46.149358529313758 23.006012810034719 0 23.006012810034719 30.982093294029067 0 0 0 0 91.418402259390859 -56.090619836165786 0 -56.090619836165786 155.77639846064957 0 0 0 0 35.71260806448845 17.675781929934864 0 17.675781929934864 -40.869231343997754 0 0 0 0 220.00356693348294 -13.486643332821259 0 -13.486643332821259 -100.33455323274933 0 0 0 0 43.603842564160004 -66.467875529571472 0 -66.467875529571472 -93.8159463729517 0 0 0 0 -54.406361966824079 -45.8363323689629 0 -45.8363323689629 13.655760637260755 0 0 0 0 25.42593556722057 -15.602141863097479 0 -15.602141863097479 0.88384656559055164 0 0 0 0 -7.367356867081071 -18.944690080780951 0 -18.944690080780951 -13.684645258499131 0 0 0 0 2.4403499698443341 -5.5459877526909658 0 -5.5459877526909658 -0.57825275214878502 0 0 0 0 13.111568324558903 -10.014551971845094 0 -10.014551971845094 4.0282535756961977 0 0 0 0 23.001457015365304 -17.257930234414516 0 -17.257930234414516 -22.28562793143783 0 0 0 0 7.9360789523061328 -0.45345580418783271 0 -0.45345580418783271 4.8015836968594359 0 0 0 0 13.057127618507366 -9.6548985648878443 0 -9.6548985648878443 3.9681652340215123 0 0 0 0 3.0808156966959359 7.643783119364798 0 7.643783119364798 16.817784947464361 0 0 0 0 8.9004029719872051 0.50175989137164834 0 0.50175989137164834 18.96968691223833 0 0 0 0 43.209655329977977 25.929128219679114 0 25.929128219679114 -25.991221443881386 0 0 0 0 18.592866915954801 -32.19239308762144 0 -32.19239308762144 8.8854454094803259 0 0 0 0 5.3228564214777805 1.5425777139954988 0 1.5425777139954988 -0.31521265833880641 0 0 0 0 54.494081519278552 4.1931979824319114 0 4.1931979824319114 0.021610702973475782 0 0 0 0 16.749619997186528 -0.035479482091204773 0 -0.035479482091204773 27.422902138208997 0 0 0 0 30.785505006824678 -7.032118150391625 0 -7.032118150391625 13.206963062445993 0 0 0 0 65.697039553291688 32.60387096538377 0 32.60387096538377 -68.185126252828923 0 0 0 0 31.026312382833567 2.87643246384647 0 2.87643246384647 -0.052201308401894408 0 0 0 0 30.049776581723307 7.8299236631219991 0 7.8299236631219991 -1.2474698565193694 0 0 0 0 4.8729289453658566 5.3963210709401324 0 5.3963210709401324 9.768092294664882 0 0 0 0 31.312333036144992 2.3426008002824119 0 2.3426008002824119 -4.2914778616905096 0 0 0 0 15.294499692041427 10.631273233244428 0 10.631273233244428 0.084393765161735246 0 0 0 0 46.776743906921183 -3.2127076823323364 0 -3.2127076823323364 11.433570369979861 0 0 0 0 2.6917120071593672 12.856703417417748 0 12.856703417417748 13.321674358343898 0 0 0 0 7.8123416580850886 8.2826579451799986 0 8.2826579451799986 2.0522715029642145 0 0 0 0 76.324805368247326 -0.68585823427201831 0 -0.68585823427201831 -6.0846802291107451 0 0 0 0 54.489406322012655 -7.5976443253109665 0 -7.5976443253109665 11.994838159959727 0 0 0 0 48.784448977494321 -12.342770938324975 0 -12.342770938324975 13.270798879149538 0 0 0 0 50.909592956457345 -16.454396826253515 0 -16.454396826253515 20.943421521378696 0 0 0 0 50.521004186078244 -15.322622818760635 0 -15.322622818760635 10.287072451409131 0 0 0 0 58.428042246086989 -10.516678622681866 0 -10.516678622681866 12.981084958807685 0 0 0 0 59.961154629010707 -1.9475830295036758 0 -1.9475830295036758 16.580160923307631 0 0 0 0 71.024147715689651 0.21912045580131689 0 0.21912045580131689 10.443102955579889 0 0 0 0 60.098045672075386 0.674315444052354 0 0.674315444052354 16.841255094940948 0 0 0 0 69.282134743632923 -8.3557525451076344 0 -8.3557525451076344 4.8346091020978292 0 0 0 0 9.6767312254142368 8.7594279031363342 0 8.7594279031363342 3.318995127726982 0 0 0 0 66.41691365463339 -8.507800841266544 0 -8.507800841266544 25.498443937818138 0 0 0 0 19.160088934726474 9.9678007259394512 0 9.9678007259394512 -0.60995330235062561 0 0 0 0 16.852236838629324 81.233375049286636 0 81.233375049286636 -25.79259781908199 0 0 0 0 -9.4982362351729535 19.161605225326149 0 19.161605225326149 27.794617950923019 0 0 0 0 40.724367042399535 11.223586346756939 0 11.223586346756939 8.0333262131642869 0 0 0 0 -33.961758902958536 51.060682373746864 0 51.060682373746864 8.2447139032642269 0 0 0 0 17.45541501398295 15.342626927468835 0 15.342626927468835 -0.30657513146313098 0 0 0 0 -64.397918097571164 -1.5957778148999751 0 -1.5957778148999751 5.3044440184257837 0 0 0 0 0.22753705478422681 0.61054951111812272 0 0.61054951111812272 1.7873323950854978 0 0 0 0 27.963024642929668 15.511776077293462 0 15.511776077293462 -9.1287102894411873 0 0 0 0 -43.586368294363638 -17.5164162514493 0 -17.5164162514493 15.480182296750627 0 0 0 0 -38.742063902391237 14.074749134343847 0 14.074749134343847 -8.9005370923614464 0 0 0 0 23.79781659450488 4.9548466308824022 0 4.9548466308824022 -2.7362631409988847 0 0 0 0 39.301350536174141 0.56298606908330839 0 0.56298606908330839 -9.3395959862787095 0 0 0 0 -54.261822493616819 -17.654921978993229 0 -17.654921978993229 -27.436871950140812 0 0 0 0 33.400495173058516 19.550991576010347 0 19.550991576010347 -15.574776854556148 0 0 0 0 27.906021841384231 8.7048036983365868 0 8.7048036983365868 -1.1290783430871549 0 0 0 0 147.41960487452161 166.06448562427158 0 166.06448562427158 -20.460036342655926 0 0 0 0 43.926585103974503 -1.1684967910264277 0 -1.1684967910264277 -11.879592701455294 0 0 0 0 39.242229409072024 -0.10679371256719605 0 -0.10679371256719605 8.2684111010566994 0 0 0 0 49.425693466895609 -10.223841023802834 0 -10.223841023802834 9.7125783537332495 0 0 0 0 52.885500541407964 -4.3941409419880983 0 -4.3941409419880983 19.530870955471983 0 0 0 0 40.678651339247153 -0.081819438983984583 0 -0.081819438983984583 10.674015065977983 0 0 0 0 2.9229594910472869 0.82820232978860275 0 0.82820232978860275 -0.6869141100471019 0 0 0 0 54.12227525295566 -24.199895483957562 0 -24.199895483957562 13.064668434564737 0 0 0 0 57.567437961399264 -32.679105399431137 0 -32.679105399431137 27.638888485665575 0 0 0 0 -0.28137689252903897 2.1470566410083749 0 2.1470566410083749 0.90415259768639478 0 0 0 0 70.226282025658293 -16.232602799038887 0 -16.232602799038887 8.6656283390857425 0 0 0 0 45.722561668546405 -12.121545379675808 0 -12.121545379675808 9.7535437779170024 0 0 0 0 47.464280660118675 -12.421552349181638 0 -12.421552349181638 6.2032285109180521 0 0 0 0 53.276086413676239 -24.795497434330855 0 -24.795497434330855 12.819382537580168 0 0 0 0 33.847498428582185 -18.045270804063648 0 -18.045270804063648 22.802624081592512 0 0 0 0 42.809097429650137 -2.3926160465980502 0 -2.3926160465980502 0.67645581894566931 0 0 0 0 20.21964749095423 -0.22057168274068317 0 -0.22057168274068317 11.305781047527489 0 0 0 0 6.6291673183077364 10.091258893001395 0 10.091258893001395 21.493068861810343 0 0 0 0 28.711928020460618 2.4676432619346542 0 2.4676432619346542 -1.9555701838735331 0 0 0 0 14.94312782491761 -3.4284082288222635 0 -3.4284082288222635 -3.2308905251802571 0 0 0 0 15.640396428713984 2.0283462093095892 0 2.0283462093095892 -4.9527148819552167 0 0 0 0 14.907573000852494 1.3626584482397499 0 1.3626584482397499 -0.12724988559900763 0 0 0 0 11.529647380276437 -6.6074363501486673 0 -6.6074363501486673 -0.80582235598515872 0 0 0 0 35.173124765067769 3.1595144657612764 0 3.1595144657612764 5.1807399060307944 0 0 0 0 -0.1444038810004713 -2.6032702548769748 0 -2.6032702548769748 7.1538579953685257 0 0 0 0 14.557219773180961 -2.8732053368422439 0 -2.8732053368422439 0.16027541537959245 0 0 0 0 28.980190939262684 0.12310219546361623 0 0.12310219546361623 10.040292637217135 0 0 0 0 38.894357287241291 9.3868797885010054 0 9.3868797885010054 13.946327823105094 0 0 0 0 36.080939104362187 11.003880424832005 0 11.003880424832005 13.017547771048612 0 0 0 0 41.893374117389612 11.856094725177513 0 11.856094725177513 12.850109339954543 0 0 0 0 39.720176797876775 7.7651859539996622 0 7.7651859539996622 14.024298613598148 0 0 0 0 46.137576850353071 5.030965305085374 0 5.030965305085374 9.5074719500462379 0 0 0 0 35.923514566075028 4.8181197064726575 0 4.8181197064726575 12.109367184873008 0 0 0 0 9.9375162645440547 -11.086407321640266 0 -11.086407321640266 3.9412533579255147 0 0 0 0 33.374513855025725 -26.327852982617969 0 -26.327852982617969 2.1754906627847959 0 0 0 0 36.396403943410405 2.6673443791505633 0 2.6673443791505633 7.012609273345106 0 0 0 0 56.106299780949485 11.429894908840652 0 11.429894908840652 9.4152765127792009 0 0 0 0 46.347678821337468 5.6296061738285061 0 5.6296061738285061 13.190354394191672 0 0 0 0 48.550188381828775 7.1460629149469241 0 7.1460629149469241 14.096357139896099 0 0 0 0 43.693045611733396 6.9081477773229381 0 6.9081477773229381 15.962960033612035 0 0 0 0 46.060325424274197 17.606622570155196 0 17.606622570155196 19.009903894540912 0 0 0 0 3.8137697743406136 -2.3385532840673751 0 -2.3385532840673751 -1.3722518040585392 0 0 0 0 44.58520510551898 9.2731116691356874 0 9.2731116691356874 25.172918553181717 0 0 0 0 6.1481449562318176 -0.28205885727455637 0 -0.28205885727455637 -1.2796156375010082 0 0 0 0 51.424555019417312 13.436262298720976 0 13.436262298720976 20.919519332121126 0 0 0 0 40.303866728274443 4.372793127922705 0 4.372793127922705 20.560084775871019 0 0 0 0 45.806922418407339 8.5331615742825306 0 8.5331615742825306 17.158242454732317 0 0 0 0 42.9218710603418 1.6790462556264174 0 1.6790462556264174 13.469979041517036 0 0 0 0 49.263588431469543 6.0841114383538297 0 6.0841114383538297 13.324655340075878 0 0 0 0 50.23341133260692 6.497798803052774 0 6.497798803052774 11.017731323463522 0 0 0 0 53.872544105273846 13.749313447656277 0 13.749313447656277 10.240254085435936 0 0 0 0 46.109710009095579 11.341475058838114 0 11.341475058838114 12.806673182914892 0 0 0 0 42.576541576105228 8.9876209535404996 0 8.9876209535404996 13.463691147189081 0 0 0 0 44.293229870172581 7.8591300287921513 0 7.8591300287921513 14.002651647191669 0 0 0 0 35.212200826728804 13.369809987038479 0 13.369809987038479 13.777001624982404 0 0 0 0 0.66742276299937231 -0.92907794859495141 0 -0.92907794859495141 1.6626802667812512 0 0 0 0 41.75709990381074 15.23025448338467 0 15.23025448338467 8.6066884977863083 0 0 0 0 41.643125458307622 14.829078521400788 0 14.829078521400788 11.322603844152354 0 0 0 0 7.9232763284944667 -1.4401466689519111 0 -1.4401466689519111 2.5808386465209878 0 0 0 0 3.951078462154328 -2.2213868854382781 0 -2.2213868854382781 4.2950811226198766 0 0 0 0 53.632736444164038 -21.67594329761414 0 -21.67594329761414 2.4550542940596642 0 0 0 0 46.883736068055441 32.144417781069137 0 32.144417781069137 25.421978072427919 0 0 0 0 0.37727948001533562 -0.44240093946754655 0 -0.44240093946754655 0.43608017577121494 0 0 0 0 35.61795897414413 19.956258079762392 0 19.956258079762392 24.211666898625481 0 0 0 0 42.577063154791176 21.24715907988957 0 21.24715907988957 11.14838368853907 0 0 0 0 32.707719215133693 18.014511500746721 0 18.014511500746721 22.924782803150265 0 0 0 0 17.927232885129342 6.3026200095087006 0 6.3026200095087006 32.615901570874485 0 0 0 0 31.040451387310895 3.6729489610870587 0 3.6729489610870587 10.376405081967278 0 0 0 0 22.642004095792799 -2.6450292762756362 0 -2.6450292762756362 8.5424811610498637 0 0 0 0 26.080664319085372 -0.18048646006849367 0 -0.18048646006849367 -11.538161372377999 0 0 0 0 24.35597145944817 3.6512997769678615 0 3.6512997769678615 -0.044215127872880178 0 0 0 0 32.183659169828388 -3.7151182867494299 0 -3.7151182867494299 -10.05602879406797 0 0 0 0 28.246684271900449 11.328237577892196 0 11.328237577892196 -8.3345082652854217 0 0 0 0 20.223197668887465 7.4666563978933667 0 7.4666563978933667 1.6002563238967782 0 0 0 0 29.481428015350502 3.3914018599268729 0 3.3914018599268729 -24.962512038937348 0 0 0 0 17.207250005063543 -6.8370041748362382 0 -6.8370041748362382 16.921133797149196 0 0 0 0 29.194634457225675 78.685402338739266 0 78.685402338739266 21.912648880244888 0 0 0 0 8.6296151140222399 10.753123948177297 0 10.753123948177297 4.9535558965367112 0 0 0 0 29.445727928581618 28.618740352350187 0 28.618740352350187 42.280116374739009 0 0 0 0 22.056178386199463 17.210650899321649 0 17.210650899321649 46.13460613080133 0 0 0 0 -0.90448762623827861 -15.908126221772989 0 -15.908126221772989 7.6103497823514772 0 0 0 0 -34.744767586962553 7.006689112894037 0 7.006689112894037 16.701818946629828 0 0 0 0 38.489879966749868 -59.455637178803954 0 -59.455637178803954 -74.839253802733765 0 0 0 0 -9.3992435282052611 40.938516579523821 0 40.938516579523821 -10.373686010516167 0 0 0 0 1.5625426860966982 2.8120297427117009 0 2.8120297427117009 2.9325142620992555 0 0 0 0 -14.192723689659033 -12.753908212695251 0 -12.753908212695251 17.556005418183304 0 0 0 0 6.7546559300608351 3.9674292604240691 0 3.9674292604240691 0.73454537152997545 0 0 0 0 -3.7605716813050094 12.558303457354668 0 12.558303457354668 3.6313486827516499 0 0 0 0 -2.013303480315372 2.0288556206559991 0 2.0288556206559991 3.3931166103767874 0 0 0 0 -67.181127570140234 -7.3362469607534422 0 -7.3362469607534422 5.3038376990289748 0 0 0 0 226.28301089912929 -201.36949024063603 0 -201.36949024063603 -26.588763872690379 0 0 0 0 -36.369863667991012 43.090135147464366 0 43.090135147464366 -50.704079050672931 0 0 0 0 -1.2185707599132485 -0.60005669561538078 0 -0.60005669561538078 1.4191027181066098 0 0 0 0 -80.777184332272554 2.6824787383905289 0 2.6824787383905289 228.58145287860134 0 0 0 0 32.383475996644847 -47.616563880675358 0 -47.616563880675358 -15.514044906404706 0 0 0 0 1.4652007214212261 1.4360007389163201 0 1.4360007389163201 0.40107148637243384 0 0 0 0 202.57546117923994 124.60707614285661 0 124.60707614285661 -36.947688632782047 0 0 0 0 -72.540463621870003 -50.811665059930419 0 -50.811665059930419 5.8258651499763801 0 0 0 0 -40.390487457420022 -18.788439510021249 0 -18.788439510021249 50.376674903615822 0 0 0 0 -101.73777006156888 31.05279544843961 0 31.05279544843961 18.995409269558422 0 0 0 0 9.958921322312225 5.9908534566684963 0 5.9908534566684963 0.1132466920195796 0 0 0 0 2.0146969877752507 -1.2275491658069484 0 -1.2275491658069484 0.18370058538847189 0 0 0 0 20.763294365206093 -8.2656189219112548 0 -8.2656189219112548 1.2846630601160314 0 0 0 0 11.558091483497719 -0.12004413753768972 0 -0.12004413753768972 -5.9949100322428421 0 0 0 0 10.911864193139913 -4.8703413652770173 0 -4.8703413652770173 3.2578047258771283 0 0 0 0 22.917162444237078 -8.7217265437660103 0 -8.7217265437660103 2.3119071372917084 0 0 0 0 -41.103713149328541 -12.945732057696546 0 -12.945732057696546 3.8284214844470625 0 0 0 0 318.27662099644658 -60.98391777442157 0 -60.98391777442157 -130.70206211437835 0 0 0 0 36.044622908942983 -43.555288566919899 0 -43.555288566919899 -22.53087534375652 0 0 0 0 48.254951968203386 -63.598983813690211 0 -63.598983813690211 -18.638504911461041 0 0 0 0 4.9395732693898893 -3.767555914971517 0 -3.767555914971517 -1.3348811776217575 0 0 0 0 25.274343719844182 -14.955713583115369 0 -14.955713583115369 -0.70613903965158897 0 0 0 0 -3.7827087301920983 -16.11799248565859 0 -16.11799248565859 8.4710326424182085 0 0 0 0 29.718334533765301 -8.6183398543140584 0 -8.6183398543140584 0.38452489911233556 0 0 0 0 19.523180691797279 -24.475613398207372 0 -24.475613398207372 2.5802986961130046 0 0 0 0 -4.705979831634977 1.7289916123735338 0 1.7289916123735338 7.6568359264642822 0 0 0 0 19.903042853145962 -28.752439355319211 0 -28.752439355319211 45.103367834214851 0 0 0 0 -49.801339492081752 94.182728459818122 0 94.182728459818122 4.5019366084611647 0 0 0 0 -0.54922754282087993 -0.42741166272548625 0 -0.42741166272548625 -0.53392888151704643 0 0 0 0 28.855314463608011 -11.397816262587639 0 -11.397816262587639 10.06323122819731 0 0 0 0 -172.39247685955343 -10.668372498900567 0 -10.668372498900567 196.84118968921689 0 0 0 0 59.80749418178857 4.2215076033822356 0 4.2215076033822356 17.185137386329188 0 0 0 0 36.837485309748445 -15.00598840195471 0 -15.00598840195471 37.081805790042836 0 0 0 0 0.77412475879328468 -0.78315279936218474 0 -0.78315279936218474 0.88721148076311263 0 0 0 0 96.265124824560189 103.73522452645204 0 103.73522452645204 -76.909967745045833 0 0 0 0 -40.190176022540982 61.185800257096275 0 61.185800257096275 41.244120128475515 0 0 0 0 -45.894956112105092 -51.901245060926371 0 -51.901245060926371 7.3989003195114833 0 0 0 0 88.555439473166189 37.65138632368496 0 37.65138632368496 10.533163363213314 0 0 0 0 55.203747188610578 -3.9296570661009582 0 -3.9296570661009582 11.906712856072204 0 0 0 0 2.4441728906167555 -4.2958515787759097 0 -4.2958515787759097 5.5264517649718528 0 0 0 0 3.8619542724190978 9.526234871388283 0 9.526234871388283 2.5815215520190122 0 0 0 0 1.06545656776904 -1.7337415161020964 0 -1.7337415161020964 2.4207136978253234 0 0 0 0 8.7289061370743184 -3.7342778560081911 0 -3.7342778560081911 -7.8662812784555172 0 0 0 0 34.1341314809697 -22.537608401684281 0 -22.537608401684281 16.133366283126861 0 0 0 0 10.552417662151129 19.967841133406296 0 19.967841133406296 38.388616903124102 0 0 0 0 0.19718728552095399 -0.1718859397094441 0 -0.1718859397094441 0.10264426204991173 0 0 0 0 0.65493051504017785 6.7545732425178358 0 6.7545732425178358 7.0422874491149514 0 0 0 0 -0.41110071676369841 0.21327015906812008 0 0.21327015906812008 2.0995973902610574 0 0 0 0 -22.73275337851851 -5.6948350815881383 0 -5.6948350815881383 17.466034801635487 0 0 0 0 1.349317693710657 -2.8570763529690453 0 -2.8570763529690453 7.436781751899975 0 0 0 0 -13.172014326331919 10.371343146355912 0 10.371343146355912 13.937904358360811 0 0 0 0 -0.60908385444599844 -3.0954674686568069 0 -3.0954674686568069 3.5389229740294468 0 0 0 0 2.5705234538972945 2.3637046070880956 0 2.3637046070880956 8.184276140741531 0 0 0 0 7.4957175307463331 6.0079505058840823 0 6.0079505058840823 4.8262030346886604 0 0 0 0 77.094558457651146 3.901040143883165 0 3.901040143883165 3.7678435461684785 0 0 0 0 0.91111015616308322 -1.0640897682173147 0 -1.0640897682173147 1.9632677687071318 0 0 0 0 3.0615288953322306 0.090786886053592752 0 0.090786886053592752 6.3865491881815615 0 0 0 0 -12.201069761798863 0.59786143213864307 0 0.59786143213864307 9.3788403340522564 0 0 0 0 -32.014995981458924 -10.076762715545442 0 -10.076762715545442 35.684080384506956 0 0 0 0 0.21215930403136785 -2.5960517190795329 0 -2.5960517190795329 7.6689673907542115 0 0 0 0 1.2589350490670768 1.6477248129199324 0 1.6477248129199324 6.6949790214684981 0 0 0 0 2.3807798349846934 -1.0765528002864855 0 -1.0765528002864855 1.5736975446264365 0 0 0 0 0.20375735217021429 0.32933138344219515 0 0.32933138344219515 6.8551355074750973 0 0 0 0 -1.4276174473384344 1.2083313794304331 0 1.2083313794304331 7.5150329934367619 0 0 0 0 1.9835367345864832 -3.3349217895671899 0 -3.3349217895671899 7.2513621190784336 0 0 0 0 38.550005187971692 21.540379197048651 0 21.540379197048651 14.272179860032338 0 0 0 0 72.922899715827953 33.295201760743566 0 33.295201760743566 13.256249764549466 0 0 0 0 -0.13660112758591936 -0.071683996011156381 0 -0.071683996011156381 0.86853548321574348 0 0 0 0 53.780022551778529 1.5706631696903059 0 1.5706631696903059 19.766330582510818 0 0 0 0 53.986962283495814 1.1494688387633687 0 1.1494688387633687 8.0969329628123887 0 0 0 0 52.600444080511807 5.318020374601474 0 5.318020374601474 9.8006381698905898 0 0 0 0 70.338786265071349 -0.55045879029054845 0 -0.55045879029054845 10.771218125280939 0 0 0 0 53.713925601638948 -0.89971833779145527 0 -0.89971833779145527 14.026355428917668 0 0 0 0 43.950915979858109 -5.30283443504959 0 -5.30283443504959 12.875514576698606 0 0 0 0 15.858503916049813 -10.719694413179695 0 -10.719694413179695 11.375776227991082 0 0 0 0 29.998229736011126 2.9209673530353939 0 2.9209673530353939 23.42374967563137 0 0 0 0 36.615168341669232 1.2469658307350073 0 1.2469658307350073 12.744556267987718 0 0 0 0 37.328718495398789 3.589855965356378 0 3.589855965356378 -7.4609997225743427 0 0 0 0 19.396819508485351 18.026779609667756 0 18.026779609667756 4.7458573457806779 0 0 0 0 64.584381018918066 1.8740213092914928 0 1.8740213092914928 1.355639781667378 0 0 0 0 75.757970010548888 12.7108873643636 0 12.7108873643636 6.2412592617756673 0 0 0 0 -6.6079250642378611 -11.568121473579367 0 -11.568121473579367 32.563789570041536 0 0 0 0 0.24738887662071818 -0.32610320543695082 0 -0.32610320543695082 0.66342684557043974 0 0 0 0 16.483523138100281 17.173410095655868 0 17.173410095655868 22.517345147433844 0 0 0 0 4.2486796950724965 -17.715932758013196 0 -17.715932758013196 47.037487141125212 0 0 0 0 116.11849489331962 9.5491902113825518 0 9.5491902113825518 -4.7734152592838655 0 0 0 0 36.27648904396483 2.5665453418896504 0 2.5665453418896504 6.9232504999426965 0 0 0 0 -64.766469885604238 26.432271317480627 0 26.432271317480627 26.932131629777359 0 0 0 0 34.02051299599907 12.931902541239708 0 12.931902541239708 9.5594865436014516 0 0 0 0 0.59031464888417062 2.6297341548917075 0 2.6297341548917075 7.9328482334679826 0 0 0 0 -81.187615691649626 9.9851807940785875 0 9.9851807940785875 26.323528296342147 0 0 0 0 0.39336328258596609 1.762875818452315 0 1.762875818452315 5.1712512653302785 0 0 0 0 6.5605797262069245 -7.1570662903061475 0 -7.1570662903061475 -12.381702435792249 0 0 0 0 -5.4646834881623363 29.776746140526086 0 29.776746140526086 5.9303040031068122 0 0 0 0 77.55716464836587 17.025609124089954 0 17.025609124089954 7.0657384207097493 0 0 0 0 122.66028525721777 -127.85975977015849 0 -127.85975977015849 245.05103218933044 0 0 0 0 16.046291256492921 11.276523716497721 0 11.276523716497721 6.0652344634501496 0 0 0 0 -15.842488751542987 67.487192421851432 0 67.487192421851432 -67.971906169967042 0 0 0 0 161.73820475681714 -219.62865412923043 0 -219.62865412923043 57.47364848919986 0 0 0 0 147.11924987359816 -208.60836905783941 0 -208.60836905783941 183.98394771680171 0 0 0 0 161.26268109866214 -99.980379352567297 0 -99.980379352567297 39.324467994578157 0 0 0 0 4.5023646991872823 -0.41728236236894745 0 -0.41728236236894745 -2.8533667761654113 0 0 0 0 15.917725940516902 12.115723092113853 0 12.115723092113853 -66.792809505607693 0 0 0 0 17.056411860852677 -33.393027434942155 0 -33.393027434942155 11.956141459400897 0 0 0 0 -23.626217169873144 62.913214901914728 0 62.913214901914728 -70.621335324148276 0 0 0 0 -15.077579206022165 16.666774306860532 0 16.666774306860532 -22.491776391826534 0 0 0 0 -20.580211366506774 -20.266423954825086 0 -20.266423954825086 42.65849414857621 0 0 0 0 22.74142175793213 83.271716960086152 0 83.271716960086152 -92.657751021056129 0 0 0 0 14.017713020228712 7.5512819546056811 0 7.5512819546056811 3.910816223976803 0 0 0 0 337.31830023898146 -108.13904429055486 0 -108.13904429055486 214.67000396185927 0 0 0 0 543.03428107922628 -380.55511366263636 0 -380.55511366263636 235.52084452235493 0 0 0 0 1246.0929554573195 278.29050358178955 0 278.29050358178955 -37.598514831580559 0 0 0 0 1496.0008441569662 210.23072928810274 0 210.23072928810274 -130.44172511583054 0 0 0 0 316.84378373393179 543.34053126368417 0 543.34053126368417 -35.894698118226543 0 0 0 0 241.97340017898568 -293.35690716559077 0 -293.35690716559077 -29.276721747267075 0 0 0 0 1497.6642818190539 -750.03051895533622 0 -750.03051895533622 -126.37513694194406 0 0 0 0 7.3505547881783997 1.0506109381543887 0 1.0506109381543887 -0.092034834776677371 0 0 0 0 662.53477963872501 -294.07746860895111 0 -294.07746860895111 -91.735122228641856 0 0 0 0 621.31759362798266 145.50987961727668 0 145.50987961727668 -357.13589398820238 0 0 0 0 548.49703486925137 22.271214157859902 0 22.271214157859902 -563.43135205190777 0 0 0 0 -179.2650376577003 39.922184314129368 0 39.922184314129368 -129.57510821944408 0 0 0 0 188.68677664930146 3.0204700932221726 0 3.0204700932221726 -332.30118411095089 0 0 0 0 13.08885008526984 2.6595887463157659 0 2.6595887463157659 -0.4137895920917003 0 0 0 0 103.84102000561325 -144.34120599331465 0 -144.34120599331465 33.97630659005975 0 0 0 0 213.54477746253178 -210.25173311277513 0 -210.25173311277513 45.035024495733637 0 0 0 0 195.8834925152114 -153.45106756391732 0 -153.45106756391732 -20.121614467997119 0 0 0 0 202.73845386229368 -136.45455881260506 0 -136.45455881260506 21.992216127234741 0 0 0 0 5.7783198094675043 1.4777152388882264 0 1.4777152388882264 0.2217346676938956 0 0 0 0 -61.168801372958569 457.60212189786614 0 457.60212189786614 -47.947829167893246 0 0 0 0 419.95388393269423 -317.81280585118833 0 -317.81280585118833 72.954080025533926 0 0 0 0 492.19331534245293 254.49584182997333 0 254.49584182997333 -59.229530059813726 0 0 0 0 339.26570068721048 -400.77751608252532 0 -400.77751608252532 90.340797629474196 0 0 0 0 19.186257488081125 12.473168753148993 0 12.473168753148993 3.3115034579958782 0 0 0 0 84.309825709293364 362.16692467368489 0 362.16692467368489 -217.82458437123569 0 0 0 0 -130.33914441215165 175.3287348110901 0 175.3287348110901 -28.115431374878995 0 0 0 0 305.97000533036771 146.10514384307135 0 146.10514384307135 -334.24242268383659 0 0 0 0 566.23712953365248 412.92057971513111 0 412.92057971513111 -60.84267773956708 0 0 0 0 -78.946871575659316 -35.490999195632867 0 -35.490999195632867 773.8521224758847 0 0 0 0 -464.90634375475929 185.00910079396044 0 185.00910079396044 83.457686195779502 0 0 0 0 -85.97804901318159 -127.08959094258807 0 -127.08959094258807 13.21405964539872 0 0 0 0 22.247711055764114 14.163328906501786 0 14.163328906501786 6.190249857868606 0 0 0 0 -462.61048481564967 191.24316905811452 0 191.24316905811452 40.586835758410416 0 0 0 0 191.85736115010513 26.198610195554608 0 26.198610195554608 -91.524417796722645 0 0 0 0 399.29255534417462 2.8379532870103503 0 2.8379532870103503 -161.20345253022197 0 0 0 0 206.45898384515021 -143.74014042377047 0 -143.74014042377047 -41.11187770472884 0 0 0 0 416.35913387031178 -185.32991141180821 0 -185.32991141180821 -59.37606055443905 0 0 0 0 500.74069815622533 -33.743204514250365 0 -33.743204514250365 -165.37549402549212 0 0 0 0 409.5575916219459 -134.38152073529068 0 -134.38152073529068 -51.465515437574084 0 0 0 0 314.68660723513494 -41.768590138387083 0 -41.768590138387083 4.0282236838422705 0 0 0 0 527.96952583652455 -8.9671079800469897 0 -8.9671079800469897 -56.476354893736016 0 0 0 0 -45.986257758658667 -170.65313000631147 0 -170.65313000631147 39.887036051942005 0 0 0 0 472.33978700550506 90.845323469914433 0 90.845323469914433 23.905141281580427 0 0 0 0 4.9923065579604042 -0.33593320947369065 0 -0.33593320947369065 2.505392997025798 0 0 0 0 434.23581758464934 -334.38028460106574 0 -334.38028460106574 7.2378272044043115 0 0 0 0 248.72480929909943 -290.24754955016465 0 -290.24754955016465 16.442550987053323 0 0 0 0 161.51297030382557 204.23133456915434 0 204.23133456915434 27.294204787577883 0 0 0 0 424.58129492304943 -157.11413805539655 0 -157.11413805539655 43.861892665841424 0 0 0 0 84.645844086095167 300.38507468493776 0 300.38507468493776 -265.81864773040252 0 0 0 0 -210.4583279586077 -43.956396418976965 0 -43.956396418976965 29.190906857476193 0 0 0 0 436.88081941949349 209.14040491401192 0 209.14040491401192 85.622537928710017 0 0 0 0 148.61144309874362 -327.2532813923076 0 -327.2532813923076 18.411093304840165 0 0 0 0 8.5432995811701034 -3.8945979589093476 0 -3.8945979589093476 1.9538928829975655 0 0 0 0 122.59239876316133 100.55084852184382 0 100.55084852184382 48.454001238453202 0 0 0 0 336.6121916159359 -9.786876843810802 0 -9.786876843810802 -50.840392851086108 0 0 0 0 348.96679887234041 83.067869339963778 0 83.067869339963778 -38.892495066904303 0 0 0 0 204.75788848936645 74.020580266880643 0 74.020580266880643 -5.9697215563113843 0 0 0 0 135.90140084959057 49.157800890513499 0 49.157800890513499 -4.011616152597071 0 0 0 0 229.01505378405272 61.429403652656902 0 61.429403652656902 -36.117294891493202 0 0 0 0 254.4752809288002 130.22127779872062 0 130.22127779872062 21.149981215042317 0 0 0 0 23.520956863296306 -40.067881939761605 0 -40.067881939761605 6.0292815129023438 0 0 0 0 45.600696738980332 61.872665789316443 0 61.872665789316443 60.672591341110547 0 0 0 0 150.93302579806914 12.777187861904395 0 12.777187861904395 -10.914056324895057 0 0 0 0 -189.36417817922484 72.158373534956809 0 72.158373534956809 56.261976701893673 0 0 0 0 -40.126226963031513 -45.741581037189007 0 -45.741581037189007 -12.525875643352265 0 0 0 0 -44.074102767786826 -39.542830220326096 0 -39.542830220326096 18.672772934662135 0 0 0 0 -120.15556423779344 4.4385388330465503 0 4.4385388330465503 8.2664353113118523 0 0 0 0 -151.56389169548493 69.462657259159641 0 69.462657259159641 -41.706648615739368 0 0 0 0 -79.774859045086487 -4.9085046679117568 0 -4.9085046679117568 -102.87942982929053 0 0 0 0 -5.0420247699631204 0.74391467755512863 0 0.74391467755512863 1.3391291609186844 0 0 0 0 -75.271347835674533 107.45522589533084 0 107.45522589533084 -196.76824715496105 0 0 0 0 -272.88460059378122 313.41118691030351 0 313.41118691030351 -87.216653618114833 0 0 0 0 -462.09461825238395 209.16325852419232 0 209.16325852419232 202.70466981960089 0 0 0 0 -136.51992836633144 62.624966635968576 0 62.624966635968576 14.187003612542867 0 0 0 0 -483.71223411805477 37.592236055959575 0 37.592236055959575 312.01660051221916 0 0 0 0 718.83812640950055 -116.09865471449461 0 -116.09865471449461 -75.566642823671828 0 0 0 0 111.12012046812742 -171.76199549700141 0 -171.76199549700141 103.64578535991495 0 0 0 0 -228.92993909298639 -151.25015190065756 0 -151.25015190065756 298.38725409174913 0 0 0 0 114.57442879472364 -138.44807338833834 0 -138.44807338833834 68.400995371805948 0 0 0 0 506.0899928449071 -475.56360610420325 0 -475.56360610420325 257.7317686086094 0 0 0 0 455.19324788864469 -23.26206162012295 0 -23.26206162012295 -55.097499432883069 0 0 0 0 349.10372023344098 -251.22332256447316 0 -251.22332256447316 51.417493110556734 0 0 0 0 32.359967875767325 -176.82615563631134 0 -176.82615563631134 105.7756627987842 0 0 0 0 188.78362174295762 -111.87288648872595 0 -111.87288648872595 3.0818572450079955 0 0 0 0 148.86390129902429 -142.33814814014613 0 -142.33814814014613 11.480887213127971 0 0 0 0 299.7535480779552 -58.310766517040406 0 -58.310766517040406 -22.225905873275678 0 0 0 0 285.46049124528508 -34.057032256387629 0 -34.057032256387629 -54.730439561915603 0 0 0 0 250.43808808302492 -0.15149630778296341 0 -0.15149630778296341 -28.366271023960508 0 0 0 0 192.21765361725556 -69.284596981381355 0 -69.284596981381355 -23.147000312408807 0 0 0 0 13.26631746008934 -54.356664406475147 0 -54.356664406475147 37.925821299374093 0 0 0 0 88.967565062761423 -71.198296841401088 0 -71.198296841401088 28.809470079416883 0 0 0 0 121.33944813333801 -74.704435817266585 0 -74.704435817266585 21.781513302000803 0 0 0 0 -19.171701143663086 -30.921737034654598 0 -30.921737034654598 -8.0927968069715916 0 0 0 0 -16.442504496347965 -106.21838069766241 0 -106.21838069766241 61.063622108829804 0 0 0 0 -12.793328790503438 -67.774011794404487 0 -67.774011794404487 47.616627535280259 0 0 0 0 -29.039829391247622 19.050688397484464 0 19.050688397484464 -10.195584357005373 0 0 0 0 13.927924752773833 -33.924375383531128 0 -33.924375383531128 75.462219275475945 0 0 0 0 46.048746381933597 -33.057559797644444 0 -33.057559797644444 74.41133955284522 0 0 0 0 66.940284409463857 -6.5829943940313456 0 -6.5829943940313456 98.32783740169134 0 0 0 0 127.46490459044799 -32.727135582332494 0 -32.727135582332494 31.307288946502013 0 0 0 0 119.50816666016908 -26.623968984672501 0 -26.623968984672501 35.138234059064018 0 0 0 0 224.29194031166116 7.7991581751973627 0 7.7991581751973627 -18.221770707998303 0 0 0 0 190.53452385895798 58.315434759430786 0 58.315434759430786 55.72797057272669 0 0 0 0 148.77021959177364 20.106738292707405 0 20.106738292707405 24.668793680440785 0 0 0 0 182.84933661026344 128.09028759723512 0 128.09028759723512 65.726332352852864 0 0 0 0 85.003101403908659 64.353883785169998 0 64.353883785169998 62.741109399217848 0 0 0 0 84.843327893197056 65.051710715811268 0 65.051710715811268 120.43911132595122 0 0 0 0 19.17281543372701 12.534942478641497 0 12.534942478641497 172.33074144425245 0 0 0 0 19.437843302424881 16.469546903951141 0 16.469546903951141 96.668001198220225 0 0 0 0 194.95445602007385 -31.186822508319665 0 -31.186822508319665 -31.366544735474662 0 0 0 0 213.90327349576182 42.162220676964353 0 42.162220676964353 -25.420454944829771 0 0 0 0 132.47395736809995 38.651559460971953 0 38.651559460971953 -7.1763187336973715 0 0 0 0 191.70896785727018 53.855471520246056 0 53.855471520246056 3.197750327280346 0 0 0 0 211.06081501110611 62.758061328363198 0 62.758061328363198 -9.5094120291032596 0 0 0 0 210.01536257979387 57.835993113716086 0 57.835993113716086 -0.20339184641443353 0 0 0 0 231.11690617038403 59.183644219934422 0 59.183644219934422 -34.706711808793443 0 0 0 0 245.52338132440673 38.444817745302998 0 38.444817745302998 -11.734864106587338 0 0 0 0 203.07662578382224 47.569432359727102 0 47.569432359727102 -9.4746592233905176 0 0 0 0 209.81533289746221 52.854016622896836 0 52.854016622896836 33.424730379121229 0 0 0 0 235.43335521008703 70.378579295336294 0 70.378579295336294 5.9605752237092702 0 0 0 0 159.7573865378763 -81.886958871238022 0 -81.886958871238022 100.85966246722501 0 0 0 0 227.70976099569771 23.253602276754293 0 23.253602276754293 27.771612660738128 0 0 0 0 240.84924319192214 15.238494197585396 0 15.238494197585396 15.863471972756997 0 0 0 0 159.48406003348282 -72.574588049455599 0 -72.574588049455599 20.398720259351649 0 0 0 0 166.80006166132443 37.317915596539876 0 37.317915596539876 98.64216928152922 0 0 0 0 164.63768114054619 20.637307346530747 0 20.637307346530747 -25.693868242038434 0 0 0 0 268.91281546422761 -132.09292301966877 0 -132.09292301966877 94.502652578464904 0 0 0 0 393.46270766780799 -34.508933752362339 0 -34.508933752362339 17.957270996807097 0 0 0 0 314.46720651613396 106.15270940038477 0 106.15270940038477 47.794098387280883 0 0 0 0 236.78307609377589 96.117983415506785 0 96.117983415506785 68.635885637383041 0 0 0 0 4.7426574468216245 0.96384836755132364 0 0.96384836755132364 -0.22305973622950881 0 0 0 0 224.71270292280678 218.86103712300019 0 218.86103712300019 154.55442294764427 0 0 0 0 501.50385237187766 128.30621879960484 0 128.30621879960484 31.243526824629953 0 0 0 0 0.79766116160876699 -0.79745524377004529 0 -0.79745524377004529 1.2719748761373795 0 0 0 0 225.00293310958659 54.623708082196245 0 54.623708082196245 -18.251773519765209 0 0 0 0 474.84082584705311 -192.99843264091211 0 -192.99843264091211 197.89749722648344 0 0 0 0 197.66638437943402 3.372131099139807 0 3.372131099139807 -10.604323723534208 0 0 0 0 110.58547586266104 81.714447931574711 0 81.714447931574711 -15.914432684044414 0 0 0 0 -24.229238006275409 108.01116861780159 0 108.01116861780159 130.8850512930569 0 0 0 0 -46.789024107639761 24.943284076733644 0 24.943284076733644 167.87394387671009 0 0 0 0 246.47844064415949 120.14075518426301 0 120.14075518426301 58.21892349676898 0 0 0 0 -6.139214700589946 112.22139074380866 0 112.22139074380866 166.400537251972 0 0 0 0 34.164301396822339 81.30629507246762 0 81.30629507246762 -170.80902762663078 0 0 0 0 9.9737413727114301 2.0121682666995802 0 2.0121682666995802 -0.56761751833928908 0 0 0 0 -9.4033704981920891 16.904358998760813 0 16.904358998760813 21.500152391159588 0 0 0 0 -83.768336589175306 141.836951509448 0 141.836951509448 48.348238942018355 0 0 0 0 -69.899650613875565 -68.685839881246068 0 -68.685839881246068 61.153884324319819 0 0 0 0 455.76989176546704 -39.985471694175487 0 -39.985471694175487 -362.20491162465311 0 0 0 0 5.2570372087222097 1.4800988200081195 0 1.4800988200081195 -0.20493511511872586 0 0 0 0 265.29463718882107 102.54722790801063 0 102.54722790801063 140.56125471883502 0 0 0 0 107.05857861759068 -18.089038859824541 0 -18.089038859824541 185.12275656605095 0 0 0 0 341.35006658027123 -20.975002214876127 0 -20.975002214876127 52.826231295910169 0 0 0 0 -11.951189425621124 29.788825701680707 0 29.788825701680707 163.04575778296942 0 0 0 0 -6.3902179598462681 53.513707435594625 0 53.513707435594625 262.35443218615831 0 0 0 0 3.2651927063379844 -75.380795504758566 0 -75.380795504758566 187.34515981103328 0 0 0 0 38.593631666033161 61.897363577878806 0 61.897363577878806 324.02254986044602 0 0 0 0 383.06073132963866 153.14645023891302 0 153.14645023891302 210.06813796958829 0 0 0 0 27.123882348369079 -147.99386901152894 0 -147.99386901152894 58.001046923749385 0 0 0 0 -9.7757368060520093 -13.293358973074305 0 -13.293358973074305 77.883812994434038 0 0 0 0 20.960650155175244 -38.751788196153939 0 -38.751788196153939 35.954392699629466 0 0 0 0 15.280520647407684 -32.699263671500717 0 -32.699263671500717 78.753697843842929 0 0 0 0 5.0978515693641384 -43.183771385621185 0 -43.183771385621185 130.67113561564724 0 0 0 0 1500.8274082940713 72.518010956287924 0 72.518010956287924 125.73503054784341 0 0 0 0 1618.3659679419798 353.02884916218107 0 353.02884916218107 596.14329420427953 0 0 0 0 5.7204652195917589 2.9445345297209933 0 2.9445345297209933 2.1994533205710063 0 0 0 0 67.303628024921636 318.2557275014737 0 318.2557275014737 412.52854998423516 0 0 0 0 1643.1110969213032 -399.72593301900957 0 -399.72593301900957 227.9330509163027 0 0 0 0 391.26698783618667 138.78058590617115 0 138.78058590617115 213.90706057528021 0 0 0 0 1259.8248519535191 586.65684549020978 0 586.65684549020978 268.74803798427058 0 0 0 0 1445.8852011765302 -140.02589934713561 0 -140.02589934713561 593.71351540601415 0 0 0 0 1500.3598005296917 107.38187157071332 0 107.38187157071332 40.411544090912109 0 0 0 0 1137.7561250849431 -21.043949796912877 0 -21.043949796912877 4.3272817340274905 0 0 0 0 817.62568038173049 281.0125372421013 0 281.0125372421013 149.13529285318469 0 0 0 0 1177.5659970049401 81.965638464875823 0 81.965638464875823 -33.421734408965897 0 0 0 0 785.23055854419727 264.55758257609523 0 264.55758257609523 -80.700033829528252 0 0 0 0 784.52145954109221 210.71387690251197 0 210.71387690251197 183.54292752249853 0 0 0 0 632.06771331869459 94.049775246051951 0 94.049775246051951 402.44505785537757 0 0 0 0 1496.9177925641288 -150.88901240263414 0 -150.88901240263414 -62.667200489745419 0 0 0 0 892.17681811815419 -410.05485463341091 0 -410.05485463341091 59.901900366949945 0 0 0 0 5.53504885805404 -1.1152700379263045 0 -1.1152700379263045 -0.3595927539334014 0 0 0 0 216.9978519916549 -545.0490483821319 0 -545.0490483821319 82.594905407009222 0 0 0 0 1486.8917445693555 643.59802111787349 0 643.59802111787349 185.68488366482796 0 0 0 0 656.02559942677544 -79.958403696368279 0 -79.958403696368279 184.61780228044557 0 0 0 0 687.23254458287079 473.1802309366517 0 473.1802309366517 -64.462622878393347 0 0 0 0 463.09701415138261 382.85884319436934 0 382.85884319436934 -195.44446706921804 0 0 0 0 398.0949418612945 381.45220698065884 0 381.45220698065884 -13.568479701986618 0 0 0 0 -39.355068404427584 244.93787013278617 0 244.93787013278617 90.430076033586303 0 0 0 0 385.71260393798366 207.35427370031221 0 207.35427370031221 -139.72343647127721 0 0 0 0 371.96085394557213 509.4832746216963 0 509.4832746216963 663.9463274984189 0 0 0 0 2.9768569654315158 0.79905607045562022 0 0.79905607045562022 -1.0418664011656527 0 0 0 0 11.790468375133806 -2.6635760010421166 0 -2.6635760010421166 -1.8691554809084396 0 0 0 0 -230.65894843931892 764.13227213943219 0 764.13227213943219 560.16567658162069 0 0 0 0 263.61189565976747 328.76637726155059 0 328.76637726155059 195.06741913703655 0 0 0 0 437.75229296123871 328.40738686866848 0 328.40738686866848 566.76677766714852 0 0 0 0 3.9136150713854292 1.611805919868079 0 1.611805919868079 -0.60160140168589904 0 0 0 0 1498.5949339350263 696.50200125282493 0 696.50200125282493 73.28880969318503 0 0 0 0 1051.7918477276507 964.48209355354061 0 964.48209355354061 694.26078128202914 0 0 0 0 76.115401717244822 249.20947459581828 0 249.20947459581828 179.14744104841441 0 0 0 0 213.81251922743832 445.62803950433408 0 445.62803950433408 154.84739887204 0 0 0 0 360.20053575043494 567.08820154743205 0 567.08820154743205 255.61618750502583 0 0 0 0 395.2379465574777 355.65415679056025 0 355.65415679056025 -66.90467776642231 0 0 0 0 338.28263583745866 227.46184328483207 0 227.46184328483207 33.425744665588127 0 0 0 0 341.3423912811013 247.1557263365961 0 247.1557263365961 103.15897803947892 0 0 0 0 302.16903477879532 354.55164347923414 0 354.55164347923414 396.11551630111774 0 0 0 0 392.5111915722 376.4307031770017 0 376.4307031770017 84.135154972514783 0 0 0 0 395.14506107509078 260.48044549038116 0 260.48044549038116 126.47579317852649 0 0 0 0 489.39571776797675 415.2022188789166 0 415.2022188789166 250.88224665644952 0 0 0 0 10.761132192435277 -2.8311322409163253 0 -2.8311322409163253 -1.4021576095081052 0 0 0 0 956.35014410498479 -336.49532525751056 0 -336.49532525751056 -205.99492596229481 0 0 0 0 407.7374887477672 506.92721730912012 0 506.92721730912012 397.30732012996737 0 0 0 0 407.12249559275915 -69.799007932706786 0 -69.799007932706786 -320.43062929835889 0 0 0 0 394.34313495437709 179.97694868723579 0 179.97694868723579 -117.68091413314448 0 0 0 0 300.34123708870175 42.795769303139508 0 42.795769303139508 -145.45706485360517 0 0 0 0 636.63651186836614 250.95300502372854 0 250.95300502372854 -198.28912098528178 0 0 0 0 342.75151438713692 117.28378381733404 0 117.28378381733404 148.34624661792998 0 0 0 0 510.39464470522398 96.273717773278435 0 96.273717773278435 -253.3159583254386 0 0 0 0 537.03234262202204 274.99697052366497 0 274.99697052366497 -141.67058937297554 0 0 0 0 620.13317790435212 139.26289755263477 0 139.26289755263477 43.157935149493483 0 0 0 0 -42.583561647674287 -213.56218856966049 0 -213.56218856966049 353.73414452189729 0 0 0 0 258.34257565091502 306.68259819765308 0 306.68259819765308 -249.74858277261205 0 0 0 0 98.430251032317756 -419.56668892549885 0 -419.56668892549885 -133.61635931658006 0 0 0 0 1015.3201693318115 409.60288190676863 0 409.60288190676863 -96.092128822077768 0 0 0 0 898.95090808053283 438.37258795027856 0 438.37258795027856 -101.15351668300401 0 0 0 0 489.74013262609515 248.4909842427129 0 248.4909842427129 -101.20657395699436 0 0 0 0 867.08397879000404 483.72832551372198 0 483.72832551372198 25.135274781994966 0 0 0 0 467.13176765842945 52.405493137005614 0 52.405493137005614 -123.2388195932753 0 0 0 0 611.85278629067761 200.94424235691196 0 200.94424235691196 -163.98003255271479 0 0 0 0 947.61355878695758 346.57008565974627 0 346.57008565974627 -156.13847943620789 0 0 0 0 669.36161476493544 192.90539637288367 0 192.90539637288367 -107.72900878040309 0 0 0 0 810.02966932618801 317.78051014137554 0 317.78051014137554 -73.008364574579446 0 0 0 0 952.52524605467624 204.91353237361974 0 204.91353237361974 -193.04546766576686 0 0 0 0 1499.8200457415987 323.92466768895798 0 323.92466768895798 -269.26182863729019 0 0 0 0 1225.9289654441291 67.267199699563903 0 67.267199699563903 -191.85607607496434 0 0 0 0 1499.5002828838042 -134.35176436821229 0 -134.35176436821229 -256.18996723489033 0 0 0 0 923.87360600553802 -145.00792384613328 0 -145.00792384613328 -77.100197599683369 0 0 0 0 945.55375346001892 -137.50672271015037 0 -137.50672271015037 -75.284606064087171 0 0 0 0 799.85096920324759 -56.245690507377645 0 -56.245690507377645 -5.2751485708902806 0 0 0 0 872.81090059024973 -13.249090700878909 0 -13.249090700878909 15.716631589287715 0 0 0 0 987.50767027840629 133.4932779097918 0 133.4932779097918 -198.3223170651988 0 0 0 0 640.3993326851305 108.77688296103793 0 108.77688296103793 14.906616744895359 0 0 0 0 653.38988533744487 -155.51220434411152 0 -155.51220434411152 95.997019653409666 0 0 0 0 556.9034112552099 -43.050058279176454 0 -43.050058279176454 250.62993015895981 0 0 0 0 669.71604868003487 -123.12910278936235 0 -123.12910278936235 154.02166610245456 0 0 0 0 192.87566539786349 5.8141332627660631 0 5.8141332627660631 114.47078947806062 0 0 0 0 270.61509287116132 29.435764290590555 0 29.435764290590555 64.321875605223795 0 0 0 0 183.38580209601787 29.839061860329252 0 29.839061860329252 69.407377761318457 0 0 0 0 214.62619669311232 25.296394242437202 0 25.296394242437202 67.404723891477943 0 0 0 0 193.90961439878447 -41.776633024978764 0 -41.776633024978764 -52.376502556633795 0 0 0 0 213.94442645488823 11.037940315546642 0 11.037940315546642 -23.134139332837094 0 0 0 0 209.40159653120645 15.426059273344208 0 15.426059273344208 -7.9624521032151279 0 0 0 0 259.51807466207538 -18.190792102704791 0 -18.190792102704791 7.8853505416570897 0 0 0 0 1.4167525216614258 0.05504529193490626 0 0.05504529193490626 3.0791986776080962 0 0 0 0 652.05762745426182 -164.36607559580511 0 -164.36607559580511 46.974714901953121 0 0 0 0 737.75748212346662 -149.19765157731041 0 -149.19765157731041 -5.4726590667196433 0 0 0 0 753.94656754897551 -128.84138809064854 0 -128.84138809064854 16.942765737090554 0 0 0 0 739.8330666325819 -139.1198499903611 0 -139.1198499903611 -15.312199324860217 0 0 0 0 722.27536935549097 -153.05369805723731 0 -153.05369805723731 -24.332517521378691 0 0 0 0 743.65814361027151 -130.71656259840756 0 -130.71656259840756 -50.422463588477115 0 0 0 0 0.56939527193398298 1.2770436021778586 0 1.2770436021778586 -0.084853824601501593 0 0 0 0 742.39952429831465 -123.03903645003305 0 -123.03903645003305 -5.9628063610515483 0 0 0 0 816.68307490681764 -140.22508462789477 0 -140.22508462789477 -30.415646607422843 0 0 0 0 1.658639074466091 1.2787339389913477 0 1.2787339389913477 2.0823024416554032 0 0 0 0 28.47656522143069 -15.831045650022991 0 -15.831045650022991 0.26658821592172899 0 0 0 0 678.5426116321396 -85.431844000238158 0 -85.431844000238158 -15.753278879665885 0 0 0 0 62.033737398409357 1.7038401738089988 0 1.7038401738089988 15.00723583454419 0 0 0 0 0.35158524397788704 -1.5705224918384673 0 -1.5705224918384673 6.2810741145474163 0 0 0 0 524.22274684608419 -176.37580302732832 0 -176.37580302732832 85.71765308274864 0 0 0 0 597.79201666816516 -108.37356409776129 0 -108.37356409776129 47.032880934293303 0 0 0 0 683.1091535027299 -172.23769509037442 0 -172.23769509037442 28.891302077786577 0 0 0 0 738.21967136480089 -180.32384887754569 0 -180.32384887754569 18.078266702903136 0 0 0 0 745.0795421171315 -251.43751565809328 0 -251.43751565809328 26.119502181635369 0 0 0 0 598.46179633709585 -221.08183851695165 0 -221.08183851695165 47.711877164500947 0 0 0 0 234.95182049201412 21.10181861614808 0 21.10181861614808 -13.178786277095242 0 0 0 0 236.55542223466182 19.757021972218581 0 19.757021972218581 -35.111181620347452 0 0 0 0 117.07830014123829 -54.944835246320054 0 -54.944835246320054 -8.6288091494002401 0 0 0 0 151.77624414091406 17.433944577726834 0 17.433944577726834 -12.806988078295035 0 0 0 0 198.80322997837357 -23.347151479214062 0 -23.347151479214062 -20.429670428218742 0 0 0 0 182.61538472268876 2.0582394116631804 0 2.0582394116631804 -23.617831879943424 0 0 0 0 232.05723362921526 47.555442630907351 0 47.555442630907351 -42.45527579309919 0 0 0 0 181.09072499355898 14.014189311287737 0 14.014189311287737 -17.151797973142038 0 0 0 0 236.15494614371892 9.3183453498218114 0 9.3183453498218114 -36.216036401490783 0 0 0 0 175.94528558536149 20.423546825014796 0 20.423546825014796 -96.941128784531429 0 0 0 0 111.83320970033856 56.602395744784872 0 56.602395744784872 -37.232120512824167 0 0 0 0 119.20237644211011 -30.651226774302359 0 -30.651226774302359 -67.293892661622976 0 0 0 0 128.38359704359755 10.085314841460331 0 10.085314841460331 -14.126333237279141 0 0 0 0 196.8902198882115 60.713845253047339 0 60.713845253047339 -54.067748778274108 0 0 0 0 576.30452949416122 -310.63331989337297 0 -310.63331989337297 23.667063078786498 0 0 0 0 798.6179000026641 -302.85828560639152 0 -302.85828560639152 -93.281772562618656 0 0 0 0 820.65130701177759 -232.44630859167961 0 -232.44630859167961 -0.89836371524830838 0 0 0 0 1022.4982914345892 -401.38004106016524 0 -401.38004106016524 130.67276385642356 0 0 0 0 1024.7063232076653 -451.27905434515094 0 -451.27905434515094 2.1151729565541579 0 0 0 0 1158.3814871431971 -162.91709182162481 0 -162.91709182162481 -244.61095288936787 0 0 0 0 1500.0713283192636 -389.79531963645763 0 -389.79531963645763 -194.9781237358726 0 0 0 0 1151.6246469022544 -270.49694453405027 0 -270.49694453405027 -110.79471198813178 0 0 0 0 852.51620036910026 -230.68664945551086 0 -230.68664945551086 -19.433475115575902 0 0 0 0 737.11450168716215 -223.87286617384513 0 -223.87286617384513 29.875340475276857 0 0 0 0 782.65880774990728 -201.20687751488074 0 -201.20687751488074 6.96350624768138 0 0 0 0 879.65189850664683 -331.21355659711293 0 -331.21355659711293 16.38071520154336 0 0 0 0 290.50671959360807 95.46550308164683 0 95.46550308164683 25.702623701806715 0 0 0 0 235.02538579239081 92.953547832773666 0 92.953547832773666 56.827508665880941 0 0 0 0 206.81872143143846 88.982851398285675 0 88.982851398285675 55.868439926654901 0 0 0 0 234.33768340555008 107.04384172812527 0 107.04384172812527 64.648843062743026 0 0 0 0 245.64225024576444 86.839360539958079 0 86.839360539958079 21.244103529508266 0 0 0 0 193.29356990735687 76.36948921046087 0 76.36948921046087 19.172808687425345 0 0 0 0 251.77521804094431 63.333414951160194 0 63.333414951160194 4.0954136243849462 0 0 0 0 236.36108523852999 62.715087889069196 0 62.715087889069196 6.8521163407162931 0 0 0 0 312.52161964960396 52.162129773679908 0 52.162129773679908 -29.105901482513957 0 0 0 0 278.25728344416893 29.980303027022956 0 29.980303027022956 -23.208333803638425 0 0 0 0 276.55487227255617 33.272697847591871 0 33.272697847591871 -27.810501870100325 0 0 0 0 343.10266742041676 45.301221698034738 0 45.301221698034738 -19.491424239653725 0 0 0 0 291.04673929451019 26.992461045426921 0 26.992461045426921 -49.906897537524401 0 0 0 0 286.90166429305168 54.994770638771058 0 54.994770638771058 -7.8064362351742602 0 0 0 0 357.87395145693336 116.25418789059495 0 116.25418789059495 21.555307110364936 0 0 0 0 277.69823895144782 65.030046607167378 0 65.030046607167378 -8.7399194365034418 0 0 0 0 305.00583111232118 59.929133358888066 0 59.929133358888066 31.628364496777294 0 0 0 0 326.61371291937394 42.835008391751785 0 42.835008391751785 -21.464612428603402 0 0 0 0 369.98323010457079 -138.40207649684109 0 -138.40207649684109 141.32085435717624 0 0 0 0 579.37541079761831 95.377533869815153 0 95.377533869815153 24.496011960405497 0 0 0 0 373.35835017645695 232.89997042565793 0 232.89997042565793 240.61258868081882 0 0 0 0 196.6261184833329 163.93982610240465 0 163.93982610240465 185.11985182003599 0 0 0 0 302.48896263967072 131.28873740439295 0 131.28873740439295 95.051489753179908 0 0 0 0 277.78560381714487 133.31256377700032 0 133.31256377700032 94.9013178396782 0 0 0 0 179.69341747908402 86.588917530743856 0 86.588917530743856 138.5211055257972 0 0 0 0 177.94109351188672 109.49586368553859 0 109.49586368553859 142.21001366162045 0 0 0 0 144.09229204831445 65.708661767737624 0 65.708661767737624 170.3036590575658 0 0 0 0 77.2343596260298 -52.857354816460919 0 -52.857354816460919 29.420834534302173 0 0 0 0 280.24786925340777 40.946264063817097 0 40.946264063817097 92.647556036427375 0 0 0 0 229.89680480520474 -63.523400615029104 0 -63.523400615029104 -21.797513501630675 0 0 0 0 4.1075189580105587 -1.4081979429114568 0 -1.4081979429114568 0.34324463192570032 0 0 0 0 791.14225138253278 545.36659514665189 0 545.36659514665189 439.75130920002556 0 0 0 0 277.48777581013769 34.113150967118088 0 34.113150967118088 350.09867021722488 0 0 0 0 596.62564517160899 -11.88928233796193 0 -11.88928233796193 153.73441716929574 0 0 0 0 261.3561695817898 23.401932177905927 0 23.401932177905927 177.86780469826493 0 0 0 0 376.50259313110382 202.33579635574668 0 202.33579635574668 247.63372451999277 0 0 0 0 368.95869827852039 284.03959552364665 0 284.03959552364665 130.92642514637768 0 0 0 0 272.79359738533412 -115.26589589972826 0 -115.26589589972826 -22.434413047377063 0 0 0 0 54.532618175545167 -164.64119320599738 0 -164.64119320599738 -12.574470603164372 0 0 0 0 192.89821670998754 -7.3763400618253918 0 -7.3763400618253918 -79.262024970146967 0 0 0 0 156.24544251287443 171.08633760914273 0 171.08633760914273 -352.19421181216086 0 0 0 0 183.46896960222784 64.257023166314482 0 64.257023166314482 -12.293278103863372 0 0 0 0 180.44918989819234 -10.611027952265118 0 -10.611027952265118 -58.62817439384321 0 0 0 0 0.63433173203815585 -0.81578582442284997 0 -0.81578582442284997 2.847023317894386 0 0 0 0 351.28343338896411 -190.19467550241723 0 -190.19467550241723 -299.40491406731923 0 0 0 0 582.78702506076661 157.67364772020812 0 157.67364772020812 -232.21797772886168 0 0 0 0 110.81210751584877 6.6603495908793207 0 6.6603495908793207 48.515877893345703 0 0 0 0 103.32905820650194 61.052997520548786 0 61.052997520548786 46.268465333587159 0 0 0 0 25.600657026148838 6.3225006617791735 0 6.3225006617791735 10.027107751097788 0 0 0 0 28.656269002971385 -3.4040789389934503 0 -3.4040789389934503 19.145737008804531 0 0 0 0 110.94718480545271 26.950080879068935 0 26.950080879068935 -10.525120355673437 0 0 0 0 52.495235359590879 33.932927315898553 0 33.932927315898553 9.1037205333126394 0 0 0 0 118.08687078286675 -2.3484131533136434 0 -2.3484131533136434 13.445245713629276 0 0 0 0 12.759772269277164 12.526179061649714 0 12.526179061649714 8.0409324359329446 0 0 0 0 1.5262848401143856 -24.67772590471651 0 -24.67772590471651 -1.3314835725902441 0 0 0 0 -46.317766758726975 -39.74261125826451 0 -39.74261125826451 7.5190731693048178 0 0 0 0 36.191564992413987 4.8720233590888427 0 4.8720233590888427 -37.041927727491725 0 0 0 0 -31.695366118314269 31.882732422748688 0 31.882732422748688 6.789260165617236 0 0 0 0 0.79031818639809259 -0.29174218162316379 0 -0.29174218162316379 5.0492828502047038 0 0 0 0 0.85672139365851763 1.0496430008170137 0 1.0496430008170137 7.5149374400216971 0 0 0 0 0.8499434666687975 -1.3190570579824445 0 -1.3190570579824445 3.5982653779561331 0 0 0 0 7.257042005789117 1.9125514745483088 0 1.9125514745483088 -1.044977750947055 0 0 0 0 -3.5236435972765321 -30.467068073449809 0 -30.467068073449809 12.69348973526985 0 0 0 0 3.4863966108279101 -3.2247923331509476 0 -3.2247923331509476 3.2383256550093993 0 0 0 0 23.489405899235862 12.702170448029392 0 12.702170448029392 0.051860757814722547 0 0 0 0 12.644675522456964 -22.291572676061037 0 -22.291572676061037 -28.975356671694726 0 0 0 0 -42.299832519689971 -35.826794785362821 0 -35.826794785362821 -16.557363830682561 0 0 0 0 0.27055367217344983 -1.3502330180873798 0 -1.3502330180873798 -0.25912231903659211 0 0 0 0 16.189525047178904 -5.7587795629241327 0 -5.7587795629241327 -28.326303867697519 0 0 0 0 -94.568075926508754 -29.701525708142981 0 -29.701525708142981 -27.650180026299608 0 0 0 0 -51.266685621196302 -36.461692247692127 0 -36.461692247692127 -0.080010280763474384 0 0 0 0 23.358478289894265 -23.47079056414043 0 -23.47079056414043 -18.214365284047915 0 0 0 0 -3.51297514376256 49.097658738607493 0 49.097658738607493 21.045203220587155 0 0 0 0 2.4945643789960741 -12.675954062743699 0 -12.675954062743699 7.6619806257454002 0 0 0 0 42.411280273328885 -19.056737854678431 0 -19.056737854678431 46.82541067650709 0 0 0 0 -0.074383894958877761 -2.6556977007351072 0 -2.6556977007351072 8.4295712455288072 0 0 0 0 -44.498069030521947 -44.905507188228285 0 -44.905507188228285 12.159953563077806 0 0 0 0 -0.49074447661659093 -2.6593076583966706 0 -2.6593076583966706 8.2573646930569637 0 0 0 0 -6.5484285934362561 11.194371667536984 0 11.194371667536984 9.4884482336815381 0 0 0 0 22.346512217543932 -17.059348379802998 0 -17.059348379802998 36.79995664465207 0 0 0 0 89.188712862156535 13.133227590399429 0 13.133227590399429 4.2866643536477795 0 0 0 0 80.474656577929636 28.149597590847975 0 28.149597590847975 24.644964518623397 0 0 0 0 144.2483053977594 39.931775464397802 0 39.931775464397802 -3.4223436757179115 0 0 0 0 0.28347999783120592 -0.39217064794941692 0 -0.39217064794941692 2.6686497882927842 0 0 0 0 70.337188372173841 43.489412046482073 0 43.489412046482073 26.918317424887704 0 0 0 0 7.3738193364170002 9.2408925140112075 0 9.2408925140112075 17.436181624938968 0 0 0 0 74.305043177602784 8.4024949876637152 0 8.4024949876637152 -8.1975585155897761 0 0 0 0 13.160442246379716 13.085987450376763 0 13.085987450376763 17.945821791559865 0 0 0 0 -22.535553178001919 20.806375310389711 0 20.806375310389711 6.8075235878959575 0 0 0 0 0.37547499777615734 3.0503013523892903 0 3.0503013523892903 9.8561309801638526 0 0 0 0 34.847850032045244 41.547428241725584 0 41.547428241725584 9.4565189570762413 0 0 0 0 22.654092303266225 14.161555101905151 0 14.161555101905151 3.4499692213057642 0 0 0 0 15.851379127148448 4.4979489085354203 0 4.4979489085354203 -8.0318182144919774 0 0 0 0 67.782244999951217 -17.655651774490934 0 -17.655651774490934 -1.0473303293451863 0 0 0 0 15.285520856969015 -2.5768698607116676 0 -2.5768698607116676 -11.218299648823745 0 0 0 0 3.4481755139481578 -2.6461830716496877 0 -2.6461830716496877 1.1877150076333862 0 0 0 0 -0.32157319566874776 -0.83069532704424631 0 -0.83069532704424631 0.19747467751958414 0 0 0 0 5.9513395647882135 -0.042857257467403542 0 -0.042857257467403542 33.559383419718415 0 0 0 0 1.4247806615640002 1.1498746696552189 0 1.1498746696552189 33.756465421058692 0 0 0 0 7.5447804095128959 14.906068236610736 0 14.906068236610736 11.588631813085158 0 0 0 0 15.268838632859115 1.6634373107699503 0 1.6634373107699503 28.744879938926715 0 0 0 0 33.902310194047459 21.350385144855863 0 21.350385144855863 42.375570389694985 0 0 0 0 1.1922897186353083 0.24757648095333806 0 0.24757648095333806 -0.3467408459703254 0 0 0 0 4.9818492075883114 5.8625489273626954 0 5.8625489273626954 28.740855485107659 0 0 0 0 7.3553480514092371 13.185474027972305 0 13.185474027972305 23.657181201923549 0 0 0 0 15.843703591658368 7.4308536774742322 0 7.4308536774742322 10.257083421267453 0 0 0 0 5.2631814278302187 0.043938133452424921 0 0.043938133452424921 2.9381047817281631 0 0 0 0 8.6546254406548542 12.59158597573105 0 12.59158597573105 6.3190580320688241 0 0 0 0 2.696182888041335 3.5302973730104199 0 3.5302973730104199 11.014007751738822 0 0 0 0 24.881588495565666 -9.9502814561801642 0 -9.9502814561801642 5.6194624599845611 0 0 0 0 4.2447632318428532 1.2191392618800023 0 1.2191392618800023 19.467054836592069 0 0 0 0 20.72554388017943 10.00364683602993 0 10.00364683602993 23.744219314303336 0 0 0 0 16.549489265494472 0.56296640388243091 0 0.56296640388243091 0.16955267972733346 0 0 0 0 7.0628155982685712 5.3448611916955429 0 5.3448611916955429 16.382290675352124 0 0 0 0 3.8076535218605319 7.8375214933400947 0 7.8375214933400947 16.220836126444038 0 0 0 0 23.464643538964083 10.514728707296399 0 10.514728707296399 13.459636498533655 0 0 0 0 12.256040245934855 9.5360187131871044 0 9.5360187131871044 15.019935191087825 0 0 0 0 15.541753079727641 6.0473525780798809 0 6.0473525780798809 16.236380996346497 0 0 0 0 -0.78736711088897948 5.3497859115919582 0 5.3497859115919582 10.545530266125725 0 0 0 0 3.9118993150696042 0.016211495277048016 0 0.016211495277048016 9.1714906170468566 0 0 0 0 -0.6524896810760481 -0.32751935544176902 0 -0.32751935544176902 7.3054711800316952 0 0 0 0 7.0654797441784467 7.6201320480345203 0 7.6201320480345203 11.539511378109864 0 0 0 0 3.5186331320701356 -1.3468017417172291 0 -1.3468017417172291 9.1375950426586314 0 0 0 0 18.109351169270667 9.4988216584174552 0 9.4988216584174552 5.9488139434761251 0 0 0 0 -34.58059389222035 -13.98886824928195 0 -13.98886824928195 31.613727614114396 0 0 0 0 -1.095287984412991 -2.109837419088791 0 -2.109837419088791 7.5591629725784601 0 0 0 0 -3.2875200542603125 24.226714415939682 0 24.226714415939682 32.215370995804051 0 0 0 0 -11.934891040593357 30.64280344152553 0 30.64280344152553 39.906309107554989 0 0 0 0 -6.7224691711344349 13.607645429484819 0 13.607645429484819 6.0313308824811429 0 0 0 0 -4.7734676982736346 33.160355714852926 0 33.160355714852926 23.950177646615884 0 0 0 0 -19.001344835094642 28.762825174145291 0 28.762825174145291 37.143558771546566 0 0 0 0 5.8304155383302714 47.966112059151442 0 47.966112059151442 41.682691250233802 0 0 0 0 -2.2849598041848367 27.499009030450793 0 27.499009030450793 40.662902712907453 0 0 0 0 -0.00078005804607528262 16.510440127013396 0 16.510440127013396 21.169511447402328 0 0 0 0 60.607157250095042 37.956737273208546 0 37.956737273208546 28.747736411025244 0 0 0 0 15.744491744188053 6.6496900467632258 0 6.6496900467632258 12.039603516629086 0 0 0 0 1.0538032512040658 8.3043286655191331 0 8.3043286655191331 11.049747362732814 0 0 0 0 -2.5394484794390877 -2.487757345668534 0 -2.487757345668534 1.0473115120721719 0 0 0 0 37.662740607138403 62.501181113567327 0 62.501181113567327 -11.253928092781848 0 0 0 0 27.05842544265608 16.505644549714457 0 16.505644549714457 8.8419858255832153 0 0 0 0 -22.038251301240052 -10.148437891691799 0 -10.148437891691799 21.369169837422305 0 0 0 0 19.215800062229391 9.3461104031412106 0 9.3461104031412106 13.202670523260167 0 0 0 0 16.743232166862676 11.929575573887078 0 11.929575573887078 9.4617448067736412 0 0 0 0 22.528244845932932 16.299019170113752 0 16.299019170113752 13.507445333382748 0 0 0 0 27.52348284407708 11.194326408896131 0 11.194326408896131 12.00045951226457 0 0 0 0 9.1610654292852303 2.6828379864266516 0 2.6828379864266516 1.5343539576846403 0 0 0 0 30.855709052169914 18.648760463095186 0 18.648760463095186 12.87488892032286 0 0 0 0 22.572720127851426 9.0779071875886075 0 9.0779071875886075 12.055370235312694 0 0 0 0 16.369837504141287 8.9130031339730067 0 8.9130031339730067 13.524399826145782 0 0 0 0 104.32360462961879 98.600346126605245 0 98.600346126605245 132.60839149215798 0 0 0 0 0.076456964762224189 0.20006644883777724 0 0.20006644883777724 1.3843671679195468 0 0 0 0 153.35183505060377 10.761367089676384 0 10.761367089676384 25.99182845618634 0 0 0 0 89.191875161181088 141.62539254765022 0 141.62539254765022 153.10433460869456 0 0 0 0 69.031554317392875 -17.13735680516703 0 -17.13735680516703 109.39199719910221 0 0 0 0 42.020270005858038 28.66986272528527 0 28.66986272528527 42.857802174654296 0 0 0 0 -5.8401786663471285 -7.4755294292126564 0 -7.4755294292126564 69.038906400738597 0 0 0 0 -8.0482706879083707 10.976791027635272 0 10.976791027635272 12.664088842622077 0 0 0 0 26.417493991240917 46.37503749421694 0 46.37503749421694 53.367774819110934 0 0 0 0 35.387818326876186 28.524016275960662 0 28.524016275960662 71.6364130932227 0 0 0 0 -2.2627553658594479 19.034360667688134 0 19.034360667688134 48.51401684201528 0 0 0 0 -3.9170468449528926 38.750662399213809 0 38.750662399213809 52.564070080764395 0 0 0 0 58.205617663525118 41.247040906748907 0 41.247040906748907 4.1144487487385959 0 0 0 0 54.07948064629818 29.987595049484298 0 29.987595049484298 2.7835116411056333 0 0 0 0 137.42999181801417 75.668379694790701 0 75.668379694790701 37.250859051453062 0 0 0 0 137.73867277827048 81.604850332543833 0 81.604850332543833 31.914638164078951 0 0 0 0 164.847300335201 101.08608342134175 0 101.08608342134175 60.365266091141962 0 0 0 0 187.77768853824091 72.393950516505356 0 72.393950516505356 58.71799457348493 0 0 0 0 209.46895333724024 84.073777173416602 0 84.073777173416602 18.90132184312597 0 0 0 0 189.39965208616923 86.682239135428745 0 86.682239135428745 -15.903277949905714 0 0 0 0 192.4789689555364 101.68813946963382 0 101.68813946963382 26.004872962696709 0 0 0 0 198.18458098325209 115.83656333093177 0 115.83656333093177 -4.9361402906976082 0 0 0 0 28.736219335058195 98.494507231205489 0 98.494507231205489 22.677102994533925 0 0 0 0 181.34891191560382 248.05343075458518 0 248.05343075458518 73.614072065186519 0 0 0 0 175.95385347514457 134.4632630499267 0 134.4632630499267 31.412323537932025 0 0 0 0 329.0530003838503 105.85412139160849 0 105.85412139160849 -11.035931307405463 0 0 0 0 386.18704038871874 145.69872194586333 0 145.69872194586333 -44.265112064481684 0 0 0 0 197.52786752757311 100.1693992108851 0 100.1693992108851 -45.320207357039635 0 0 0 0 203.9647161475732 76.960382685207577 0 76.960382685207577 -22.144899612927929 0 0 0 0 70.847451744106365 -16.174827002331313 0 -16.174827002331313 -75.627597296498152 0 0 0 0 61.772026529100231 43.03169688092504 0 43.03169688092504 -57.56390468099471 0 0 0 0 0.91288344053282344 30.968207063935779 0 30.968207063935779 2.7399276108577624 0 0 0 0 17.542414051067908 27.399338744561277 0 27.399338744561277 -56.034311028176035 0 0 0 0 12.358203310590582 3.9486610678502441 0 3.9486610678502441 -1.673859808168725 0 0 0 0 6.1926280106818012 -33.435125463882741 0 -33.435125463882741 -74.558575109629714 0 0 0 0 2.093292272320852 0.78054033951003277 0 0.78054033951003277 -0.14980510098737199 0 0 0 0 4.3524500726680202 3.6691886511776186 0 3.6691886511776186 0.22839508854219659 0 0 0 0 34.47509641009492 6.0687598476049516 0 6.0687598476049516 -11.717438494403495 0 0 0 0 28.218991082774664 10.817673464051154 0 10.817673464051154 -12.603777278494363 0 0 0 0 4.9090653410702885 5.4959653615231119 0 5.4959653615231119 -11.94577569086719 0 0 0 0 60.46380191929893 161.30946034694125 0 161.30946034694125 150.91762819883252 0 0 0 0 64.659397017252445 212.21630192719925 0 212.21630192719925 493.76365642620476 0 0 0 0 522.61440857466005 310.27522840872734 0 310.27522840872734 -60.958418096597143 0 0 0 0 497.83624734186014 -262.32436142139386 0 -262.32436142139386 -151.6654003660492 0 0 0 0 -50.656474247791266 -441.17355991902059 0 -441.17355991902059 -604.00133027456741 0 0 0 0 -33.341779159156431 -155.67776798228806 0 -155.67776798228806 411.95297227421815 0 0 0 0 -227.35149866258871 -411.07961996145423 0 -411.07961996145423 -119.58727833709622 0 0 0 0 21.180651435552136 -40.25787857018031 0 -40.25787857018031 -226.79506117866572 0 0 0 0 -137.17644050411218 -164.43333935966507 0 -164.43333935966507 -61.632884002430728 0 0 0 0 -2.0939640430697182 113.84917995588148 0 113.84917995588148 69.372317326128723 0 0 0 0 288.17721845274718 376.79739659657707 0 376.79739659657707 292.75318374157746 0 0 0 0 688.5155250065618 82.945162855316539 0 82.945162855316539 -10.094486618072096 0 0 0 0 41.722948430726319 69.041128702708875 0 69.041128702708875 44.753820906534202 0 0 0 0 24.006598950016723 17.750382700439786 0 17.750382700439786 18.430327739224595 0 0 0 0 44.741410899174298 -0.82508823769967421 0 -0.82508823769967421 -11.51363281608883 0 0 0 0 1.6395735857616867 -0.80096429777143285 0 -0.80096429777143285 -1.2510766892700396 0 0 0 0 8.4401481248278287 27.987818166308443 0 27.987818166308443 40.802615258079982 0 0 0 0 1.1740709814605452 -2.0375738214536341 0 -2.0375738214536341 40.865124494156589 0 0 0 0 23.53986263996876 3.1940051264385829 0 3.1940051264385829 41.318661176896967 0 0 0 0 39.890884834550889 31.581139939065906 0 31.581139939065906 40.254370058335553 0 0 0 0 -34.795827908616047 50.959624746403506 0 50.959624746403506 1.5561626232076833 0 0 0 0 -30.052778432844207 -35.085562351792532 0 -35.085562351792532 -20.558490181059142 0 0 0 0 27.659677040135648 8.2327266023808079 0 8.2327266023808079 11.542537072871255 0 0 0 0 20.612666190722067 9.7054803379341124 0 9.7054803379341124 3.6420291499606305 0 0 0 0 5.3919595148090593 58.914092558439961 0 58.914092558439961 -35.123664993885768 0 0 0 0 32.942734331476458 10.468965259930201 0 10.468965259930201 -21.058937010835962 0 0 0 0 25.158721419782125 -27.256022400469035 0 -27.256022400469035 8.1138806220137667 0 0 0 0 31.455708188217613 13.605375322475936 0 13.605375322475936 -15.061539755041849 0 0 0 0 29.688401996292669 40.373617233604932 0 40.373617233604932 -8.3348923261724508 0 0 0 0 32.429110519162236 18.43855184986829 0 18.43855184986829 -86.304936304674811 0 0 0 0 32.669413768635422 14.163710895331178 0 14.163710895331178 -16.544587012341822 0 0 0 0 1.0627159348136104 -1.0045207233962419 0 -1.0045207233962419 -2.1827549689633736 0 0 0 0 22.666070095552641 19.303553128917372 0 19.303553128917372 -7.2226382983247959 0 0 0 0 -29.395308874042712 32.541359889397654 0 32.541359889397654 -10.446155528873192 0 0 0 0 22.982211343934068 2.9859180994906325 0 2.9859180994906325 -19.469263998443608 0 0 0 0 39.953329855407901 28.416875381162185 0 28.416875381162185 -88.300095490531703 0 0 0 0 -0.60168344722887923 -32.766590888066389 0 -32.766590888066389 -73.416837283212772 0 0 0 0 -3.8574440963739107 7.9032016413849533 0 7.9032016413849533 12.728580969127052 0 0 0 0 1.5912328687918489 21.173783751452902 0 21.173783751452902 44.562766011327767 0 0 0 0 2.6780067141989505 5.5422824716822987 0 5.5422824716822987 2.2183079467296887 0 0 0 0 7.8044754170214219 -7.8777542079262162 0 -7.8777542079262162 2.0788557223645512 0 0 0 0 8.2428776999213369 9.5389278846999233 0 9.5389278846999233 -21.359113541008981 0 0 0 0 2.1587534650550246 0.51168371663582413 0 0.51168371663582413 -3.2935656603942691 0 0 0 0 18.230849089520234 21.026895748985069 0 21.026895748985069 2.9909122587514503 0 0 0 0 59.919239551545616 20.998069291302272 0 20.998069291302272 -2.5442931580489585 0 0 0 0 13.371145705010349 60.33331916109546 0 60.33331916109546 62.775849351715806 0 0 0 0 117.96454141148206 30.918714525741507 0 30.918714525741507 -17.083766513054343 0 0 0 0 46.225264930388221 1.7644216196727029 0 1.7644216196727029 3.0076717968085234 0 0 0 0 -2.2854509558141309 1.2976484105507211 0 1.2976484105507211 2.2418182510992732 0 0 0 0 6.5330349233736449 2.6597468859912095 0 2.6597468859912095 -12.32278377621321 0 0 0 0 159.88804919672293 199.5276868913802 0 199.5276868913802 114.1302858544048 0 0 0 0 12.730359311386394 25.316580406748741 0 25.316580406748741 15.735855840609474 0 0 0 0 72.868627322714019 50.666610253978206 0 50.666610253978206 135.20729419420647 0 0 0 0 14.344048909391859 22.284665261543978 0 22.284665261543978 15.562243208888503 0 0 0 0 136.1508601872265 212.67533245079244 0 212.67533245079244 109.78393158128551 0 0 0 0 4.1807472191515416 4.044674725603663 0 4.044674725603663 -12.785569154208241 0 0 0 0 204.69577047674147 99.767201886322539 0 99.767201886322539 -23.214606832183108 0 0 0 0 102.6039678763118 14.565490906729224 0 14.565490906729224 29.904662896659374 0 0 0 0 44.77051065063074 -133.51572552268385 0 -133.51572552268385 -35.827438945215164 0 0 0 0 52.281363066420454 -57.478993500950992 0 -57.478993500950992 -132.85484416919746 0 0 0 0 42.761767740584062 -7.859914731415488 0 -7.859914731415488 -3.8591350767676582 0 0 0 0 96.601744587474059 -22.199011304121015 0 -22.199011304121015 -165.60701469915784 0 0 0 0 49.783995411782598 18.470774637346608 0 18.470774637346608 16.4951152461893 0 0 0 0 13.379355281646824 6.1292085777090737 0 6.1292085777090737 -2.0703742966493106 0 0 0 0 16.607418884819481 29.109745612172105 0 29.109745612172105 -4.7804909306356649 0 0 0 0 14.46935203339649 -27.262027201901049 0 -27.262027201901049 142.24101009205413 0 0 0 0 115.77786572007426 51.962447005412329 0 51.962447005412329 72.233006070683999 0 0 0 0 -9.0947856872990087 2.9696444716803683 0 2.9696444716803683 47.76726421745559 0 0 0 0 45.203775203051919 -90.389985302036166 0 -90.389985302036166 -84.53168549561542 0 0 0 0 28.171940474166917 0.71552086995627917 0 0.71552086995627917 -9.932943915123273 0 0 0 0 11.363198346383589 -0.62159830503232327 0 -0.62159830503232327 4.3263566600268568 0 0 0 0 -20.107745055653595 12.649704022553067 0 12.649704022553067 72.838466434044221 0 0 0 0 96.869085335878481 18.231807818814787 0 18.231807818814787 -116.28215149842117 0 0 0 0 66.479215968982317 29.836899522557474 0 29.836899522557474 12.530964200146627 0 0 0 0 129.33094764405905 44.643597908128868 0 44.643597908128868 -29.144898592797077 0 0 0 0 -21.612077908392166 -101.66611422295978 0 -101.66611422295978 -135.42397668650682 0 0 0 0 12.253785866862017 32.198715842313106 0 32.198715842313106 -22.171443310033339 0 0 0 0 59.218482673166363 97.104611048122536 0 97.104611048122536 70.534846543833851 0 0 0 0 87.47610943433574 40.651401186761262 0 40.651401186761262 -44.674958430438494 0 0 0 0 180.51767515689062 27.289338576039938 0 27.289338576039938 46.535702149454096 0 0 0 0 177.30611683033931 79.681393902678678 0 79.681393902678678 -27.449545051230416 0 0 0 0 101.81213514883075 54.0069683316067 0 54.0069683316067 37.650928102241778 0 0 0 0 112.95679317696704 36.302062887811758 0 36.302062887811758 -39.611842825167457 0 0 0 0 10.916576832573988 1.0113264147164145 0 1.0113264147164145 -10.510328788790986 0 0 0 0 162.07637808252639 152.18987135553232 0 152.18987135553232 58.907674659623353 0 0 0 0 24.564744923396574 6.3942355304707235 0 6.3942355304707235 -10.888760046171683 0 0 0 0 225.63999702696992 102.40510378622591 0 102.40510378622591 5.2584596157651049 0 0 0 0 137.645374467691 120.78456704347786 0 120.78456704347786 25.09165067458116 0 0 0 0 158.5642828643613 121.47653244079129 0 121.47653244079129 94.832642271368059 0 0 0 0 95.547405921075551 148.1335523646344 0 148.1335523646344 99.895020141515488 0 0 0 0 21.326414263756305 48.873890573551762 0 48.873890573551762 70.578613463762395 0 0 0 0 110.84653108977545 104.28224567146339 0 104.28224567146339 47.281311522796386 0 0 0 0 87.877160070547689 88.177048120660857 0 88.177048120660857 36.462054056205375 0 0 0 0 79.890121309863844 68.748859129642824 0 68.748859129642824 21.692709066013549 0 0 0 0 -7.2028339528042125 -63.091460922044462 0 -63.091460922044462 6.9913872058336892 0 0 0 0 81.294583001643332 30.869768997707979 0 30.869768997707979 -9.5708056973617204 0 0 0 0 -74.75177353820618 -88.169033479615791 0 -88.169033479615791 53.47761880735834 0 0 0 0 -2.4731894738056326 46.065997197079966 0 46.065997197079966 106.80677517176264 0 0 0 0 77.684508648403607 149.68979962976027 0 149.68979962976027 -56.034881775764916 0 0 0 0 -142.46897436270046 1.7690586211131176 0 1.7690586211131176 126.34502693435934 0 0 0 0 248.72535584381512 27.497174801735582 0 27.497174801735582 31.154841947053683 0 0 0 0 50.500608828103395 138.41659823854212 0 138.41659823854212 219.10938902514681 0 0 0 0 29.4648281577538 28.375670585896842 0 28.375670585896842 114.19370769519537 0 0 0 0 60.133666540495142 113.21274104704844 0 113.21274104704844 124.77040549007052 0 0 0 0 87.85977433721564 107.96815340132616 0 107.96815340132616 104.88197287218543 0 0 0 0 283.59210534203157 94.362945423231849 0 94.362945423231849 100.23349135151147 0 0 0 0 277.97369108185012 185.44563871482023 0 185.44563871482023 158.43929434072197 0 0 0 0 107.1028026855538 164.72863299135179 0 164.72863299135179 162.69521443116719 0 0 0 0 2.363121619951766 4.5583939182565212 0 4.5583939182565212 -4.7272904700173264 0 0 0 0 65.463102119519135 106.26238413858209 0 106.26238413858209 204.71983173149329 0 0 0 0 26.429245155667843 10.259684308870874 0 10.259684308870874 3.7344895871883921 0 0 0 0 86.048099306616677 103.45040074794838 0 103.45040074794838 80.122817721927277 0 0 0 0 400.07029124161636 89.399862014057362 0 89.399862014057362 93.103604102860572 0 0 0 0 2.1257327873216365 0.61884573642806551 0 0.61884573642806551 -1.6846489955578772 0 0 0 0 200.81406712899843 145.08821604411855 0 145.08821604411855 29.664642992836889 0 0 0 0 115.83216568457101 66.194937798385581 0 66.194937798385581 -23.412102636622876 0 0 0 0 58.022871482974097 97.649929239441917 0 97.649929239441917 97.082724050698744 0 0 0 0 9.5538452691582769 11.821953705731261 0 11.821953705731261 7.8570659998766175 0 0 0 0 18.899454100723915 29.486375363378983 0 29.486375363378983 7.925177405132672 0 0 0 0 18.106071852387473 17.487028779849197 0 17.487028779849197 3.9284457423232197 0 0 0 0 291.58362938923824 69.062678234318128 0 69.062678234318128 -20.521606619191971 0 0 0 0 572.13000766898904 709.57974221324889 0 709.57974221324889 441.07474614298917 0 0 0 0 287.42801193359827 -57.679764934913237 0 -57.679764934913237 537.11098512777426 0 0 0 0 -68.623489467924628 11.321459279600504 0 11.321459279600504 -272.95919383010732 0 0 0 0 239.63727026486413 -241.49899311038871 0 -241.49899311038871 -617.43503918226077 0 0 0 0 47.536589783274728 -12.103978243757187 0 -12.103978243757187 -1.7595171535064136 0 0 0 0 -3.990507540785984 -79.492195302944651 0 -79.492195302944651 -204.07059131003081 0 0 0 0 109.4454047758918 156.37865559303918 0 156.37865559303918 -100.41496327166669 0 0 0 0 98.496141116633225 72.224621291983567 0 72.224621291983567 85.393126382294213 0 0 0 0 73.077368691650918 -101.38130300495794 0 -101.38130300495794 -263.22683179883859 0 0 0 0 46.169684697217235 59.478405690509049 0 59.478405690509049 -5.6479958632322678 0 0 0 0 48.122125063280492 -11.107869503989157 0 -11.107869503989157 -2.9559599256773588 0 0 0 0 50.203308298940158 218.16693679874675 0 218.16693679874675 351.450310079578 0 0 0 0 143.93708061960194 -35.627266301102509 0 -35.627266301102509 -79.632770420075758 0 0 0 0 129.72184384772504 120.74097332455881 0 120.74097332455881 45.099072346158096 0 0 0 0 -64.530012717034992 -77.106053268512312 0 -77.106053268512312 141.17496437099339 0 0 0 0 151.65057523670907 -44.338745326211722 0 -44.338745326211722 249.16020339610472 0 0 0 0 126.8480467632105 148.69612218301663 0 148.69612218301663 322.16269700355656 0 0 0 0 120.24459127599903 47.916922630860199 0 47.916922630860199 97.107806632533368 0 0 0 0 511.2198347713537 52.357056818881112 0 52.357056818881112 50.923726644148488 0 0 0 0 408.20187901932195 425.42427505742882 0 425.42427505742882 96.172267479958691 0 0 0 0 282.87590230343562 343.59309434155398 0 343.59309434155398 134.46669938406799 0 0 0 0 338.41835970545117 353.9092128869471 0 353.9092128869471 121.22462360782134 0 0 0 0 304.26486632639364 306.61090567403187 0 306.61090567403187 124.36770618190394 0 0 0 0 263.09556877818341 317.11882502551214 0 317.11882502551214 116.93860453862817 0 0 0 0 256.0836177551846 345.99771270860845 0 345.99771270860845 141.842256132795 0 0 0 0 673.49449587113259 358.26512314619924 0 358.26512314619924 9.8489757924050991 0 0 0 0 420.0710745480369 548.62840131002986 0 548.62840131002986 371.21761998385284 0 0 0 0 -88.931510070568478 -100.27098065544197 0 -100.27098065544197 -8.0561372864998475 0 0 0 0 363.10194611225529 245.41170253509685 0 245.41170253509685 30.63247501947383 0 0 0 0 1.6899960135860956 -2.078579743201368 0 -2.078579743201368 1.1064529887846166 0 0 0 0 -79.651939737023895 -20.478471000734594 0 -20.478471000734594 -20.436431651996173 0 0 0 0 55.67231535846895 -38.787082497971824 0 -38.787082497971824 -28.920766618940434 0 0 0 0 93.955101790156732 -59.621997120838898 0 -59.621997120838898 -65.817715944008796 0 0 0 0 186.44562375500959 56.355708626872541 0 56.355708626872541 -38.454646036045816 0 0 0 0 113.35361224535512 14.909612285732152 0 14.909612285732152 -46.172157422143414 0 0 0 0 70.604437114551729 -18.544904708969899 0 -18.544904708969899 11.858881739310334 0 0 0 0 60.901412113645847 1.353638841871696 0 1.353638841871696 -28.656398855866371 0 0 0 0 48.068478530742141 -48.769223357761298 0 -48.769223357761298 -71.180335854012867 0 0 0 0 -15.091259455573436 -78.031486866128716 0 -78.031486866128716 -28.970199601122886 0 0 0 0 435.42989858656438 732.11548630861398 0 732.11548630861398 741.0530643529878 0 0 0 0 214.45931198478706 -82.185709635960052 0 -82.185709635960052 37.896894834912928 0 0 0 0 8.6900460821671217 -0.18300533687322762 0 -0.18300533687322762 -0.34369672439019405 0 0 0 0 8.8706869103870449 -3.4374092803682101 0 -3.4374092803682101 2.0428904628997628 0 0 0 0 31.911757923995992 -53.23296503871353 0 -53.23296503871353 -49.559912371587188 0 0 0 0 -19.34763892108117 -32.138626707561706 0 -32.138626707561706 6.0271143151344972 0 0 0 0 62.156697438896572 -3.080194143803908 0 -3.080194143803908 -34.365488224952628 0 0 0 0 3.5504660497941032 6.6692987803309158 0 6.6692987803309158 -6.0962391030285588 0 0 0 0 37.831279027167469 -13.071176863294211 0 -13.071176863294211 3.4734776454406555 0 0 0 0 495.78636121823183 542.02453239612441 0 542.02453239612441 652.22118175898868 0 0 0 0 143.67515462723713 33.558600586939974 0 33.558600586939974 -99.271301684935679 0 0 0 0 574.13928420839238 366.83813532639124 0 366.83813532639124 155.49532167882398 0 0 0 0 36.985646318476071 -8.9241017240226199 0 -8.9241017240226199 -1.5873410588712593 0 0 0 0 445.64126631409545 369.03421762187963 0 369.03421762187963 552.57841891969974 0 0 0 0 -5.5473748713384339 -4.4858638503179495 0 -4.4858638503179495 22.684158285751177 0 0 0 0 3.8424125889686858 5.3772529301514069 0 5.3772529301514069 3.5971214733691683 0 0 0 0 10.063732357961271 -18.485182622139661 0 -18.485182622139661 20.960979887673375 0 0 0 0 5.1623427427648494 -9.0550978838231799 0 -9.0550978838231799 2.8306646600203749 0 0 0 0 13.285758170080953 -22.436153521696042 0 -22.436153521696042 5.9995138524395202 0 0 0 0 37.425813995494991 -2.5143642908911144 0 -2.5143642908911144 -0.59291354555357767 0 0 0 0 95.4779463763889 9.7626436738329403 0 9.7626436738329403 -30.978210120149583 0 0 0 0 39.704111607954289 -14.170461534599619 0 -14.170461534599619 4.3819063085502306 0 0 0 0 5.756836176640741 -0.19830616482203745 0 -0.19830616482203745 0.16807728669001154 0 0 0 0 116.55309985249096 0.79658521055881693 0 0.79658521055881693 -36.352032318182637 0 0 0 0 93.043836284325153 -164.62041815254088 0 -164.62041815254088 -112.6856398329046 0 0 0 0 47.75269355112323 -24.232390225402469 0 -24.232390225402469 -2.8865765574764737 0 0 0 0 -93.504115307521715 -53.173528224490838 0 -53.173528224490838 94.115149186788358 0 0 0 0 34.278166827975838 2.0839421255390675 0 2.0839421255390675 -9.9733153186439267 0 0 0 0 40.973315013510273 1.9799204859779991 0 1.9799204859779991 23.441131302564827 0 0 0 0 88.193275969601927 -27.304992262585586 0 -27.304992262585586 -1.0540488577160545 0 0 0 0 46.425904334990719 7.182727730941906 0 7.182727730941906 2.0662672560133615 0 0 0 0 31.20840953554989 3.686894779819994 0 3.686894779819994 1.6016375094859114 0 0 0 0 -4.7792651736253902 -6.458928062857396 0 -6.458928062857396 27.731957564378604 0 0 0 0 8.4084147861613019 13.086865734710315 0 13.086865734710315 3.2339527008657001 0 0 0 0 28.78210646173045 6.6383135959094801 0 6.6383135959094801 0.57067129016854778 0 0 0 0 0.79739581143801808 5.8702215147435286 0 5.8702215147435286 -0.45038348072147139 0 0 0 0 31.159434877243257 7.6942537806271503 0 7.6942537806271503 -1.1960960313761717 0 0 0 0 166.03261903581824 31.669455751178837 0 31.669455751178837 -24.610532889794321 0 0 0 0 0.34475783836955909 -0.75290029316262697 0 -0.75290029316262697 -0.65750301326382243 0 0 0 0 33.059661340256753 6.8130421013509306 0 6.8130421013509306 -1.2342468998252798 0 0 0 0 21.367414584811058 -2.8699258924976334 0 -2.8699258924976334 -7.5143690658858873 0 0 0 0 0.4435878896407397 -0.34794141187629801 0 -0.34794141187629801 -0.46575937667268941 0 0 0 0 25.269137626114116 2.3167727393616815 0 2.3167727393616815 -2.0245936342040523 0 0 0 0 4.219289740926218 4.4954211249656773 0 4.4954211249656773 -4.314134915614579 0 0 0 0 20.658881840327467 4.5742858661992329 0 4.5742858661992329 -0.40779221182123138 0 0 0 0 28.832090574026552 0.77017899364295772 0 0.77017899364295772 -32.521874822965401 0 0 0 0 75.434282390684984 -21.590404482772044 0 -21.590404482772044 -144.18692591555748 0 0 0 0 16.492269582665486 -5.7864883498763344 0 -5.7864883498763344 1.8085355086785293 0 0 0 0 8.1827330024657385 1.8229866131999017 0 1.8229866131999017 -0.53655098725567996 0 0 0 0 -17.896626287261824 54.420223039839868 0 54.420223039839868 27.662540401353986 0 0 0 0 17.429389373273807 22.691882679757441 0 22.691882679757441 -9.0397093641650486 0 0 0 0 388.33886143774748 123.0501014489154 0 123.0501014489154 -148.02777787193227 0 0 0 0 1496.4700392524667 610.81120153667484 0 610.81120153667484 -19.201878193091488 0 0 0 0 367.20107965082576 -73.770603891492726 0 -73.770603891492726 -218.2030696750252 0 0 0 0 120.24052517484961 -140.47476905308986 0 -140.47476905308986 234.27004031088794 0 0 0 0 -61.042305266797484 84.014561519581292 0 84.014561519581292 77.242450648510626 0 0 0 0 7.5319944491957997 -2.1411516503018309 0 -2.1411516503018309 1.1628485914041704 0 0 0 0 391.91459571816404 -487.84401128219207 0 -487.84401128219207 392.79810244136092 0 0 0 0 1496.7060593541125 -581.31233004208093 0 -581.31233004208093 -100.52355596843732 0 0 0 0 786.26424392139324 -147.40623867770998 0 -147.40623867770998 -175.03403557542433 0 0 0 0 750.76468792998548 -278.31446843952085 0 -278.31446843952085 38.134415773215238 0 0 0 0 368.27692977740935 -78.737898095405185 0 -78.737898095405185 -15.510044569306245 0 0 0 0 -0.09798178324841933 0.79628412619065614 0 0.79628412619065614 -0.57375934663661277 0 0 0 0 841.71786985353538 85.397483897971853 0 85.397483897971853 -116.94539325835683 0 0 0 0 905.05852041185426 -156.26923651699531 0 -156.26923651699531 -174.72463843060299 0 0 0 0 15.597768859493954 -14.639153358446606 0 -14.639153358446606 25.015657691891576 0 0 0 0 4.0469540889416749 21.724092826734221 0 21.724092826734221 12.680680629433738 0 0 0 0 46.964308218920451 -59.369706757778431 0 -59.369706757778431 67.740451334021941 0 0 0 0 10.765660494208532 -15.472831162609197 0 -15.472831162609197 89.249144613605978 0 0 0 0 -9.8274561428997913 -15.39727229887194 0 -15.39727229887194 20.684490788581343 0 0 0 0 2.9608650199270454 0.17061764553317182 0 0.17061764553317182 -0.11803746755518363 0 0 0 0 128.11505481829573 -36.890745684099734 0 -36.890745684099734 5.9573472074458778 0 0 0 0 -0.90748336227807158 -17.747316757998533 0 -17.747316757998533 7.7080757073561017 0 0 0 0 84.16313123396867 -44.486311024853194 0 -44.486311024853194 19.827178806786407 0 0 0 0 46.355219871698864 -9.9866057989088972 0 -9.9866057989088972 15.452749734964868 0 0 0 0 33.632349545046054 -35.099901171888604 0 -35.099901171888604 23.989594317351816 0 0 0 0 70.194815091344935 0.98016126117704516 0 0.98016126117704516 22.628818552179951 0 0 0 0 16.342572602134169 -6.8452304323228645 0 -6.8452304323228645 26.948236669000096 0 0 0 0 -25.143356680008765 -18.470199920350922 0 -18.470199920350922 49.129452191382143 0 0 0 0 29.99236435340439 -14.442610019683968 0 -14.442610019683968 5.6795868672395899 0 0 0 0 44.793393615194873 -26.907401067752517 0 -26.907401067752517 -30.173887390892546 0 0 0 0 2.4215734752480174 1.2329250874878728 0 1.2329250874878728 -0.80363421585910189 0 0 0 0 134.97198104379822 -12.360752556741886 0 -12.360752556741886 -29.467105838847942 0 0 0 0 25.65814113986653 -0.20242674958723228 0 -0.20242674958723228 -9.0617502260874971 0 0 0 0 50.700133504404675 -25.023769334258702 0 -25.023769334258702 -3.4476349910519843 0 0 0 0 76.54413543874125 -45.068682439460986 0 -45.068682439460986 32.442599351719309 0 0 0 0 14.197241001360879 -5.9151725992745634 0 -5.9151725992745634 1.2863830257719766 0 0 0 0 12.680474398275948 -7.4842728855127367 0 -7.4842728855127367 0.86100504752539564 0 0 0 0 17.221344722471972 -0.66865088358109936 0 -0.66865088358109936 -5.2633570040758553 0 0 0 0 10.585932511345163 -5.5965934175410439 0 -5.5965934175410439 0.39327325898591425 0 0 0 0 5.0014998881057293 -3.2990479719506887 0 -3.2990479719506887 5.77930582165021 0 0 0 0 34.470381665472814 8.0317983316157324 0 8.0317983316157324 -38.100182959043309 0 0 0 0 12.394436914615714 -4.1740458606964452 0 -4.1740458606964452 1.4129473617519017 0 0 0 0 -40.051585897730547 -48.602798877945361 0 -48.602798877945361 46.915239867915716 0 0 0 0 35.972039458340078 -11.64348801730398 0 -11.64348801730398 -29.689863758002957 0 0 0 0 33.818625840970526 -19.933609373930949 0 -19.933609373930949 39.669234672983293 0 0 0 0 125.5623752532847 25.880070817207184 0 25.880070817207184 6.7251423927136784 0 0 0 0 1500.608939755384 190.69930112185298 0 190.69930112185298 -241.77233572210673 0 0 0 0 728.52221714467669 227.69239456534797 0 227.69239456534797 -81.470417010715607 0 0 0 0 381.75073546055137 48.382856607957351 0 48.382856607957351 61.03221718037139 0 0 0 0 5.9304232179229555 0.088462781564306425 0 0.088462781564306425 -2.7327818889183848 0 0 0 0 66.247029161819228 -108.97207758078866 0 -108.97207758078866 -12.392856499497384 0 0 0 0 54.237205606506905 180.47795835247689 0 180.47795835247689 -45.260973909412996 0 0 0 0 -2.2402780816721162 1.4295041959206163 0 1.4295041959206163 0.65985622469511984 0 0 0 0 729.24231006249283 210.79533860616075 0 210.79533860616075 19.598737138557311 0 0 0 0 16.382098708105499 1.2251430445681422 0 1.2251430445681422 -6.3155083554085731 0 0 0 0 33.865586063866544 -15.323672841658308 0 -15.323672841658308 50.82232528645136 0 0 0 0 18.373507875357951 -9.7735081977937064 0 -9.7735081977937064 4.1971087700103871 0 0 0 0 1497.784766181011 829.95897742493332 0 829.95897742493332 283.16460659678586 0 0 0 0 632.16196681216024 -1109.2991208833143 0 -1109.2991208833143 805.67388887359527 0 0 0 0 6.0575128959069495 -3.1418028108300913 0 -3.1418028108300913 3.8516302942033889 0 0 0 0 74.80699418632139 -627.05582688294874 0 -627.05582688294874 1128.7357583005228 0 0 0 0 75.689900343641057 -51.59040694849682 0 -51.59040694849682 698.19440530256088 0 0 0 0 -87.971652793038629 -31.821587692936106 0 -31.821587692936106 367.62881158544633 0 0 0 0 755.15877022724453 -636.34110032360468 0 -636.34110032360468 316.42714921849176 0 0 0 0 267.03746669515385 -422.5082333787368 0 -422.5082333787368 586.22027190865401 0 0 0 0 538.60266888489241 -413.78653992954048 0 -413.78653992954048 191.51766329773349 0 0 0 0 -111.50272617598785 -0.99001097924221426 0 -0.99001097924221426 131.60244510989003 0 0 0 0 -36.698133301460757 -64.458946947960484 0 -64.458946947960484 149.10418502403263 0 0 0 0 2.0085383462402242 -0.25155953117915075 0 -0.25155953117915075 2.7679825963888147 0 0 0 0 30.676828178688993 130.89631475971828 0 130.89631475971828 102.25817185696792 0 0 0 0 419.7273667368413 -18.161025193694215 0 -18.161025193694215 -148.48876945250595 0 0 0 0 465.30874659969049 -391.09439694775017 0 -391.09439694775017 298.17004436991419 0 0 0 0 249.84388689813204 -119.32714158581075 0 -119.32714158581075 123.12978178181675 0 0 0 0 257.98440768962973 -37.09046895677443 0 -37.09046895677443 -1.2827756169315307 0 0 0 0 150.07544078930732 -122.07366871641352 0 -122.07366871641352 150.83346265285127 0 0 0 0 0.32958045003914638 -0.20233449161476358 0 -0.20233449161476358 1.8715754480471833 0 0 0 0 797.94537289271511 -421.54738345950045 0 -421.54738345950045 178.30514546558646 0 0 0 0 -6.5885471018173121 -71.620365355001354 0 -71.620365355001354 220.11952215013878 0 0 0 0 790.40404512676105 -442.24197626990667 0 -442.24197626990667 128.85217398404851 0 0 0 0 694.82298548080871 -288.29007889953255 0 -288.29007889953255 12.216684280570519 0 0 0 0 630.14299746346887 -565.33100899528438 0 -565.33100899528438 300.39738191536492 0 0 0 0 1497.9135170266313 -893.84949174546784 0 -893.84949174546784 110.64745963777058 0 0 0 0 1032.7172226951479 -546.32134114796725 0 -546.32134114796725 30.224597167866278 0 0 0 0 982.70917820152681 -618.56934088091123 0 -618.56934088091123 221.00949803973035 0 0 0 0 153.22993586871962 -79.226998636661847 0 -79.226998636661847 -51.252827474672358 0 0 0 0 210.97160923112642 12.896664347354317 0 12.896664347354317 -56.702054684856193 0 0 0 0 22.568787434762271 -82.745485003828435 0 -82.745485003828435 -13.733900702745814 0 0 0 0 -2.4311452116999135 28.901682898637205 0 28.901682898637205 43.56452611613804 0 0 0 0 0.48506718932458526 1.1294995024849896 0 1.1294995024849896 1.1356098424707644 0 0 0 0 34.094192354805273 -36.908358927693712 0 -36.908358927693712 -7.5011853282730954 0 0 0 0 121.45341758595896 -0.046100767635266493 0 -0.046100767635266493 -55.21494667142224 0 0 0 0 13.178389247548694 10.237457021236196 0 10.237457021236196 20.598207620769301 0 0 0 0 -0.73300189200607924 -2.0451811272351392 0 -2.0451811272351392 7.5916742525465839 0 0 0 0 -65.341350931337445 27.093223160251256 0 27.093223160251256 126.9891872542712 0 0 0 0 33.343847422573162 135.11069302868054 0 135.11069302868054 166.98376074620774 0 0 0 0 271.73029879340538 74.406921821530887 0 74.406921821530887 1.3379430388376932 0 0 0 0 247.05946121781017 76.841839603345306 0 76.841839603345306 102.41483080172088 0 0 0 0 266.51299764883805 -15.877154007911514 0 -15.877154007911514 26.041232909665268 0 0 0 0 165.55080425757114 137.00759288859149 0 137.00759288859149 58.728325368062997 0 0 0 0 -0.79950803198074993 0.029366486568790151 0 0.029366486568790151 2.6814962686881554 0 0 0 0 252.79302371911399 221.18654059666505 0 221.18654059666505 18.612519531544422 0 0 0 0 251.3621796179682 84.016471959897274 0 84.016471959897274 -34.029528056267736 0 0 0 0 338.90603082735288 67.531730024633816 0 67.531730024633816 -133.72656828036997 0 0 0 0 372.69987304649112 140.08386144446149 0 140.08386144446149 -18.149593095469754 0 0 0 0 271.91363213769182 32.209837246253755 0 32.209837246253755 -9.911201337015882 0 0 0 0 281.82333361180645 54.904084619026207 0 54.904084619026207 -12.30160813097973 0 0 0 0 226.57081769491742 46.43689410882439 0 46.43689410882439 -0.70115277382546992 0 0 0 0 205.9196409078686 48.411726044725128 0 48.411726044725128 -0.88603976675995 0 0 0 0 129.23140030706054 85.708894585597591 0 85.708894585597591 23.33251260301563 0 0 0 0 207.87320140520387 92.357765979604437 0 92.357765979604437 20.848676670037094 0 0 0 0 102.73467942978095 60.557852667220914 0 60.557852667220914 1.6212591156345297 0 0 0 0 176.59386625446314 28.718763966689721 0 28.718763966689721 6.6153857791478003 0 0 0 0 349.2516153586148 32.140816995639852 0 32.140816995639852 -56.764305985670489 0 0 0 0 247.99848163588831 16.902846705294451 0 16.902846705294451 -52.014346809098242 0 0 0 0 185.44225025016203 -98.077432548122715 0 -98.077432548122715 -100.38088631665323 0 0 0 0 49.933825359501498 27.388191125897265 0 27.388191125897265 9.066596583364003 0 0 0 0 344.02517290111609 -138.21914556259981 0 -138.21914556259981 -272.26446474190197 0 0 0 0 280.48757551812014 -70.113517342699197 0 -70.113517342699197 -118.82887142173377 0 0 0 0 -33.851268441567299 -195.50159925101025 0 -195.50159925101025 -168.64736808846646 0 0 0 0 576.19202322726414 -178.95532709664667 0 -178.95532709664667 -611.79658051956267 0 0 0 0 -165.97436501334596 -26.830145167689352 0 -26.830145167689352 -8.7284328141603282 0 0 0 0 51.56112557153574 -79.095293801300386 0 -79.095293801300386 -204.08265797279819 0 0 0 0 37.603903505229027 117.80690836296048 0 117.80690836296048 -46.572045254184559 0 0 0 0 -155.14061476509232 24.532570549835782 0 24.532570549835782 -417.72243436693225 0 0 0 0 -367.93070502206319 -221.533020945511 0 -221.533020945511 -192.34450983054364 0 0 0 0 91.918990852589559 -481.69802269283537 0 -481.69802269283537 -626.61458375494476 0 0 0 0 1094.5253670927759 1220.2438467267066 0 1220.2438467267066 1058.3932781822602 0 0 0 0 14.630677673719227 -2.492426694285939 0 -2.492426694285939 -0.64191958793120563 0 0 0 0 64.07028160632035 54.627873994453694 0 54.627873994453694 107.36277188170322 0 0 0 0 -0.54332883594839032 2.2144958043825262 0 2.2144958043825262 -1.1500747015979993 0 0 0 0 441.95123531825811 139.50001680831156 0 139.50001680831156 -30.589672754995718 0 0 0 0 1929.4334096763487 548.85964441258875 0 548.85964441258875 525.34955414979049 0 0 0 0 396.02947637645411 -115.05999311303503 0 -115.05999311303503 54.3445698577234 0 0 0 0 -115.08436126782908 136.053380207396 0 136.053380207396 370.81655906587548 0 0 0 0 203.57275263859265 -150.75251812702754 0 -150.75251812702754 531.42768028867249 0 0 0 0 112.8445833374426 34.759961808370463 0 34.759961808370463 179.57264714000848 0 0 0 0 112.15439939279111 13.193983521243808 0 13.193983521243808 -139.82556790988747 0 0 0 0 167.30552147901835 -89.174319016251843 0 -89.174319016251843 -134.26349439546539 0 0 0 0 -29.079359636871231 -236.51369136490666 0 -236.51369136490666 -196.79054971259757 0 0 0 0 -95.71647185315669 -105.53783312351607 0 -105.53783312351607 -120.34458110111427 0 0 0 0 387.43021030402087 -64.748127776524598 0 -64.748127776524598 -192.74165587307652 0 0 0 0 233.73860974914714 -1.3762191988416816 0 -1.3762191988416816 -159.2934028063064 0 0 0 0 7.2533702553184831 -1.6969818612374539 0 -1.6969818612374539 5.1848460571877233 0 0 0 0 -70.278753355720255 -67.369152620756836 0 -67.369152620756836 -13.92300872121541 0 0 0 0 71.471671081813838 6.4363080787559284 0 6.4363080787559284 -16.321237095092101 0 0 0 0 9.1257126466083349 -4.033458648537227 0 -4.033458648537227 0.41566459917367382 0 0 0 0 -390.70573871692613 -188.93366272104413 0 -188.93366272104413 -69.987271352769312 0 0 0 0 8.1644452332870969 -43.75780576230224 0 -43.75780576230224 -2.2940660949050198 0 0 0 0 27.383854360508103 -13.361071944623315 0 -13.361071944623315 10.797844513447206 0 0 0 0 -171.48416821051933 -58.556876816701561 0 -58.556876816701561 293.53679039653161 0 0 0 0 162.90029900965601 125.25920540732977 0 125.25920540732977 -22.678912827742352 0 0 0 0 496.11354206230317 262.0551113312913 0 262.0551113312913 -116.51966036990871 0 0 0 0 735.31854075979209 180.88304537893509 0 180.88304537893509 -108.57209503868307 0 0 0 0 1085.2082957569364 192.68520767305927 0 192.68520767305927 -340.58140303199889 0 0 0 0 1177.4949849782424 884.61561152482739 0 884.61561152482739 451.30141513791386 0 0 0 0 -436.35219794185832 522.66017464867946 0 522.66017464867946 1611.5635318050099 0 0 0 0 186.86362535792432 350.09782885910863 0 350.09782885910863 849.75533166890182 0 0 0 0 326.50395083888361 419.86199471411737 0 419.86199471411737 398.05725431629617 0 0 0 0 44.257578563898278 73.468933111925253 0 73.468933111925253 319.96524016897274 0 0 0 0 34.659030758353765 -17.810268326300502 0 -17.810268326300502 -6.0015220149844026 0 0 0 0 -0.87349908680358723 -1.3397009115158838 0 -1.3397009115158838 -2.1023928310952176 0 0 0 0 16.822795754553226 -2.6269802785052434 0 -2.6269802785052434 -1.3681934908377116 0 0 0 0 -0.54591140936344473 -0.99265521346260499 0 -0.99265521346260499 -1.4383548519558573 0 0 0 0 19.855065109287352 -9.3853269890037154 0 -9.3853269890037154 -1.8806387860076939 0 0 0 0 65.137614421910257 30.138165224589557 0 30.138165224589557 -17.526352501705333 0 0 0 0 65.197583318227771 29.981725348000964 0 29.981725348000964 -17.152481939202517 0 0 0 0 73.822306916561502 47.837228933472488 0 47.837228933472488 15.52217839399782 0 0 0 0 122.33038680474874 3.0806016014446413 0 3.0806016014446413 -18.403548748130561 0 0 0 0 25.181222989413072 -51.267458261011598 0 -51.267458261011598 10.981672892161441 0 0 0 0 100.11283693692531 -80.399638899643833 0 -80.399638899643833 -2.6283226133145945 0 0 0 0 0.35445707237158786 -2.3458201551106868 0 -2.3458201551106868 17.603369398706036 0 0 0 0 11.084232793989941 -5.1639699871966513 0 -5.1639699871966513 -0.25555010454172589 0 0 0 0 62.268346595072217 -35.933346556171728 0 -35.933346556171728 0.97152170362710422 0 0 0 0 51.598234977642278 5.4253440790248533 0 5.4253440790248533 -26.507677815074658 0 0 0 0 128.56641358424986 79.408190971920476 0 79.408190971920476 -4.0717283186450004 0 0 0 0 157.22413810817488 -33.461339804103773 0 -33.461339804103773 -16.421887961500943 0 0 0 0 20.226800037624344 56.778463256536497 0 56.778463256536497 -32.002572646080807 0 0 0 0 57.368159289864707 0.62926796344049762 0 0.62926796344049762 -33.177551867813008 0 0 0 0 31.298659836458683 -11.429050953326168 0 -11.429050953326168 -17.390117636929517 0 0 0 0 23.550336764965323 -7.4034961780037065 0 -7.4034961780037065 -4.3440556225978071 0 0 0 0 42.023968837051598 26.065946272042595 0 26.065946272042595 -59.101140523345293 0 0 0 0 54.931046732117466 93.857361992991173 0 93.857361992991173 -127.43882537877789 0 0 0 0 25.442715478453657 10.432493029474795 0 10.432493029474795 4.4330789951500673 0 0 0 0 120.5073778410806 -0.067578488271919923 0 -0.067578488271919923 -76.963709030193968 0 0 0 0 179.50169796639238 85.243792657328413 0 85.243792657328413 -30.927705240768091 0 0 0 0 -53.174320127695864 95.960694432038963 0 95.960694432038963 -27.435054232340462 0 0 0 0 -75.87616910828001 73.280667545759343 0 73.280667545759343 -43.814942363948376 0 0 0 0 17.814242783981051 7.2221698866453323 0 7.2221698866453323 2.5495809522533426 0 0 0 0 -64.399737525178352 62.2964408449443 0 62.2964408449443 -40.510207038388671 0 0 0 0 33.0601123426095 3.1235221763938625 0 3.1235221763938625 -22.095912196277823 0 0 0 0 24.318664891256958 -8.2626247523353413 0 -8.2626247523353413 -4.6523838393832193 0 0 0 0 20.571939727915378 1.7280390190423986 0 1.7280390190423986 -1.0808116546153741 0 0 0 0 2.7043456631548786 -1.3809266616289122 0 -1.3809266616289122 -3.0494254190695358 0 0 0 0 90.946811323568454 -25.729843765832413 0 -25.729843765832413 -21.386996445127807 0 0 0 0 22.004772440370289 -3.2579547431024594 0 -3.2579547431024594 -0.7145285255392082 0 0 0 0 1.6535550681701832 -0.91919402833838149 0 -0.91919402833838149 0.46785065503178025 0 0 0 0 9.7891094099790337 2.9562462585837785 0 2.9562462585837785 0.49844348047315901 0 0 0 0 59.565487175132148 -28.291212517348413 0 -28.291212517348413 39.52658769419395 0 0 0 0 70.898408420711348 -75.527618508619526 0 -75.527618508619526 62.785219125492404 0 0 0 0 71.747004334338271 -31.980853416991522 0 -31.980853416991522 -25.83306418946006 0 0 0 0 54.285303477556226 -10.736081445185619 0 -10.736081445185619 -8.0575503694981307 0 0 0 0 81.594481295476726 -8.5126634898711018 0 -8.5126634898711018 -71.513683112818399 0 0 0 0 81.560685844342515 -44.347979291406773 0 -44.347979291406773 4.0306383897795968 0 0 0 0 57.634061705397471 -46.262836056596825 0 -46.262836056596825 78.015103116636055 0 0 0 0 117.62842706520314 -63.03165473344643 0 -63.03165473344643 -66.405557849233446 0 0 0 0 86.551911290582211 29.546598386414189 0 29.546598386414189 -107.92773716985175 0 0 0 0 -50.458366289705737 35.671936593481405 0 35.671936593481405 -8.3877503662524759 0 0 0 0 -79.386744276052923 -11.037467609129635 0 -11.037467609129635 -79.938119602406005 0 0 0 0 -54.441417954036297 63.529440733806496 0 63.529440733806496 -116.27485826797147 0 0 0 0 -39.318304520551465 50.109771753574023 0 50.109771753574023 -265.92518672933511 0 0 0 0 1.0115261232289363 0.82582569307723119 0 0.82582569307723119 -0.71228508256834111 0 0 0 0 -402.93536774575477 291.80327119055437 0 291.80327119055437 -265.78282126047077 0 0 0 0 -21.893890273478974 -15.105856490677525 0 -15.105856490677525 -112.21002173467423 0 0 0 0 57.352502244481002 39.043043291974755 0 39.043043291974755 -112.09741476440377 0 0 0 0 46.959328301411006 73.88861702111808 0 73.88861702111808 -186.96155005019182 0 0 0 0 31.346529802351142 44.3047140720073 0 44.3047140720073 -74.001665598329055 0 0 0 0 110.64935129655032 -33.404195374423807 0 -33.404195374423807 29.673115094643435 0 0 0 0 33.272108874738478 62.467061769709744 0 62.467061769709744 -112.52959118630406 0 0 0 0 -10.700655051725334 1.6526689940146753 0 1.6526689940146753 -1.1849502606391979 0 0 0 0 -28.564459591234481 103.39463397291456 0 103.39463397291456 -86.758390420109208 0 0 0 0 -0.41765289489827495 1.5236760587938214 0 1.5236760587938214 2.5179364266264734 0 0 0 0 -57.395390727120684 84.636885997580521 0 84.636885997580521 -41.501644670464884 0 0 0 0 3.3121720639752947 4.1773347694935836 0 4.1773347694935836 1.6716843644515436 0 0 0 0 130.12713132670433 -22.78195268870752 0 -22.78195268870752 11.110248238956956 0 0 0 0 -0.90986804533713439 -32.281564424037242 0 -32.281564424037242 -30.227598120709445 0 0 0 0 -78.694969098065485 24.814463026672456 0 24.814463026672456 -14.857424213362719 0 0 0 0 24.279992360519827 2.1093734994647093 0 2.1093734994647093 5.0904132661680705 0 0 0 0 32.678981371762347 9.3276420040583616 0 9.3276420040583616 -31.665090523448271 0 0 0 0 62.945290729840053 -43.110924970891574 0 -43.110924970891574 -22.961868284363845 0 0 0 0 40.160434716242889 12.603214047203892 0 12.603214047203892 -54.379401932068504 0 0 0 0 4.9699364057451021 40.563689203454487 0 40.563689203454487 -49.990469253829815 0 0 0 0 367.56864813991342 -54.784042350425807 0 -54.784042350425807 -8.1326252175422269 0 0 0 0 264.15413453794099 -76.481556705260573 0 -76.481556705260573 51.528830321781243 0 0 0 0 268.04171449366186 -51.003459786298208 0 -51.003459786298208 1.1385108765425684 0 0 0 0 263.13499287115314 -7.4987620034004863 0 -7.4987620034004863 -20.52633703707761 0 0 0 0 222.6718416584481 -59.429723548886614 0 -59.429723548886614 36.120184071203767 0 0 0 0 219.57270303537371 -51.657140518496362 0 -51.657140518496362 17.926772758859443 0 0 0 0 223.9155745318858 -47.659834045462048 0 -47.659834045462048 38.537802672181897 0 0 0 0 -182.81396613502147 177.35055899884651 0 177.35055899884651 -153.99709540045478 0 0 0 0 -128.57173194004281 260.32313142333942 0 260.32313142333942 -38.044399378919479 0 0 0 0 219.87407755935055 -70.342575778559876 0 -70.342575778559876 33.708260654348578 0 0 0 0 3.6145075661883226 4.5574423982903411 0 4.5574423982903411 3.5534721652092376 0 0 0 0 180.8721334682923 -79.230713698321779 0 -79.230713698321779 32.163199286486815 0 0 0 0 142.7127245037409 -76.910496228911143 0 -76.910496228911143 33.845870793532413 0 0 0 0 116.76638667576117 -64.064851198608267 0 -64.064851198608267 39.902966875226412 0 0 0 0 180.1903049453249 -65.779197282088717 0 -65.779197282088717 20.563766788181965 0 0 0 0 157.67183467117138 -64.387402171158101 0 -64.387402171158101 20.725354791588416 0 0 0 0 185.19599049270983 -49.836556627628852 0 -49.836556627628852 16.731847043807647 0 0 0 0 165.46035845468577 -49.341844469963235 0 -49.341844469963235 16.890158831221925 0 0 0 0 141.63177395558159 -45.991031225367806 0 -45.991031225367806 21.41714584919464 0 0 0 0 141.11832251261512 -47.270484012089582 0 -47.270484012089582 20.491790312978083 0 0 0 0 144.33083868411632 -32.63045730482645 0 -32.63045730482645 7.3447066908165652 0 0 0 0 162.00125753231259 -30.365788823864023 0 -30.365788823864023 7.6115494763289462 0 0 0 0 166.67872777213961 -39.338431876717323 0 -39.338431876717323 4.1127030933985225 0 0 0 0 191.60756716386823 -29.888497947420547 0 -29.888497947420547 -3.2438645129441284 0 0 0 0 192.13047946964662 -15.554158677800018 0 -15.554158677800018 -10.120732668639903 0 0 0 0 163.57182386855129 -25.275508417686069 0 -25.275508417686069 -2.0707245972835153 0 0 0 0 195.56062740372727 -44.198640903858177 0 -44.198640903858177 4.7435392533311642 0 0 0 0 195.28115244420769 -58.054493713982083 0 -58.054493713982083 17.733635986025149 0 0 0 0 216.67639365701689 -55.25825370022028 0 -55.25825370022028 3.9348910633125342 0 0 0 0 221.20921979492914 -26.098618079444918 0 -26.098618079444918 -9.5724544408058136 0 0 0 0 219.67181313854235 -26.511422919199504 0 -26.511422919199504 -9.6743118839622184 0 0 0 0 201.98532925912878 -0.56729106399325246 0 -0.56729106399325246 -17.20010414882654 0 0 0 0 208.59505074405752 -11.322108451463464 0 -11.322108451463464 -12.26313392733573 0 0 0 0 234.1727534140573 0.49396613697831526 0 0.49396613697831526 -17.315240182821071 0 0 0 0 219.4638531042292 27.573633448546389 0 27.573633448546389 -30.976845755051045 0 0 0 0 269.26279045359843 18.116986552544404 0 18.116986552544404 -29.437004418645301 0 0 0 0 245.09479918731449 -6.429454521534808 0 -6.429454521534808 -16.414437830360839 0 0 0 0 224.51443189381462 20.737482562986543 0 20.737482562986543 -21.888506569628589 0 0 0 0 189.38891378793051 26.563165464756366 0 26.563165464756366 -22.602326562957387 0 0 0 0 177.85629183349465 -4.9895013825381511 0 -4.9895013825381511 -9.215470169474429 0 0 0 0 190.30454389229999 21.466660658657929 0 21.466660658657929 -9.7199048720631254 0 0 0 0 150.95998066504762 -1.7250912945892196 0 -1.7250912945892196 -4.2417878689484496 0 0 0 0 168.3832425350738 -24.745587484062071 0 -24.745587484062071 -3.6691083985642763 0 0 0 0 178.86026315994241 -6.3054528260654479 0 -6.3054528260654479 -10.545687298851135 0 0 0 0 166.01493558811853 -22.093293233224358 0 -22.093293233224358 -2.9874308715334337 0 0 0 0 162.09704244648128 -21.271486871596608 0 -21.271486871596608 -2.3258978660487628 0 0 0 0 149.84698331635809 -15.635530992931706 0 -15.635530992931706 0.89937231167732534 0 0 0 0 141.01649684566291 -19.067760665463538 0 -19.067760665463538 0.8074448071797633 0 0 0 0 121.34838978649714 -15.45539638373657 0 -15.45539638373657 5.0256158897636851 0 0 0 0 132.59060334686001 -8.8562292110455019 0 -8.8562292110455019 7.4651543275749646 0 0 0 0 132.33377290716453 2.1337209730031645 0 2.1337209730031645 3.2987140861359876 0 0 0 0 121.49645491796832 33.63335364679866 0 33.63335364679866 4.3127560279108366 0 0 0 0 158.2104830603239 3.1218789839904275 0 3.1218789839904275 -1.1243613328315405 0 0 0 0 153.22677004457728 21.232473182023114 0 21.232473182023114 -9.4246579485873099 0 0 0 0 172.59633341626977 38.626052967471878 0 38.626052967471878 2.2485461801652491 0 0 0 0 0.30528769857796334 0.47982511290367569 0 0.47982511290367569 0.87901295803292356 0 0 0 0 0.77652677585865604 -1.4284011401355201 0 -1.4284011401355201 23.758642850608339 0 0 0 0 62.659975845786903 19.994103252711284 0 19.994103252711284 -26.755013188989324 0 0 0 0 1.2382596157822263 -2.041091464393503 0 -2.041091464393503 8.1165217112120445 0 0 0 0 41.138346937406823 1.9510322124574486 0 1.9510322124574486 -39.641850156543114 0 0 0 0 -3.347830816923306 11.206590923792419 0 11.206590923792419 -10.62932031674336 0 0 0 0 141.37630634975631 -23.146656090635474 0 -23.146656090635474 1.453464609871844 0 0 0 0 134.51262956641585 -32.514093305192091 0 -32.514093305192091 -1.8795188521155524 0 0 0 0 2.2635770744761636 4.5244884863908403 0 4.5244884863908403 2.7766253597587287 0 0 0 0 -26.758338084926436 13.974229677225367 0 13.974229677225367 19.715152897381813 0 0 0 0 114.76056324703131 -23.916986265373907 0 -23.916986265373907 10.811785962448084 0 0 0 0 122.04825321716703 -20.672470173964314 0 -20.672470173964314 10.006208691766915 0 0 0 0 -17.011001723412846 -2.8093440916907184 0 -2.8093440916907184 24.104384454220053 0 0 0 0 -26.34417772951474 7.2054190443155903 0 7.2054190443155903 25.753158152880133 0 0 0 0 8.5963593976775883 20.790023292024671 0 20.790023292024671 39.574466863621637 0 0 0 0 19.960317119614047 10.071813321741047 0 10.071813321741047 -6.8221147706476586 0 0 0 0 48.495906476498931 46.257761862398183 0 46.257761862398183 29.546773448472777 0 0 0 0 22.783492574017146 24.994930059647686 0 24.994930059647686 -7.0664464936707958 0 0 0 0 2.0231805914845609 19.365023003844954 0 19.365023003844954 -5.065896596577204 0 0 0 0 3.7500081428648855 5.2107719732200835 0 5.2107719732200835 2.9987193222447814 0 0 0 0 12.945030395332651 5.6009822781156799 0 5.6009822781156799 -10.198615493321995 0 0 0 0 98.616985707165441 -12.678621631259261 0 -12.678621631259261 -4.7197831636381125 0 0 0 0 106.03536836525018 -23.603397926416619 0 -23.603397926416619 9.5201196901770118 0 0 0 0 175.63184491903303 7.6250910946785098 0 7.6250910946785098 -7.2461422800115542 0 0 0 0 116.28885132528376 -46.569408186064607 0 -46.569408186064607 -6.3734516511499351 0 0 0 0 1.554058134875369 1.699298627575704 0 1.699298627575704 -0.10350105585393621 0 0 0 0 135.704003903782 -96.664113062742672 0 -96.664113062742672 -108.8182559789293 0 0 0 0 122.84432440872456 1.1258003327180006 0 1.1258003327180006 7.1142471923540143 0 0 0 0 93.229637188564084 32.722615953451964 0 32.722615953451964 8.6909684376623773 0 0 0 0 153.63174991060805 54.414456377107399 0 54.414456377107399 11.809035009118816 0 0 0 0 39.378426353647228 -13.713873718129435 0 -13.713873718129435 11.618634137421509 0 0 0 0 120.13074383766798 -2.0397596425491429 0 -2.0397596425491429 13.251593921913354 0 0 0 0 110.60244007710116 -8.6209491193035319 0 -8.6209491193035319 9.6723252673937168 0 0 0 0 102.50711892929939 24.18312890789548 0 24.18312890789548 -0.99192363147085416 0 0 0 0 76.847183455614868 -1.8738188522138444 0 -1.8738188522138444 -111.87488801789459 0 0 0 0 -10.747644036611746 -73.701571090658035 0 -73.701571090658035 -12.157410106390444 0 0 0 0 -2.6119507186631381 31.656209041309239 0 31.656209041309239 -0.71594447215625223 0 0 0 0 34.081616350117201 -3.5579976791073591 0 -3.5579976791073591 -103.74179414323385 0 0 0 0 51.183299686684677 62.919203848246525 0 62.919203848246525 -1.1140085367806023 0 0 0 0 3.785574824632036 0.20236043592058728 0 0.20236043592058728 -0.5976671716291273 0 0 0 0 3.3100852036432116 9.8723869601354863 0 9.8723869601354863 120.06776322928454 0 0 0 0 13.750796874917796 0.49387833728508213 0 0.49387833728508213 0.73164399017150572 0 0 0 0 1.4836288392426766 -0.23572269213247665 0 -0.23572269213247665 -0.42016676527974184 0 0 0 0 167.97897893876234 -4.2165953975815569 0 -4.2165953975815569 -69.640649318392207 0 0 0 0 1.8676886368434538 0.25293895359926655 0 0.25293895359926655 -0.36167814165549084 0 0 0 0 117.775516135207 116.35423340436614 0 116.35423340436614 40.320212954854583 0 0 0 0 178.68703226444995 -78.465188655703059 0 -78.465188655703059 -145.75107109184546 0 0 0 0 190.63173688453753 64.648746295227056 0 64.648746295227056 -57.600756980398728 0 0 0 0 86.481265122965851 32.985162389097695 0 32.985162389097695 -31.445487799920329 0 0 0 0 53.437098894650262 -41.167737164407527 0 -41.167737164407527 -51.761644305530467 0 0 0 0 61.886913032063603 5.3259143509801561 0 5.3259143509801561 -2.1049045272689 0 0 0 0 78.640297392557841 16.996018015114601 0 16.996018015114601 5.9855736534420885 0 0 0 0 62.963093371567084 29.051981461603418 0 29.051981461603418 5.7298025092864009 0 0 0 0 51.835905517632455 22.647245502949488 0 22.647245502949488 17.296239268427144 0 0 0 0 27.532805154996822 24.486324635773542 0 24.486324635773542 8.5319163679341727 0 0 0 0 86.861110843890856 31.359263119944444 0 31.359263119944444 4.9364803880880572 0 0 0 0 15.731221403491872 32.576245682241733 0 32.576245682241733 28.083816611294424 0 0 0 0 14.940983607299131 -2.6773566921360725 0 -2.6773566921360725 8.8667178462203537 0 0 0 0 22.698875386471627 -6.3746821761837964 0 -6.3746821761837964 -0.76099115345687096 0 0 0 0 10.846918131297571 2.5050307164538026 0 2.5050307164538026 -7.4056268709832693 0 0 0 0 16.51944082967384 4.3371601338981236 0 4.3371601338981236 -11.151649522443677 0 0 0 0 20.42879864626957 -1.8468125414133283 0 -1.8468125414133283 -7.9415444656497129 0 0 0 0 11.130787329238977 1.2866266345601152 0 1.2866266345601152 -2.0590984271421178 0 0 0 0 3.0754663392655948 0.43479258299296575 0 0.43479258299296575 -0.20839327452029366 0 0 0 0 11.876550629000121 -0.58233934770942142 0 -0.58233934770942142 -18.334755912725086 0 0 0 0 1.1206913537186978 -0.54453350897524899 0 -0.54453350897524899 0.43933229158682963 0 0 0 0 0.87319891919651127 3.7057707746030246 0 3.7057707746030246 1.2516422686303486 0 0 0 0 12.513930659572907 17.07573806473318 0 17.07573806473318 16.313102636387157 0 0 0 0 6.9017227063532118 -7.2962649100556973 0 -7.2962649100556973 -9.898307059367653 0 0 0 0 9.2697290529613383 -2.3339989634760059 0 -2.3339989634760059 -5.1363334428301641 0 0 0 0 10.05771716111667 -3.078638263412131 0 -3.078638263412131 -0.73455604419541487 0 0 0 0 12.521054758850369 -2.328425363808492 0 -2.328425363808492 -2.4301666931742147 0 0 0 0 0.87980151093677073 -1.2644113506820744 0 -1.2644113506820744 -1.5065163141247151 0 0 0 0 7.0855640714921719 -1.4327766380419837 0 -1.4327766380419837 -1.4645341667556657 0 0 0 0 13.59262960326032 -4.0475301696727684 0 -4.0475301696727684 -2.2247188126093533 0 0 0 0 1.6773501064124705 -1.1435154608099758 0 -1.1435154608099758 -3.549846212915126 0 0 0 0 1.4620194435246958 -10.773843793887181 0 -10.773843793887181 3.4826943676071096 0 0 0 0 31.256663155426395 4.7115076208706341 0 4.7115076208706341 -13.555601893278435 0 0 0 0 47.212957031981205 12.097932901926924 0 12.097932901926924 -11.29859534762727 0 0 0 0 18.979717860522214 7.1635752023821624 0 7.1635752023821624 -13.652616519117146 0 0 0 0 22.937985334921905 2.9006670109813513 0 2.9006670109813513 -12.566069449012502 0 0 0 0 177.02429218661291 6.832455761588335 0 6.832455761588335 -9.8223613527929956 0 0 0 0 2.15426606805147 -0.33768713983274301 0 -0.33768713983274301 -0.086923720354532996 0 0 0 0 120.45997629929479 77.716079905125753 0 77.716079905125753 47.720566760769771 0 0 0 0 41.694767969040186 -42.494914693558258 0 -42.494914693558258 45.082880083404689 0 0 0 0 84.752038705373707 41.838973147695469 0 41.838973147695469 22.313326433832117 0 0 0 0 63.819226804776918 -12.218798102982987 0 -12.218798102982987 -3.5169726894528139 0 0 0 0 77.794093145403167 16.52014799498761 0 16.52014799498761 -7.6996085464470525 0 0 0 0 114.24551421086653 42.472928059447213 0 42.472928059447213 0.98063320600340376 0 0 0 0 70.023667153387578 19.48996437389701 0 19.48996437389701 18.069000935259055 0 0 0 0 66.94180333588065 17.011902764060437 0 17.011902764060437 6.0350017779596783 0 0 0 0 69.167378211184769 10.128584679055166 0 10.128584679055166 4.1943792525480603 0 0 0 0 8.8476382553581061 -24.540850874764374 0 -24.540850874764374 -14.382625157354596 0 0 0 0 448.87257397292524 95.716783210516382 0 95.716783210516382 -84.7445641644548 0 0 0 0 -117.20890141526797 24.040201632823596 0 24.040201632823596 57.920579342414385 0 0 0 0 0.37124223642245768 0.49656456376122193 0 0.49656456376122193 1.763715383534759 0 0 0 0 215.82948843118672 128.85295080770447 0 128.85295080770447 128.19873143089626 0 0 0 0 216.56350090505475 33.722821870953453 0 33.722821870953453 -48.796094391198039 0 0 0 0 3.2374173007229228 1.2593650925334678 0 1.2593650925334678 0.13857953799951517 0 0 0 0 218.15409568672658 24.763215917508205 0 24.763215917508205 -11.078405545064925 0 0 0 0 82.968840295137397 6.4340882235892707 0 6.4340882235892707 40.42618130160281 0 0 0 0 37.201844055708534 16.662891917952663 0 16.662891917952663 -7.628812777715666 0 0 0 0 404.18596355222508 65.57605262900961 0 65.57605262900961 -104.66014802535028 0 0 0 0 294.32829197134106 -88.941538413587637 0 -88.941538413587637 -8.3092494984048244 0 0 0 0 2.0390602370660247 2.3420477742320998 0 2.3420477742320998 3.0961541840360294 0 0 0 0 667.02294487135441 -205.86833106622385 0 -205.86833106622385 1.4079521828306554 0 0 0 0 3.8885422244132126 -0.49263532211209338 0 -0.49263532211209338 0.49582082906877112 0 0 0 0 31.395345040045868 15.218071459076555 0 15.218071459076555 -3.7191088383724491 0 0 0 0 6.8074488889201348 6.7811102522242628 0 6.7811102522242628 6.8095681845306357 0 0 0 0 108.53417822810444 -30.404379860176103 0 -30.404379860176103 18.313617632384648 0 0 0 0 107.79383319065892 299.60161800486276 0 299.60161800486276 298.36902413798498 0 0 0 0 750.44867524463552 305.41813094688132 0 305.41813094688132 -116.90407273313849 0 0 0 0 571.91494630963371 -167.08808379487232 0 -167.08808379487232 -285.10660811871094 0 0 0 0 442.45997203302613 493.85231038982272 0 493.85231038982272 387.26898392659314 0 0 0 0 -13.370987191119639 71.142123968747001 0 71.142123968747001 -11.126115314834124 0 0 0 0 0.30687253703581518 -32.579220780124615 0 -32.579220780124615 -0.23705401768989987 0 0 0 0 0.085760490197571926 -31.630121465761022 0 -31.630121465761022 97.389591222651291 0 0 0 0 29.774137714319295 23.203012438633777 0 23.203012438633777 -33.142723165430198 0 0 0 0 -121.78167563022394 1.1250510231138904 0 1.1250510231138904 47.540938418423139 0 0 0 0 21.42875236915097 82.308765758934214 0 82.308765758934214 225.20084038281993 0 0 0 0 -0.83711641444923723 1.2152344766185692 0 1.2152344766185692 3.4028411856735321 0 0 0 0 -89.460372494114836 7.9244170841767527 0 7.9244170841767527 35.752842560025556 0 0 0 0 6.0402157115834036 1.1204620182516132 0 1.1204620182516132 -1.9138322205701188 0 0 0 0 33.78203157892284 26.039614935527197 0 26.039614935527197 1.6783493323055154 0 0 0 0 -8.0299817997529317 -0.74162609782956679 0 -0.74162609782956679 -20.412282637254066 0 0 0 0 1.5724441729859149 -1.4156974574205954 0 -1.4156974574205954 -1.9736772298986676 0 0 0 0 -195.77377098099146 2.7201444823949714 0 2.7201444823949714 56.019076370400398 0 0 0 0 -33.159688768982164 84.899609691823002 0 84.899609691823002 107.46668686113298 0 0 0 0 -52.597670870783077 -29.701089865989161 0 -29.701089865989161 -24.182456803766399 0 0 0 0 -32.36957000235634 -7.7772676591093841 0 -7.7772676591093841 29.665797648290209 0 0 0 0 22.545335438644543 -6.9518079226054397 0 -6.9518079226054397 14.77478898137997 0 0 0 0 48.928961476862241 16.509140487716195 0 16.509140487716195 7.108371999091105 0 0 0 0 183.83459565059275 17.631955559896127 0 17.631955559896127 -26.214946496955605 0 0 0 0 -59.003278984879216 56.29188822303837 0 56.29188822303837 20.146984312265388 0 0 0 0 -213.2257766980274 -2.2761039544633377 0 -2.2761039544633377 54.500208983281254 0 0 0 0 -0.6858184185247973 -1.5468033007619866 0 -1.5468033007619866 1.7137012987986973 0 0 0 0 3.1511673669412374 8.0472213986303132 0 8.0472213986303132 13.371146387046712 0 0 0 0 37.10667095676763 48.6476021528415 0 48.6476021528415 15.757430664588355 0 0 0 0 -13.418326999714736 20.764535985529733 0 20.764535985529733 3.7740085843039424 0 0 0 0 0.93464413825932979 40.072714987127405 0 40.072714987127405 7.8756624840625591 0 0 0 0 -13.589446930678605 19.733820581926864 0 19.733820581926864 -0.90341834680464217 0 0 0 0 7.748454957791532 8.9014868987922444 0 8.9014868987922444 7.6049070716160063 0 0 0 0 -4.5528298079556251 5.7955948701602171 0 5.7955948701602171 15.261111376866502 0 0 0 0 1.4005077867332147 23.290414094259177 0 23.290414094259177 15.236475101571187 0 0 0 0 -61.432451827691693 -2.8502873461470131 0 -2.8502873461470131 100.02959798418988 0 0 0 0 23.075419612343467 -71.301572276603281 0 -71.301572276603281 26.159437072405467 0 0 0 0 9.2429031304763996 11.5741851502133 0 11.5741851502133 11.389207311691884 0 0 0 0 89.063898851318299 5.8764149967939829 0 5.8764149967939829 -57.802237227969727 0 0 0 0 -14.30072113298047 12.476888487638575 0 12.476888487638575 28.081135416498235 0 0 0 0 -122.54861818311701 -66.15868392617449 0 -66.15868392617449 74.05934176986375 0 0 0 0 -0.99347430338259191 -0.46707086701054656 0 -0.46707086701054656 2.7512709830058419 0 0 0 0 93.023602407749877 -18.101270209177642 0 -18.101270209177642 -21.24988626848517 0 0 0 0 -233.63649167064159 81.85946951667961 0 81.85946951667961 29.58495205368672 0 0 0 0 -13.653956719154621 12.037331688703176 0 12.037331688703176 -55.302618936207296 0 0 0 0 -3.5125213710587104 0.15729824152356287 0 0.15729824152356287 31.969123885729346 0 0 0 0 59.65237464531765 32.099724641689363 0 32.099724641689363 -35.681845250192964 0 0 0 0 6.5480302505443824 7.0012578495979874 0 7.0012578495979874 7.3056218116211085 0 0 0 0 -10.889225674230147 62.393469985795946 0 62.393469985795946 -5.8894456222819827 0 0 0 0 -0.4081729693744407 15.085646963053648 0 15.085646963053648 5.3966933874344249 0 0 0 0 5.6972827484470709 7.9134111363440649 0 7.9134111363440649 6.8576151473578095 0 0 0 0 6.6306277712865267 6.2843920232505752 0 6.2843920232505752 3.6124529369295857 0 0 0 0 4.8971715236490354 6.9157908840157516 0 6.9157908840157516 7.4177806858844768 0 0 0 0 -14.575403081446666 53.371003759936912 0 53.371003759936912 1.2698816731506213 0 0 0 0 6.3201456210193783 10.336615217356751 0 10.336615217356751 3.9631370362808127 0 0 0 0 10.592226302698236 19.397137136939264 0 19.397137136939264 -41.002495162676894 0 0 0 0 7.6435599555815195 7.3636964667229599 0 7.3636964667229599 7.0277240630058353 0 0 0 0 4.1377250891555377 4.7857101504791899 0 4.7857101504791899 -1.5162392218430796 0 0 0 0 14.927210174877132 40.562222941392477 0 40.562222941392477 -38.661547163990463 0 0 0 0 -11.957318745576231 33.295604823237454 0 33.295604823237454 -10.042607291408785 0 0 0 0 -31.007584331818634 35.496407715502755 0 35.496407715502755 -22.671279863823202 0 0 0 0 -16.741486843083749 49.89162478680737 0 49.89162478680737 -33.062508843945579 0 0 0 0 -6.7115922792654601 14.811000512672763 0 14.811000512672763 -2.8551413355744444 0 0 0 0 5.6752019070290789 8.9167864811407522 0 8.9167864811407522 8.3035615330338608 0 0 0 0 -6.289179222995358 20.823365587290709 0 20.823365587290709 4.9619430244365503 0 0 0 0 6.6076390965213054 6.7855583800590562 0 6.7855583800590562 6.9305394341541202 0 0 0 0 4.1655558524194021 1.1832921190903072 0 1.1832921190903072 1.4898018551835115 0 0 0 0 48.603217032426528 17.655595962251027 0 17.655595962251027 -25.445335445059754 0 0 0 0 -26.964689411652898 -10.273964980058565 0 -10.273964980058565 42.198175726148293 0 0 0 0 -250.87109420477464 103.67861134186842 0 103.67861134186842 133.05663533718507 0 0 0 0 35.347770468921226 70.174159867412982 0 70.174159867412982 -111.36189752048631 0 0 0 0 -60.129764759575892 -35.281501334235941 0 -35.281501334235941 -45.627797583212669 0 0 0 0 -68.522000062206644 74.216302185079257 0 74.216302185079257 -197.04743932426027 0 0 0 0 -316.64538619759423 104.7089654548854 0 104.7089654548854 -171.64364724282495 0 0 0 0 31.938905244160821 19.102288409404167 0 19.102288409404167 0.69980801091366018 0 0 0 0 -67.782560206198639 90.371608786579998 0 90.371608786579998 -8.7831155383173609 0 0 0 0 -30.058768717479325 252.9598279160964 0 252.9598279160964 -183.66192791536128 0 0 0 0 18.320086671640421 16.332838898146662 0 16.332838898146662 11.544634324217096 0 0 0 0 1159.0362774215391 556.90732875219601 0 556.90732875219601 -277.02493201166726 0 0 0 0 7.3384052524119969 1.2171088509000434 0 1.2171088509000434 -3.1916452861957154 0 0 0 0 -513.79927788911255 -299.59725810344457 0 -299.59725810344457 27.656971294039977 0 0 0 0 -367.65115286963714 -36.799517452593136 0 -36.799517452593136 86.007201555576103 0 0 0 0 -182.57262746537606 591.5504227745223 0 591.5504227745223 579.47094287686559 0 0 0 0 280.6353944964028 378.74710650434542 0 378.74710650434542 -15.796656287871883 0 0 0 0 814.29480352252881 364.73358605231942 0 364.73358605231942 -18.131502676505988 0 0 0 0 92.409501502783996 187.82130353554021 0 187.82130353554021 -202.20970086471243 0 0 0 0 88.739581110440895 169.02067381935558 0 169.02067381935558 38.467364755523704 0 0 0 0 -58.512206843219474 -2.2467476048805111 0 -2.2467476048805111 -0.14875891829979082 0 0 0 0 -113.32286545324087 119.27186621168039 0 119.27186621168039 173.01962780376925 0 0 0 0 -22.654889379922679 28.71225668210127 0 28.71225668210127 26.564714693126007 0 0 0 0 -29.231183986669748 27.007815494344868 0 27.007815494344868 -16.773584972243725 0 0 0 0 -12.17944961442663 12.654142427584475 0 12.654142427584475 -32.078099259611918 0 0 0 0 -72.900258626813866 -49.264512830281092 0 -49.264512830281092 -141.2641614171489 0 0 0 0 -16.260034580228989 70.176509514763211 0 70.176509514763211 -75.196463843417405 0 0 0 0 15.08162307409566 29.115857043433152 0 29.115857043433152 -26.961371019034232 0 0 0 0 -6.1472463594031979 27.674642142698531 0 27.674642142698531 4.3557547317423086 0 0 0 0 5.9783539874651979 1.6077612393464733 0 1.6077612393464733 6.9912439991366 0 0 0 0 18.931781397629265 10.646125581964952 0 10.646125581964952 12.63686311730271 0 0 0 0 45.647011274741089 17.984466179671017 0 17.984466179671017 4.5945669750531124 0 0 0 0 21.618120131230171 8.0236982658734632 0 8.0236982658734632 10.379478079990804 0 0 0 0 72.907985267811455 35.980199828675268 0 35.980199828675268 -36.683528862402 0 0 0 0 15.079464496775984 30.028131666954692 0 30.028131666954692 42.61651718873236 0 0 0 0 -36.325474068871699 28.221437454315492 0 28.221437454315492 -19.446810286266555 0 0 0 0 17.694483995845076 51.111765012291471 0 51.111765012291471 -44.444095362443477 0 0 0 0 23.718625100213103 59.487905784528266 0 59.487905784528266 -37.018308280657948 0 0 0 0 32.728537526146411 12.377336753638067 0 12.377336753638067 1.5728684733364284 0 0 0 0 20.561276837404876 42.33371642878501 0 42.33371642878501 -14.806733295530648 0 0 0 0 20.15430481939984 50.788802594209756 0 50.788802594209756 -30.796006074036995 0 0 0 0 -9.4015781338239321 33.11617089653555 0 33.11617089653555 -41.305443701973218 0 0 0 0 -29.084463080231217 46.763780765937554 0 46.763780765937554 25.496448942943061 0 0 0 0 -23.827859353576969 62.742313777063828 0 62.742313777063828 21.633688326979609 0 0 0 0 13.686350229403615 72.059850607788576 0 72.059850607788576 106.42337570726394 0 0 0 0 12.899872105171994 51.709093563759609 0 51.709093563759609 -3.6396123766498931 0 0 0 0 4.1431428386127696 2.2741540734542518 0 2.2741540734542518 -2.9812844307048607 0 0 0 0 -41.716725217913336 73.642544584400184 0 73.642544584400184 11.461162076531764 0 0 0 0 -62.808651778592321 54.029417518431558 0 54.029417518431558 21.146072818961329 0 0 0 0 -134.61835936816124 -108.28886278188156 0 -108.28886278188156 31.880416538602731 0 0 0 0 -25.72234315323567 -0.042067371825623923 0 -0.042067371825623923 -25.523056629746861 0 0 0 0 -0.22200450970156949 -0.43534944471490178 0 -0.43534944471490178 0.11245963765232858 0 0 0 0 295.26970580696434 -268.49356418261777 0 -268.49356418261777 -208.9565347578141 0 0 0 0 290.42884797180159 156.05758280437385 0 156.05758280437385 -107.92362890617557 0 0 0 0 351.09536579993801 195.34590404114533 0 195.34590404114533 -82.786253259393561 0 0 0 0 419.39978662469002 -54.253686848490815 0 -54.253686848490815 71.224984103821953 0 0 0 0 37.769927983948946 40.658464601254764 0 40.658464601254764 100.89109730525911 0 0 0 0 -69.662358354767036 99.700066708523636 0 99.700066708523636 133.5972414971493 0 0 0 0 264.23360040780608 188.94564059304685 0 188.94564059304685 19.399402173934504 0 0 0 0 525.31880197544319 89.724251041434684 0 89.724251041434684 -91.449836960873654 0 0 0 0 219.09816168952239 138.37965707540934 0 138.37965707540934 -92.646826584494193 0 0 0 0 197.80948049799917 88.636148452156704 0 88.636148452156704 -87.671881084063898 0 0 0 0 79.248706041146761 126.50644104877301 0 126.50644104877301 11.200703485408667 0 0 0 0 3.9182556097298615 1.4622875359180014 0 1.4622875359180014 -1.2804943098134309 0 0 0 0 305.39071448869072 -162.06435715706903 0 -162.06435715706903 80.914241160454367 0 0 0 0 539.17931117284661 -29.119640936444455 0 -29.119640936444455 -83.969160968294091 0 0 0 0 293.7749956193511 11.346781622693015 0 11.346781622693015 -60.327948983963324 0 0 0 0 96.305067142540793 -98.402365814894438 0 -98.402365814894438 62.050176880024082 0 0 0 0 228.33666397139859 194.86619664611362 0 194.86619664611362 -157.41304980504719 0 0 0 0 272.06723584808424 34.789046183062965 0 34.789046183062965 -44.749338051435188 0 0 0 0 62.788652058952721 19.020062443089046 0 19.020062443089046 -41.771158767822271 0 0 0 0 -77.359047953148547 206.27773234439701 0 206.27773234439701 -64.625008334009181 0 0 0 0 -9.8862130734260063 203.50959781276083 0 203.50959781276083 -114.98229967991756 0 0 0 0 -1.0368003365490495 0.10579938055028748 0 0.10579938055028748 2.8609749116286487 0 0 0 0 79.662397002195576 49.230986542877872 0 49.230986542877872 -60.780615947915066 0 0 0 0 64.662614321565343 35.775797280914048 0 35.775797280914048 -72.004564574610413 0 0 0 0 64.319188558099142 -45.369657610063541 0 -45.369657610063541 -26.318557429636712 0 0 0 0 775.46046769799796 -100.39914107447476 0 -100.39914107447476 -85.832749237139069 0 0 0 0 -107.38246989726213 262.82882919028634 0 262.82882919028634 -2.5339198225287873 0 0 0 0 9.237070111781577 -82.661973120828407 0 -82.661973120828407 116.00325950986371 0 0 0 0 519.42068647518863 -25.45070585171743 0 -25.45070585171743 -109.7451221967367 0 0 0 0 508.81074004996663 130.70743366288298 0 130.70743366288298 -148.89485719806908 0 0 0 0 817.43944559060765 -878.17607635308013 0 -878.17607635308013 -906.75204263596243 0 0 0 0 -654.20421320930836 32.894299201245303 0 32.894299201245303 -474.66204139614638 0 0 0 0 6.4714371088415525 6.4380986940567624 0 6.4380986940567624 6.0102301081036771 0 0 0 0 -967.12192249975124 3.509404987189555 0 3.509404987189555 -158.13472807100925 0 0 0 0 398.90235189173177 -453.28912964912433 0 -453.28912964912433 190.05878691860926 0 0 0 0 4.2312218213939534 5.601966860277745 0 5.601966860277745 6.0145466377104668 0 0 0 0 824.13526992130744 -186.77163199621475 0 -186.77163199621475 -17.345416364642006 0 0 0 0 112.04535341712489 -269.01254799389994 0 -269.01254799389994 -0.79700485944704269 0 0 0 0 137.46854307144667 -2.1704517454081724 0 -2.1704517454081724 -7.0198550951226935 0 0 0 0 153.46258606400988 -158.74864976121899 0 -158.74864976121899 276.52904529286616 0 0 0 0 328.28063810628328 -162.6633335795068 0 -162.6633335795068 -297.38347405266904 0 0 0 0 733.54837285604299 844.71165290530371 0 844.71165290530371 -271.7475754082443 0 0 0 0 70.227632435471605 28.867791823357948 0 28.867791823357948 -66.637142047760335 0 0 0 0 21.502079290651068 14.120851164506835 0 14.120851164506835 4.3547624690808675 0 0 0 0 53.301930440467913 -8.6501101994108467 0 -8.6501101994108467 -75.210565211921676 0 0 0 0 -125.63162426702183 46.818414928919083 0 46.818414928919083 -24.702829806003137 0 0 0 0 -582.99217611141376 1005.8326311130713 0 1005.8326311130713 1435.9138990484989 0 0 0 0 8.8359382501864943 -0.82132573349086258 0 -0.82132573349086258 -6.2570617923065726 0 0 0 0 38.040198700637575 -24.487477537279119 0 -24.487477537279119 -7.2676016577070186 0 0 0 0 6.9760581054986996 -11.203468996226787 0 -11.203468996226787 -17.925738508972199 0 0 0 0 57.468597396347832 -24.918366440031377 0 -24.918366440031377 -27.9733230494503 0 0 0 0 9.089736455825955 -10.410104190224089 0 -10.410104190224089 -19.102677717043441 0 0 0 0 53.38415851863715 14.917322911132516 0 14.917322911132516 -56.36979861036798 0 0 0 0 32.425057860515153 -42.432368644238977 0 -42.432368644238977 21.214959978517072 0 0 0 0 44.656966997502423 -9.3166968150515004 0 -9.3166968150515004 -25.249822996743205 0 0 0 0 64.533959387927098 9.9067532205579028 0 9.9067532205579028 -91.246742924015052 0 0 0 0 53.341368751254777 -22.493063147963312 0 -22.493063147963312 -79.550577922135744 0 0 0 0 35.016016766960547 -29.039220376831167 0 -29.039220376831167 -36.870925596483175 0 0 0 0 35.464050545473583 -11.578450516266457 0 -11.578450516266457 -17.461089008596446 0 0 0 0 73.495657290908639 -19.666329129055157 0 -19.666329129055157 -15.770387641429807 0 0 0 0 47.575343278957007 -21.94053230673353 0 -21.94053230673353 22.452341796335531 0 0 0 0 106.27118605793567 -46.4326889622007 0 -46.4326889622007 2.081003716358282 0 0 0 0 41.560202019235476 -31.849267913031326 0 -31.849267913031326 15.110216148501422 0 0 0 0 41.455660600990086 -14.557274503898498 0 -14.557274503898498 14.880992321104713 0 0 0 0 212.72294268895712 -58.968052282721146 0 -58.968052282721146 24.602891842566351 0 0 0 0 246.14434342250934 2.2587496892756462 0 2.2587496892756462 37.646294604798641 0 0 0 0 -1.0031441977650619 0.90497480260363439 0 0.90497480260363439 1.8546647253510713 0 0 0 0 26.744808448268486 70.617673196927626 0 70.617673196927626 23.61758398952918 0 0 0 0 35.69888189335586 35.209798083968053 0 35.209798083968053 -66.588174664228063 0 0 0 0 45.842459326531525 55.37638126217621 0 55.37638126217621 -79.190880604596373 0 0 0 0 5.9285011099531726 3.6488670355463011 0 3.6488670355463011 3.44808897037327 0 0 0 0 72.66318814958322 -30.622150602254351 0 -30.622150602254351 -5.0648983655746633 0 0 0 0 86.130731086953801 -3.1816093443303544 0 -3.1816093443303544 -113.13698630543968 0 0 0 0 2.6847577638577587 0.48629018836856908 0 0.48629018836856908 -1.3421557909795787 0 0 0 0 27.241740294161566 -26.572582629074564 0 -26.572582629074564 -24.706958576231955 0 0 0 0 41.39199726772631 -16.580131761515986 0 -16.580131761515986 -0.59784141086311138 0 0 0 0 41.614563026386577 -30.100486236734355 0 -30.100486236734355 -1.9903463312484746 0 0 0 0 140.88553980374536 7.8911776868108063 0 7.8911776868108063 -49.665738725998381 0 0 0 0 150.6756808166424 -3.2115311523157288 0 -3.2115311523157288 -50.123269395874388 0 0 0 0 143.68144240023503 96.393504161902456 0 96.393504161902456 -137.29614486137916 0 0 0 0 176.76276708550313 -18.473870295112647 0 -18.473870295112647 -52.47843447748437 0 0 0 0 154.14254462082266 1.8111532384327802 0 1.8111532384327802 -66.980094030199325 0 0 0 0 100.9966865129511 0.83684078110036353 0 0.83684078110036353 -51.542634949383682 0 0 0 0 102.26514373089154 -7.6573828461832818 0 -7.6573828461832818 -3.1301875669560104 0 0 0 0 277.59640144294417 -48.707588059072805 0 -48.707588059072805 -38.771976179429657 0 0 0 0 193.01124502765811 177.90078252070953 0 177.90078252070953 131.4350543764649 0 0 0 0 52.268310550458295 -59.059063759680612 0 -59.059063759680612 1.5397131649597213 0 0 0 0 2.4724211685045341 -0.0072191143516366907 0 -0.0072191143516366907 -0.26985106103607848 0 0 0 0 -60.361731283674771 28.853494311785198 0 28.853494311785198 52.129782287480339 0 0 0 0 6.6686852530941696 -1.4826123112474723 0 -1.4826123112474723 -12.144615285452769 0 0 0 0 105.08674249091621 185.00322669803563 0 185.00322669803563 131.72538142136 0 0 0 0 -35.69592590329853 -64.951943813088292 0 -64.951943813088292 41.975470762021359 0 0 0 0 1.971631510884357 -3.5567589319399651 0 -3.5567589319399651 -7.9861964470856535 0 0 0 0 26.653246825638234 -30.882558746353425 0 -30.882558746353425 26.11468758076262 0 0 0 0 2.6065138047065779 -1.031207234468174 0 -1.031207234468174 -1.7112748384941519 0 0 0 0 190.94307889205834 -144.49355799897512 0 -144.49355799897512 -77.028791335525966 0 0 0 0 73.558847681391171 40.877438808706756 0 40.877438808706756 -2.3248232515397831 0 0 0 0 115.45447044015958 105.07262781855377 0 105.07262781855377 90.333828734941562 0 0 0 0 281.15592668554712 106.77614509518889 0 106.77614509518889 39.293735854887927 0 0 0 0 56.537223071424705 17.027874068111487 0 17.027874068111487 -31.73075046118538 0 0 0 0 149.83235765510182 -7.9779773205646052 0 -7.9779773205646052 -55.24451748714273 0 0 0 0 91.721237101225825 22.548457003444128 0 22.548457003444128 -30.62903464887404 0 0 0 0 43.673606772459323 6.223753197089577 0 6.223753197089577 0.56284358276423196 0 0 0 0 60.106607651789091 3.0539142959169112 0 3.0539142959169112 -35.039756215775924 0 0 0 0 62.297363617888095 -10.334527446801076 0 -10.334527446801076 -53.943555982728867 0 0 0 0 95.487617252530072 34.957360395153955 0 34.957360395153955 -46.314643132857782 0 0 0 0 55.654948391191738 -4.091893403478025 0 -4.091893403478025 -0.99220313666899074 0 0 0 0 63.029529465096402 70.960321654825748 0 70.960321654825748 30.637189906477033 0 0 0 0 57.592906112404307 14.680949760558178 0 14.680949760558178 -50.764076422150538 0 0 0 0 60.288662553201902 0.53934707572261686 0 0.53934707572261686 -70.169058475181373 0 0 0 0 25.489374531527421 5.6754816891711357 0 5.6754816891711357 -4.8149961007385684 0 0 0 0 62.175037135981711 -14.196863777744511 0 -14.196863777744511 -72.068604584819013 0 0 0 0 11.976974457552387 14.878932520433636 0 14.878932520433636 3.3118522721852059 0 0 0 0 117.37010903986481 -16.106029672919249 0 -16.106029672919249 -0.29480880087794503 0 0 0 0 0.40551543594092931 -0.39169324825658025 0 -0.39169324825658025 -0.11963230843340966 0 0 0 0 117.85813582636729 84.290385466323642 0 84.290385466323642 7.1000152595970576 0 0 0 0 114.26088086569553 39.775158548075979 0 39.775158548075979 -19.635737867251009 0 0 0 0 32.02543665786834 40.351891305997924 0 40.351891305997924 -3.9623673018013505 0 0 0 0 37.576874447239334 29.733787876626593 0 29.733787876626593 -16.293595488657274 0 0 0 0 208.35612558689627 31.979627341785999 0 31.979627341785999 -116.18776081247051 0 0 0 0 353.76898511445052 -71.137037812671679 0 -71.137037812671679 -80.452091057941288 0 0 0 0 -1.2981484468963016 0.50734489764995416 0 0.50734489764995416 3.95802676493037 0 0 0 0 -60.629324285743678 115.87638084307855 0 115.87638084307855 8.5744810305386636 0 0 0 0 -73.204111368620943 1.5962098529303717 0 1.5962098529303717 134.70835014759359 0 0 0 0 129.33358951192849 53.841846605567298 0 53.841846605567298 -19.137520098684547 0 0 0 0 24.282354013835175 11.339115480897817 0 11.339115480897817 11.2205541303465 0 0 0 0 19.946047456503479 14.059550335149559 0 14.059550335149559 9.651397619501294 0 0 0 0 19.85198101423839 9.0110897562890386 0 9.0110897562890386 12.589162682890674 0 0 0 0 20.792122157840822 9.7445665045579517 0 9.7445665045579517 12.933583057092164 0 0 0 0 16.217192583146698 12.306226911622161 0 12.306226911622161 15.799250278761974 0 0 0 0 22.877436024694362 16.205962024290784 0 16.205962024290784 17.033853544811336 0 0 0 0 33.636633544006372 16.993549446986435 0 16.993549446986435 9.4760219026484265 0 0 0 0 43.745795615063798 35.509814430801271 0 35.509814430801271 20.736620452337093 0 0 0 0 61.263393127833524 35.771016870405219 0 35.771016870405219 8.4675343311646429 0 0 0 0 32.472249580995765 22.975162308151084 0 22.975162308151084 23.582718341576765 0 0 0 0 26.096251127153096 30.370621125312937 0 30.370621125312937 15.174689840454448 0 0 0 0 16.341275508193576 33.005356649980058 0 33.005356649980058 19.63829394871118 0 0 0 0 13.297620816618704 79.30100540697677 0 79.30100540697677 -42.005881955807126 0 0 0 0 0.33512583074379665 -0.19563587366960533 0 -0.19563587366960533 -4.0265115245497363 0 0 0 0 19.896742580685299 35.212103151175143 0 35.212103151175143 -25.272295706601653 0 0 0 0 106.11619420608389 54.288586723484514 0 54.288586723484514 -77.813356618601574 0 0 0 0 87.989128682086061 26.074600736978937 0 26.074600736978937 -4.0939551260444205 0 0 0 0 4.0092011760988271 8.3355730112853053 0 8.3355730112853053 12.318201572914404 0 0 0 0 20.605775616506769 14.543338026511265 0 14.543338026511265 -19.916038523627321 0 0 0 0 3.0246524005857292 3.5273105743625965 0 3.5273105743625965 -9.264503036459935 0 0 0 0 7.9082479414830882 0.88681147829057139 0 0.88681147829057139 -1.2917085308078242 0 0 0 0 39.822666115879201 30.232933983394105 0 30.232933983394105 7.5890252116623742 0 0 0 0 55.540463197648478 54.676873949461879 0 54.676873949461879 41.099909653287796 0 0 0 0 54.541383725900459 24.073202273765673 0 24.073202273765673 -4.3649053502124389 0 0 0 0 28.307879239671365 12.27917616946171 0 12.27917616946171 1.8207801676698168 0 0 0 0 30.121735130887139 13.950933375801428 0 13.950933375801428 5.4755308372413936 0 0 0 0 53.677422479470991 36.411337214819497 0 36.411337214819497 0.83463736768680974 0 0 0 0 15.67634681857453 11.227311039973756 0 11.227311039973756 -2.9045554095500847 0 0 0 0 52.66969867730586 22.047031254953254 0 22.047031254953254 12.877763031574432 0 0 0 0 19.986865386667969 15.569093390821664 0 15.569093390821664 3.7943916415411074 0 0 0 0 72.410934237715992 24.46597459113309 0 24.46597459113309 7.0940071210934548 0 0 0 0 59.778646294773353 17.363676903347368 0 17.363676903347368 12.464949795143184 0 0 0 0 31.279999194802944 16.337447332369077 0 16.337447332369077 4.4795256706436657 0 0 0 0 57.976643679179688 27.686391374272716 0 27.686391374272716 6.695408544568636 0 0 0 0 23.576787674138359 13.606193188380985 0 13.606193188380985 -1.0166577694180887 0 0 0 0 28.346653813968427 11.047499789108636 0 11.047499789108636 -5.8011651206685482 0 0 0 0 44.324754954756827 26.049449007214207 0 26.049449007214207 2.8961159905511522 0 0 0 0 12.888793398264726 11.351292508345992 0 11.351292508345992 1.3364052275257379 0 0 0 0 28.110651987576379 13.075128395676476 0 13.075128395676476 8.4544452411770994 0 0 0 0 24.091240273406584 12.561910509055451 0 12.561910509055451 14.50279693246739 0 0 0 0 48.016028913627906 19.677576199282157 0 19.677576199282157 9.2115532583829918 0 0 0 0 54.22738862063693 6.228313294364682 0 6.228313294364682 11.63007714026935 0 0 0 0 55.232788964163774 9.5906462096122596 0 9.5906462096122596 -5.2026174390884989 0 0 0 0 25.842215971714495 -0.038706487853211513 0 -0.038706487853211513 -0.16093815789282928 0 0 0 0 26.739319985269503 9.9768597060271986 0 9.9768597060271986 12.287005214231613 0 0 0 0 21.719127589809432 10.82761076453869 0 10.82761076453869 12.290905346702857 0 0 0 0 40.470882465346222 -3.3008976914452433 0 -3.3008976914452433 11.444603057111635 0 0 0 0 32.693245615637352 17.783225856341801 0 17.783225856341801 13.478520707714779 0 0 0 0 55.398313987267102 5.6905785404305789 0 5.6905785404305789 10.005090832880342 0 0 0 0 84.441042254857166 15.289669920735378 0 15.289669920735378 -1.4159588838679156 0 0 0 0 -0.095047130167692728 -0.069265295390891879 0 -0.069265295390891879 0.20814293530126093 0 0 0 0 103.64654152094954 13.124999278002178 0 13.124999278002178 9.1162374164940161 0 0 0 0 32.505285756988087 -3.4173919400527666 0 -3.4173919400527666 29.19966721412402 0 0 0 0 83.702112427828979 11.08531868940463 0 11.08531868940463 -6.2961187403780059 0 0 0 0 89.86628038849085 32.599702771333796 0 32.599702771333796 10.194366310216708 0 0 0 0 36.404260208675623 4.2363118452155959 0 4.2363118452155959 0.42893508857741836 0 0 0 0 4.4810830290525274 1.8654441511134507 0 1.8654441511134507 1.3824496597568476 0 0 0 0 56.558257456370484 17.459138654942763 0 17.459138654942763 -8.3994739098258151 0 0 0 0 52.249287696893589 20.276129278042845 0 20.276129278042845 -2.151285243095117 0 0 0 0 52.664092705559597 21.276938163689465 0 21.276938163689465 -0.53261753211882024 0 0 0 0 53.784595019937115 22.298863571882066 0 22.298863571882066 -2.9922524878666081 0 0 0 0 84.624637134671502 50.576972591279173 0 50.576972591279173 22.762191780414469 0 0 0 0 -0.27325017152775644 0.017770189198408559 0 0.017770189198408559 0.53736449749579407 0 0 0 0 -14.242718117475306 -37.072915274093248 0 -37.072915274093248 -0.32246816901715647 0 0 0 0 64.330911086028209 0.32019123132795357 0 0.32019123132795357 16.305295204524555 0 0 0 0 44.184819264934049 -19.143111023053734 0 -19.143111023053734 -1.3312124752264936 0 0 0 0 59.270302893026383 -3.2229212813858794 0 -3.2229212813858794 16.678103280198002 0 0 0 0 48.597618776297168 3.757874371359776 0 3.757874371359776 20.511490930557557 0 0 0 0 63.44964527439879 2.8745537215181685 0 2.8745537215181685 13.498288483487613 0 0 0 0 68.818437822879787 -3.8984004959170306 0 -3.8984004959170306 18.150736223738022 0 0 0 0 61.844303267779651 0.70056236204413835 0 0.70056236204413835 29.007873858234234 0 0 0 0 74.849778104677625 19.654380950924747 0 19.654380950924747 19.727738289392619 0 0 0 0 61.92975485639181 13.22686755678933 0 13.22686755678933 10.490768292946086 0 0 0 0 46.294686085220746 6.7495854255498671 0 6.7495854255498671 16.322434100649389 0 0 0 0 45.612329969193524 2.7036119142053394 0 2.7036119142053394 7.2297188945631206 0 0 0 0 40.514922742735507 -1.7082957769289351 0 -1.7082957769289351 32.085331921026409 0 0 0 0 0.48067603193525343 0.54535873673664526 0 0.54535873673664526 -0.12974091850959013 0 0 0 0 39.778466017083701 58.717901136231831 0 58.717901136231831 30.752586971367236 0 0 0 0 308.54303155289563 25.92700866855921 0 25.92700866855921 -32.668356187618883 0 0 0 0 357.59919465307757 159.84340642304051 0 159.84340642304051 27.030634030301371 0 0 0 0 89.623489604375209 -39.184962623942738 0 -39.184962623942738 35.943669979676997 0 0 0 0 183.54508841018196 -66.018102630915109 0 -66.018102630915109 42.425342904615718 0 0 0 0 3.9363170935595093 4.4942534090214785 0 4.4942534090214785 2.6986771461512724 0 0 0 0 -45.421696102046553 21.572093949339433 0 21.572093949339433 177.38900991139022 0 0 0 0 86.331568889355282 13.289984970072322 0 13.289984970072322 -1.0055341098695616 0 0 0 0 114.62754184058213 146.83809187007273 0 146.83809187007273 -213.44938055127841 0 0 0 0 55.425267750484636 439.98988471567554 0 439.98988471567554 176.63575414317165 0 0 0 0 221.85973776728861 -300.0020809055568 0 -300.0020809055568 -137.41026955651068 0 0 0 0 157.50691100172708 -478.91795006801181 0 -478.91795006801181 351.85017538073589 0 0 0 0 100.07250847225441 0.62805166436146465 0 0.62805166436146465 78.803417009401528 0 0 0 0 117.31644325099478 104.78073320168187 0 104.78073320168187 354.35537930125065 0 0 0 0 78.534098320883601 6.5112180095545185 0 6.5112180095545185 -0.86920550383186512 0 0 0 0 -16.293142912931216 5.4192743482149126 0 5.4192743482149126 -45.072333969421379 0 0 0 0 196.41294294681575 -103.80565027178181 0 -103.80565027178181 -279.7654438602558 0 0 0 0 32.084321513302257 -64.13625219570946 0 -64.13625219570946 54.599162500739112 0 0 0 0 39.249813215494214 1.7931263807085998 0 1.7931263807085998 107.05951794369503 0 0 0 0 -28.94233790270664 -25.925826696335662 0 -25.925826696335662 -0.90989679064023221 0 0 0 0 32.556155199177738 5.8195545046364714 0 5.8195545046364714 -8.8566483328675076 0 0 0 0 34.872707966946187 5.7658720390908602 0 5.7658720390908602 0.51571222104985281 0 0 0 0 43.66493872333406 2.0862478593211478 0 2.0862478593211478 -1.58067163262562 0 0 0 0 4.0099430320273299 -2.5523812818382474 0 -2.5523812818382474 -2.0163054446417998 0 0 0 0 53.958290877694253 23.265859107340475 0 23.265859107340475 -0.97984033930515579 0 0 0 0 24.063282249709118 11.448665611895422 0 11.448665611895422 -20.069336164924607 0 0 0 0 18.684493305667274 -16.160284858180603 0 -16.160284858180603 -22.52199672615825 0 0 0 0 4.1529533917512254 1.6084670304323083 0 1.6084670304323083 0.30736628573147584 0 0 0 0 9.9421185465471353 11.083388454490887 0 11.083388454490887 -2.3729069606156372 0 0 0 0 135.2465021921671 76.422521255969968 0 76.422521255969968 -21.62888206462685 0 0 0 0 24.015234331662214 -8.1227099118427759 0 -8.1227099118427759 15.513537036097659 0 0 0 0 134.11281218766817 134.00360423273059 0 134.00360423273059 113.76166705878995 0 0 0 0 46.339260245233163 40.675887597262772 0 40.675887597262772 40.768946547411815 0 0 0 0 120.35694125182636 37.28196138889416 0 37.28196138889416 14.351151950064377 0 0 0 0 34.966160106148891 -4.1482743072210724 0 -4.1482743072210724 5.7012909355107695 0 0 0 0 21.689218153620459 10.413282431044991 0 10.413282431044991 29.733967051653963 0 0 0 0 62.542305212740757 12.882648017145129 0 12.882648017145129 23.939879787200425 0 0 0 0 58.948029192823924 25.246893279203732 0 25.246893279203732 20.298650428232577 0 0 0 0 102.60545340598037 16.509689465110569 0 16.509689465110569 7.3095335073348906 0 0 0 0 0.70400041091889776 0.96897993675873551 0 0.96897993675873551 -0.19716866121994769 0 0 0 0 118.41801733036664 0.6006531165078286 0 0.6006531165078286 -7.3996874400854722 0 0 0 0 100.76584265978818 14.500886053294835 0 14.500886053294835 11.713068150841991 0 0 0 0 138.34693601914023 -6.9335887681138502 0 -6.9335887681138502 21.887426358434823 0 0 0 0 104.84282885940775 -16.67771437078909 0 -16.67771437078909 -20.605847586710297 0 0 0 0 83.48753639386814 -25.737826834391171 0 -25.737826834391171 17.150539770701471 0 0 0 0 115.10633190119188 -33.752626294795391 0 -33.752626294795391 -0.58913547296651814 0 0 0 0 134.85599465953055 9.2100410033158369 0 9.2100410033158369 -7.4648628028678559 0 0 0 0 -46.610599572373758 94.623141045183729 0 94.623141045183729 156.5167154674059 0 0 0 0 71.59432951180861 -136.95037377302287 0 -136.95037377302287 17.381739360632309 0 0 0 0 311.9138391034594 121.83137622515687 0 121.83137622515687 13.720464740525131 0 0 0 0 13.84232687344047 -43.050832161001381 0 -43.050832161001381 -76.958668629163185 0 0 0 0 -49.432761638407101 -61.517831664012647 0 -61.517831664012647 -17.066884773725178 0 0 0 0 6.6239741708195332 -1.1716987961400278 0 -1.1716987961400278 2.972826797896488 0 0 0 0 5.6181045503700631 5.5516272772049868 0 5.5516272772049868 2.6493631068103038 0 0 0 0 29.843646048277506 13.829362215683261 0 13.829362215683261 3.2937398241023139 0 0 0 0 -25.20790463481535 21.007645027051694 0 21.007645027051694 33.970315769824992 0 0 0 0 143.23478718205297 -84.73669475938641 0 -84.73669475938641 -37.744454464450428 0 0 0 0 2.8863698585255833 -0.21639886404255915 0 -0.21639886404255915 -0.10159748648119127 0 0 0 0 -13.834780182591203 70.793174918890145 0 70.793174918890145 223.23139296658064 0 0 0 0 30.031915214740366 13.935787107435772 0 13.935787107435772 1.1122754600564804 0 0 0 0 99.913021908434075 171.64808468801107 0 171.64808468801107 -25.33314808774503 0 0 0 0 50.948514645232301 17.370672771636507 0 17.370672771636507 2.6030594422787665 0 0 0 0 70.619682662671948 -1.9593499421339402 0 -1.9593499421339402 -34.94157625455091 0 0 0 0 43.076531836790394 16.670176513580373 0 16.670176513580373 6.7530674059416924 0 0 0 0 18.724552928229226 7.7764090312486882 0 7.7764090312486882 1.6281522532724715 0 0 0 0 43.680738258626036 13.369755100648035 0 13.369755100648035 1.6234323244157167 0 0 0 0 41.09625310825777 4.6118224788365652 0 4.6118224788365652 -0.54535007238455879 0 0 0 0 -64.964739946611189 8.205206400051793 0 8.205206400051793 68.918033755398938 0 0 0 0 4.7910566948237729 5.7402418632619465 0 5.7402418632619465 1.6291183281441288 0 0 0 0 51.527968596321443 36.682923694114152 0 36.682923694114152 -18.919294557093963 0 0 0 0 49.232341242154092 10.911278610757638 0 10.911278610757638 1.4684172946820295 0 0 0 0 29.774547222333755 22.841838737563602 0 22.841838737563602 10.151208800602202 0 0 0 0 0.068330074682037889 7.4894125101241809 0 7.4894125101241809 3.001729644916451 0 0 0 0 143.66993532869856 30.136827081491901 0 30.136827081491901 -83.757855367832235 0 0 0 0 12.098328252906867 59.259626215875642 0 59.259626215875642 58.018144817735447 0 0 0 0 40.747840057305439 -168.43040618946725 0 -168.43040618946725 -31.059641795298376 0 0 0 0 82.040424276630802 32.03383784124253 0 32.03383784124253 -110.45011696006463 0 0 0 0 296.80857519383426 141.10515840572043 0 141.10515840572043 37.83083200474357 0 0 0 0 49.068251721856456 15.225466833793643 0 15.225466833793643 1.0593602356876133 0 0 0 0 77.923158300762225 112.5591523362873 0 112.5591523362873 73.14093065567738 0 0 0 0 40.340392923646505 5.6257620980541105 0 5.6257620980541105 -103.44040475685142 0 0 0 0 51.711323267336837 9.1706944512805961 0 9.1706944512805961 0.59592483749102521 0 0 0 0 199.24787810328871 -50.009583500072949 0 -50.009583500072949 -120.1184523006068 0 0 0 0 30.476482342786767 -5.3692605692071993 0 -5.3692605692071993 8.7433255125151845 0 0 0 0 -86.648041627595831 -110.58928207293093 0 -110.58928207293093 -4.4547980810966692 0 0 0 0 21.704627931694812 18.865173135766682 0 18.865173135766682 -1.9168979500129844 0 0 0 0 -69.561930328045491 -119.4261464187407 0 -119.4261464187407 56.180047200487024 0 0 0 0 22.317471567188285 2.7963450830563197 0 2.7963450830563197 -4.1123324788956594 0 0 0 0 72.724505723397897 19.68011918493039 0 19.68011918493039 0.48753132047204417 0 0 0 0 271.41559848108136 164.62319940392626 0 164.62319940392626 1.2764772217630025 0 0 0 0 62.592178901793432 22.643362257072113 0 22.643362257072113 0.81246347589694778 0 0 0 0 -62.424413145187145 -54.654879759638106 0 -54.654879759638106 -29.795035863904559 0 0 0 0 1.1549912901178851 -1.1657251483486757 0 -1.1657251483486757 -1.5753475291710437 0 0 0 0 254.3346598738226 12.602793975185705 0 12.602793975185705 -92.107065855871951 0 0 0 0 146.09846280013335 -61.625535244714229 0 -61.625535244714229 -23.301579772833065 0 0 0 0 64.521293911572684 7.6898766890348043 0 7.6898766890348043 16.896098915085531 0 0 0 0 58.581679559769327 -4.3276358187613369 0 -4.3276358187613369 -10.227845198255977 0 0 0 0 66.407091706691062 28.47027949184303 0 28.47027949184303 -9.3184506090943273 0 0 0 0 69.494197555512073 19.537947654718664 0 19.537947654718664 0.65529297823741217 0 0 0 0 -34.560384039496967 84.970154272162745 0 84.970154272162745 1.2312908488047469 0 0 0 0 6.7393933657234903 1.9110882748275877 0 1.9110882748275877 2.219652704735239 0 0 0 0 80.875059641566622 8.8152484579063639 0 8.8152484579063639 -2.8742500828520861 0 0 0 0 116.97565438357742 -24.549107999611806 0 -24.549107999611806 -57.567943175408288 0 0 0 0 119.20198765366058 -8.266207481539368 0 -8.266207481539368 -0.18457019715242495 0 0 0 0 233.41201334519769 -85.493907425080465 0 -85.493907425080465 -28.654775627679555 0 0 0 0 -0.9091965133956954 0.73322429330803729 0 0.73322429330803729 1.7686412020728284 0 0 0 0 -76.371750380134472 12.651932474988826 0 12.651932474988826 52.285289319080221 0 0 0 0 186.85455329771094 88.502968654048573 0 88.502968654048573 -53.669772635976187 0 0 0 0 -119.92553843200722 73.767840882153678 0 73.767840882153678 0.10432140487591823 0 0 0 0 -74.007454406630131 22.76354886349236 0 22.76354886349236 -28.660164442655514 0 0 0 0 51.393470236263056 134.64107563765674 0 134.64107563765674 -46.497211138474086 0 0 0 0 101.86998469236278 55.340426865268 0 55.340426865268 -42.622911185139856 0 0 0 0 -45.474967862681297 60.511028759479359 0 60.511028759479359 -40.855849715688237 0 0 0 0 2.4108863027231671 -1.1276427033081049 0 -1.1276427033081049 0.3894066068688069 0 0 0 0 74.599746711754051 2.9269234400662754 0 2.9269234400662754 -15.016514494091098 0 0 0 0 -42.350909231631704 56.860813637435513 0 56.860813637435513 -50.558639023722208 0 0 0 0 2.8510228786273153 -0.80756221514405624 0 -0.80756221514405624 0.053659015697446577 0 0 0 0 44.429856628743437 -16.734224944292691 0 -16.734224944292691 11.987484111398771 0 0 0 0 -45.300859947128629 61.747674540947401 0 61.747674540947401 -53.377941217811895 0 0 0 0 -38.197207984751003 50.100295706451561 0 50.100295706451561 -51.179471353030749 0 0 0 0 -62.717217093020736 43.548893135126491 0 43.548893135126491 -51.83724318802831 0 0 0 0 -96.203584609068514 53.560439172058025 0 53.560439172058025 -38.797064824890185 0 0 0 0 -0.27538939202265134 -0.3204866136984279 0 -0.3204866136984279 1.2568726654157132 0 0 0 0 -169.05158038654008 62.372026663457291 0 62.372026663457291 -13.284756471076435 0 0 0 0 284.75112399910995 -14.343144470974039 0 -14.343144470974039 -10.325875119017837 0 0 0 0 -95.075918757931504 80.255487359372637 0 80.255487359372637 -29.755807136984004 0 0 0 0 95.148870139625615 32.479933632607754 0 32.479933632607754 23.795993313413419 0 0 0 0 166.19209664662776 50.328812538133207 0 50.328812538133207 17.927161005228299 0 0 0 0 174.81412364884466 -19.123211749968846 0 -19.123211749968846 65.682020795105927 0 0 0 0 194.73171394652854 74.544035062607918 0 74.544035062607918 36.862269095216107 0 0 0 0 89.309074338358187 90.744567502040809 0 90.744567502040809 58.679113521079671 0 0 0 0 134.28779557750477 -22.742083754018495 0 -22.742083754018495 -100.01608850642697 0 0 0 0 -0.33878200878812237 0.79254898566352239 0 0.79254898566352239 2.5056913599142945 0 0 0 0 35.556630452103036 -29.097345784974095 0 -29.097345784974095 65.01500612334803 0 0 0 0 186.12207516594026 175.75908394038652 0 175.75908394038652 214.02558561587011 0 0 0 0 17.893899384234828 22.525760909295968 0 22.525760909295968 95.831245665567167 0 0 0 0 240.51703508274841 -91.603653595712103 0 -91.603653595712103 301.2315630578014 0 0 0 0 520.42586990032942 -27.763640403173667 0 -27.763640403173667 18.845634487699726 0 0 0 0 678.34853608154299 -120.42497965075904 0 -120.42497965075904 50.070263491812511 0 0 0 0 415.11609793112984 156.36508000444564 0 156.36508000444564 140.92511776274114 0 0 0 0 1.3710334614936102 1.4561430628530339 0 1.4561430628530339 2.0572763079084915 0 0 0 0 -180.2595213996301 98.0691972400964 0 98.0691972400964 201.234095675969 0 0 0 0 -5.9194137207559834 -5.4573226508832704 0 -5.4573226508832704 -81.524778096543741 0 0 0 0 -12.237486182653811 83.437151387722679 0 83.437151387722679 318.35571601235097 0 0 0 0 268.73258063934554 -8.2419998786335782 0 -8.2419998786335782 -39.016098959037208 0 0 0 0 129.02435243680975 -209.09577157621243 0 -209.09577157621243 192.19352923890983 0 0 0 0 1.2082227310045397 1.2661284392836087 0 1.2661284392836087 1.1033605773276731 0 0 0 0 187.32605473554577 -93.090682799963815 0 -93.090682799963815 143.44165278727132 0 0 0 0 19.464410834667888 15.562389317827012 0 15.562389317827012 25.445098106302794 0 0 0 0 5.2382365298517968 2.3456377670308672 0 2.3456377670308672 1.4929954136707888 0 0 0 0 2.910974565485958 51.329083463633651 0 51.329083463633651 166.41491310816491 0 0 0 0 2.4446133864039439 32.656383085771722 0 32.656383085771722 14.09357986175246 0 0 0 0 -26.308819094101636 141.29693426296853 0 141.29693426296853 8.4422279589730351 0 0 0 0 58.08444304210434 68.875963763854884 0 68.875963763854884 37.285539412128855 0 0 0 0 16.584799236170511 102.21146972216184 0 102.21146972216184 -4.2684719295102695 0 0 0 0 2.5863452483899891 98.03421329651519 0 98.03421329651519 75.27389279113595 0 0 0 0 75.861737802720199 66.081735442448917 0 66.081735442448917 -22.617116224944766 0 0 0 0 40.743505514787103 22.867297617279291 0 22.867297617279291 93.129372421084554 0 0 0 0 23.970069013198554 8.3159807838761708 0 8.3159807838761708 83.794400650953321 0 0 0 0 115.14900072987439 90.865027833650856 0 90.865027833650856 66.971164804593172 0 0 0 0 13.072163348071626 108.38432941309202 0 108.38432941309202 -93.330231689315042 0 0 0 0 19.257917596176185 59.552492988715414 0 59.552492988715414 -11.473889792532646 0 0 0 0 -33.633236244713771 61.199306517278274 0 61.199306517278274 -0.77633600375429523 0 0 0 0 -169.6241602938826 91.458345160272074 0 91.458345160272074 -51.162736761362794 0 0 0 0 -25.600893854487367 203.93553297473863 0 203.93553297473863 -94.882100753175109 0 0 0 0 -172.29693210460755 244.86798926036226 0 244.86798926036226 -65.08716589312553 0 0 0 0 -13.149409207082499 122.86111108032947 0 122.86111108032947 -61.045607836799718 0 0 0 0 -72.145073156792023 112.30773300406213 0 112.30773300406213 9.8450098003922903 0 0 0 0 -38.171482771798765 60.985758473925671 0 60.985758473925671 -135.84503248402689 0 0 0 0 -34.373760991849849 132.37998991794666 0 132.37998991794666 -147.47540980268104 0 0 0 0 59.269412290366745 106.76136543449729 0 106.76136543449729 -116.63931974809566 0 0 0 0 -16.690209982542001 57.459834570940984 0 57.459834570940984 -102.45156736122499 0 0 0 0 81.935303619555725 -3.7215762841030937 0 -3.7215762841030937 -75.622191574977478 0 0 0 0 91.567897936805821 102.82943395955863 0 102.82943395955863 115.4584156274675 0 0 0 0 66.172227095117705 40.181463657345375 0 40.181463657345375 -32.942848374359528 0 0 0 0 238.37865461885121 1.4544989550108767 0 1.4544989550108767 -48.251338545665931 0 0 0 0 129.35596167145195 36.910215656578657 0 36.910215656578657 -53.35918118469624 0 0 0 0 312.95336751268769 -65.545400800291191 0 -65.545400800291191 -57.237737184721482 0 0 0 0 233.18115874254363 18.05217867488318 0 18.05217867488318 12.183053561712541 0 0 0 0 134.97017673724622 -3.5377341338885344 0 -3.5377341338885344 -108.09456787267573 0 0 0 0 209.91293133411818 -50.947710419052783 0 -50.947710419052783 -94.523957272076586 0 0 0 0 -15.105737424666586 53.353282978740936 0 53.353282978740936 -149.07276984512691 0 0 0 0 102.61917983822241 -33.67796574512613 0 -33.67796574512613 -122.65706046556988 0 0 0 0 128.15196747168375 -34.993628017319679 0 -34.993628017319679 -136.34119787689997 0 0 0 0 -54.800045945656166 56.106488947238631 0 56.106488947238631 11.619489231932675 0 0 0 0 5.1441410765119144 106.60501018765774 0 106.60501018765774 -221.1759703684238 0 0 0 0 -19.216224478270306 -89.171082660550383 0 -89.171082660550383 -175.75977818957836 0 0 0 0 -134.34729156118192 1.5382130146726922 0 1.5382130146726922 -17.562780335432763 0 0 0 0 164.51068581161235 47.465090638278525 0 47.465090638278525 -78.548867325464016 0 0 0 0 198.22561303370458 17.078751706429102 0 17.078751706429102 -151.79669027324599 0 0 0 0 43.018941284248015 2.1201833012752562 0 2.1201833012752562 -1.073271396608086 0 0 0 0 33.614764363506765 10.818872423128596 0 10.818872423128596 69.5127377935205 0 0 0 0 6.2996674210247185 0.45810377432610139 0 0.45810377432610139 0.47082831902816125 0 0 0 0 43.471221791495054 -24.194429476305913 0 -24.194429476305913 -11.61306529606918 0 0 0 0 1.7998261324736475 7.3945743905210923 0 7.3945743905210923 0.020796297568741018 0 0 0 0 -21.01379402018938 76.021096760475302 0 76.021096760475302 -127.0952019388933 0 0 0 0 63.432120210926541 -1.9025761194227471 0 -1.9025761194227471 8.2342710441153031 0 0 0 0 34.308989081163972 20.100421355993142 0 20.100421355993142 3.5269506921482865 0 0 0 0 46.550044699035766 16.009857268320047 0 16.009857268320047 21.324735853208495 0 0 0 0 44.318404457405336 10.720821766249173 0 10.720821766249173 11.652714350428141 0 0 0 0 42.05674330593331 17.770037970639351 0 17.770037970639351 8.0248011024650623 0 0 0 0 33.446241597424319 21.476805586718001 0 21.476805586718001 6.4324742752687598 0 0 0 0 38.13610301316578 16.206580804448095 0 16.206580804448095 11.244903612782537 0 0 0 0 48.050859810315615 9.5930265049601076 0 9.5930265049601076 7.6349788259994966 0 0 0 0 30.765906842795061 6.9747972112172647 0 6.9747972112172647 7.4625498728187267 0 0 0 0 37.003130015047759 -3.6817551645542608 0 -3.6817551645542608 8.2499121223054317 0 0 0 0 19.404539715644034 -0.5578445556106999 0 -0.5578445556106999 15.12182996131196 0 0 0 0 19.827491670007895 10.612224934036927 0 10.612224934036927 -0.83251860141774081 0 0 0 0 25.911588328826326 7.6605123361650378 0 7.6605123361650378 2.1569958071666981 0 0 0 0 25.522992225160564 14.448437492406583 0 14.448437492406583 -0.85604847180911747 0 0 0 0 40.713960627772394 14.966089474678483 0 14.966089474678483 -16.168861903207471 0 0 0 0 23.298086573138789 31.468732662571711 0 31.468732662571711 -6.3495154895108499 0 0 0 0 23.592945172434895 10.387819232157057 0 10.387819232157057 18.304689635278919 0 0 0 0 29.596740487539289 17.172269585809378 0 17.172269585809378 5.0088532580713796 0 0 0 0 136.11835970951233 88.982290247204219 0 88.982290247204219 34.601172751783452 0 0 0 0 292.35314396397939 45.019368773875726 0 45.019368773875726 -246.14405831363911 0 0 0 0 30.803212749937444 21.854605875184458 0 21.854605875184458 2.8901026287193901 0 0 0 0 20.158929911674932 633.4838127761268 0 633.4838127761268 820.39374241447149 0 0 0 0 276.63494627437228 232.90358974803627 0 232.90358974803627 1.8160631193532026 0 0 0 0 47.048749408047797 -15.565391438651659 0 -15.565391438651659 11.996360329596428 0 0 0 0 39.409123081782582 -6.3601436522130825 0 -6.3601436522130825 10.61572076826269 0 0 0 0 32.182694602399351 -10.110154361506829 0 -10.110154361506829 17.336684600029912 0 0 0 0 3.7206395574372944 3.6989723648614117 0 3.6989723648614117 -0.49952601558755738 0 0 0 0 94.742770155125299 65.851344516543577 0 65.851344516543577 -1.8010906911567872 0 0 0 0 87.274093487181517 -75.461757730813588 0 -75.461757730813588 -37.843818753878622 0 0 0 0 19.893409666859952 26.98336573418419 0 26.98336573418419 -33.735520793503383 0 0 0 0 47.204143360362622 2.6105402947170262 0 2.6105402947170262 -2.7248827457086229 0 0 0 0 13.174437965177958 0.86132719657689449 0 0.86132719657689449 -17.507340661555645 0 0 0 0 32.267004467636944 12.646324491791795 0 12.646324491791795 -0.89221125196968387 0 0 0 0 34.552305956388238 8.66856450710236 0 8.66856450710236 -0.31858187998261389 0 0 0 0 36.565792081799387 3.8660965546890811 0 3.8660965546890811 0.75936690999515832 0 0 0 0 23.697560105993034 2.3197019413055386 0 2.3197019413055386 -22.016554892021304 0 0 0 0 40.802061689009861 8.3872456083026918 0 8.3872456083026918 23.149972022401926 0 0 0 0 43.609128083817268 0.56652238246397246 0 0.56652238246397246 5.1730861241194361 0 0 0 0 63.054429676110885 10.536065581568437 0 10.536065581568437 9.8458684607294344 0 0 0 0 59.42569081838792 -6.6707764104821763 0 -6.6707764104821763 18.371089690201188 0 0 0 0 54.394172973989043 2.1311573105285788 0 2.1311573105285788 8.4391317137215083 0 0 0 0 46.584710087801795 10.840732056369234 0 10.840732056369234 2.598366200273631 0 0 0 0 52.220413711676883 3.4173400067711555 0 3.4173400067711555 9.4960830729905865 0 0 0 0 54.898572233303639 11.920971924500009 0 11.920971924500009 -1.0676478922105161 0 0 0 0 54.185197980725206 13.866949231448416 0 13.866949231448416 -5.8757706613209848 0 0 0 0 56.967492929743457 6.9307952256967837 0 6.9307952256967837 -4.0260362516364694 0 0 0 0 54.633837472483719 7.9913190945817405 0 7.9913190945817405 0.97737067321531867 0 0 0 0 41.017273975623539 -4.1719269089544468 0 -4.1719269089544468 -9.2788531658461579 0 0 0 0 68.392196260518631 3.9930858215291209 0 3.9930858215291209 -14.884716774371554 0 0 0 0 51.852911216974462 -3.4440330199004165 0 -3.4440330199004165 -14.346012898571644 0 0 0 0 65.123989697402067 17.639327476924109 0 17.639327476924109 -8.7723364628400304 0 0 0 0 102.62165282948263 -7.8744345029135729 0 -7.8744345029135729 -32.781840663999901 0 0 0 0 107.56189508541866 50.510834990373041 0 50.510834990373041 2.9587493209892273 0 0 0 0 55.431790497306793 24.025603373490412 0 24.025603373490412 1.3611301204100528 0 0 0 0 27.944553309465846 -3.5955878295715138 0 -3.5955878295715138 -8.4186905917886179 0 0 0 0 22.582262980431551 17.953951192317618 0 17.953951192317618 16.394377472437554 0 0 0 0 38.285035152519413 14.911783622609619 0 14.911783622609619 -1.1743857786277658 0 0 0 0 55.90155948600659 22.781084646583622 0 22.781084646583622 -11.493528408505881 0 0 0 0 12.147191185729753 -3.5412898833305917 0 -3.5412898833305917 3.1552861188391716 0 0 0 0 18.007649539205886 16.017971373662931 0 16.017971373662931 -6.7712793403650267 0 0 0 0 52.176630101290357 -2.75629095671502 0 -2.75629095671502 -17.829417231879233 0 0 0 0 -71.780419841688854 -2.2718821158978244 0 -2.2718821158978244 48.224587032354066 0 0 0 0 9.7275738954121209 7.4969437846474953 0 7.4969437846474953 1.6235052044761282 0 0 0 0 11.51157964340382 -5.8470766775403717 0 -5.8470766775403717 1.0747227030024078 0 0 0 0 34.8588539590869 6.5369660961815725 0 6.5369660961815725 4.9613749956997708 0 0 0 0 7.1149143464852855 6.5700262634777005 0 6.5700262634777005 3.6055127841068781 0 0 0 0 9.3878686874777486 19.326374243971259 0 19.326374243971259 -4.2880700281493773 0 0 0 0 2.8056464283836249 -5.8884771203493074 0 -5.8884771203493074 8.697523346035041 0 0 0 0 5.2664750239934612 8.622503404235168 0 8.622503404235168 4.1300041656534177 0 0 0 0 16.529648188497958 20.02900851092113 0 20.02900851092113 0.23369931917386566 0 0 0 0 4.1152423444618762 -1.9115661819396337 0 -1.9115661819396337 9.7516042929669311 0 0 0 0 26.538399833149015 -1.6589066025189823 0 -1.6589066025189823 2.8050230118822128 0 0 0 0 40.406985355798952 10.087463593280745 0 10.087463593280745 12.350417541199931 0 0 0 0 42.800705461300822 16.40047241141383 0 16.40047241141383 -28.210325263558843 0 0 0 0 27.362148569429223 -0.51105719610868761 0 -0.51105719610868761 0.51071713821573805 0 0 0 0 21.307760788262385 3.1109990093145825 0 3.1109990093145825 14.110925506485728 0 0 0 0 35.928421904078277 0.2162030221452369 0 0.2162030221452369 9.4837646830947051 0 0 0 0 5.9228850794465515 9.0956373937622921 0 9.0956373937622921 6.4266036559629995 0 0 0 0 14.449472203693404 7.6164852788629105 0 7.6164852788629105 14.86271652461437 0 0 0 0 25.892017919319187 3.4970840507849061 0 3.4970840507849061 4.0558376704902912 0 0 0 0 22.32927803964683 15.022681925215478 0 15.022681925215478 5.682886184527792 0 0 0 0 10.604401804196925 11.464716675715916 0 11.464716675715916 4.2469495244390938 0 0 0 0 5.0072482827235945 13.61509963721619 0 13.61509963721619 1.1552743773991097 0 0 0 0 12.989128775399802 6.9966836944153812 0 6.9966836944153812 8.8506033476405293 0 0 0 0 -4.8867754813638982 3.7412690149416505 0 3.7412690149416505 4.8263540457504366 0 0 0 0 13.876797325799998 75.929450208140224 0 75.929450208140224 -24.900207471566773 0 0 0 0 1.7772433433835886 12.666926171349189 0 12.666926171349189 6.2183593710979039 0 0 0 0 -14.718886555288918 16.183486516193625 0 16.183486516193625 34.440893168406546 0 0 0 0 -0.40192285749046164 -0.24814512141143652 0 -0.24814512141143652 0.52611923127661342 0 0 0 0 -7.0426690364256501 9.4879364643784356 0 9.4879364643784356 39.699672333743365 0 0 0 0 1.0822095794441822 0.010104778419432137 0 0.010104778419432137 1.1886310890967344 0 0 0 0 -56.275465601211181 34.477438210664786 0 34.477438210664786 112.99357633217369 0 0 0 0 76.103310038888594 58.343242563043532 0 58.343242563043532 116.65235965956799 0 0 0 0 -1.6910092279031232 44.021572289197138 0 44.021572289197138 114.60776729903773 0 0 0 0 188.80409370045527 -36.321233706823477 0 -36.321233706823477 -11.937423047436823 0 0 0 0 77.914058291276888 -7.1793562776110775 0 -7.1793562776110775 -9.7667385610166093 0 0 0 0 47.843558580567333 -54.672110493511354 0 -54.672110493511354 46.627141814863535 0 0 0 0 3.9390255740072462 10.584366123143809 0 10.584366123143809 22.951603536403127 0 0 0 0 5.469049709644743 6.3472479590593203 0 6.3472479590593203 3.497753322096063 0 0 0 0 72.09927411271201 -20.91900433966839 0 -20.91900433966839 -5.9951550667692572 0 0 0 0 138.41055653088188 111.77447000267603 0 111.77447000267603 50.976448069334765 0 0 0 0 23.942030018190053 -28.049549975517039 0 -28.049549975517039 -20.278307859539382 0 0 0 0 -142.29278796926883 -9.5562371931723646 0 -9.5562371931723646 127.34731883044151 0 0 0 0 249.85052050789818 -25.822984853446769 0 -25.822984853446769 28.945596058302726 0 0 0 0 258.54736122451868 -26.196404871368031 0 -26.196404871368031 -19.632501594920541 0 0 0 0 118.89280078229422 42.504372046323624 0 42.504372046323624 -10.012904263367091 0 0 0 0 110.84713517748605 56.310431109296587 0 56.310431109296587 28.337560027659045 0 0 0 0 154.05886249184186 60.499369948068761 0 60.499369948068761 -8.636482397252621 0 0 0 0 65.011674869914714 70.752093527672059 0 70.752093527672059 -27.776574513523883 0 0 0 0 9.9021939579251921 72.108043974899829 0 72.108043974899829 4.9650786079264435 0 0 0 0 97.433670388301834 35.282751807500063 0 35.282751807500063 -4.432033166205656 0 0 0 0 71.249007723105024 63.517239339690605 0 63.517239339690605 -4.1821949133556728 0 0 0 0 54.441134172251623 42.533709619741785 0 42.533709619741785 2.152539077151232 0 0 0 0 41.046551766799894 18.334368778759199 0 18.334368778759199 1.5310334968562529 0 0 0 0 75.507986444867129 51.221124395960942 0 51.221124395960942 -2.5555627230478422 0 0 0 0 77.70402744135572 46.331300672434736 0 46.331300672434736 8.2042346150137746 0 0 0 0 81.650412582079298 43.251795064528324 0 43.251795064528324 -9.9828822841700458 0 0 0 0 103.76897471420034 5.8892964361643863 0 5.8892964361643863 -5.6156885482923826 0 0 0 0 95.1790175500646 31.725450468849886 0 31.725450468849886 -0.16259159322271444 0 0 0 0 70.894234475068515 13.065064862504187 0 13.065064862504187 19.948723262055864 0 0 0 0 19.046927460643928 -5.4836832572832463 0 -5.4836832572832463 15.069891585359301 0 0 0 0 61.780530169264239 25.373508700780349 0 25.373508700780349 3.7586213183021755 0 0 0 0 64.447874051009421 49.141103800370274 0 49.141103800370274 27.209090600888885 0 0 0 0 62.028928257139341 40.572978225362476 0 40.572978225362476 13.926673613106686 0 0 0 0 27.261393194137781 26.268947272119021 0 26.268947272119021 42.478396642210782 0 0 0 0 102.41501300534583 55.266183502018976 0 55.266183502018976 30.822399216045596 0 0 0 0 64.891334210703917 44.553794790709105 0 44.553794790709105 32.349457328778954 0 0 0 0 39.98825636440597 -19.929075329758689 0 -19.929075329758689 -2.1779568976746759 0 0 0 0 64.329099433092779 -1.7794377828499819 0 -1.7794377828499819 -9.2598775087353715 0 0 0 0 83.154737214608758 -12.134694753848635 0 -12.134694753848635 -12.321797487708182 0 0 0 0 81.437952509942988 -8.935088124966569 0 -8.935088124966569 -15.916689792009493 0 0 0 0 59.628032208238437 -5.8209224589454607 0 -5.8209224589454607 -7.1130456233913719 0 0 0 0 71.817796723134961 -16.066721812836931 0 -16.066721812836931 -4.9857055889169715 0 0 0 0 61.782297714446031 -22.991870870126604 0 -22.991870870126604 -4.9475166412857021 0 0 0 0 106.92018241569167 -9.3897300886774246 0 -9.3897300886774246 -18.486110085904329 0 0 0 0 43.711807788567967 19.849844189476926 0 19.849844189476926 20.05093317417959 0 0 0 0 5.8460810473479796 10.862813564236603 0 10.862813564236603 149.86573221426625 0 0 0 0 47.326071870607848 31.379406185534094 0 31.379406185534094 4.1506387426397851 0 0 0 0 147.10030105020269 68.12965672714563 0 68.12965672714563 16.916184201288161 0 0 0 0 79.827223719166795 -31.728995411526284 0 -31.728995411526284 -24.656052176274898 0 0 0 0 177.33933880684162 -23.973628577392333 0 -23.973628577392333 -37.574693768479847 0 0 0 0 1.9943766682165744 -0.89899251041565975 0 -0.89899251041565975 0.40019586553595232 0 0 0 0 166.95878398236164 133.52677899960986 0 133.52677899960986 39.692385254749752 0 0 0 0 43.286193916108459 -100.98921207053286 0 -100.98921207053286 -81.726009717154284 0 0 0 0 275.4881369484865 49.997278949608244 0 49.997278949608244 -7.4893011490603385 0 0 0 0 79.970593535268563 111.35081419211292 0 111.35081419211292 -3.6991489054984186 0 0 0 0 -0.48137775459326804 34.769954441821028 0 34.769954441821028 -89.869256733623843 0 0 0 0 46.917316462091549 -70.78049768914002 0 -70.78049768914002 -16.633360581349734 0 0 0 0 -2.4008456782410121 -3.3084752823207957 0 -3.3084752823207957 2.9206400890696909 0 0 0 0 104.35953841490846 -94.373472299034802 0 -94.373472299034802 66.259903919457429 0 0 0 0 133.67571673898783 -81.307310764379508 0 -81.307310764379508 50.491875974481445 0 0 0 0 33.939563320714115 36.907426166336109 0 36.907426166336109 76.702030326743625 0 0 0 0 77.937609084394353 40.299823014746835 0 40.299823014746835 51.730878386675613 0 0 0 0 48.187185250193579 52.813657487221462 0 52.813657487221462 78.127005628974075 0 0 0 0 50.561817510168112 46.388065506295561 0 46.388065506295561 48.937147884853403 0 0 0 0 27.940039424487622 0.81910909992620873 0 0.81910909992620873 35.337737220965892 0 0 0 0 -58.659184109073976 -22.383831986020368 0 -22.383831986020368 41.297447200282932 0 0 0 0 -38.269637960529508 -75.450047600839071 0 -75.450047600839071 -2.2490215712646773 0 0 0 0 36.347806934267282 15.203362777584744 0 15.203362777584744 28.044780922036807 0 0 0 0 54.154535603325712 -30.261308495134017 0 -30.261308495134017 6.1972706860397011 0 0 0 0 76.728262105536487 -43.53107778157937 0 -43.53107778157937 -130.39072648230717 0 0 0 0 -22.04635225702259 27.673236522605521 0 27.673236522605521 37.821174840712956 0 0 0 0 4.5519923166916243 -1.8050296028811594 0 -1.8050296028811594 0.41902433602834943 0 0 0 0 82.590780240625463 -36.331814000134159 0 -36.331814000134159 -91.102740128915684 0 0 0 0 16.449811289555328 49.738022330396007 0 49.738022330396007 98.890804411983481 0 0 0 0 104.95793951450469 177.48162190961193 0 177.48162190961193 83.551508917687499 0 0 0 0 4.1000183049722523 -3.0798835003559475 0 -3.0798835003559475 2.634520412393071 0 0 0 0 112.27995155001918 35.366730855757396 0 35.366730855757396 87.114230063278683 0 0 0 0 30.958316481945076 143.14799859439245 0 143.14799859439245 -16.880077037708134 0 0 0 0 15.221625872749428 -9.3503874240850564 0 -9.3503874240850564 -3.6487684593525955 0 0 0 0 10.899501255627001 -9.5488816311640221 0 -9.5488816311640221 1.821602745068958 0 0 0 0 10.625343335795151 -7.7940506286302877 0 -7.7940506286302877 -2.5961089261172674 0 0 0 0 97.863991266596713 64.621521237343586 0 64.621521237343586 66.879003444576028 0 0 0 0 129.23557194534078 93.738373320509254 0 93.738373320509254 40.000806078697146 0 0 0 0 7.7831201884330312 -5.8084906706563189 0 -5.8084906706563189 4.3817287594617653 0 0 0 0 146.10064054126269 64.988803305864167 0 64.988803305864167 -0.42567499796561492 0 0 0 0 9.6398351039752015 -6.3543817667496114 0 -6.3543817667496114 -2.9705807120431018 0 0 0 0 2.7425176695469418 -9.8034976719841325 0 -9.8034976719841325 -4.6952828800840507 0 0 0 0 2.0092990060857119 -11.736029085775272 0 -11.736029085775272 -9.2009483232382081 0 0 0 0 11.732732600907184 -12.162661853565169 0 -12.162661853565169 -11.012017025927889 0 0 0 0 10.744397019796907 -11.940031050688219 0 -11.940031050688219 -8.8772648760632364 0 0 0 0 12.809039791645773 -10.589570188377365 0 -10.589570188377365 -8.8809523932214489 0 0 0 0 17.428845644044486 -10.729514530632514 0 -10.729514530632514 -9.8843026696313245 0 0 0 0 20.008815455337754 -8.8641514880523573 0 -8.8641514880523573 -10.935442601167324 0 0 0 0 16.712901659848285 -13.112395464079782 0 -13.112395464079782 -16.307932274726227 0 0 0 0 14.962157509686222 -7.5530035921319723 0 -7.5530035921319723 -4.3807595133439463 0 0 0 0 19.570678068557754 -7.9624064706396211 0 -7.9624064706396211 -9.522398914862606 0 0 0 0 17.037198038713541 -6.0616062777876323 0 -6.0616062777876323 -2.0078331923518817 0 0 0 0 20.636457380191132 -8.633903753804816 0 -8.633903753804816 -14.403714886613216 0 0 0 0 15.284057823570038 -8.1949479158561189 0 -8.1949479158561189 -9.4515607474486387 0 0 0 0 15.005495744611835 -4.9293099677370265 0 -4.9293099677370265 -15.70469663337667 0 0 0 0 9.5566708623823189 -3.3170896407762456 0 -3.3170896407762456 -10.180891297439285 0 0 0 0 15.779339954977331 -0.68583176156084846 0 -0.68583176156084846 -6.639953398110265 0 0 0 0 10.109614255936435 0.18332104395182824 0 0.18332104395182824 -8.9650430528603291 0 0 0 0 18.855916985303338 1.6459948125458368 0 1.6459948125458368 -2.2379766841369282 0 0 0 0 35.725908908963902 -13.690964529994289 0 -13.690964529994289 -2.5607858369735936 0 0 0 0 11.286813944063695 0.058963311255041617 0 0.058963311255041617 -5.3634732484007941 0 0 0 0 -37.965736673300853 -46.492948193290431 0 -46.492948193290431 23.345384909745917 0 0 0 0 13.242098939314019 -38.893788646822486 0 -38.893788646822486 24.463321216114764 0 0 0 0 36.635922761124675 -15.429287682254653 0 -15.429287682254653 8.8535286596220431 0 0 0 0 13.259166084238124 11.405687192929989 0 11.405687192929989 49.548408270698019 0 0 0 0 2.9446818141480833 1.2291004749459375 0 1.2291004749459375 -2.1946400926500895 0 0 0 0 17.196139676387247 0.50982113429540732 0 0.50982113429540732 22.641391967007849 0 0 0 0 36.404657041231758 10.56021859152497 0 10.56021859152497 5.4198475476005115 0 0 0 0 21.87638673291076 -7.820536119533017 0 -7.820536119533017 -5.2596380590275658 0 0 0 0 29.655936484403355 -14.895750318070213 0 -14.895750318070213 1.1586853156713914 0 0 0 0 27.111570702298195 -25.764356089124249 0 -25.764356089124249 -39.040648733182479 0 0 0 0 6.1882117172644939 18.447541022274891 0 18.447541022274891 -23.65807360997951 0 0 0 0 17.467135994127602 -25.610481828245611 0 -25.610481828245611 5.6888189467135817 0 0 0 0 13.360519695151197 -33.945610644103738 0 -33.945610644103738 -6.0944999301609641 0 0 0 0 18.421776736675383 -27.223241946786288 0 -27.223241946786288 -1.2002316190082638 0 0 0 0 2.6702427298137792 -1.7419647021327904 0 -1.7419647021327904 -4.4597394570842361 0 0 0 0 22.384610613109544 -4.4236024386459576 0 -4.4236024386459576 -4.1191889326746605 0 0 0 0 55.392852011073501 -24.671000457006681 0 -24.671000457006681 -23.888673264389581 0 0 0 0 8.0838962258570177 0.25811468620766576 0 0.25811468620766576 -7.6738547438035418 0 0 0 0 55.054686993622454 11.605129424262032 0 11.605129424262032 -46.462754660597511 0 0 0 0 1.3537646056341401 0.47958317692246055 0 0.47958317692246055 -1.9596390307770779 0 0 0 0 12.995383554825594 -27.771906045782345 0 -27.771906045782345 7.3332600799967622 0 0 0 0 8.9580706884153187 14.720838961426125 0 14.720838961426125 -13.324505438915367 0 0 0 0 -13.386364091042196 -38.024056278388343 0 -38.024056278388343 35.438948912002161 0 0 0 0 24.277857705637871 -17.270754572564329 0 -17.270754572564329 -7.296868824871126 0 0 0 0 62.671445020107058 -3.9753254499187278 0 -3.9753254499187278 -7.8263740021557169 0 0 0 0 6.6949944428794694 -0.016889223787181606 0 -0.016889223787181606 -2.5440768957667554 0 0 0 0 29.575363701520473 -10.334979157797875 0 -10.334979157797875 0.008252016530605033 0 0 0 0 17.074987040163251 -18.181480084509531 0 -18.181480084509531 14.176818467442899 0 0 0 0 6.996584231329102 -1.7169870009083539 0 -1.7169870009083539 -3.8555476375366808 0 0 0 0 31.193489051142933 -14.402174785505622 0 -14.402174785505622 -9.9350761368878011 0 0 0 0 23.633014862010896 -14.685397415225452 0 -14.685397415225452 -11.917455357976905 0 0 0 0 22.188795619775192 -24.38976562420703 0 -24.38976562420703 1.1850474967250193 0 0 0 0 15.790198146431067 -23.660823112814796 0 -23.660823112814796 3.9791732288967978 0 0 0 0 22.495490217360384 -23.296072145578421 0 -23.296072145578421 -15.541624623123425 0 0 0 0 3.5721026378061964 -6.8381308779726275 0 -6.8381308779726275 0.85577244321390644 0 0 0 0 19.490262908249861 -19.738762355329982 0 -19.738762355329982 -18.566212185191034 0 0 0 0 25.618045583094499 -14.585120903856932 0 -14.585120903856932 -19.206577777800703 0 0 0 0 190.05869834499026 -70.145982366206226 0 -70.145982366206226 -154.6641805796462 0 0 0 0 34.719039369813828 -3.7443992204340404 0 -3.7443992204340404 0.36631540377216787 0 0 0 0 38.288043049011321 53.718655815566308 0 53.718655815566308 40.612911579337378 0 0 0 0 13.490271618098632 12.787012054407569 0 12.787012054407569 13.919706755266816 0 0 0 0 -11.165370196627919 29.092439631476736 0 29.092439631476736 59.762594455974977 0 0 0 0 -25.671680939694852 -11.33836970864968 0 -11.33836970864968 32.309860340079467 0 0 0 0 34.156438550480445 -4.2123400257820869 0 -4.2123400257820869 0.65110032559652087 0 0 0 0 406.09024637602852 -64.907574168773863 0 -64.907574168773863 -83.588542676940051 0 0 0 0 -286.73460222980066 6.7667682086193963 0 6.7667682086193963 -85.630830528694787 0 0 0 0 71.971892739467876 77.895373249005388 0 77.895373249005388 87.47083574636963 0 0 0 0 1.9596496498907356 -0.78278714576894259 0 -0.78278714576894259 0.28374120569489936 0 0 0 0 29.779254237873829 -18.242227483059651 0 -18.242227483059651 -12.524618326786367 0 0 0 0 66.572177264253696 39.970851051803038 0 39.970851051803038 15.381417062737455 0 0 0 0 151.35129493312706 86.455661827581935 0 86.455661827581935 40.861589784437456 0 0 0 0 226.2242003266274 38.239113581402535 0 38.239113581402535 -15.5778339113931 0 0 0 0 104.26213762793304 -241.60259272920734 0 -241.60259272920734 55.5726511742414 0 0 0 0 1.6458028860233753 0.43459121249395594 0 0.43459121249395594 8.7633214774132284 0 0 0 0 5.6201352788031755 6.4636567837516097 0 6.4636567837516097 4.4580451743915823 0 0 0 0 -7.3612113938179391 17.207729532109624 0 17.207729532109624 22.297657731059189 0 0 0 0 8.8376663655144512 0.40515621771828592 0 0.40515621771828592 6.6954832674036879 0 0 0 0 -645.36701450186956 80.730262683546243 0 80.730262683546243 65.058089701155268 0 0 0 0 26.936558546181466 12.03801269410129 0 12.03801269410129 4.134380893152013 0 0 0 0 3.6914358814919979 28.753299028180663 0 28.753299028180663 12.253546749434463 0 0 0 0 5.633024126291275 -7.7712791470294178 0 -7.7712791470294178 33.046085655504385 0 0 0 0 2.7732737561525624 -1.8692466556295777 0 -1.8692466556295777 0.29620754981149844 0 0 0 0 13.393444175893819 -5.8276200846426036 0 -5.8276200846426036 5.9332845563712908 0 0 0 0 17.389113911583991 -5.8247111515206598 0 -5.8247111515206598 1.22416982593586 0 0 0 0 13.815457076654056 -6.4774222150760856 0 -6.4774222150760856 1.9282913310619438 0 0 0 0 19.637474122762796 -11.34808398439327 0 -11.34808398439327 0.64271195531114245 0 0 0 0 7.1918572204369582 -1.3677050239719577 0 -1.3677050239719577 1.7942033900848848 0 0 0 0 10.17255155725212 -0.33946339982063378 0 -0.33946339982063378 -4.0996653472455051 0 0 0 0 13.514652205702987 1.538197054984721 0 1.538197054984721 -0.62133161172278051 0 0 0 0 16.745831504809757 -8.6563644879392996 0 -8.6563644879392996 -1.0849936223501118 0 0 0 0 53.235167304865172 21.862772867467356 0 21.862772867467356 14.77411550393299 0 0 0 0 47.453450205081026 19.689651651027816 0 19.689651651027816 13.653445361231206 0 0 0 0 56.811196665657917 27.232729330160964 0 27.232729330160964 13.567372343348211 0 0 0 0 68.634634866326451 12.097489801493339 0 12.097489801493339 6.3356317923585266 0 0 0 0 48.34045518813582 7.9700052080838759 0 7.9700052080838759 6.0666476680766266 0 0 0 0 48.716303199660615 12.300958664046902 0 12.300958664046902 3.5686962252773355 0 0 0 0 50.652848447449287 8.0585017311324236 0 8.0585017311324236 9.7457136928233012 0 0 0 0 57.791709610255566 15.686636058564773 0 15.686636058564773 7.3285932284306909 0 0 0 0 55.870463687237134 15.742545917002417 0 15.742545917002417 13.870271364231485 0 0 0 0 50.674493374448502 10.373974903489852 0 10.373974903489852 17.26361427856591 0 0 0 0 61.530718448139567 3.5822736648443438 0 3.5822736648443438 14.695557984163315 0 0 0 0 56.858145051861356 6.2842732038529903 0 6.2842732038529903 13.133079429037934 0 0 0 0 57.375210475158383 3.7022614978941419 0 3.7022614978941419 18.801699715486166 0 0 0 0 61.766399173513491 6.5723426625247612 0 6.5723426625247612 19.854564799781656 0 0 0 0 54.154374438883679 6.1841569855982925 0 6.1841569855982925 21.029265985128404 0 0 0 0 58.083563421329018 6.2984007729182849 0 6.2984007729182849 17.213543989335221 0 0 0 0 48.168253161071334 -0.65365069874701476 0 -0.65365069874701476 21.868740335403345 0 0 0 0 36.708368094903562 10.29157875079045 0 10.29157875079045 20.895416161561329 0 0 0 0 47.834440489634289 18.244905209890703 0 18.244905209890703 18.326652330657453 0 0 0 0 25.646709006974561 16.066569635756878 0 16.066569635756878 18.762143044325398 0 0 0 0 20.998106863316934 5.4916215816906515 0 5.4916215816906515 23.450027143496072 0 0 0 0 35.190722022187401 11.947400680783403 0 11.947400680783403 0.79320695477599656 0 0 0 0 34.518865975394874 6.9412439686996095 0 6.9412439686996095 0.17802228443997592 0 0 0 0 17.682830974681565 -28.684432188328628 0 -28.684432188328628 35.150226690225736 0 0 0 0 84.682925884557335 -24.373544729182868 0 -24.373544729182868 21.445437720939026 0 0 0 0 84.722637735310926 -39.478228170675244 0 -39.478228170675244 25.119691089834305 0 0 0 0 61.248979507912736 -27.974886370172499 0 -27.974886370172499 28.264749353988918 0 0 0 0 103.76221793275909 -21.41853793944756 0 -21.41853793944756 12.363369317238721 0 0 0 0 43.522098692694271 -4.2703425632807921 0 -4.2703425632807921 23.218782285238376 0 0 0 0 73.059203412292845 -9.5628779544690587 0 -9.5628779544690587 18.761488226167103 0 0 0 0 58.488638397230375 -1.9583506021621702 0 -1.9583506021621702 14.959836991664815 0 0 0 0 73.609321967234791 0.42663577595521929 0 0.42663577595521929 14.708005042475634 0 0 0 0 78.104507880518213 6.2142473733456427 0 6.2142473733456427 3.3007343636729729 0 0 0 0 96.75785120324872 -1.0779253246942062 0 -1.0779253246942062 -1.1439872948931225 0 0 0 0 99.429647513756208 -11.456361405761527 0 -11.456361405761527 -2.1247382787514653 0 0 0 0 72.95365278025929 -16.753680814742438 0 -16.753680814742438 11.662747099969692 0 0 0 0 97.948717839601159 -6.8286830763581747 0 -6.8286830763581747 -4.4676233514001069 0 0 0 0 82.73906431896512 41.024790749869283 0 41.024790749869283 -4.8348703244528224 0 0 0 0 94.02679165736572 -10.344071996866887 0 -10.344071996866887 -7.5680599542047275 0 0 0 0 79.335341619906103 -10.226339556748826 0 -10.226339556748826 -9.1847686726132451 0 0 0 0 97.193972095006757 0.44492380399469766 0 0.44492380399469766 -12.996872030898885 0 0 0 0 -0.30871479757655074 -1.902952927012727 0 -1.902952927012727 4.2080494435524542 0 0 0 0 173.41627348646216 -19.470721451146346 0 -19.470721451146346 5.4291841353006021 0 0 0 0 254.34203758612057 68.886476823548946 0 68.886476823548946 11.92241114762146 0 0 0 0 0.50184064539641327 0.57957387450951359 0 0.57957387450951359 -0.14750458521701404 0 0 0 0 298.58309251357059 9.8075002466016485 0 9.8075002466016485 -18.823651622485613 0 0 0 0 35.064163934830503 21.556723256564965 0 21.556723256564965 10.516233259402725 0 0 0 0 -9.5050253220906598 31.678686614045318 0 31.678686614045318 22.685943792961552 0 0 0 0 0.48501350433110346 -0.56542686656618457 0 -0.56542686656618457 3.3242935686053556 0 0 0 0 234.60731416810813 7.2750800330460379 0 7.2750800330460379 6.9671878928511433 0 0 0 0 210.05614616834646 33.030907859807485 0 33.030907859807485 -11.600102642582897 0 0 0 0 133.48289160128479 43.728938259399911 0 43.728938259399911 -8.3321283090117504 0 0 0 0 101.22010097115162 -16.52527412557879 0 -16.52527412557879 13.435776802401961 0 0 0 0 128.86683025466482 -22.161950214171156 0 -22.161950214171156 3.0664796989976821 0 0 0 0 164.26572296797167 -28.393375685403498 0 -28.393375685403498 8.1204812409505394 0 0 0 0 150.75610499521645 12.994100510720727 0 12.994100510720727 14.847442785430758 0 0 0 0 229.12416686743381 -2.6780816209766272 0 -2.6780816209766272 -11.835858513977655 0 0 0 0 199.69022148616932 -73.238002352914918 0 -73.238002352914918 -8.9195084050079458 0 0 0 0 292.65680848141346 8.8874857361870454 0 8.8874857361870454 -11.704081993282216 0 0 0 0 200.91593163760734 3.521829117124625 0 3.521829117124625 12.714177070965889 0 0 0 0 0.20672985630574559 0.22285646656109748 0 0.22285646656109748 1.2059169864170549 0 0 0 0 235.07324554580919 22.882871630519048 0 22.882871630519048 18.975393336806519 0 0 0 0 145.36658276915477 66.797897766831511 0 66.797897766831511 20.678426629744536 0 0 0 0 114.64241022648639 33.760955190854474 0 33.760955190854474 4.5511196765903605 0 0 0 0 219.00239466890343 42.375486026846374 0 42.375486026846374 -4.5130477866096044 0 0 0 0 105.67560423332179 82.847421862986266 0 82.847421862986266 81.817054939507216 0 0 0 0 168.11070925121749 -73.801648626222686 0 -73.801648626222686 79.405175961428995 0 0 0 0 77.797912782050844 32.151410981462504 0 32.151410981462504 145.56153858922744 0 0 0 0 239.14957305841745 52.271608287133859 0 52.271608287133859 138.28324050820265 0 0 0 0 1.2446129472299958 -0.53817752728987145 0 -0.53817752728987145 0.32516085714140175 0 0 0 0 292.59202750953409 -8.9406509247387476 0 -8.9406509247387476 110.29695420155463 0 0 0 0 262.08489651980926 -51.164224391544849 0 -51.164224391544849 -15.623377075054123 0 0 0 0 325.65336252899488 172.26569296917651 0 172.26569296917651 52.619342318214876 0 0 0 0 76.061736682037008 31.817572197076061 0 31.817572197076061 21.120600269119507 0 0 0 0 60.847550544356636 -60.307191305611013 0 -60.307191305611013 27.806921232490822 0 0 0 0 256.74489694181466 49.561392583129418 0 49.561392583129418 14.891657438502989 0 0 0 0 138.2220129745474 -16.067871245094466 0 -16.067871245094466 -28.375603141970714 0 0 0 0 214.49180879552296 80.926883653739537 0 80.926883653739537 -64.522059243232434 0 0 0 0 433.15038636841564 164.64628006880184 0 164.64628006880184 -71.960286942703675 0 0 0 0 41.249153333259869 -179.52200400719792 0 -179.52200400719792 -47.912206431270533 0 0 0 0 2.2810547628396023 -1.0513765136161304 0 -1.0513765136161304 0.44155787125701185 0 0 0 0 315.04447428687126 6.8780636693618362 0 6.8780636693618362 -1.2586131752260599 0 0 0 0 136.37381919863765 9.1520079321549019 0 9.1520079321549019 -4.1591514789461144 0 0 0 0 1.6983569323306966 0.86838710823623444 0 0.86838710823623444 0.18572808082056014 0 0 0 0 55.111422566542387 -227.12264172011669 0 -227.12264172011669 53.403938777285475 0 0 0 0 323.69812024421117 26.508994109889045 0 26.508994109889045 39.203817250923748 0 0 0 0 0.6549677352038259 1.3501468941897627 0 1.3501468941897627 0.47368850434130216 0 0 0 0 8.7416355122653329 4.3071323492227584 0 4.3071323492227584 2.2632546408007235 0 0 0 0 15.07696167881295 5.98466172422809 0 5.98466172422809 5.0645499050247054 0 0 0 0 5.6319789308345207 -7.0050155839792296 0 -7.0050155839792296 21.390213826392028 0 0 0 0 2.7429084147277507 -1.607941186875685 0 -1.607941186875685 0.56796716783029666 0 0 0 0 8.4691253141594416 -3.1999229078538889 0 -3.1999229078538889 -24.479788075894248 0 0 0 0 7.7948004766336112 -30.871517321792634 0 -30.871517321792634 -60.721524189961201 0 0 0 0 146.88625571878401 82.770235252308566 0 82.770235252308566 21.06517486640314 0 0 0 0 43.484608131726418 -116.22083064293997 0 -116.22083064293997 -16.424552582435354 0 0 0 0 -7.4744589602059932 6.3910838685652607 0 6.3910838685652607 5.8530339538319822 0 0 0 0 24.317842978703993 7.3529853970485419 0 7.3529853970485419 -49.872005719785193 0 0 0 0 10.087989636667771 0.45530605722910877 0 0.45530605722910877 -0.86166091941140621 0 0 0 0 28.410328167363332 4.9532891546789415 0 4.9532891546789415 -29.061411141783537 0 0 0 0 19.789883026442112 7.0518485599654923 0 7.0518485599654923 2.4235438622627044 0 0 0 0 12.319950930188497 19.920972228132996 0 19.920972228132996 -16.726926878431641 0 0 0 0 21.470483255736326 -6.5139448165208478 0 -6.5139448165208478 -26.888938638584477 0 0 0 0 8.0352621146330421 23.967336950582876 0 23.967336950582876 -6.214233764670098 0 0 0 0 23.340178618876962 6.6260818397113326 0 6.6260818397113326 -34.955199377734971 0 0 0 0 3.3945716783399824 0.69225275915061957 0 0.69225275915061957 -0.15572261473205984 0 0 0 0 24.567377611438133 2.9949508481022349 0 2.9949508481022349 -24.460041576146978 0 0 0 0 17.21028601281796 1.2595010569507394 0 1.2595010569507394 -24.529226045961181 0 0 0 0 6.1167740133802297 0.016420215428631479 0 0.016420215428631479 1.6459867987371517 0 0 0 0 19.728295755900035 10.208597592882597 0 10.208597592882597 -1.2426488745240363 0 0 0 0 10.794554118183441 9.2989601804370068 0 9.2989601804370068 -1.2521804372113365 0 0 0 0 29.322356495005806 11.068362347033826 0 11.068362347033826 -3.5803784836077739 0 0 0 0 66.609617186164542 12.252680210893232 0 12.252680210893232 -6.936464764385164 0 0 0 0 25.840825686551398 14.674126371031889 0 14.674126371031889 28.764703153752635 0 0 0 0 25.771686702486477 9.7698779724623819 0 9.7698779724623819 -8.9754319327541907 0 0 0 0 20.009123032759817 -3.1764551711485183 0 -3.1764551711485183 7.4378436482447796 0 0 0 0 15.540391685574832 -4.9648990470117269 0 -4.9648990470117269 -12.678905096943708 0 0 0 0 3.1546845803775909 2.2363428597860562 0 2.2363428597860562 0.079974333307990086 0 0 0 0 31.454589871646021 14.942049521064973 0 14.942049521064973 0.14371273096185178 0 0 0 0 16.29010788366304 1.3024846642506418 0 1.3024846642506418 -6.6026556762490145 0 0 0 0 17.588126249930838 5.0723892802714534 0 5.0723892802714534 0.84050923368154606 0 0 0 0 2.1616173979061273 -2.0750893321382975 0 -2.0750893321382975 -1.0517824924829036 0 0 0 0 30.285750599759922 -1.7196378901262506 0 -1.7196378901262506 -11.963175952896336 0 0 0 0 12.394132560298637 -6.4541053991676662 0 -6.4541053991676662 -3.8409123270292191 0 0 0 0 46.422193658603646 14.168807101874563 0 14.168807101874563 -55.582072132228859 0 0 0 0 46.12278924504426 -45.835767135643891 0 -45.835767135643891 18.466755288767672 0 0 0 0 11.02714403048958 12.336937573515343 0 12.336937573515343 14.632364996943579 0 0 0 0 29.944276102276262 -4.6801644664766968 0 -4.6801644664766968 -1.7812046858052781 0 0 0 0 1.2339029212872248 -0.68935643954541348 0 -0.68935643954541348 -0.10008807557639621 0 0 0 0 60.594812064111466 -15.020394610552216 0 -15.020394610552216 1.6567798942305672 0 0 0 0 31.470540720776626 27.698668362061653 0 27.698668362061653 -9.0947759589457746 0 0 0 0 58.720370613555133 9.2119210976425165 0 9.2119210976425165 -1.3892652165659456 0 0 0 0 36.756264008818107 -5.0228912334798679 0 -5.0228912334798679 5.0502906946117037 0 0 0 0 31.21631456434217 11.541208765793272 0 11.541208765793272 -0.97486756891022175 0 0 0 0 -44.527520902036485 -35.779573117254927 0 -35.779573117254927 41.015002821125563 0 0 0 0 54.849429187961505 -25.567169918425861 0 -25.567169918425861 -51.473672084996053 0 0 0 0 79.63994106357859 66.38178229973073 0 66.38178229973073 58.901970228925563 0 0 0 0 39.570184886981224 -2.5284644730681975 0 -2.5284644730681975 -12.351247933977902 0 0 0 0 33.213449175545975 10.022477775956304 0 10.022477775956304 -34.766528753093098 0 0 0 0 11.369976836556816 -18.00667517801071 0 -18.00667517801071 -44.955496766978285 0 0 0 0 33.602842670352402 36.843881680081608 0 36.843881680081608 34.604925941866895 0 0 0 0 25.389397321883735 6.7746282671205336 0 6.7746282671205336 10.649523770874112 0 0 0 0 43.740800803449019 33.103479701188917 0 33.103479701188917 13.433657712553213 0 0 0 0 86.923589833360893 5.8447738071424737 0 5.8447738071424737 15.178450640312803 0 0 0 0 88.10878235038399 43.215103040625308 0 43.215103040625308 9.66551597761827 0 0 0 0 195.2052667348803 31.005563109018794 0 31.005563109018794 -14.834644371640934 0 0 0 0 0.071321547911821881 3.4251857339400118 0 3.4251857339400118 1.4070992800359918 0 0 0 0 -26.638712113986912 -1.6209184208593355 0 -1.6209184208593355 28.044142611388988 0 0 0 0 218.05876795596851 -89.896826558546081 0 -89.896826558546081 1.6585965041040254 0 0 0 0 75.894092108956102 -49.90494013886746 0 -49.90494013886746 -45.042189547427057 0 0 0 0 20.34428338226904 -11.640339147099375 0 -11.640339147099375 -2.6618705700568075 0 0 0 0 -81.006932715848961 13.426971322827626 0 13.426971322827626 20.678800745746798 0 0 0 0 236.76954867842869 259.75845621322173 0 259.75845621322173 -220.01246904427813 0 0 0 0 31.455404731957969 13.02531525999737 0 13.02531525999737 7.7098548961755569 0 0 0 0 68.173681771157135 -14.405873643120913 0 -14.405873643120913 29.121787108633839 0 0 0 0 64.977109285919141 -25.241471540755924 0 -25.241471540755924 3.294454096731215 0 0 0 0 96.745062940458411 6.6617702693203 0 6.6617702693203 3.193644903920358 0 0 0 0 1.1137331886938213 1.4094369227300092 0 1.4094369227300092 0.98446136765462189 0 0 0 0 89.810540844984644 -10.534738817138305 0 -10.534738817138305 11.942528115933101 0 0 0 0 72.009307963380706 -3.5895908112861434 0 -3.5895908112861434 8.7433316578135418 0 0 0 0 82.996374215639662 12.651823699852798 0 12.651823699852798 10.079406735459997 0 0 0 0 86.016212181461015 9.6449871075309375 0 9.6449871075309375 5.0353379347434384 0 0 0 0 -0.80161528198836152 1.2258472281872876 0 1.2258472281872876 1.4207629810608573 0 0 0 0 49.936127640715767 14.412929038560833 0 14.412929038560833 19.425557020327687 0 0 0 0 52.012280584436667 -6.9742130421891488 0 -6.9742130421891488 13.874661217557332 0 0 0 0 18.34479948980271 6.5144009936770217 0 6.5144009936770217 1.1669062324771655 0 0 0 0 2.9712001946665367 9.7445700747480544 0 9.7445700747480544 0.73819114279577747 0 0 0 0 31.10694357403554 18.000331216768245 0 18.000331216768245 -9.0291755560624551 0 0 0 0 6.4786303944711108 21.384149522465577 0 21.384149522465577 20.706556810274378 0 0 0 0 46.362080499369767 11.458336440068706 0 11.458336440068706 -7.0571623466985329 0 0 0 0 10.086078058928251 -5.3708035812557 0 -5.3708035812557 1.4748897221088555 0 0 0 0 17.906844140914473 11.046809861122313 0 11.046809861122313 -7.2346127168557359 0 0 0 0 25.305062165951199 -3.443088822380318 0 -3.443088822380318 -5.2321730600010001 0 0 0 0 20.50013284025772 5.0113511516543667 0 5.0113511516543667 1.9487157504963761 0 0 0 0 20.817242767145217 9.7294885663478112 0 9.7294885663478112 -0.89783849276011551 0 0 0 0 25.889532300594723 4.1784339779151694 0 4.1784339779151694 -0.1941438400722495 0 0 0 0 28.159627148783329 -2.5896746345529209 0 -2.5896746345529209 -3.9453359268150052 0 0 0 0 22.200562104189885 -3.5825531003979449 0 -3.5825531003979449 3.7957714777739966 0 0 0 0 25.548574899614323 -0.46380879690968868 0 -0.46380879690968868 3.8948066655002549 0 0 0 0 33.208591496208101 -11.336213517363831 0 -11.336213517363831 19.096615508940204 0 0 0 0 30.950424049388857 15.858587138584198 0 15.858587138584198 2.9152548762322112 0 0 0 0 34.040474587411154 3.6124032255511338 0 3.6124032255511338 1.1336364382459578 0 0 0 0 13.607563443427352 6.1487913520538768 0 6.1487913520538768 1.1231860214957123 0 0 0 0 6.4377561243178434 9.8253005483521321 0 9.8253005483521321 -0.24692194779494336 0 0 0 0 10.763099398907798 70.146544602465383 0 70.146544602465383 -6.0937686091670002 0 0 0 0 57.126741268549949 21.154046841406046 0 21.154046841406046 1.232203658955187 0 0 0 0 76.796051890569288 27.395096308457141 0 27.395096308457141 7.8261635592432413 0 0 0 0 -2.5361322227399796 87.850894560026973 0 87.850894560026973 -17.042952998160445 0 0 0 0 90.07513683979596 44.776686970475069 0 44.776686970475069 -8.6188701495552777 0 0 0 0 101.75036816617649 22.940525702216746 0 22.940525702216746 -22.600307036565283 0 0 0 0 71.68906087734922 11.381666188738592 0 11.381666188738592 -20.014096074422582 0 0 0 0 64.696548137748323 17.124458691011149 0 17.124458691011149 -0.4112311596556566 0 0 0 0 72.727736058172013 44.480924792433996 0 44.480924792433996 -5.0731759177736677 0 0 0 0 8.8835615024458043 30.619099169473813 0 30.619099169473813 8.1030922924654334 0 0 0 0 21.095068792556049 84.658507884408493 0 84.658507884408493 22.809247380112481 0 0 0 0 69.350780111821223 56.104842068012317 0 56.104842068012317 -19.234180207991358 0 0 0 0 118.24822321610736 31.672053906002589 0 31.672053906002589 -12.537354541488185 0 0 0 0 129.45950628764854 90.836094016855583 0 90.836094016855583 -4.8210289214193836 0 0 0 0 -18.837468591846118 48.19522139814876 0 48.19522139814876 108.12287619667723 0 0 0 0 69.799721113900887 39.313350070280194 0 39.313350070280194 -8.7781177683058331 0 0 0 0 16.371999000623834 30.597740858265738 0 30.597740858265738 12.289473885001007 0 0 0 0 -38.288112701240607 28.865385356435468 0 28.865385356435468 34.149709427088055 0 0 0 0 43.813996107463026 27.648905398304123 0 27.648905398304123 -38.556856101692574 0 0 0 0 -45.630376049779443 63.40415064849185 0 63.40415064849185 20.885514281765609 0 0 0 0 -90.482258893289327 137.89140174768886 0 137.89140174768886 -71.19942261675169 0 0 0 0 5.017720129541944 3.9490439723919977 0 3.9490439723919977 -1.4305633309261676 0 0 0 0 11.286342862593301 29.98385499220376 0 29.98385499220376 33.272564394495021 0 0 0 0 12.837534943253559 9.5883980711378172 0 9.5883980711378172 0.76714680012719327 0 0 0 0 -17.879553688955639 24.041250518474953 0 24.041250518474953 50.944991331672099 0 0 0 0 9.3770354674379632 15.912966898731383 0 15.912966898731383 32.715057737194911 0 0 0 0 -6.158550939449924 -13.366182527781802 0 -13.366182527781802 54.989155429806488 0 0 0 0 -3.9078100558855056 3.4984714660548235 0 3.4984714660548235 1.3230482833474859 0 0 0 0 54.044189861875566 79.620550037168186 0 79.620550037168186 122.6367227824976 0 0 0 0 2.8955348574309028 14.783225794548912 0 14.783225794548912 126.10578560514978 0 0 0 0 84.466640248550902 113.65294777911436 0 113.65294777911436 59.733401941505235 0 0 0 0 99.124929422458081 90.091171059429598 0 90.091171059429598 -103.97760472634855 0 0 0 0 -2.7773381858420976 4.10774091676398 0 4.10774091676398 4.1858926605443845 0 0 0 0 215.4044066614515 68.15061211071361 0 68.15061211071361 -6.8000355203739673 0 0 0 0 257.41934445113793 -77.930840336180864 0 -77.930840336180864 125.04789090451504 0 0 0 0 272.99442049904974 107.30394555848807 0 107.30394555848807 26.568679960333839 0 0 0 0 176.46527096575664 -106.21660189270438 0 -106.21660189270438 128.39256031999525 0 0 0 0 124.69349691799289 33.635103734038239 0 33.635103734038239 110.76300575561089 0 0 0 0 55.321792306165662 -58.78117556962485 0 -58.78117556962485 -40.104125252310951 0 0 0 0 219.0180661616032 10.267534443028012 0 10.267534443028012 -13.471435289475494 0 0 0 0 127.76899852191366 51.357106735786061 0 51.357106735786061 -9.9538531582020369 0 0 0 0 157.44439226895702 76.983524708018308 0 76.983524708018308 -79.167987290879637 0 0 0 0 102.86489427220295 -5.5734338638208101 0 -5.5734338638208101 -89.355906489870733 0 0 0 0 9.949245423709062 0.33547736495599878 0 0.33547736495599878 -1.5020180720987222 0 0 0 0 58.61715606146754 -21.752884190641183 0 -21.752884190641183 -16.85495639519786 0 0 0 0 45.450163110031099 14.487447811694267 0 14.487447811694267 -44.943938387736466 0 0 0 0 32.351057405577833 -7.0849804197883905 0 -7.0849804197883905 -1.0521286799534386 0 0 0 0 71.985223514006066 0.29424470153674065 0 0.29424470153674065 -1.6373908324636943 0 0 0 0 11.270675434566233 -9.833938593962877 0 -9.833938593962877 -1.0020919853095784 0 0 0 0 29.231194059695554 -2.673137203635747 0 -2.673137203635747 -2.6488146288292 0 0 0 0 34.551605820590339 -2.5288461100592494 0 -2.5288461100592494 -7.2550959191408078 0 0 0 0 25.235064172058372 -1.3131974688326977 0 -1.3131974688326977 -2.0398373996101156 0 0 0 0 2.7641403167632745 -0.39727700250496412 0 -0.39727700250496412 -1.6031071895800457 0 0 0 0 14.254019664615043 1.9032126218537837 0 1.9032126218537837 -3.5726933205949973 0 0 0 0 35.269375787359422 11.222562636511558 0 11.222562636511558 0.35132033773980953 0 0 0 0 1.2057988278538687 -0.56148889525378654 0 -0.56148889525378654 -0.001493947182907694 0 0 0 0 0.26607920354629755 0.088581702868168577 0 0.088581702868168577 -0.17787088031233272 0 0 0 0 35.790271120962643 2.1656744841767543 0 2.1656744841767543 -10.885258633230677 0 0 0 0 36.03436646929913 3.3831315425431896 0 3.3831315425431896 -7.8977465084623972 0 0 0 0 35.895133705176704 6.1465379231942476 0 6.1465379231942476 -9.9980107774116007 0 0 0 0 40.287154736844968 0.87802364296110946 0 0.87802364296110946 -17.933517952449179 0 0 0 0 39.937078011083941 -0.40588088556359048 0 -0.40588088556359048 -10.54048077721662 0 0 0 0 39.93366462441918 2.1337077094754768 0 2.1337077094754768 -21.642323783941439 0 0 0 0 98.322274367747013 115.01840987329513 0 115.01840987329513 -58.338249198314514 0 0 0 0 10.782388745102722 4.6603075721792919 0 4.6603075721792919 -0.97884320867296715 0 0 0 0 34.783225761348149 9.4930906574045775 0 9.4930906574045775 -19.749588585158648 0 0 0 0 -2.2733924148451479 -19.173944910124529 0 -19.173944910124529 -16.078808724327185 0 0 0 0 20.013099086194416 7.4736129244938612 0 7.4736129244938612 0.020319444028048046 0 0 0 0 54.104980309642997 -12.615455358350594 0 -12.615455358350594 -16.736497829104309 0 0 0 0 132.48023414304043 25.763650746577653 0 25.763650746577653 -0.025176921737966738 0 0 0 0 77.414631517414819 115.12823082493165 0 115.12823082493165 156.30562737331613 0 0 0 0 -0.67349649001317857 -0.70197504745889461 0 -0.70197504745889461 0.9917703480144171 0 0 0 0 183.27854108035172 31.149580862510444 0 31.149580862510444 17.804147057708903 0 0 0 0 -33.76061945040783 -80.0360414607471 0 -80.0360414607471 82.416897876096186 0 0 0 0 85.166979856410762 83.079332873759398 0 83.079332873759398 -72.220517975239474 0 0 0 0 67.152884507398994 -8.5566085229095155 0 -8.5566085229095155 4.9478627346259003 0 0 0 0 51.305602657015697 36.625967199149258 0 36.625967199149258 -37.205842145017584 0 0 0 0 43.851292832085164 29.244950596465102 0 29.244950596465102 -39.741113243402367 0 0 0 0 -0.92746827258920916 6.9440576556103899 0 6.9440576556103899 3.4754374568623128 0 0 0 0 -59.615403377007169 78.496122676003424 0 78.496122676003424 -27.158812553823878 0 0 0 0 55.714293410460456 13.872813759299985 0 13.872813759299985 -1.0149083175955242 0 0 0 0 11.621093995881012 1.5965070641119183 0 1.5965070641119183 -1.735951330972378 0 0 0 0 61.721978105611925 23.272224699594517 0 23.272224699594517 6.0606052363072536 0 0 0 0 72.447129057951884 9.1619947723341184 0 9.1619947723341184 6.2448321664338664 0 0 0 0 94.835378100589878 14.951934652773275 0 14.951934652773275 -17.799564640168342 0 0 0 0 -31.989071567179053 23.093224547065262 0 23.093224547065262 26.645194391087472 0 0 0 0 17.141832757647656 28.471276400159169 0 28.471276400159169 3.5073790860085747 0 0 0 0 -0.13396792756248033 0.54125683827666649 0 0.54125683827666649 31.089585021378412 0 0 0 0 158.77375336475234 116.88197978986406 0 116.88197978986406 22.021470105029607 0 0 0 0 28.818735274988285 80.089210393625677 0 80.089210393625677 158.06628747555342 0 0 0 0 1.8716058823109449 -0.13996265799356422 0 -0.13996265799356422 -0.34700721662007372 0 0 0 0 205.94693660087341 -44.65260148952683 0 -44.65260148952683 11.1258641972654 0 0 0 0 66.290544269581005 -4.7291965789172572 0 -4.7291965789172572 46.818681000262046 0 0 0 0 112.96407515148167 69.740830729906349 0 69.740830729906349 150.29359305208177 0 0 0 0 147.16404274039087 8.0503955058512648 0 8.0503955058512648 -28.73401015529365 0 0 0 0 88.143566786973679 11.39144321992827 0 11.39144321992827 -4.4217219281653488 0 0 0 0 153.16015945808931 62.751009059219037 0 62.751009059219037 27.314436018249964 0 0 0 0 87.937175273335015 -50.193662710664555 0 -50.193662710664555 -4.3983731837257771 0 0 0 0 265.61611282355443 69.532583670714999 0 69.532583670714999 2.7332936600060833 0 0 0 0 226.58116175741452 -72.549795023161948 0 -72.549795023161948 -31.515444721041639 0 0 0 0 136.79720150152571 -4.7598351744681482 0 -4.7598351744681482 -20.873305799099267 0 0 0 0 166.95443685248028 -6.6619946805241659 0 -6.6619946805241659 -21.094813226308304 0 0 0 0 146.62050909541358 -21.996918752493766 0 -21.996918752493766 7.1224629976340745 0 0 0 0 122.0110273342143 6.6707008632010458 0 6.6707008632010458 32.045113487917085 0 0 0 0 96.730012419200648 6.1945242874064874 0 6.1945242874064874 0.0082216503756275573 0 0 0 0 122.36714482709158 13.695939640484772 0 13.695939640484772 -6.0909590648590202 0 0 0 0 98.600090259147692 29.63312792935481 0 29.63312792935481 -2.4710951636781857 0 0 0 0 131.24454441172566 -2.1743389629560621 0 -2.1743389629560621 -2.2283623181452548 0 0 0 0 51.443530360498698 29.840379629861864 0 29.840379629861864 5.3576159390219473 0 0 0 0 69.941468203767727 10.446925834678602 0 10.446925834678602 6.6072619396498311 0 0 0 0 55.353770947869634 23.29268602100932 0 23.29268602100932 6.1427894026732153 0 0 0 0 19.118126439621847 0.025623291732159031 0 0.025623291732159031 0.014093110261022924 0 0 0 0 52.170708166551776 15.790052214766293 0 15.790052214766293 4.4198705192992422 0 0 0 0 11.730560868527391 0.89193826401774956 0 0.89193826401774956 1.2178190649501182 0 0 0 0 11.990437102540454 1.4949006055539495 0 1.4949006055539495 -1.2999128398901849 0 0 0 0 -0.36995773904020979 -0.17388933058383316 0 -0.17388933058383316 0.20369054821781535 0 0 0 0 -13.542233281321387 15.624817473944205 0 15.624817473944205 24.714980866312715 0 0 0 0 20.155954345798818 0.1516998051571008 0 0.1516998051571008 -1.5260431950718565 0 0 0 0 5.6763706559567595 -0.94096905541537978 0 -0.94096905541537978 -0.37005665083289085 0 0 0 0 23.686041407039738 -9.0707860227607782 0 -9.0707860227607782 -8.3614274477228623 0 0 0 0 60.910852481752954 43.744348589419261 0 43.744348589419261 32.531593252321471 0 0 0 0 -11.120125145909697 -1.7751914961333242 0 -1.7751914961333242 60.851979376073089 0 0 0 0 68.193600233636971 -3.0228120542120429 0 -3.0228120542120429 6.3660971958601351 0 0 0 0 -33.553485220596485 60.830894875515121 0 60.830894875515121 26.28332217476196 0 0 0 0 16.562435595324736 15.4988514893912 0 15.4988514893912 0.37266606198187796 0 0 0 0 26.305913560259569 -12.404038794213399 0 -12.404038794213399 -1.0715141822087226 0 0 0 0 -4.247299788244618 -42.505001413663294 0 -42.505001413663294 -10.226925365840629 0 0 0 0 288.18434244581294 -199.86988825693538 0 -199.86988825693538 59.455439511279664 0 0 0 0 0.47133314679183513 0.40293837312593439 0 0.40293837312593439 0.40196758760093659 0 0 0 0 14.530407668687985 -11.954505753445005 0 -11.954505753445005 9.3052128879417353 0 0 0 0 5.9831673004337063 -12.986238569534336 0 -12.986238569534336 18.18672835173254 0 0 0 0 7.8473286853331956 -2.7402460229835697 0 -2.7402460229835697 4.8162652031414552 0 0 0 0 10.542269191143596 -5.9621662337679275 0 -5.9621662337679275 -1.9261997478353123 0 0 0 0 7.3005596952930603 0.19546776979874281 0 0.19546776979874281 0.86623267351554167 0 0 0 0 11.19514600342518 3.210830995936206 0 3.210830995936206 0.65111294710618495 0 0 0 0 3.5273143939735689 -1.792992942257726 0 -1.792992942257726 1.183911219882593 0 0 0 0 15.639271946150984 3.501464365027843 0 3.501464365027843 -4.0010530005678788 0 0 0 0 18.045957243833982 32.752033809710269 0 32.752033809710269 39.942491484202677 0 0 0 0 21.418822662853927 29.555837208294761 0 29.555837208294761 -1.0408904218359396 0 0 0 0 11.052637205029896 33.563165513640442 0 33.563165513640442 48.876199823791666 0 0 0 0 -0.29619789880138825 0.12229690089976231 0 0.12229690089976231 -0.64262110388768856 0 0 0 0 65.125415121183323 -119.89927328279487 0 -119.89927328279487 -4.9285171789463291 0 0 0 0 79.976072487623242 20.564469273585427 0 20.564469273585427 -27.059087881811848 0 0 0 0 13.567082787376421 -88.482971918945879 0 -88.482971918945879 50.544315661299578 0 0 0 0 -34.509739101826199 6.9478965337622398 0 6.9478965337622398 13.631525305523752 0 0 0 0 -26.577551868092996 -20.667206292330611 0 -20.667206292330611 -24.377036203290515 0 0 0 0 28.612507456578896 110.88602656720569 0 110.88602656720569 160.60092125778166 0 0 0 0 46.555530102705234 77.592741112163139 0 77.592741112163139 -18.447076290660792 0 0 0 0 1.2002418587031656 -0.62266922742631792 0 -0.62266922742631792 0.37437167006103289 0 0 0 0 43.157468498888193 -58.547991662500181 0 -58.547991662500181 58.936726704930294 0 0 0 0 29.060955934372032 52.097727881267417 0 52.097727881267417 -2.8138808127079074 0 0 0 0 84.276299112651031 -36.39836626249371 0 -36.39836626249371 -21.271484372051873 0 0 0 0 175.08981464890712 -34.88825992732702 0 -34.88825992732702 -22.516427724502591 0 0 0 0 212.79917226875841 86.90712252129893 0 86.90712252129893 -3.0409394966918626 0 0 0 0 30.947595842226292 34.784770495597741 0 34.784770495597741 17.944576799214701 0 0 0 0 0.41566472689248712 0.25615259164716875 0 0.25615259164716875 0.087299380353421885 0 0 0 0 26.102929338871036 -24.858613141634862 0 -24.858613141634862 -57.927610399669391 0 0 0 0 63.665657797952008 -8.7860641739323455 0 -8.7860641739323455 -51.164933096254117 0 0 0 0 1.0325034185980826 0.2169676102316771 0 0.2169676102316771 -1.1009579318464806 0 0 0 0 6.6380937149697274 -1.1375960746014186 0 -1.1375960746014186 4.0300114479971398 0 0 0 0 -44.72716840011708 50.944438440696842 0 50.944438440696842 -9.7453698138787104 0 0 0 0 9.1980882675607845 5.4688036062088514 0 5.4688036062088514 -1.0749797088715254 0 0 0 0 13.415173409051931 0.46745632482503652 0 0.46745632482503652 -4.9937537911234244 0 0 0 0 13.561056839462708 1.8746738922212174 0 1.8746738922212174 -4.7906966515695331 0 0 0 0 8.2120835614841781 -8.5412353160439238 0 -8.5412353160439238 -8.0394936565954538 0 0 0 0 10.860993407378231 0.069849859983015961 0 0.069849859983015961 -0.79782126759915339 0 0 0 0 12.233643769769415 0.36478558048427345 0 0.36478558048427345 -5.3099997664459337 0 0 0 0 33.289840893794462 -1.5545434855606004 0 -1.5545434855606004 -20.712477176282846 0 0 0 0 15.899102286086418 10.891483948962332 0 10.891483948962332 11.808829912176179 0 0 0 0 18.756878047565337 -2.6758575557601745 0 -2.6758575557601745 -6.6018850392995398 0 0 0 0 17.47992388401326 -10.696020850756668 0 -10.696020850756668 -16.716321821973736 0 0 0 0 58.350251992123958 27.138903632057918 0 27.138903632057918 -13.951163487022313 0 0 0 0 15.965660175468656 -8.0842061924956852 0 -8.0842061924956852 -14.217641619551614 0 0 0 0 23.834202248424845 -5.3408808344884164 0 -5.3408808344884164 -13.76845902923651 0 0 0 0 14.27515053481693 -22.633435543356512 0 -22.633435543356512 7.1362217578844138 0 0 0 0 19.938840427249815 -3.8950820688076817 0 -3.8950820688076817 -4.5913029323114287 0 0 0 0 19.719993135331606 -24.352070709675161 0 -24.352070709675161 -14.317965621178814 0 0 0 0 37.808669288155215 -28.579516472015143 0 -28.579516472015143 21.099594008966918 0 0 0 0 23.31369712355081 -7.5738370039222218 0 -7.5738370039222218 -4.8136488816313658 0 0 0 0 10.548384240508312 -4.0366885780379675 0 -4.0366885780379675 -3.7918667091558973 0 0 0 0 26.176416450681245 -10.014449270113914 0 -10.014449270113914 -17.448604139651252 0 0 0 0 1.6480852162712836 -13.036797522897359 0 -13.036797522897359 -10.486167859833586 0 0 0 0 3.8226450862021011 -8.037967110162981 0 -8.037967110162981 -17.678332641755333 0 0 0 0 -2.4503215212153009 -29.736570262571831 0 -29.736570262571831 -28.497658917543049 0 0 0 0 -19.869530712585401 -29.785077924419511 0 -29.785077924419511 -10.696372506642092 0 0 0 0 11.526366238785428 2.4852914020367791 0 2.4852914020367791 -1.4078001819228749 0 0 0 0 23.196010335996888 -3.5040925856286691 0 -3.5040925856286691 -3.0851522533114091 0 0 0 0 16.965966972102251 -19.237100812694734 0 -19.237100812694734 -21.57524628465444 0 0 0 0 40.401041518798593 7.8262797028498881 0 7.8262797028498881 -11.285971503113103 0 0 0 0 0.87828581366625258 -0.91233833701500089 0 -0.91233833701500089 1.4007831367031365 0 0 0 0 196.14823944369471 149.02948187129962 0 149.02948187129962 128.96236892645902 0 0 0 0 5.3746001355029875 -11.289684206416268 0 -11.289684206416268 -11.553307699301513 0 0 0 0 3.1752670709938684 -10.660104488101297 0 -10.660104488101297 -9.3160069183122687 0 0 0 0 0.13693800760665908 -20.081896690380972 0 -20.081896690380972 7.1202331897302429 0 0 0 0 -7.9327749856092851 -31.955478877034579 0 -31.955478877034579 62.771927701845016 0 0 0 0 87.823041473267949 -102.72595445421416 0 -102.72595445421416 23.880474998146951 0 0 0 0 22.044859354391519 -43.093304888835235 0 -43.093304888835235 -29.049384612655899 0 0 0 0 9.1758807039623207 -50.839761077431262 0 -50.839761077431262 -7.4625000250404696 0 0 0 0 55.752430033058772 -64.791983681703982 0 -64.791983681703982 -48.62973094913923 0 0 0 0 41.594042450609194 -11.233865410802292 0 -11.233865410802292 -4.5722200161626372 0 0 0 0 86.974439619250916 -25.292249995740747 0 -25.292249995740747 -99.444158141502271 0 0 0 0 4.2584916212872486 -38.838320522750109 0 -38.838320522750109 -26.245030027662551 0 0 0 0 37.528985899241164 -8.1461857376532336 0 -8.1461857376532336 -6.3197880635695611 0 0 0 0 49.214773297135253 15.278043630635636 0 15.278043630635636 -7.5888320072896818 0 0 0 0 9.247110863772253 7.3953573338019964 0 7.3953573338019964 2.3822465503116579 0 0 0 0 18.445852436747373 -2.5570726190130131 0 -2.5570726190130131 -0.90935411237605024 0 0 0 0 -7.4010083517932799 15.143701865136705 0 15.143701865136705 8.296982727030354 0 0 0 0 1.0236063461832465 2.0122048137817501 0 2.0122048137817501 2.1576187160295457 0 0 0 0 22.991575992215076 -3.5309761077979829 0 -3.5309761077979829 -17.311620663637541 0 0 0 0 1.6248761226373176 0.87952948645181195 0 0.87952948645181195 -0.41841641339183933 0 0 0 0 77.904558082100266 46.76922330888911 0 46.76922330888911 20.405593568033566 0 0 0 0 -5.1663641076011118 21.137896023664979 0 21.137896023664979 29.781753165558797 0 0 0 0 112.76588713653473 23.72869315356013 0 23.72869315356013 -11.836114668275059 0 0 0 0 -2.0117587869459896 1.6568320567998569 0 1.6568320567998569 3.0888354269299523 0 0 0 0 -0.95517655739240581 7.0058732892712214 0 7.0058732892712214 21.524585737610209 0 0 0 0 -12.735006499198789 -9.4601114971249274 0 -9.4601114971249274 8.197665881187552 0 0 0 0 -0.95780050237580383 -0.5720972986716788 0 -0.5720972986716788 0.36460558266551946 0 0 0 0 43.418049398671428 -57.262116556680638 0 -57.262116556680638 -27.009570822840487 0 0 0 0 42.524311841743469 -15.820389672141062 0 -15.820389672141062 -3.0264513937202198 0 0 0 0 81.507927271082394 -39.751730020926274 0 -39.751730020926274 -45.752884374340852 0 0 0 0 33.737236443219444 -5.2568348101428626 0 -5.2568348101428626 18.731822300901285 0 0 0 0 161.97933786028443 -5.4426961587122094 0 -5.4426961587122094 -16.620652166254331 0 0 0 0 118.59534659528435 36.78294528391686 0 36.78294528391686 -15.158172491833739 0 0 0 0 199.91689638592652 26.589237317927143 0 26.589237317927143 -18.263786482775217 0 0 0 0 207.84959833105677 -17.894832972394283 0 -17.894832972394283 -19.717716198926922 0 0 0 0 10.521674463690033 -18.953990816877372 0 -18.953990816877372 25.544588526150733 0 0 0 0 -4.3053675471164752 -1.192266711193497 0 -1.192266711193497 18.601960665061938 0 0 0 0 1.3569342655163297 -0.70913589498681517 0 -0.70913589498681517 -0.051227954259143726 0 0 0 0 30.03328335993865 -18.493641221455761 0 -18.493641221455761 2.4265400678939386 0 0 0 0 0.51859320953363408 -1.1302029727965746 0 -1.1302029727965746 0.85064020340943491 0 0 0 0 6.6803012654636404 1.3119077121709779 0 1.3119077121709779 6.1747031023853083 0 0 0 0 24.659556919909846 -74.373796243106057 0 -74.373796243106057 74.546336771635879 0 0 0 0 167.16223560627441 51.362323655935796 0 51.362323655935796 -12.509906311929953 0 0 0 0 1.6432168391556274 0.39825169207305322 0 0.39825169207305322 0.49497411654618717 0 0 0 0 5.9632635347952601 0.77181753610187198 0 0.77181753610187198 0.0012144328498944013 0 0 0 0 321.69231560390563 98.155691175563945 0 98.155691175563945 0.66796663141553836 0 0 0 0 357.92390565700225 -68.483095697494278 0 -68.483095697494278 -83.490076203538067 0 0 0 0 94.827089785365388 -29.728338449224808 0 -29.728338449224808 -32.59562609038295 0 0 0 0 220.94609292296809 -25.271431384691851 0 -25.271431384691851 -35.090591232370556 0 0 0 0 71.709137318946887 -93.718496073037741 0 -93.718496073037741 0.26745321428706292 0 0 0 0 0.66613065675846883 -0.40106000625937099 0 -0.40106000625937099 -0.15515659821626168 0 0 0 0 -273.02476808971551 -12.235100865974829 0 -12.235100865974829 28.508633983678763 0 0 0 0 21.092475427038153 22.232776094419364 0 22.232776094419364 3.1916065617037361 0 0 0 0 16.021089339967148 8.1166021120674827 0 8.1166021120674827 -8.5360117501224977 0 0 0 0 26.77418996191409 -22.038495590127141 0 -22.038495590127141 34.654910177724879 0 0 0 0 97.948732535205636 64.109427187633059 0 64.109427187633059 30.325094898876443 0 0 0 0 -1.4344756005428962 1.4612568546211762 0 1.4612568546211762 3.1268733819973686 0 0 0 0 3.9244761161317001 -0.3069012760017803 0 -0.3069012760017803 -0.0095572627991728377 0 0 0 0 2.8067182051487123 1.2931445999941076 0 1.2931445999941076 0.53322253395477859 0 0 0 0 8.2086660519492511 0.23120826251603432 0 0.23120826251603432 -0.8794100860579136 0 0 0 0 6.9300994607328903 -2.8941710401574761 0 -2.8941710401574761 -2.5205192251761734 0 0 0 0 26.647976339518209 6.0024835926953237 0 6.0024835926953237 -3.8533790636053249 0 0 0 0 7.453709488552704 -4.0468749948598868 0 -4.0468749948598868 0.014906161762894259 0 0 0 0 31.261365347447281 -7.137354168924646 0 -7.137354168924646 -0.022560919888713289 0 0 0 0 -32.096078320697416 -31.608686311923631 0 -31.608686311923631 48.339823552003921 0 0 0 0 0.11958653420314391 0.060796587584448503 0 0.060796587584448503 -0.03469147222512825 0 0 0 0 57.266804861632409 8.1807036151717938 0 8.1807036151717938 -48.494433543989743 0 0 0 0 17.129766762149302 -1.4119643399826216 0 -1.4119643399826216 -6.1705911584543927 0 0 0 0 -1.417738537362311 -17.091437207763533 0 -17.091437207763533 -8.8367837618705494 0 0 0 0 3.5431555042384488 0.74305284369840763 0 0.74305284369840763 -0.52129075365096966 0 0 0 0 17.8358095397125 -13.021298764741459 0 -13.021298764741459 -15.11389483551693 0 0 0 0 9.5438567505401295 -0.62223325879191194 0 -0.62223325879191194 -1.4065806798505061 0 0 0 0 3.3122685077451024 -11.808080495371641 0 -11.808080495371641 18.430048973893804 0 0 0 0 48.354327140910755 15.395069989867032 0 15.395069989867032 8.370780061655978 0 0 0 0 18.787587726867059 5.709773309503845 0 5.709773309503845 8.6982725375157486 0 0 0 0 -2.4618631947560061 -8.161013076614239 0 -8.161013076614239 -6.4764445987774764 0 0 0 0 17.074750262210728 10.192261709287038 0 10.192261709287038 -2.6510635872186583 0 0 0 0 23.564471965837583 7.9606019274525295 0 7.9606019274525295 8.7220308158421744 0 0 0 0 31.372461747771013 8.7760019942672614 0 8.7760019942672614 -20.716427194189492 0 0 0 0 3.4987195843350491 2.0491112491107373 0 2.0491112491107373 2.5771891682282373 0 0 0 0 30.432058554393734 19.508664187356004 0 19.508664187356004 2.3939145507192734 0 0 0 0 2.0579911420173858 -0.55414457664698347 0 -0.55414457664698347 1.4083108979954195 0 0 0 0 -4.2813635791208071 -32.577073992192254 0 -32.577073992192254 -5.2402238282865596 0 0 0 0 24.990179944947158 16.034625484468876 0 16.034625484468876 9.6492674124339999 0 0 0 0 1.8914213657193031 0.9830090605903834 0 0.9830090605903834 -2.0918234957713526 0 0 0 0 9.4112686284766482 -2.2343765812422092 0 -2.2343765812422092 -0.46695201225620231 0 0 0 0 31.795450429173798 1.1632305313029434 0 1.1632305313029434 -9.4622616506150621 0 0 0 0 10.609515309712151 -1.9853318340000117 0 -1.9853318340000117 1.4671541558892631 0 0 0 0 7.8214098901953548 -16.959900012044812 0 -16.959900012044812 -4.6902904738053905 0 0 0 0 7.0467094151626668 -4.2146967440623015 0 -4.2146967440623015 0.95828033902303456 0 0 0 0 8.4039249032030057 -2.0743676237961823 0 -2.0743676237961823 -1.8593352042093501 0 0 0 0 5.799749256882933 1.0344923025780963 0 1.0344923025780963 -0.8302716891829669 0 0 0 0 8.6533814411559433 -0.88082751591234154 0 -0.88082751591234154 2.1544922062317369 0 0 0 0 19.976429480520892 -1.5746507103604301 0 -1.5746507103604301 -3.7923247947223899 0 0 0 0 2.4849193155825304 -0.2509020228062866 0 -0.2509020228062866 0.36615069688588092 0 0 0 0 2.4570322171148291 10.082593212421767 0 10.082593212421767 18.583294104551214 0 0 0 0 0.12837800018655798 -0.207083262805142 0 -0.207083262805142 0.29044024617174785 0 0 0 0 46.466175973026111 36.602729466643098 0 36.602729466643098 -10.996985592497481 0 0 0 0 0.89621565751440357 -5.4931761957838416 0 -5.4931761957838416 4.1588782766460826 0 0 0 0 1.4558136159457717 -0.31429879634386804 0 -0.31429879634386804 1.7016103680241375 0 0 0 0 7.6592429903284938 -2.1471581468548364 0 -2.1471581468548364 1.9017172625558496 0 0 0 0 5.1076490493724123 -7.3803196232247625 0 -7.3803196232247625 4.8282115450749004 0 0 0 0 9.8655838651575323 -0.99524349483481422 0 -0.99524349483481422 -0.44240359540339025 0 0 0 0 7.409767960129102 -1.261728505634846 0 -1.261728505634846 0.011765141725882389 0 0 0 0 9.8063358838244312 -0.84892604781714243 0 -0.84892604781714243 0.51517881706423641 0 0 0 0 0.65992439304449135 0.43193863075718752 0 0.43193863075718752 0.17810969815734673 0 0 0 0 10.838949061064341 -1.2289378958950643 0 -1.2289378958950643 -0.0033028312019010675 0 0 0 0 0.79807121197504927 1.1949196997943119 0 1.1949196997943119 0.77617326000637232 0 0 0 0 10.926981912183692 -2.9842951795910206 0 -2.9842951795910206 0.88899253119240795 0 0 0 0 126.64272753924888 24.680860833659317 0 24.680860833659317 24.637161570056435 0 0 0 0 123.51899377202244 10.954295642199915 0 10.954295642199915 -2.7464612964272987 0 0 0 0 367.43477377703857 -5.0439523838819049 0 -5.0439523838819049 -27.985679184711124 0 0 0 0 200.07001416796993 31.965305910996868 0 31.965305910996868 0.049023915798063804 0 0 0 0 219.81171695096418 -17.41275730099315 0 -17.41275730099315 -2.9698717655453635 0 0 0 0 219.16378043210716 4.4817729956431265 0 4.4817729956431265 -11.54938437662409 0 0 0 0 115.39268005118083 27.799443958545083 0 27.799443958545083 -1.3523858856146944 0 0 0 0 117.23788212622458 4.2201090571089708 0 4.2201090571089708 6.7756624123509255 0 0 0 0 219.37968269371981 21.346394453958293 0 21.346394453958293 -11.581120219900242 0 0 0 0 202.79433976747532 -28.876292243541457 0 -28.876292243541457 -7.6047059519757454 0 0 0 0 0.5854987021040472 -0.44260517937789245 0 -0.44260517937789245 0.43064274483702203 0 0 0 0 305.66654304590702 60.803575277806843 0 60.803575277806843 -22.707770116554286 0 0 0 0 22.645952883489372 -44.832595302924034 0 -44.832595302924034 -2.2064947330626694 0 0 0 0 54.717719640315408 34.072603010800762 0 34.072603010800762 0.40229153301527276 0 0 0 0 13.712814919843368 -2.0625047781273844 0 -2.0625047781273844 0.93824782980514598 0 0 0 0 10.278112049010815 -2.2086363644649438 0 -2.2086363644649438 3.055193155707923 0 0 0 0 183.44600319460733 17.653692686810615 0 17.653692686810615 6.9028937660759482 0 0 0 0 85.450459244922968 23.489293476010118 0 23.489293476010118 13.553857799310322 0 0 0 0 192.21545044702361 -46.16046586015986 0 -46.16046586015986 8.0929120847990248 0 0 0 0 2.8864013191149169 0.9490617041351328 0 0.9490617041351328 1.461679341327752 0 0 0 0 13.983415381924715 -2.2808734076335888 0 -2.2808734076335888 2.1862703133149832 0 0 0 0 6.4486501882001903 -4.3122199551350917 0 -4.3122199551350917 0.46140334857577803 0 0 0 0 1.5542950088345151 -0.89706552703256648 0 -0.89706552703256648 -1.6086601880210183 0 0 0 0 8.718248682018384 -7.2720630193844897 0 -7.2720630193844897 -6.4994715777414029 0 0 0 0 3.0333327183025034 -2.8477189939090763 0 -2.8477189939090763 2.7256388208564286 0 0 0 0 11.591580315216561 3.73282944744426 0 3.73282944744426 -3.8141740338742451 0 0 0 0 134.13801568087365 -8.0727478171978646 0 -8.0727478171978646 13.062012211381056 0 0 0 0 198.10672545449779 35.458638965536807 0 35.458638965536807 -21.690222045159114 0 0 0 0 172.04804687002979 51.186262055516494 0 51.186262055516494 -11.463135724445465 0 0 0 0 1.1590170762700609 -1.2139710180623098 0 -1.2139710180623098 1.0143440383793116 0 0 0 0 118.65141790747293 -38.188116301929782 0 -38.188116301929782 -27.211764094443765 0 0 0 0 276.03250674447008 12.195550604538049 0 12.195550604538049 -48.283401447787298 0 0 0 0 296.60145682551956 133.17270718131863 0 133.17270718131863 18.539141512709051 0 0 0 0 1.0199837261592535 -0.88927021721724486 0 -0.88927021721724486 1.1423116211055366 0 0 0 0 51.80268685390547 -37.392653950953957 0 -37.392653950953957 61.860602167920632 0 0 0 0 35.849655756417633 -76.525133011998946 0 -76.525133011998946 -29.068062360082195 0 0 0 0 286.43188972999997 65.736878761033125 0 65.736878761033125 2.3323607365219914 0 0 0 0 256.27136118552153 101.39701529340155 0 101.39701529340155 -18.394189485097399 0 0 0 0 74.744341984776838 -58.101873707205186 0 -58.101873707205186 19.324407498200834 0 0 0 0 35.52166464912807 -5.5393774222642378 0 -5.5393774222642378 -8.896216944976004 0 0 0 0 13.03382765974419 -7.0289731351228895 0 -7.0289731351228895 2.3387312241743623 0 0 0 0 6.1196818926564447 -0.49031031470369157 0 -0.49031031470369157 8.1838749409108686 0 0 0 0 8.1213705201735138 -9.1435846228080422 0 -9.1435846228080422 10.259900240687443 0 0 0 0 -5.8483674319941201 -21.952465343708781 0 -21.952465343708781 15.514418049006338 0 0 0 0 73.709181090001948 6.0886447173245415 0 6.0886447173245415 1.4374801858674005 0 0 0 0 9.5301410926258541 12.240931983435758 0 12.240931983435758 12.031316069207151 0 0 0 0 1.4385215029426774 2.2162403910299844 0 2.2162403910299844 0.056489911781772983 0 0 0 0 16.917220103784786 9.8687244070241533 0 9.8687244070241533 1.3274156246030437 0 0 0 0 -12.662325350109313 26.140294090362374 0 26.140294090362374 5.799523340282164 0 0 0 0 9.7683822897524806 2.5820240889472643 0 2.5820240889472643 0.28642959367782339 0 0 0 0 61.523452298250049 -16.047091157713567 0 -16.047091157713567 -57.594069840064776 0 0 0 0 28.856580218913223 18.303739043594746 0 18.303739043594746 -37.97192885192635 0 0 0 0 32.680172085347294 -24.260356531826517 0 -24.260356531826517 11.913814593480311 0 0 0 0 73.270481431180087 -74.492310008802292 0 -74.492310008802292 -7.3750729389759044 0 0 0 0 91.098522799904458 -12.785345297516983 0 -12.785345297516983 -15.037136639220194 0 0 0 0 -7.1060842570977911 -1.0254153882586081 0 -1.0254153882586081 16.102576002547721 0 0 0 0 143.48583449542639 54.969495221843943 0 54.969495221843943 -4.1563943298262984 0 0 0 0 0.26107175262779947 -0.32883800730253654 0 -0.32883800730253654 0.57329449701271473 0 0 0 0 -68.71239215231617 -30.456226709217162 0 -30.456226709217162 4.3934531040711136 0 0 0 0 -37.120152030853205 -11.527345528032811 0 -11.527345528032811 -23.797531251731243 0 0 0 0 -11.073728400828259 13.778471903817376 0 13.778471903817376 -0.18322938686696943 0 0 0 0 -64.884967719182896 -5.9898423956601619 0 -5.9898423956601619 42.080679058016756 0 0 0 0 45.391001939031412 -65.765712388046481 0 -65.765712388046481 -20.336713240651363 0 0 0 0 84.913004871108569 19.242043548917934 0 19.242043548917934 1.1528278318342586 0 0 0 0 63.941315897689492 25.483402879599907 0 25.483402879599907 18.306833219905684 0 0 0 0 51.491605244682432 17.149331208742957 0 17.149331208742957 5.5747191936480931 0 0 0 0 58.219213335509949 27.065383338480657 0 27.065383338480657 4.7473663163957553 0 0 0 0 49.4023816917761 27.201418821553716 0 27.201418821553716 4.9061548594383737 0 0 0 0 0.96184337763145322 -1.112971476757366 0 -1.112971476757366 1.1041762162252571 0 0 0 0 83.461934156239295 12.775864015209493 0 12.775864015209493 -6.7255338040654351 0 0 0 0 36.574408503631275 -10.909656991123995 0 -10.909656991123995 14.142923706512761 0 0 0 0 110.5418289574809 21.543853053663327 0 21.543853053663327 -9.8130315629559988 0 0 0 0 3.8281758471784997 16.389272642103435 0 16.389272642103435 -4.4412793921271714 0 0 0 0 114.28043946385606 68.944379401316624 0 68.944379401316624 27.63092958465586 0 0 0 0 0.72098562302363689 -0.053489957989448556 0 -0.053489957989448556 -0.15925220262775919 0 0 0 0 4.231315150303999 -23.399926405304825 0 -23.399926405304825 2.3624684309212398 0 0 0 0 2.0580463092821901 0.99787938667560638 0 0.99787938667560638 -0.58447962212380467 0 0 0 0 -3.2320348369539715 4.7528449611204735 0 4.7528449611204735 0.42498594138965018 0 0 0 0 -1.5093878713050088 0.74496234967764252 0 0.74496234967764252 0.0069657197605186294 0 0 0 0 1.1295357303242781 1.7444087435365532 0 1.7444087435365532 -0.4679230897719151 0 0 0 0 0.90709212870933698 0.93987697835509465 0 0.93987697835509465 -0.34114946797183165 0 0 0 0 57.935076405692143 15.657668764561057 0 15.657668764561057 5.9104314899476549 0 0 0 0 10.285307169101543 -0.098145167624863916 0 -0.098145167624863916 -2.8249715223810199 0 0 0 0 9.4331202008761466 3.0563107248464121 0 3.0563107248464121 -0.21654117427692654 0 0 0 0 8.089330567716388 -2.1008800908986132 0 -2.1008800908986132 0.063135101642842528 0 0 0 0 -0.79861222432373324 -1.1783058614185791 0 -1.1783058614185791 3.4192296568660652 0 0 0 0 0.23088470269431127 7.43520284673437 0 7.43520284673437 -1.5833292256935749 0 0 0 0 2.2267808100613138 1.1372740175994096 0 1.1372740175994096 -0.48778121561890431 0 0 0 0 -1.1360240535632329 13.066255507680637 0 13.066255507680637 -1.5825378941657391 0 0 0 0 7.2156168992569292 -2.7001842195820061 0 -2.7001842195820061 2.3574801114921797 0 0 0 0 -4.1934051913704025 0.28310525354493166 0 0.28310525354493166 4.9352824452088981 0 0 0 0 71.945544002694078 38.735620321475096 0 38.735620321475096 -2.0237694553149197 0 0 0 0 95.41430129202854 25.7983525700337 0 25.7983525700337 -13.963433609736626 0 0 0 0 60.341801205184311 -25.796808652028375 0 -25.796808652028375 -11.060252743140836 0 0 0 0 38.814455720275873 7.0488246778606367 0 7.0488246778606367 -13.273121812651027 0 0 0 0 41.997834502413752 15.2558292611957 0 15.2558292611957 0.86282671706362635 0 0 0 0 66.798843308548385 17.921506855619754 0 17.921506855619754 -15.849963171654139 0 0 0 0 41.48103143901244 16.383354731934276 0 16.383354731934276 2.9021337472941298 0 0 0 0 76.62530926601903 9.3372719382192599 0 9.3372719382192599 3.4518792709620385 0 0 0 0 68.567324367235415 23.765303379419976 0 23.765303379419976 2.3205120409940037 0 0 0 0 72.658384537877282 24.191174127409177 0 24.191174127409177 23.168083469210885 0 0 0 0 72.948878663475625 22.777674960030552 0 22.777674960030552 4.986003046374222 0 0 0 0 69.101280346389103 26.065714940389654 0 26.065714940389654 2.5264702405781918 0 0 0 0 47.340193119103787 15.411274807084823 0 15.411274807084823 14.280003123435364 0 0 0 0 15.551678891060874 4.7239074436032098 0 4.7239074436032098 6.886871871467271 0 0 0 0 21.830679729668191 13.962184902632686 0 13.962184902632686 10.939769200626714 0 0 0 0 42.653830246759753 23.273832481270439 0 23.273832481270439 5.9015536932973305 0 0 0 0 -10.018173753313022 -4.7428155198679676 0 -4.7428155198679676 11.102292385481292 0 0 0 0 -0.1173593558069399 0.048168690651664292 0 0.048168690651664292 -0.0084052295223548609 0 0 0 0 0.88917102441337192 -1.0289778291047955 0 -1.0289778291047955 -7.8345630990353579 0 0 0 0 1.5952684512412816 22.56817445762665 0 22.56817445762665 18.557366950959192 0 0 0 0 21.205687285866588 24.324702413362459 0 24.324702413362459 11.163126807437095 0 0 0 0 47.696811436442658 29.551092231890816 0 29.551092231890816 -0.031508935188133975 0 0 0 0 46.746967529092217 18.532831600663776 0 18.532831600663776 9.7489878822381009 0 0 0 0 53.571278012646872 19.404234122034364 0 19.404234122034364 16.806184483739912 0 0 0 0 53.383017617088626 17.575029172831336 0 17.575029172831336 6.1160850441982433 0 0 0 0 78.78205641573004 47.191580468568013 0 47.191580468568013 -11.648956375396658 0 0 0 0 65.028982178933802 8.4398456072148917 0 8.4398456072148917 11.63048930455372 0 0 0 0 -1.0832155164691244 0.57827584321261227 0 0.57827584321261227 -0.070852696532523296 0 0 0 0 -3.9200244456628184 0.79854573509587845 0 0.79854573509587845 -0.20867988232649282 0 0 0 0 -7.8370081069333537 4.1020941535790243 0 4.1020941535790243 2.1935051866703645 0 0 0 0 3.3993814585119253 -0.92332805251760419 0 -0.92332805251760419 2.7239629603826927 0 0 0 0 7.5038584069552599 9.950944266093245 0 9.950944266093245 8.5996409843033632 0 0 0 0 -3.918704984280339 0.87413600641903599 0 0.87413600641903599 3.0808748358776228 0 0 0 0 -0.60021818894870194 0.10595797844120369 0 0.10595797844120369 -0.029983862341484112 0 0 0 0 -1.3775025591785379 0.99402759184105816 0 0.99402759184105816 -0.009485936823043141 0 0 0 0 -1.4260787306629936 -0.28032376239542722 0 -0.28032376239542722 -0.90391656686611777 0 0 0 0 1.4349322113193921 -6.0338006264414759 0 -6.0338006264414759 -5.318784381750973 0 0 0 0 -0.69383744279912207 -1.477506622317551 0 -1.477506622317551 -2.5656982206435841 0 0 0 0 -1.4108547438754613 -0.32119409799986409 0 -0.32119409799986409 -1.4660548284819492 0 0 0 0 -1.5447088563269062 -1.1184668560008304 0 -1.1184668560008304 0.029696989128981961 0 0 0 0 -0.80656626631389372 -1.8505393132936827 0 -1.8505393132936827 -0.92298483729118042 0 0 0 0 0.19743236703368439 0.21264096903760787 0 0.21264096903760787 -0.0026163696290669031 0 0 0 0 2.101102086253178 1.1284905892618156 0 1.1284905892618156 -0.477406666612671 0 0 0 0 31.687121437411406 -27.59764118049705 0 -27.59764118049705 6.590544726118992 0 0 0 0 102.26543710730039 16.233883198072348 0 16.233883198072348 4.0432272368806288 0 0 0 0 0.53920665826726122 0.069791261197188703 0 0.069791261197188703 -0.033847662694080335 0 0 0 0 103.49968739835549 14.219515795320309 0 14.219515795320309 -6.6416282517870826 0 0 0 0 103.60816693963898 15.661646016448158 0 15.661646016448158 0.2819463629801362 0 0 0 0 21.838120574335335 22.919422289823352 0 22.919422289823352 7.2453011819630282 0 0 0 0 101.92428509792808 9.9777252997030104 0 9.9777252997030104 -5.4465238491689734 0 0 0 0 102.55275042910944 9.1820804374991951 0 9.1820804374991951 -5.347083996371893 0 0 0 0 102.57412031287095 12.457484207062663 0 12.457484207062663 0.69263686854913753 0 0 0 0 112.86413482810894 7.0883745620365941 0 7.0883745620365941 -0.037074793867505028 0 0 0 0 55.402313580074406 23.004011250436037 0 23.004011250436037 4.2875860102439605 0 0 0 0 8.8260162944134208 0.070486916760710727 0 0.070486916760710727 24.106806995724064 0 0 0 0 -0.223583154183288 0.10189254285819516 0 0.10189254285819516 -0.20126288641453324 0 0 0 0 7.0107251377230568 44.664230107645196 0 44.664230107645196 -0.044560757703431805 0 0 0 0 0.00035643345671942939 0.091573258144265424 0 0.091573258144265424 0.078718120782694578 0 0 0 0 -4.9983872673710721 -12.577853380693453 0 -12.577853380693453 2.0647541001329159 0 0 0 0 54.402119370926812 -7.4284863161549382 0 -7.4284863161549382 31.393634427395426 0 0 0 0 53.853807839121146 -2.2858710667467506 0 -2.2858710667467506 -14.753423704571361 0 0 0 0 51.361584409853094 26.82977830525121 0 26.82977830525121 2.2714619591341147 0 0 0 0 51.293412110331701 25.795116228069475 0 25.795116228069475 8.148205752390993 0 0 0 0 -0.022451657815956594 0.14794934525124859 0 0.14794934525124859 0.097746409463883688 0 0 0 0 21.234423590332881 7.9007854446643506 0 7.9007854446643506 3.5104859988188366 0 0 0 0 5.2902938730258029 1.797609058351469 0 1.797609058351469 -1.088299475034205 0 0 0 0 8.6539095063271816 9.4242606634087736 0 9.4242606634087736 -2.4729862421110056 0 0 0 0 -2.2596303813770646 14.389661641869857 0 14.389661641869857 4.4064213679646969 0 0 0 0 -0.1420439886423992 2.7108371983391635 0 2.7108371983391635 8.1507780261651988 0 0 0 0 2.7044218939627171 17.037776017019212 0 17.037776017019212 6.0350866228611437 0 0 0 0 55.668257673329208 1.1097124503399129 0 1.1097124503399129 -2.6823735577740422 0 0 0 0 55.663349064315753 1.4886682646053409 0 1.4886682646053409 -11.214227332820485 0 0 0 0 56.344717801082879 0.19686322665674538 0 0.19686322665674538 -16.00947389409426 0 0 0 0 42.67570119314405 14.127746876451567 0 14.127746876451567 1.020250021519189 0 0 0 0 7.2582596301253943 -6.7260422617314184 0 -6.7260422617314184 4.0592459844469033 0 0 0 0 8.3695462262658111 10.08781394249857 0 10.08781394249857 -2.3720740822384414 0 0 0 0 92.19844070806721 4.2354998250065563 0 4.2354998250065563 -16.378765847146269 0 0 0 0 4.3613912027723529 2.1549520596605376 0 2.1549520596605376 0.83338298988743931 0 0 0 0 0.91340367393851807 0.45008412978395995 0 0.45008412978395995 0.17682042782266627 0 0 0 0 23.848570528876735 37.664781829701781 0 37.664781829701781 38.250577431884835 0 0 0 0 5.3905916108778911 3.826701818423504 0 3.826701818423504 -0.98145052242951958 0 0 0 0 1.799850206123665 3.3954502429569642 0 3.3954502429569642 -0.0029068119135825577 0 0 0 0 3.5915741744502157 2.3221667165040891 0 2.3221667165040891 -0.60507963547531851 0 0 0 0 5.0699825611100096 3.7821009287726737 0 3.7821009287726737 -8.3447347700319006e-05 0 0 0 0 5.049531454758835 4.3582668871526336 0 4.3582668871526336 0.73157127843407732 0 0 0 0 6.4296280024054795 2.7573157824256946 0 2.7573157824256946 0.71521716708314464 0 0 0 0 6.0776039008633234 3.6284906189884323 0 3.6284906189884323 -0.35025087607577399 0 0 0 0 7.8035559730305977 3.6690241777023038 0 3.6690241777023038 0.0022171592245623837 0 0 0 0 -9.4405171999969753 7.8097501433703371 0 7.8097501433703371 4.8303409940618849 0 0 0 0 -10.328479637807959 -1.1606129135562657 0 -1.1606129135562657 2.3640914316191584 0 0 0 0 0.68179829425162808 0.91196221935044264 0 0.91196221935044264 -0.49964943086418745 0 0 0 0 0.076261487947704154 4.5378426518721398 0 4.5378426518721398 -2.4303054475020645 0 0 0 0 1.9613862148471526 13.793889050647749 0 13.793889050647749 -2.5519877215761539 0 0 0 0 1.9531929633115936 1.8172091318873171 0 1.8172091318873171 0.8849505403381408 0 0 0 0 -0.38973122612787847 0.84296787434847431 0 0.84296787434847431 -5.8468639309670607 0 0 0 0 1.702797998104586 0.48836455674273793 0 0.48836455674273793 2.5672261519332289 0 0 0 0 5.2719514189806773 2.9470703236889904 0 2.9470703236889904 0.43557071786799612 0 0 0 0 4.4212771145903389 -0.27753243153654239 0 -0.27753243153654239 2.0946232677467833 0 0 0 0 7.5789597082187043 3.8798784222882148 0 3.8798784222882148 -1.0404768499800721 0 0 0 0 7.8960831114964094 1.1691399279072812 0 1.1691399279072812 0.77794673981304641 0 0 0 0 3.921612366657655 1.0877694866498615 0 1.0877694866498615 0.9980809836293596 0 0 0 0 4.2456234471028438 4.5136878245497201 0 4.5136878245497201 3.1370450296548142 0 0 0 0 5.0176604227453936 -0.66089912933773576 0 -0.66089912933773576 16.30847494298996 0 0 0 0 1.0048765714943215 0.60627894193039822 0 0.60627894193039822 -0.48170964850821418 0 0 0 0 7.1230903907016909 4.0203105498381095 0 4.0203105498381095 -0.23943504728847742 0 0 0 0 5.0929337707821105 3.6416408287083604 0 3.6416408287083604 1.1517484654875343 0 0 0 0 4.8281991030908102 4.3552553297312873 0 4.3552553297312873 0.82624105044233431 0 0 0 0 66.928241698544298 2.2992589117829993 0 2.2992589117829993 8.6387967744240086 0 0 0 0 3.8493678619633442 1.7252342166968901 0 1.7252342166968901 1.1497207813175696 0 0 0 0 4.1494406139603086 2.4866451904367182 0 2.4866451904367182 1.1848105999709329 0 0 0 0 7.1129240684622346 0.54943377170580732 0 0.54943377170580732 -3.1440423298751625 0 0 0 0 4.3601501748962619 1.7261529031782175 0 1.7261529031782175 1.6802224330319859 0 0 0 0 119.06510352627811 -58.715267528041522 0 -58.715267528041522 4.2891070272809202 0 0 0 0 206.78034342343744 -69.569731702963395 0 -69.569731702963395 22.243812452142265 0 0 0 0 105.82871855625126 -73.622501240955444 0 -73.622501240955444 40.980560087554636 0 0 0 0 73.34170660520158 -77.504850535308762 0 -77.504850535308762 58.830057045977583 0 0 0 0 216.19427338212154 -23.404481921351234 0 -23.404481921351234 -1.1367031387612769 0 0 0 0 269.25342286680097 -113.255980178784 0 -113.255980178784 58.344574609785482 0 0 0 0 112.1633129465481 -61.226706671793636 0 -61.226706671793636 -0.5118497176836172 0 0 0 0 206.68911347091489 -60.160927798329112 0 -60.160927798329112 -65.726520997369335 0 0 0 0 152.50418059400181 86.467925903295622 0 86.467925903295622 111.77557753811561 0 0 0 0 223.23246253843899 -84.330805801572865 0 -84.330805801572865 -1.0647026621509212 0 0 0 0 0.67862619312784034 0.39789814099907517 0 0.39789814099907517 -0.91438224644797739 0 0 0 0 139.20103669817763 -21.917305715272562 0 -21.917305715272562 -13.054571497779762 0 0 0 0 136.01441605206855 -16.634133273624116 0 -16.634133273624116 42.474539642012587 0 0 0 0 103.66338240528421 -53.122170324358194 0 -53.122170324358194 55.858778142472488 0 0 0 0 124.4919252979962 -67.570683862132682 0 -67.570683862132682 50.942006202325047 0 0 0 0 32.143607485420944 -9.5350820171479995 0 -9.5350820171479995 3.3270563474441133 0 0 0 0 137.6534829377124 -55.547094767038743 0 -55.547094767038743 17.182930171337375 0 0 0 0 -4.8827604109610547 2.5831282123392612 0 2.5831282123392612 43.846463349941047 0 0 0 0 -0.95981656097138313 0.52675583788183644 0 0.52675583788183644 1.5332099322561241 0 0 0 0 -0.44318103423486122 -3.2493915393971093 0 -3.2493915393971093 5.2327084562040422 0 0 0 0 27.225422382663965 -2.6412423000523404 0 -2.6412423000523404 32.950428388438695 0 0 0 0 5.5143845609595559 -3.5317372227074841 0 -3.5317372227074841 3.9179913048979356 0 0 0 0 21.972423217350297 -6.3702646624084309 0 -6.3702646624084309 10.031393870649595 0 0 0 0 13.612812303447228 6.2630281109592758 0 6.2630281109592758 -1.5701761134397876 0 0 0 0 -18.415226067205367 14.72192741251979 0 14.72192741251979 4.6115844195250304 0 0 0 0 24.88961932365055 -1.7882016630359914 0 -1.7882016630359914 3.633217903209129 0 0 0 0 30.951202363407901 -5.595918993618497 0 -5.595918993618497 0.14567575240516817 0 0 0 0 33.503963299644965 -13.238417286985964 0 -13.238417286985964 7.6015152446742036 0 0 0 0 24.187518134433049 -3.0424253282850486 0 -3.0424253282850486 4.3626249251774425 0 0 0 0 43.474136537515733 -13.704272067347461 0 -13.704272067347461 -0.61649075276409349 0 0 0 0 -1.3895219210434959 -3.3681040142702159 0 -3.3681040142702159 6.2902668731661908 0 0 0 0 44.729018306228681 -18.719227344557339 0 -18.719227344557339 10.313397519983027 0 0 0 0 2.4618489400829873 -2.684772096427757 0 -2.684772096427757 -2.7382399664672197 0 0 0 0 48.297162497798126 -10.289437346810132 0 -10.289437346810132 -0.0022396042786567705 0 0 0 0 43.48488114792417 -15.367803541712192 0 -15.367803541712192 4.2251132839182901 0 0 0 0 54.566863958058093 -12.158024036896279 0 -12.158024036896279 -0.1507212353885734 0 0 0 0 95.455595639945386 -31.514257753360425 0 -31.514257753360425 -1.7033134360349322 0 0 0 0 -50.064961434130964 85.085338366794417 0 85.085338366794417 -180.14425931919595 0 0 0 0 -62.555225608841283 1.8703616080443908 0 1.8703616080443908 16.691875596256978 0 0 0 0 0.95541644143068538 -0.0018752013595246808 0 -0.0018752013595246808 -1.928324183822554 0 0 0 0 96.106371757094166 -6.2830501036858095 0 -6.2830501036858095 7.5908045683968339 0 0 0 0 -2.2203200620891685 -2.2443143491735285 0 -2.2443143491735285 9.3976416866932553 0 0 0 0 76.654054357806672 -20.540915200864475 0 -20.540915200864475 3.2899127120654157 0 0 0 0 48.724483049329137 -17.615491227493976 0 -17.615491227493976 3.8838753068039296 0 0 0 0 67.794153081978948 5.1564077096967367 0 5.1564077096967367 6.2460936493293957 0 0 0 0 93.944191330512695 15.627470891408848 0 15.627470891408848 25.020707298528578 0 0 0 0 92.103943215246545 -32.890754581811052 0 -32.890754581811052 10.281960837786755 0 0 0 0 84.523845704614814 -29.451536908264188 0 -29.451536908264188 10.497868706676854 0 0 0 0 83.667704084742581 -16.047542956180223 0 -16.047542956180223 -11.43925061705545 0 0 0 0 94.475337537880478 -28.309458249761178 0 -28.309458249761178 -18.179740812285672 0 0 0 0 93.384124409305514 -45.430829401790106 0 -45.430829401790106 -5.1567668597435841 0 0 0 0 94.689192864992947 -46.196523936107496 0 -46.196523936107496 -5.6396936917394669 0 0 0 0 86.725490774289938 -44.522154592232255 0 -44.522154592232255 20.595558226184039 0 0 0 0 30.381590164870431 -44.849152892126313 0 -44.849152892126313 24.857160244228908 0 0 0 0 152.27545741961512 -38.815140708870558 0 -38.815140708870558 -4.7992098484000962 0 0 0 0 92.936525262259238 -86.151075997562202 0 -86.151075997562202 31.20955003631218 0 0 0 0 110.91739168179629 -17.68450885443508 0 -17.68450885443508 51.678245844959434 0 0 0 0 110.60019729830674 -40.730137641746296 0 -40.730137641746296 -3.0140616864578078 0 0 0 0 112.82269221951174 -7.2327688009828535 0 -7.2327688009828535 -26.768196258050921 0 0 0 0 78.485063614971295 -20.813977560622106 0 -20.813977560622106 -31.033868765510988 0 0 0 0 81.462506207375554 16.497744225782981 0 16.497744225782981 -67.386215796468605 0 0 0 0 45.352476130672585 34.77040028770341 0 34.77040028770341 -47.386653368082534 0 0 0 0 115.22036105023744 -19.202078907676118 0 -19.202078907676118 -26.310922258761821 0 0 0 0 93.788502378258272 -17.298278835733981 0 -17.298278835733981 -0.40304552240977465 0 0 0 0 37.543508729439054 -40.903325122149397 0 -40.903325122149397 33.897563632864561 0 0 0 0 2.999029773156451 -0.81751723292793343 0 -0.81751723292793343 -0.60675258520675301 0 0 0 0 9.1158083185418946 -1.0646775056663671 0 -1.0646775056663671 -2.6260239444601439 0 0 0 0 2.3284051327536872 3.9563701346054785 0 3.9563701346054785 3.2085535670701688 0 0 0 0 66.304086369978904 27.31034439873909 0 27.31034439873909 21.632587691542597 0 0 0 0 -0.25178490690255728 0.092118325439422222 0 0.092118325439422222 0.14987850100360056 0 0 0 0 89.119519160623895 11.431655124390375 0 11.431655124390375 -8.641428197941849 0 0 0 0 69.577367693618726 -18.963314200655361 0 -18.963314200655361 -2.0612302870740109 0 0 0 0 0.91812096305119439 0.44814465341173104 0 0.44814465341173104 0.33472173901285052 0 0 0 0 0.55200999084627256 -4.6176225923813945 0 -4.6176225923813945 1.1616140877750354 0 0 0 0 4.2827193616358272 -10.086043437667328 0 -10.086043437667328 15.986958534128007 0 0 0 0 14.551987458055194 8.1607104169186684 0 8.1607104169186684 0.069092530508814587 0 0 0 0 -7.4820130579828401 63.466566142419879 0 63.466566142419879 25.686072307267885 0 0 0 0 94.191397108028468 -10.406351585332061 0 -10.406351585332061 -34.487681233593094 0 0 0 0 26.771849433949683 15.039983699154732 0 15.039983699154732 -4.3051167833311865 0 0 0 0 45.049181569731445 3.0700586452275047 0 3.0700586452275047 -6.339613014405856 0 0 0 0 13.371851013078413 3.6588770113380633 0 3.6588770113380633 17.478661901543092 0 0 0 0 42.963336916320259 -0.83662639952228801 0 -0.83662639952228801 8.0410245889752332 0 0 0 0 48.54999135631806 12.129449235075299 0 12.129449235075299 17.537753901550104 0 0 0 0 49.314423299263581 6.3418328035504601 0 6.3418328035504601 33.060949593399528 0 0 0 0 70.407346228210372 -2.0676117518223691 0 -2.0676117518223691 11.794993845098816 0 0 0 0 17.557856375753019 8.4911777605033265 0 8.4911777605033265 0.93064024257756284 0 0 0 0 10.778684106242963 15.567577106817609 0 15.567577106817609 6.2302186279403031 0 0 0 0 38.556128558612272 -11.996936555471335 0 -11.996936555471335 -11.852724430232911 0 0 0 0 36.694491565478529 17.365224725934524 0 17.365224725934524 -39.835368290368251 0 0 0 0 20.459109159751051 -5.6974596422080523 0 -5.6974596422080523 -1.2653567233205691 0 0 0 0 14.266044349664298 -12.491293987488973 0 -12.491293987488973 -0.71528362013600599 0 0 0 0 14.254781518226082 -12.090617092987145 0 -12.090617092987145 -1.8062707484205021 0 0 0 0 14.667060248582857 -13.904525924420454 0 -13.904525924420454 -0.30712253506732168 0 0 0 0 34.288245408127295 -0.91976956878983174 0 -0.91976956878983174 -4.9710576206095993 0 0 0 0 20.369127908779802 -5.5334129726717833 0 -5.5334129726717833 -1.3602457754479418 0 0 0 0 14.645339150818472 -13.44302234157027 0 -13.44302234157027 -2.0522679880897385 0 0 0 0 21.103327079297742 -8.4345048289494571 0 -8.4345048289494571 -7.0526166899097689 0 0 0 0 20.380440063723654 -10.919942785905278 0 -10.919942785905278 -0.25303933683380819 0 0 0 0 5.4987124404422474 3.0917580236428028 0 3.0917580236428028 0.5621202247184478 0 0 0 0 17.424822004781163 -6.5830281907898325 0 -6.5830281907898325 12.779981898411506 0 0 0 0 13.040813117448124 -9.5000117723673156 0 -9.5000117723673156 11.340575157447603 0 0 0 0 22.834322702197824 26.45017547727673 0 26.45017547727673 10.654145714827109 0 0 0 0 18.686860292946164 6.6990429018335007 0 6.6990429018335007 1.7643518328922481 0 0 0 0 26.408417779392039 22.437165565709051 0 22.437165565709051 1.5172136856003817 0 0 0 0 41.340733092147275 43.647042295371079 0 43.647042295371079 5.8452589678818185 0 0 0 0 1.8504121556781428 3.4498322288101786 0 3.4498322288101786 0.36576642896252842 0 0 0 0 -12.374928568213363 31.259970243774205 0 31.259970243774205 29.858261302974029 0 0 0 0 9.6472032959100034 -36.940687550902993 0 -36.940687550902993 108.72949796685725 0 0 0 0 23.951259951136308 10.230306895265471 0 10.230306895265471 -8.2073117786545708 0 0 0 0 105.31479448849859 -45.242203432484075 0 -45.242203432484075 -2.4702125769829308 0 0 0 0 99.320099549964652 30.382354109251992 0 30.382354109251992 -5.9445037777370544 0 0 0 0 17.757451669254806 -0.40479893793735755 0 -0.40479893793735755 -0.20239356462789271 0 0 0 0 52.127523807459511 -2.8094007015647549 0 -2.8094007015647549 -19.589757693487854 0 0 0 0 17.27110544032621 0.56050595958731719 0 0.56050595958731719 -5.8454980610192706 0 0 0 0 21.649404345791652 -0.83008137162604356 0 -0.83008137162604356 -0.28501383871831071 0 0 0 0 14.501730486075374 -3.2448231419611062 0 -3.2448231419611062 -0.96811361043968258 0 0 0 0 11.536583809144048 3.312441526763287 0 3.312441526763287 0.88193837784486595 0 0 0 0 11.919998287383351 -2.0855821321977146 0 -2.0855821321977146 3.9728379010144295 0 0 0 0 6.8349805070244685 -2.8525923033223828 0 -2.8525923033223828 0.22485490814081022 0 0 0 0 21.236484734348778 1.075059972655481 0 1.075059972655481 1.4903913326479596 0 0 0 0 35.900257782392146 -84.0647894003082 0 -84.0647894003082 105.1493403820441 0 0 0 0 18.675227128507686 -19.652348149748605 0 -19.652348149748605 0.42407054329852834 0 0 0 0 2.2967207522014519 -0.45944709945919904 0 -0.45944709945919904 0.11943514914000194 0 0 0 0 45.337869193856022 11.003515689292044 0 11.003515689292044 69.816980415567286 0 0 0 0 27.90372372159618 -15.182784000151059 0 -15.182784000151059 33.610780034778145 0 0 0 0 27.770067496559932 -41.248265801305024 0 -41.248265801305024 45.020396286295181 0 0 0 0 13.356146366277244 -6.9746443239694145 0 -6.9746443239694145 -2.1120940815203539 0 0 0 0 16.105827477706043 -20.85795356497556 0 -20.85795356497556 -7.8672664537889432 0 0 0 0 -21.218399558056262 27.238565833105213 0 27.238565833105213 -10.170959876469738 0 0 0 0 18.092460450741541 -4.9828323050063048 0 -4.9828323050063048 1.9546663444231687 0 0 0 0 30.789139452731789 -4.8906941579499374 0 -4.8906941579499374 -5.0289528564442385 0 0 0 0 -54.383893335425455 -74.761779520540927 0 -74.761779520540927 83.865053772020474 0 0 0 0 19.742130523420201 11.603232090140011 0 11.603232090140011 33.763855231650894 0 0 0 0 30.879870179905993 -19.824196203861106 0 -19.824196203861106 45.95817191901449 0 0 0 0 25.524234947588411 1.4280526284157986 0 1.4280526284157986 19.703041603911032 0 0 0 0 48.298207200190518 -1.762078938796094 0 -1.762078938796094 9.7524620234803479 0 0 0 0 21.669792402870371 -16.876570667532178 0 -16.876570667532178 -24.669132214675301 0 0 0 0 38.063183064965415 9.9470408937763608 0 9.9470408937763608 -2.7455698216904523 0 0 0 0 27.433764190388857 2.857227990677405 0 2.857227990677405 -0.39825173280850523 0 0 0 0 48.162789640655319 -33.361974358335019 0 -33.361974358335019 17.825613835618043 0 0 0 0 5.8501873791792605 31.265797923067339 0 31.265797923067339 63.618152716274153 0 0 0 0 27.413181155136932 2.1506742663591547 0 2.1506742663591547 -1.2470316440342315 0 0 0 0 48.418975983626297 25.496975794317791 0 25.496975794317791 -26.542652001602505 0 0 0 0 83.091827708822166 -67.428178103861455 0 -67.428178103861455 8.1322904520475277 0 0 0 0 76.311783546054357 -6.1702189526509983 0 -6.1702189526509983 -25.534549009182911 0 0 0 0 1.9840423267965122 0.10112978287906316 0 0.10112978287906316 -0.45038054502384384 0 0 0 0 -27.175763743087373 91.821640908537461 0 91.821640908537461 5.4623570360690792 0 0 0 0 -97.634449923265493 -13.067190271856703 0 -13.067190271856703 44.898493082208006 0 0 0 0 189.53062755942665 21.105968293019032 0 21.105968293019032 -78.028791935267691 0 0 0 0 34.957281995583216 0.75221752814587539 0 0.75221752814587539 -7.3904576472103223 0 0 0 0 14.057328495955517 -39.344332374301274 0 -39.344332374301274 97.848646725298295 0 0 0 0 129.75380238093931 -159.90047185761415 0 -159.90047185761415 150.25916073200256 0 0 0 0 133.93065597668829 -122.07848244500678 0 -122.07848244500678 86.699313906385214 0 0 0 0 102.10885405638396 -103.26875338554639 0 -103.26875338554639 169.45154124855537 0 0 0 0 108.20890092020318 -55.843295543945366 0 -55.843295543945366 43.475433716820135 0 0 0 0 65.92621199120488 8.3583904919954755 0 8.3583904919954755 -6.0899719178108986 0 0 0 0 148.07918205946044 -119.27854413931297 0 -119.27854413931297 85.414612542430547 0 0 0 0 265.1477747447716 -85.09458243285394 0 -85.09458243285394 38.779025494561949 0 0 0 0 147.2654798527019 41.303946808104968 0 41.303946808104968 -34.371587753004974 0 0 0 0 74.478387251434469 -5.6934821623395635 0 -5.6934821623395635 35.887107873613694 0 0 0 0 89.944603014999302 -7.3565176833863006 0 -7.3565176833863006 -21.423991645166325 0 0 0 0 73.059903490689976 -16.920863301342706 0 -16.920863301342706 -0.26440993708547467 0 0 0 0 66.282356774607209 10.933955311291928 0 10.933955311291928 -6.2009937619824749 0 0 0 0 145.8134021859878 -46.68384599803403 0 -46.68384599803403 331.4169205172002 0 0 0 0 -127.48478436085861 218.9302395279301 0 218.9302395279301 122.13630419340502 0 0 0 0 87.535875368608686 -1.0423237680010971 0 -1.0423237680010971 -0.14631456108565999 0 0 0 0 12.843271775280236 -3.8087795254557975 0 -3.8087795254557975 6.7549177453948008 0 0 0 0 75.520848548905633 24.399475627315496 0 24.399475627315496 45.503066910588586 0 0 0 0 396.42893662333518 309.38470309734953 0 309.38470309734953 -153.71893044823628 0 0 0 0 140.37917895119608 -93.486369023514726 0 -93.486369023514726 13.011666756894556 0 0 0 0 73.575045226505608 5.2688751989941238 0 5.2688751989941238 -110.32166961132225 0 0 0 0 30.432913687301209 2.0433899695874764 0 2.0433899695874764 2.2640565147094507 0 0 0 0 2.6129522572846327 21.543402348121163 0 21.543402348121163 12.160790142538303 0 0 0 0 25.681184185339042 -4.5019009437839337 0 -4.5019009437839337 4.3245151304097025 0 0 0 0 27.991462511560229 9.022225379927967 0 9.022225379927967 0.40252880184327644 0 0 0 0 29.965073620769545 -2.8210841598213392 0 -2.8210841598213392 -2.7926636847793134 0 0 0 0 142.76274402088529 36.120801220789872 0 36.120801220789872 4.5582654095078396 0 0 0 0 9.9037683745391867 6.4499047094817001 0 6.4499047094817001 5.5955383495084119 0 0 0 0 13.947159745835052 4.5606937051800323 0 4.5606937051800323 3.1975594080967653 0 0 0 0 1.0877710721141227 3.3669913438487349 0 3.3669913438487349 5.1115990604788832 0 0 0 0 97.720526973673259 -11.444363277594903 0 -11.444363277594903 37.37838499017289 0 0 0 0 5.4066859691079481 1.4316864794251849 0 1.4316864794251849 4.8983840767677647 0 0 0 0 144.38874810036214 -17.036604597454243 0 -17.036604597454243 76.963888749029934 0 0 0 0 160.64336515394825 -146.7895657629374 0 -146.7895657629374 128.50384205312048 0 0 0 0 9.2531981635262426 3.8878879940110869 0 3.8878879940110869 3.1532329911756705 0 0 0 0 190.38403693255532 -163.54831647411766 0 -163.54831647411766 127.70207166232058 0 0 0 0 412.98811887245029 -342.31773218196645 0 -342.31773218196645 258.95423762817336 0 0 0 0 -138.22698740197666 -181.62136184412748 0 -181.62136184412748 524.99502997945183 0 0 0 0 160.81848172387618 -178.11297479687437 0 -178.11297479687437 174.43127498615922 0 0 0 0 327.24867151516446 -209.27076134466915 0 -209.27076134466915 158.15896721887566 0 0 0 0 565.50864325036673 -45.512380245159875 0 -45.512380245159875 268.4617545098763 0 0 0 0 345.3209199373814 -275.38677609465321 0 -275.38677609465321 545.7297366210023 0 0 0 0 403.22125680491808 -222.32250398198585 0 -222.32250398198585 150.51784873669294 0 0 0 0 303.07950738779618 -41.356686693402025 0 -41.356686693402025 63.483343801958654 0 0 0 0 296.04518019880925 -29.068309985208543 0 -29.068309985208543 50.099665831829952 0 0 0 0 976.1889211204907 -195.24893386069743 0 -195.24893386069743 16.851995093526057 0 0 0 0 0.17368260742845365 -0.54263424428547324 0 -0.54263424428547324 2.5138035963466701 0 0 0 0 501.41117567935726 248.72870279866129 0 248.72870279866129 133.53320358549536 0 0 0 0 0.034825262524691425 -0.2986273713839056 0 -0.2986273713839056 0.70381402269169557 0 0 0 0 321.69639009259845 -34.294294482687974 0 -34.294294482687974 35.685538607922354 0 0 0 0 112.27803796977969 278.34648922181032 0 278.34648922181032 48.43103609946229 0 0 0 0 136.91085521502964 -2.1220008441316338 0 -2.1220008441316338 46.242120483023427 0 0 0 0 312.38037420704495 -20.418448915007048 0 -20.418448915007048 22.937033599549068 0 0 0 0 203.75532640452002 -94.208756983927969 0 -94.208756983927969 69.127673127495427 0 0 0 0 215.34308227499014 -194.6414705842846 0 -194.6414705842846 135.02229432493618 0 0 0 0 118.68658857998525 -158.76312273894666 0 -158.76312273894666 192.36552560815289 0 0 0 0 318.84015798575911 -147.90609326428495 0 -147.90609326428495 191.76405376833645 0 0 0 0 208.26457495481372 -191.83674086089718 0 -191.83674086089718 302.89048438198733 0 0 0 0 238.38952919688018 -139.43220497001721 0 -139.43220497001721 138.10027958535738 0 0 0 0 316.71924321246843 -52.583355873259734 0 -52.583355873259734 229.90136455718766 0 0 0 0 206.85980849374073 -179.31073415575705 0 -179.31073415575705 191.51206953377005 0 0 0 0 95.334311004495248 -159.40304290722338 0 -159.40304290722338 228.94675553745674 0 0 0 0 77.371755753324578 -110.62545047750174 0 -110.62545047750174 175.39239156367466 0 0 0 0 118.50150510249046 -160.88507063457354 0 -160.88507063457354 172.73488478128525 0 0 0 0 52.664439080632292 21.614180906629372 0 21.614180906629372 -45.856304457031456 0 0 0 0 47.179986954135529 -35.199256089483242 0 -35.199256089483242 39.604128176289123 0 0 0 0 152.06217905576796 -85.097131888193644 0 -85.097131888193644 15.348600676527894 0 0 0 0 1.4074501591786799 -0.45794705442047601 0 -0.45794705442047601 -1.183198184887992 0 0 0 0 109.3809956330615 -150.91995658183089 0 -150.91995658183089 82.341451402875464 0 0 0 0 183.14951895798004 -91.051592912938304 0 -91.051592912938304 138.25870038042285 0 0 0 0 38.781751869533764 -33.041778019224239 0 -33.041778019224239 72.966854189823778 0 0 0 0 230.74976366282317 -131.19749909590928 0 -131.19749909590928 53.232723149484855 0 0 0 0 258.68562271259543 -218.58061565854598 0 -218.58061565854598 108.45939465763013 0 0 0 0 281.44867114384397 -246.69526709855654 0 -246.69526709855654 133.2306978382303 0 0 0 0 335.06817467772089 -184.17203071114045 0 -184.17203071114045 121.41764939737459 0 0 0 0 242.50880730171048 -168.86136780496179 0 -168.86136780496179 37.31436482670415 0 0 0 0 546.0135364032667 -240.47722873815974 0 -240.47722873815974 52.906823726913217 0 0 0 0 264.4297368758987 -279.67756772114973 0 -279.67756772114973 220.59259200080214 0 0 0 0 348.26370424806555 -109.00119157349627 0 -109.00119157349627 140.02825795884837 0 0 0 0 388.88236188168958 -232.94718011649275 0 -232.94718011649275 135.98473829950626 0 0 0 0 181.72435572847394 -174.49796711056609 0 -174.49796711056609 119.52801166562404 0 0 0 0 154.82178955593145 -23.281125635994215 0 -23.281125635994215 16.928759925689519 0 0 0 0 135.51087494114472 -150.83435331940109 0 -150.83435331940109 102.76418817580043 0 0 0 0 11.014254466682623 2.1955637094096199 0 2.1955637094096199 -1.1013895963788514 0 0 0 0 -25.058116325601077 147.742551319634 0 147.742551319634 -199.70420058103809 0 0 0 0 -31.381579870399946 104.97938930096598 0 104.97938930096598 -185.72853690993043 0 0 0 0 -167.14815551353968 112.49102998275157 0 112.49102998275157 -8.6416100199257926 0 0 0 0 67.164725549228024 13.782933352228156 0 13.782933352228156 -91.911673291035186 0 0 0 0 -124.85615184731432 228.21250842636618 0 228.21250842636618 -254.95126088142433 0 0 0 0 14.124369728494635 3.1687101363820895 0 3.1687101363820895 -1.2665375399661372 0 0 0 0 34.420139804125938 -90.838483789008023 0 -90.838483789008023 45.482007844104373 0 0 0 0 35.494241937891275 -22.216546034585463 0 -22.216546034585463 -17.746475248711249 0 0 0 0 28.416503389769787 -62.872681283710335 0 -62.872681283710335 75.580769792582032 0 0 0 0 33.968100928272179 -102.44995824289435 0 -102.44995824289435 59.985444907699559 0 0 0 0 21.741864312863527 -65.969506999030841 0 -65.969506999030841 60.357209985060763 0 0 0 0 67.749491574286367 -107.31534407888239 0 -107.31534407888239 15.783000993901169 0 0 0 0 9.2318187495943675 -19.350029577394935 0 -19.350029577394935 -38.417796346559953 0 0 0 0 66.281164720585366 -86.063013691946935 0 -86.063013691946935 -53.814546003433861 0 0 0 0 66.8757683228323 22.221762525316763 0 22.221762525316763 -34.679422060675961 0 0 0 0 65.540822118403412 32.925870308470962 0 32.925870308470962 -272.72103056803098 0 0 0 0 25.044692898395397 2.0640010774326267 0 2.0640010774326267 -1.2371461748828625 0 0 0 0 38.593051446063328 -49.232841228923235 0 -49.232841228923235 -57.40342045826992 0 0 0 0 -8.9474176830626675 12.436626622435142 0 12.436626622435142 -77.444596266958342 0 0 0 0 57.194283578422983 10.128692938671293 0 10.128692938671293 -118.9389932847314 0 0 0 0 26.602714860999185 -2.1322066155715902 0 -2.1322066155715902 -23.011062378714996 0 0 0 0 44.262071700743036 -35.815977422855667 0 -35.815977422855667 -9.4592844961871378 0 0 0 0 -51.971566362524754 3.3354618568367869 0 3.3354618568367869 57.395415425743522 0 0 0 0 0.29313709089059348 0.93724411178245148 0 0.93724411178245148 1.6823368872591526 0 0 0 0 34.303463679661945 -135.53701303549087 0 -135.53701303549087 260.25140034828564 0 0 0 0 50.121878858357377 -41.371603911445618 0 -41.371603911445618 67.307919872193906 0 0 0 0 45.786978607791298 -67.679816256507593 0 -67.679816256507593 37.626502596216596 0 0 0 0 19.127469024749189 -71.583041097008845 0 -71.583041097008845 184.8187755052204 0 0 0 0 30.842552830359637 -134.80021505679815 0 -134.80021505679815 194.62161642288845 0 0 0 0 157.87294507220031 -103.29396442394682 0 -103.29396442394682 150.13282094765782 0 0 0 0 293.47508287809251 -224.98674469807202 0 -224.98674469807202 143.8791726860677 0 0 0 0 103.88852617787052 -118.77798620033263 0 -118.77798620033263 128.65497673487698 0 0 0 0 55.723183382449861 -88.000141982847708 0 -88.000141982847708 151.5621158126828 0 0 0 0 -73.570660330513419 -43.035582861127295 0 -43.035582861127295 150.46846932460085 0 0 0 0 -21.424137674652229 -228.59612631120717 0 -228.59612631120717 161.50411034339777 0 0 0 0 -114.01836960458786 -147.79685558124083 0 -147.79685558124083 219.63181186163274 0 0 0 0 25.862919591712853 -154.28119150110251 0 -154.28119150110251 204.87966216711629 0 0 0 0 36.776833727853045 -115.21729099623508 0 -115.21729099623508 182.06156025025302 0 0 0 0 -6.8095493744731357 -122.41803263410293 0 -122.41803263410293 184.59116512038236 0 0 0 0 53.813669684624983 -131.25119502282223 0 -131.25119502282223 129.38432932976502 0 0 0 0 -2.9206139936086402 -139.40635660812131 0 -139.40635660812131 197.29908395736129 0 0 0 0 33.366445330912029 -131.69525185142629 0 -131.69525185142629 129.66654833317534 0 0 0 0 19.173517484189688 -105.25012431448874 0 -105.25012431448874 161.5942992994369 0 0 0 0 17.880651570147165 -109.81199318907602 0 -109.81199318907602 158.58552765878994 0 0 0 0 87.914672338414675 -49.030283809638604 0 -49.030283809638604 70.568645587005449 0 0 0 0 124.37241176932184 -189.23306937202324 0 -189.23306937202324 174.26743303807052 0 0 0 0 188.86705684467961 -43.716684299955887 0 -43.716684299955887 121.96437366991267 0 0 0 0 89.548307567585653 -82.771433232281197 0 -82.771433232281197 108.06930053361157 0 0 0 0 401.16346902561236 -84.441995653867707 0 -84.441995653867707 127.02038586283925 0 0 0 0 456.43156769440975 -200.75097021532747 0 -200.75097021532747 373.48608099581725 0 0 0 0 207.71784471438514 -106.24698978341621 0 -106.24698978341621 339.12753312442874 0 0 0 0 25.348733313876153 -163.80507879520783 0 -163.80507879520783 203.96223866903529 0 0 0 0 218.04078064854548 -172.8995725224886 0 -172.8995725224886 161.83862391844195 0 0 0 0 175.93959769737285 107.87236408305216 0 107.87236408305216 172.89978493499075 0 0 0 0 85.218004236009619 86.958146362789194 0 86.958146362789194 173.89589310977038 0 0 0 0 2.9221261040736835 0.12025807919446763 0 0.12025807919446763 -1.1642165408938965 0 0 0 0 227.92337840472692 60.755154675642643 0 60.755154675642643 112.17997754592125 0 0 0 0 7.8806978530064953 -69.251780115042493 0 -69.251780115042493 72.145914257801223 0 0 0 0 20.080138768600591 22.162539511864452 0 22.162539511864452 308.32551857436783 0 0 0 0 66.95337588743223 106.63962633616529 0 106.63962633616529 258.72316908754601 0 0 0 0 139.70541247556571 57.432931966966635 0 57.432931966966635 177.4766812044727 0 0 0 0 56.76787922429321 76.127754390118753 0 76.127754390118753 184.03255134165101 0 0 0 0 44.624766183442262 -39.008496333236508 0 -39.008496333236508 102.30019631269124 0 0 0 0 -5.6167000437008028 8.9229771281511603 0 8.9229771281511603 70.249158699793952 0 0 0 0 132.20157536817624 -57.903153754205505 0 -57.903153754205505 -103.19807345537993 0 0 0 0 -100.33240167420354 51.150464134624599 0 51.150464134624599 -112.43469388785397 0 0 0 0 75.373191464963384 -156.75390029755772 0 -156.75390029755772 143.90678421423809 0 0 0 0 425.16866171709262 90.279461873646824 0 90.279461873646824 -128.4099754804538 0 0 0 0 -61.530854379314405 -123.76164987485708 0 -123.76164987485708 -216.66668761555047 0 0 0 0 84.733098642476762 -62.016202391426759 0 -62.016202391426759 25.295811193684926 0 0 0 0 50.457703490053333 6.3002153995712007 0 6.3002153995712007 -4.9201504813065053 0 0 0 0 19.029366960859598 1.4315725858781403 0 1.4315725858781403 -1.189091870368542 0 0 0 0 73.961182569222728 -82.123135479878897 0 -82.123135479878897 54.921147885306141 0 0 0 0 196.25062525412523 123.61474998300423 0 123.61474998300423 -485.69160676353977 0 0 0 0 42.923334818646254 -64.562508540567705 0 -64.562508540567705 55.858993457569284 0 0 0 0 104.71456033977665 -76.075631910005995 0 -76.075631910005995 28.156622381941929 0 0 0 0 42.435624627036304 -97.377306633790568 0 -97.377306633790568 -158.50829310666154 0 0 0 0 -12.005559149441979 37.212217681553682 0 37.212217681553682 104.1279831225304 0 0 0 0 319.78138983860117 30.885078362878176 0 30.885078362878176 -88.216548467087705 0 0 0 0 58.749443927102092 10.007706253243626 0 10.007706253243626 -3.3192203220144574 0 0 0 0 296.89100734399108 218.01134518161234 0 218.01134518161234 17.922205438098899 0 0 0 0 106.52691318646816 36.458938674331591 0 36.458938674331591 9.5619132292849827 0 0 0 0 105.61232378297564 19.436847929891229 0 19.436847929891229 17.689594560361911 0 0 0 0 -90.387960038995516 6.7578084416245474 0 6.7578084416245474 -60.173194511790484 0 0 0 0 -11.953425430349171 -70.083130657130482 0 -70.083130657130482 211.75052268230138 0 0 0 0 7.5713791176356811 0.19870289191887913 0 0.19870289191887913 -0.64022184628519341 0 0 0 0 70.762651650074986 275.41580710285007 0 275.41580710285007 -188.49953455799641 0 0 0 0 -108.47728238101308 315.04334080091809 0 315.04334080091809 78.484136137455607 0 0 0 0 2.1297995854920373 111.01261797021698 0 111.01261797021698 70.232607416336776 0 0 0 0 308.06985638605784 99.356771061127802 0 99.356771061127802 -99.442481560046872 0 0 0 0 720.81248866354144 -91.945054364269708 0 -91.945054364269708 -298.0655658187552 0 0 0 0 -552.09816598938141 -83.426873024262477 0 -83.426873024262477 637.96887370815966 0 0 0 0 363.53903137066175 -206.17083634177368 0 -206.17083634177368 45.721387769488501 0 0 0 0 10.894036709257307 1.3332872215380265 0 1.3332872215380265 0.16366665523420476 0 0 0 0 -35.310868799032505 -49.693811757913863 0 -49.693811757913863 -2.1617642944338513 0 0 0 0 35.182362141662516 -16.967960301929679 0 -16.967960301929679 28.253325239011247 0 0 0 0 207.23056912406264 33.071912842334768 0 33.071912842334768 -78.320623609998165 0 0 0 0 -2.8313204985715856 85.906624734465822 0 85.906624734465822 -54.875659537304273 0 0 0 0 4.0890652376490113 -0.23918443512759957 0 -0.23918443512759957 0.027490021578728374 0 0 0 0 -75.977832850582217 238.94876926312213 0 238.94876926312213 359.95161604685427 0 0 0 0 100.49438113979068 -88.694096641801025 0 -88.694096641801025 87.195266869383204 0 0 0 0 30.530202018780187 -16.830838385346851 0 -16.830838385346851 38.428865284417043 0 0 0 0 40.138930518686493 -44.727488286629523 0 -44.727488286629523 53.771072687847663 0 0 0 0 38.017755451455287 -28.140184989470072 0 -28.140184989470072 2.497016904980228 0 0 0 0 7.0199655488976305 -10.033307846666048 0 -10.033307846666048 10.396160403808153 0 0 0 0 15.111631608183728 -1.1442166032838941 0 -1.1442166032838941 15.830353866547284 0 0 0 0 7.992033925116834 -10.893310779334763 0 -10.893310779334763 -4.0211673832479242 0 0 0 0 30.347532640284953 -23.309822689258453 0 -23.309822689258453 -0.54022166224967805 0 0 0 0 25.83769557398432 -10.652826644587549 0 -10.652826644587549 1.1439018943274277 0 0 0 0 48.063869892922412 0.42690735609085095 0 0.42690735609085095 -10.22621485116747 0 0 0 0 23.788787988982676 -10.45488047996605 0 -10.45488047996605 -27.625368744082607 0 0 0 0 29.132116905302734 3.798760433602336 0 3.798760433602336 -6.6074864007565068 0 0 0 0 17.826243360475541 -0.28514499125815185 0 -0.28514499125815185 -0.57329404846915288 0 0 0 0 -45.058158121013548 8.9864618544138182 0 8.9864618544138182 -23.208251017529619 0 0 0 0 36.146876546434775 13.570754851890062 0 13.570754851890062 -4.832917131892625 0 0 0 0 139.94272813300995 -50.566218204134202 0 -50.566218204134202 -36.866833005312401 0 0 0 0 100.53894997090174 -14.103414451308709 0 -14.103414451308709 -68.133976470382549 0 0 0 0 54.399986289960246 0.75677843689287982 0 0.75677843689287982 -5.9595555343332141 0 0 0 0 35.570735997845134 4.5725707057407066 0 4.5725707057407066 -7.8374258158323702 0 0 0 0 50.619263671680528 6.7923943460946248 0 6.7923943460946248 -14.575800997413808 0 0 0 0 29.892901883465008 5.4475027919243324 0 5.4475027919243324 -3.8909023499851649 0 0 0 0 60.985771245959768 28.043704070291824 0 28.043704070291824 -44.186192715798825 0 0 0 0 52.816298336540058 -2.9619727575618526 0 -2.9619727575618526 21.516026014064664 0 0 0 0 40.690869724148037 13.442140872985734 0 13.442140872985734 -2.5450807205623391 0 0 0 0 42.458378684170412 -3.6207275357004445 0 -3.6207275357004445 -7.0852660040242874 0 0 0 0 63.673022631526692 3.6587892772931809 0 3.6587892772931809 10.578589795799417 0 0 0 0 51.511270426951342 1.8114469522638501 0 1.8114469522638501 1.1186087020923878 0 0 0 0 46.986026787912124 3.0474210470811158 0 3.0474210470811158 10.980144830189602 0 0 0 0 35.542083229505806 -3.000352962287252 0 -3.000352962287252 0.23560745422037144 0 0 0 0 55.862241593200451 -14.742200969504438 0 -14.742200969504438 6.6435187511651748 0 0 0 0 70.399911728447478 -14.123693855187184 0 -14.123693855187184 6.0956475288712682 0 0 0 0 51.335743087161973 -4.1005775957119113 0 -4.1005775957119113 -1.914376632503263 0 0 0 0 40.866093039767293 -6.1663063449332185 0 -6.1663063449332185 -16.847879380900849 0 0 0 0 44.223342776054452 -7.9736471831718703 0 -7.9736471831718703 0.27755860746764949 0 0 0 0 44.828158034521039 -16.822347611616351 0 -16.822347611616351 -29.632053653213916 0 0 0 0 43.946002609445713 -14.932351249010026 0 -14.932351249010026 -9.1579266494418334 0 0 0 0 48.061345250126578 -0.3431566171045688 0 -0.3431566171045688 -10.189677040767492 0 0 0 0 29.733922937812167 -11.516277148348308 0 -11.516277148348308 -14.34885110482719 0 0 0 0 31.15698391465412 -11.264005969393111 0 -11.264005969393111 -14.968869692696899 0 0 0 0 29.291611860622652 0.25886268928479694 0 0.25886268928479694 -12.273227000529005 0 0 0 0 28.925111145115807 4.0551374008700805 0 4.0551374008700805 -1.744291902266923 0 0 0 0 37.88956562479143 -0.62630109438578074 0 -0.62630109438578074 -11.209429279147116 0 0 0 0 17.227395800422528 -7.4132179789303336 0 -7.4132179789303336 -12.100368974502089 0 0 0 0 45.095932261185226 7.1661156764348561 0 7.1661156764348561 -3.7406328060187661 0 0 0 0 35.467072281178844 2.7018374852250417 0 2.7018374852250417 1.1057013234294573 0 0 0 0 -281.74987806818172 -209.51216344554132 0 -209.51216344554132 18.700643443520676 0 0 0 0 86.051633398015838 -0.37280309795687572 0 -0.37280309795687572 -62.11201986691799 0 0 0 0 -151.24266566766664 166.65519384524168 0 166.65519384524168 -28.290472292695085 0 0 0 0 58.716513657627004 10.701655596148607 0 10.701655596148607 -4.09192247786015 0 0 0 0 51.965050699807762 -7.4728691220161636 0 -7.4728691220161636 1.1457601922563754 0 0 0 0 23.372991997821238 -5.2013938379525939 0 -5.2013938379525939 -3.7474077532268701 0 0 0 0 76.148285394454433 6.219145349354676 0 6.219145349354676 -35.136221437494896 0 0 0 0 21.005505247304214 4.90718436578479 0 4.90718436578479 -10.557119708683942 0 0 0 0 54.138679642051102 -19.135240438194501 0 -19.135240438194501 -10.87244699497387 0 0 0 0 76.644162598924595 -3.4403164892300993 0 -3.4403164892300993 -62.239176084897736 0 0 0 0 48.736518493926894 -6.1165847408903673 0 -6.1165847408903673 -2.673272094538401 0 0 0 0 50.120087307261201 -17.097672339430801 0 -17.097672339430801 -21.617966836736741 0 0 0 0 83.505648348524119 -29.651955175478179 0 -29.651955175478179 -3.6048973931619912 0 0 0 0 42.12399218231576 -5.953614561455872 0 -5.953614561455872 -11.28340036788914 0 0 0 0 27.295396346293273 4.1451429872167864 0 4.1451429872167864 -10.880548565448407 0 0 0 0 27.534012429564584 4.3472833176862302 0 4.3472833176862302 -8.6124242916658424 0 0 0 0 34.512658839783398 -8.036069401910936 0 -8.036069401910936 -7.9523486153047998 0 0 0 0 57.70566127004895 4.5450638562059567 0 4.5450638562059567 -48.608456634174217 0 0 0 0 101.24180447698745 -21.241503163275411 0 -21.241503163275411 -2.2743442214532479 0 0 0 0 50.692071879222539 1.9646764833946406 0 1.9646764833946406 -15.317568183590572 0 0 0 0 16.628596015092423 -2.0044608295756916 0 -2.0044608295756916 0.22752366935551294 0 0 0 0 -20.523936155186675 -2.598415643251883 0 -2.598415643251883 94.763218144759321 0 0 0 0 59.414985646973946 63.935201353370758 0 63.935201353370758 13.169505122101327 0 0 0 0 3.8308140428024302 3.6293603456660577 0 3.6293603456660577 -0.80641226356065321 0 0 0 0 28.635125223725481 67.00982835220816 0 67.00982835220816 18.897937761629464 0 0 0 0 67.114058597799158 38.428976574302396 0 38.428976574302396 -55.628009074809597 0 0 0 0 45.24015178611711 18.332536545609759 0 18.332536545609759 -9.6170773228741595 0 0 0 0 114.66389832986897 21.365330464764156 0 21.365330464764156 -95.914980183718399 0 0 0 0 96.131925982495886 11.78350523286008 0 11.78350523286008 -55.34585141271782 0 0 0 0 96.714861708271201 0.33739542320472538 0 0.33739542320472538 -66.316360777454975 0 0 0 0 81.244515548598429 -1.3557242991764724 0 -1.3557242991764724 -61.642335155283945 0 0 0 0 104.3502684938212 3.2305524679622977 0 3.2305524679622977 -67.687196761256928 0 0 0 0 110.11111853885086 -3.7195343338580642 0 -3.7195343338580642 -48.949072300631997 0 0 0 0 136.85755519645318 -15.110516348528563 0 -15.110516348528563 -73.226152065453675 0 0 0 0 112.74192018154281 -13.305196983432552 0 -13.305196983432552 -84.346161662713257 0 0 0 0 38.167587708172505 -27.701718299079857 0 -27.701718299079857 -36.97079054968799 0 0 0 0 38.077816612261813 -36.85512181679951 0 -36.85512181679951 -55.286488452242793 0 0 0 0 24.565873024406756 -23.793914597956245 0 -23.793914597956245 -34.978167097113328 0 0 0 0 40.649302858690632 -11.125675443971744 0 -11.125675443971744 0.469864777520689 0 0 0 0 35.515394384856336 -24.581391963773058 0 -24.581391963773058 -27.76622023849086 0 0 0 0 54.320783628500067 -28.791963638129346 0 -28.791963638129346 -68.782758939878022 0 0 0 0 47.557867069292115 -29.42629218170805 0 -29.42629218170805 -41.189164304154474 0 0 0 0 78.437567261797085 1.5921310793046359 0 1.5921310793046359 -57.761107444940535 0 0 0 0 41.05554824887804 -38.124515236891739 0 -38.124515236891739 -1.5830655414747525 0 0 0 0 64.375715167414455 -24.303469242990559 0 -24.303469242990559 -40.816430754170369 0 0 0 0 93.125404281079682 -55.440597949634366 0 -55.440597949634366 -12.833733298313746 0 0 0 0 55.037719140775152 -45.79104107994749 0 -45.79104107994749 -7.1705434975154958 0 0 0 0 55.080413890646014 -46.459896245726213 0 -46.459896245726213 2.8522347291211645 0 0 0 0 28.025596497674996 -34.424953138353885 0 -34.424953138353885 3.3977555373234907 0 0 0 0 39.215357633042004 -31.451285986816856 0 -31.451285986816856 -23.241448771519572 0 0 0 0 21.990687156423519 -22.675751958685851 0 -22.675751958685851 4.1139450153685857 0 0 0 0 21.601063913360122 -7.3875762720308558 0 -7.3875762720308558 19.379520161449705 0 0 0 0 21.488296094008547 -25.548069480343656 0 -25.548069480343656 9.8521597264107186 0 0 0 0 22.339457407891132 -34.724266722539042 0 -34.724266722539042 43.71939894214438 0 0 0 0 14.229167121782666 -7.0404483277862937 0 -7.0404483277862937 35.08125932329699 0 0 0 0 -2.6676876381716284 -20.494100525951353 0 -20.494100525951353 81.292600863940606 0 0 0 0 12.526674616698074 6.1840446659436026 0 6.1840446659436026 4.8042825767724935 0 0 0 0 13.144119823384244 -8.4053770377249748 0 -8.4053770377249748 6.1974222732651469 0 0 0 0 21.467150789059815 -12.58848495229563 0 -12.58848495229563 -10.895325709430608 0 0 0 0 16.665373520168032 0.90298310437728446 0 0.90298310437728446 9.5698759399328992 0 0 0 0 19.697557139021228 -3.7405544584221389 0 -3.7405544584221389 3.5801345593584983 0 0 0 0 439.66502563098766 -119.31140080403122 0 -119.31140080403122 -15.543329103799351 0 0 0 0 258.53324726794017 261.26209139791024 0 261.26209139791024 76.155009445523319 0 0 0 0 144.71417747029773 -121.85107929838068 0 -121.85107929838068 57.303365758707514 0 0 0 0 172.52644349030015 -6.2797424612642772 0 -6.2797424612642772 -52.685944105420162 0 0 0 0 81.951382394367101 -107.69760591847796 0 -107.69760591847796 144.59669242488189 0 0 0 0 371.6393977601474 200.23834296143571 0 200.23834296143571 35.819786860329941 0 0 0 0 4.3060593596108561 -2.7697360553614416 0 -2.7697360553614416 2.0080179222422765 0 0 0 0 499.2662939019574 -64.165383979766858 0 -64.165383979766858 -139.33498871715938 0 0 0 0 -66.578532110266679 56.505190660051312 0 56.505190660051312 424.98971182054856 0 0 0 0 -71.407603179390435 -50.600569252774072 0 -50.600569252774072 60.466266351845661 0 0 0 0 -72.367431333903369 -16.177481068653492 0 -16.177481068653492 -27.19177411790929 0 0 0 0 -0.47072116433221822 5.4058698483698642 0 5.4058698483698642 0.1033248547387573 0 0 0 0 108.50001118938962 99.420286564583876 0 99.420286564583876 -71.937711335642689 0 0 0 0 -124.99178660971666 54.551448618407221 0 54.551448618407221 150.9556142997119 0 0 0 0 -125.99916449306966 67.677239097217381 0 67.677239097217381 27.693593465882941 0 0 0 0 83.777008349690732 -11.783076560815175 0 -11.783076560815175 15.991279526916969 0 0 0 0 41.181620294719323 -19.929631436163163 0 -19.929631436163163 15.276556073904317 0 0 0 0 45.186964640045176 23.264888147703793 0 23.264888147703793 -4.7914176889295721 0 0 0 0 71.397401525915484 -32.59720856299964 0 -32.59720856299964 -36.013731480560978 0 0 0 0 36.264890084627169 1.0694635679340525 0 1.0694635679340525 -1.5402765845000328 0 0 0 0 -27.843573369762453 47.799984502480584 0 47.799984502480584 32.508832603860242 0 0 0 0 17.880365585091312 8.824329194082253 0 8.824329194082253 -0.063971716139581858 0 0 0 0 -1.0866677403537324 117.66786314160788 0 117.66786314160788 53.14226378710282 0 0 0 0 106.60296385118272 -152.27661777146989 0 -152.27661777146989 -84.758700154866631 0 0 0 0 1.7858357420759319 -0.015341957749406721 0 -0.015341957749406721 0.11366365789613528 0 0 0 0 17.802887064957758 -48.663742647552226 0 -48.663742647552226 93.924583555993877 0 0 0 0 36.498393977324668 7.8836996516156432 0 7.8836996516156432 -49.612230423241954 0 0 0 0 -4.0018182314088335 132.4477509336615 0 132.4477509336615 116.2149362138649 0 0 0 0 59.104000887367874 4.4935973562203344 0 4.4935973562203344 0.53338679895523455 0 0 0 0 26.474075511057777 -2.3600241439315131 0 -2.3600241439315131 0.64682746388935297 0 0 0 0 5.2026474341418165 -0.89905011719291394 0 -0.89905011719291394 -1.2173388964654159 0 0 0 0 51.398764517638483 15.656220550382159 0 15.656220550382159 23.424373920505218 0 0 0 0 36.897970828404368 7.9658834001762955 0 7.9658834001762955 53.4511922167992 0 0 0 0 31.492885957617546 23.496974893995457 0 23.496974893995457 40.082745333934326 0 0 0 0 16.15700186205504 21.136546887990562 0 21.136546887990562 -29.617246435222114 0 0 0 0 45.51889622402814 -25.00571219553558 0 -25.00571219553558 -24.048309130381313 0 0 0 0 43.957601141548366 -39.112122274400008 0 -39.112122274400008 30.328787295309667 0 0 0 0 119.18567840642572 10.125654488021382 0 10.125654488021382 -77.6470249903482 0 0 0 0 -23.865407011340722 58.221564854845838 0 58.221564854845838 107.45258710632788 0 0 0 0 69.985321250303969 -41.358263368922962 0 -41.358263368922962 -121.9580039884122 0 0 0 0 18.25634954018642 -69.585854293820717 0 -69.585854293820717 127.34039087315341 0 0 0 0 62.928365247076727 52.046299142299631 0 52.046299142299631 -121.44102218531401 0 0 0 0 41.923832035422507 2.7269743209866739 0 2.7269743209866739 -6.178620583259363 0 0 0 0 131.56486958880123 52.157021032344346 0 52.157021032344346 -75.268941962875942 0 0 0 0 -81.407817880077346 -9.6483410296141301 0 -9.6483410296141301 1.9567656742792678 0 0 0 0 3.350881549813792 0.42346251863058271 0 0.42346251863058271 -0.57679735135629251 0 0 0 0 -80.811030489152472 22.419860768141916 0 22.419860768141916 -39.009923946807248 0 0 0 0 3.0686722867685603 -34.916841863096352 0 -34.916841863096352 -9.759189672503453 0 0 0 0 -30.560357521571859 -12.114364222868062 0 -12.114364222868062 -17.101252349953484 0 0 0 0 -32.644350590817339 35.361158358559351 0 35.361158358559351 -22.602806447620424 0 0 0 0 113.24677861615055 -51.132434014237106 0 -51.132434014237106 -13.967530448991056 0 0 0 0 156.1145133893915 13.282047474533329 0 13.282047474533329 -36.315367735613108 0 0 0 0 1.944474738199176 -0.15828351160783782 0 -0.15828351160783782 -0.64373547404508624 0 0 0 0 123.27560942270065 1.54400710475511 0 1.54400710475511 -34.298653717430227 0 0 0 0 131.07584032364684 35.469989390750015 0 35.469989390750015 -4.1429743605449403 0 0 0 0 76.826011011358787 -0.662275700641203 0 -0.662275700641203 -18.411261165095311 0 0 0 0 22.827613250574359 34.67813458485989 0 34.67813458485989 12.191204756103161 0 0 0 0 11.911356616536068 180.48630952312152 0 180.48630952312152 -60.859585669494663 0 0 0 0 86.418207635435465 4.2810275163133156 0 4.2810275163133156 -33.878149245322675 0 0 0 0 41.104143993843117 23.765140828167596 0 23.765140828167596 -7.6459007159569268 0 0 0 0 91.423153047377127 -10.191573080140415 0 -10.191573080140415 6.1054008076818036 0 0 0 0 25.878495713477605 -47.925904660727952 0 -47.925904660727952 -13.114754765492762 0 0 0 0 540.5309928022034 43.915194144634938 0 43.915194144634938 -18.484311706521765 0 0 0 0 728.68596271244678 115.95764012203357 0 115.95764012203357 -43.682562038049063 0 0 0 0 1499.664183032015 -36.956904462597421 0 -36.956904462597421 -238.55702737606995 0 0 0 0 1232.1897644690835 -140.44682105503102 0 -140.44682105503102 -49.576369795646414 0 0 0 0 329.58497911939958 429.54042803630495 0 429.54042803630495 80.439921898300213 0 0 0 0 1300.5158190763177 256.31064988610211 0 256.31064988610211 -149.66252128206116 0 0 0 0 4.9208707736543147 -63.127312407267652 0 -63.127312407267652 101.81459559428295 0 0 0 0 473.90931857166288 149.68431178405038 0 149.68431178405038 57.860287492816056 0 0 0 0 -36.503748899853235 -127.21240339360834 0 -127.21240339360834 41.031021936713628 0 0 0 0 9.929000237803713 -12.851077716079232 0 -12.851077716079232 5.4429885165331999 0 0 0 0 37.587622750825176 30.833208318885028 0 30.833208318885028 -32.026414702620087 0 0 0 0 83.311020500477753 -60.815349060573212 0 -60.815349060573212 108.26286121360994 0 0 0 0 512.76767615576682 -86.546034525276184 0 -86.546034525276184 12.274272582387241 0 0 0 0 37.364316005176988 -54.400112764183859 0 -54.400112764183859 101.06276722459917 0 0 0 0 8.0652149694075916 -3.732675102576156 0 -3.732675102576156 -1.7343375018942104 0 0 0 0 80.145303703584432 54.713348187502689 0 54.713348187502689 -30.623716992746552 0 0 0 0 76.150809049271629 20.970628506101775 0 20.970628506101775 19.169954391997976 0 0 0 0 572.46797506336952 -74.438958043174296 0 -74.438958043174296 -31.521413775333627 0 0 0 0 9.8168954482077169 1.1935436880001689 0 1.1935436880001689 -2.5359126307628062 0 0 0 0 541.89383384488247 -395.86657737219667 0 -395.86657737219667 155.38101592773009 0 0 0 0 1004.7019734234746 -230.0868794449047 0 -230.0868794449047 -204.6259188326998 0 0 0 0 1500.1200249207141 -315.38377602251001 0 -315.38377602251001 -194.23413052231808 0 0 0 0 1497.4405820976936 -834.83062855068363 0 -834.83062855068363 352.92310339105489 0 0 0 0 34.935448090962382 2.0005183651938667 0 2.0005183651938667 0.21914209259987649 0 0 0 0 6.2264089522577422 -0.12780319348622982 0 -0.12780319348622982 -0.59688685771375838 0 0 0 0 133.83195475975822 173.03808683585999 0 173.03808683585999 153.96465219081057 0 0 0 0 1495.883504913676 -253.3677623792895 0 -253.3677623792895 282.82554964378102 0 0 0 0 300.23456558642647 -263.78344549084494 0 -263.78344549084494 571.28684897625817 0 0 0 0 1497.7825691793478 -740.29626043484291 0 -740.29626043484291 752.84433049887491 0 0 0 0 6.0754503552146275 -0.56989142353478428 0 -0.56989142353478428 -0.23132248736602812 0 0 0 0 1464.9866757603886 454.17400767526897 0 454.17400767526897 -7.5838409907624706 0 0 0 0 16.962804971444712 5.4546003824365261 0 5.4546003824365261 -0.37621289613186371 0 0 0 0 14.311187909548721 0.4266025056664482 0 0.4266025056664482 -1.5406932774689188 0 0 0 0 291.57770580995611 -378.68125536784737 0 -378.68125536784737 657.97622419762342 0 0 0 0 21.456309152798497 1.3406609174190365 0 1.3406609174190365 -2.3938065772470112 0 0 0 0 100.22686634835736 -395.97294318088734 0 -395.97294318088734 602.65377726060512 0 0 0 0 155.29209056956824 -185.96365108695636 0 -185.96365108695636 530.91533902019228 0 0 0 0 45.960292810188548 -18.096170545990134 0 -18.096170545990134 113.91965087986082 0 0 0 0 158.43784649602071 -390.82337885941689 0 -390.82337885941689 314.17025669295583 0 0 0 0 97.192166536001423 -275.46132839983676 0 -275.46132839983676 367.37677393567634 0 0 0 0 116.70918517710015 -235.32389179315044 0 -235.32389179315044 421.70406570057372 0 0 0 0 206.45817732524847 -400.34897223702637 0 -400.34897223702637 448.53631367552725 0 0 0 0 383.2634820252897 -206.10150870873937 0 -206.10150870873937 367.9826035626794 0 0 0 0 60.039891002661989 -173.04240641952001 0 -173.04240641952001 642.42589298254472 0 0 0 0 29.680310616837232 6.559647910028076 0 6.559647910028076 -10.505433953347719 0 0 0 0 29.157019672704223 3.1513873110197252 0 3.1513873110197252 -2.6535857069274051 0 0 0 0 24.593866320690722 6.8985181264565716 0 6.8985181264565716 -6.4627835724939429 0 0 0 0 26.646352943558668 3.9247920615868623 0 3.9247920615868623 -7.0044200395234881 0 0 0 0 32.374036497894849 10.843815939133505 0 10.843815939133505 -0.085009931141402706 0 0 0 0 27.522635882191025 5.5889280086763602 0 5.5889280086763602 -4.9524372345521979 0 0 0 0 34.848164483657456 9.2365807714239807 0 9.2365807714239807 -10.104891440942055 0 0 0 0 30.160837012299453 8.8843350547374911 0 8.8843350547374911 -5.3783924186924743 0 0 0 0 67.047631689652917 -141.27343909026547 0 -141.27343909026547 457.95519863278793 0 0 0 0 35.547228156284064 4.9304525929396625 0 4.9304525929396625 -2.4314804352169395 0 0 0 0 135.39820475668603 -197.49085476999721 0 -197.49085476999721 380.07352312100147 0 0 0 0 122.25215405347899 -239.11412198466036 0 -239.11412198466036 346.64234320805531 0 0 0 0 86.48271033797937 -208.9578334675752 0 -208.9578334675752 479.52183866254927 0 0 0 0 129.96056634892739 -190.91739927714184 0 -190.91739927714184 320.48102605123796 0 0 0 0 140.57887313790889 -216.90433944280949 0 -216.90433944280949 274.28210797212682 0 0 0 0 145.53211884118718 -207.24868097909177 0 -207.24868097909177 204.73726951570484 0 0 0 0 139.82682745939792 -199.80154404524407 0 -199.80154404524407 266.53523989181156 0 0 0 0 141.54787634803506 -179.39623619929705 0 -179.39623619929705 226.97440089276557 0 0 0 0 64.64416630355845 -168.58525127801244 0 -168.58525127801244 205.60375735590404 0 0 0 0 121.6432798573187 -232.24894469288898 0 -232.24894469288898 304.84309096803247 0 0 0 0 165.35636955090376 -204.23522344435912 0 -204.23522344435912 172.14304813609596 0 0 0 0 197.18178735094989 -293.6002018755529 0 -293.6002018755529 326.93893235382677 0 0 0 0 127.58759952073888 -249.06141645171334 0 -249.06141645171334 350.91144127726727 0 0 0 0 118.54006369662966 -264.55527008652319 0 -264.55527008652319 404.66253814032393 0 0 0 0 136.93929356353692 -206.51042943925177 0 -206.51042943925177 318.45877442220689 0 0 0 0 478.68992022521161 -269.36697735976156 0 -269.36697735976156 150.06417246470326 0 0 0 0 215.82089555011771 -403.92208543883925 0 -403.92208543883925 614.76037368875268 0 0 0 0 -23.466772332751134 -75.207398300776504 0 -75.207398300776504 492.01582712189656 0 0 0 0 3.9431107934899714 -2.1904729480310934 0 -2.1904729480310934 3.3388137877989816 0 0 0 0 27.208606487026671 -1.4834227434396396 0 -1.4834227434396396 -7.8178235799358049 0 0 0 0 337.39409232077742 -112.42187410204227 0 -112.42187410204227 1.6437941257541269 0 0 0 0 165.02434121543774 31.216051147361668 0 31.216051147361668 1.2684236652316621 0 0 0 0 42.253690646517498 -23.208885821492458 0 -23.208885821492458 4.3860591074894728 0 0 0 0 33.997898788031307 -23.908333503289043 0 -23.908333503289043 4.831087824133192 0 0 0 0 48.370133180433186 -25.002816287669248 0 -25.002816287669248 1.8751942976787177 0 0 0 0 -100.66687791273216 -56.006398477179374 0 -56.006398477179374 73.14296207353587 0 0 0 0 32.930754920928848 -25.611222342377005 0 -25.611222342377005 4.6517102937636992 0 0 0 0 12.946404612214828 -15.603991861946064 0 -15.603991861946064 10.628961800159441 0 0 0 0 8.4396791932740598 -16.196808046798424 0 -16.196808046798424 9.9484862776695309 0 0 0 0 32.785637088403746 -22.052629739628287 0 -22.052629739628287 0.92411680049428924 0 0 0 0 31.874519702188991 -23.142334333315375 0 -23.142334333315375 7.610057708056047 0 0 0 0 44.523565936764498 -26.533419492538769 0 -26.533419492538769 5.5752984187162724 0 0 0 0 39.700136439951166 -31.04042876538324 0 -31.04042876538324 7.7037407550992612 0 0 0 0 97.729265260535612 29.223731787817201 0 29.223731787817201 -82.312573458572047 0 0 0 0 2.6623696339120961 -7.2003082358215593 0 -7.2003082358215593 -17.152142314568309 0 0 0 0 50.524333004672371 -31.283469359470701 0 -31.283469359470701 5.3417733053004213 0 0 0 0 -25.644759101134696 -38.483571975060386 0 -38.483571975060386 12.89812108101728 0 0 0 0 135.81298382330351 -111.81854816939568 0 -111.81854816939568 142.75472540020121 0 0 0 0 100.43276208779571 -123.9081034286632 0 -123.9081034286632 215.76273848406572 0 0 0 0 141.38590113008104 -153.93443560865978 0 -153.93443560865978 188.07021700755635 0 0 0 0 131.44699542159651 -167.47270307416022 0 -167.47270307416022 219.83922164796519 0 0 0 0 135.79198643423297 -183.984555277429 0 -183.984555277429 223.38614595586171 0 0 0 0 37.572724945493974 -33.352619619632605 0 -33.352619619632605 -12.739530594146345 0 0 0 0 27.600383409554098 11.577994557340203 0 11.577994557340203 1.3239669361987003 0 0 0 0 140.88836734407596 -188.98437112320789 0 -188.98437112320789 137.17549751540332 0 0 0 0 70.997373719030293 -186.55059626357911 0 -186.55059626357911 16.639411235206353 0 0 0 0 29.202143569226649 16.413290379171425 0 16.413290379171425 -6.6341981681176314 0 0 0 0 150.71164899053838 -183.32368052525794 0 -183.32368052525794 255.12379482080505 0 0 0 0 159.84247684815637 -185.25110989527639 0 -185.25110989527639 255.43495029136034 0 0 0 0 157.76220073192962 -187.11677734108275 0 -187.11677734108275 256.39104058112514 0 0 0 0 151.35107185723609 -185.5053665108845 0 -185.5053665108845 285.78010378465467 0 0 0 0 143.75459119472725 -179.41901926336692 0 -179.41901926336692 270.72697742590481 0 0 0 0 157.67819343654992 -186.05419516563205 0 -186.05419516563205 250.17333138723859 0 0 0 0 129.87938660303371 -171.42418298237115 0 -171.42418298237115 240.6586520673651 0 0 0 0 148.80537267141335 -178.27614673507546 0 -178.27614673507546 233.91170363246601 0 0 0 0 146.18093420614605 -165.00432617071999 0 -165.00432617071999 224.81453103925639 0 0 0 0 135.77385606978351 -171.58414133553708 0 -171.58414133553708 254.48139940469815 0 0 0 0 21.512820496721275 7.9277092398480775 0 7.9277092398480775 2.1673689993922092 0 0 0 0 130.33557390429996 -150.7559345955475 0 -150.7559345955475 236.9998100476223 0 0 0 0 115.43031172951851 -156.64203176673507 0 -156.64203176673507 241.13945318853212 0 0 0 0 133.60801757157606 -190.39354311629597 0 -190.39354311629597 286.52325555916718 0 0 0 0 153.34856883023895 -182.381457653052 0 -182.381457653052 252.9271739318732 0 0 0 0 115.46424743312673 -162.03665209415215 0 -162.03665209415215 256.41598598674284 0 0 0 0 159.05105325892873 -196.28054941098731 0 -196.28054941098731 255.4031578759666 0 0 0 0 212.11701675235787 -201.83007065908598 0 -201.83007065908598 239.57648292296582 0 0 0 0 158.97359346398298 -196.73305554420097 0 -196.73305554420097 322.14602141891396 0 0 0 0 139.22888201471505 -178.3334575200472 0 -178.3334575200472 243.33653907093486 0 0 0 0 156.59468925846159 -186.84649234981094 0 -186.84649234981094 188.96999681779607 0 0 0 0 155.38413877207313 -192.71842496607817 0 -192.71842496607817 252.87153493055732 0 0 0 0 167.77285431932251 -194.36266714251866 0 -194.36266714251866 219.16891218813021 0 0 0 0 165.8842366321187 -190.48676599578107 0 -190.48676599578107 252.87703507768322 0 0 0 0 177.1246031508781 -179.58281090526793 0 -179.58281090526793 299.88540609672231 0 0 0 0 163.57393295903466 -149.68175071311495 0 -149.68175071311495 301.16665998099324 0 0 0 0 106.33497046413686 -147.39487479786328 0 -147.39487479786328 255.23520828509777 0 0 0 0 171.76387142873136 -227.40411850680402 0 -227.40411850680402 320.2629197134047 0 0 0 0 2.317003503981681 13.426876302517096 0 13.426876302517096 -2.7163576478161819 0 0 0 0 29.17122507564369 0.29320169824192988 0 0.29320169824192988 -2.985445254111895 0 0 0 0 145.4404090715343 -122.28379838847491 0 -122.28379838847491 154.31529567685584 0 0 0 0 29.676447660503499 4.325973429973887 0 4.325973429973887 -1.5609323561015398 0 0 0 0 29.855988244038599 8.8252129195074076 0 8.8252129195074076 -20.204045239496367 0 0 0 0 31.482605974586477 1.8325297592837373 0 1.8325297592837373 -6.1262779038550406 0 0 0 0 50.3234100519403 10.992919713069412 0 10.992919713069412 -17.395348862942694 0 0 0 0 52.090062780855078 8.6129921882234299 0 8.6129921882234299 -14.294221263092538 0 0 0 0 52.86668618015392 9.5802607073212798 0 9.5802607073212798 -13.983187763163649 0 0 0 0 47.90386562689487 6.9115432074429499 0 6.9115432074429499 -2.7907281278204739 0 0 0 0 143.16589190032391 -177.99081693820517 0 -177.99081693820517 314.12229507716711 0 0 0 0 150.71467290873261 -178.35641019098546 0 -178.35641019098546 287.86955070910597 0 0 0 0 149.38809698550904 -177.59339121391122 0 -177.59339121391122 306.03914757606117 0 0 0 0 160.44521776805777 -169.22831701924906 0 -169.22831701924906 261.70272498107147 0 0 0 0 138.62383176331241 -170.85044399269938 0 -170.85044399269938 355.49357152033122 0 0 0 0 145.7753307861276 -194.17572049074545 0 -194.17572049074545 271.06891845284542 0 0 0 0 141.88005824143329 -204.34705642818233 0 -204.34705642818233 290.36399876605003 0 0 0 0 41.004355392550764 6.2801995901720815 0 6.2801995901720815 -2.418066929779461 0 0 0 0 115.58732802294981 -222.1068103053926 0 -222.1068103053926 400.49849994253628 0 0 0 0 34.9383060039047 8.1856623589636381 0 8.1856623589636381 -7.7897084456109837 0 0 0 0 38.109235639509279 11.623068567151915 0 11.623068567151915 -4.9569353955023203 0 0 0 0 42.945235050261545 13.022039007715691 0 13.022039007715691 -13.556968724686968 0 0 0 0 40.972017199239417 10.308728345802095 0 10.308728345802095 -9.8153389771535871 0 0 0 0 52.611949328009359 11.242046721784234 0 11.242046721784234 -11.302157354219275 0 0 0 0 48.748405706042831 8.6863569536965421 0 8.6863569536965421 -10.822437684245697 0 0 0 0 27.104659849392192 20.868613669290241 0 20.868613669290241 -14.943750705624604 0 0 0 0 -47.469265835345141 65.055946008611897 0 65.055946008611897 -23.378350041394999 0 0 0 0 23.573617643269245 24.219363057645722 0 24.219363057645722 -0.026718084552208997 0 0 0 0 84.694952977501089 19.412242613376776 0 19.412242613376776 -28.495443594194654 0 0 0 0 49.984651745218798 4.674888644427023 0 4.674888644427023 0.88768646481237568 0 0 0 0 -228.88748686146573 177.1275443672796 0 177.1275443672796 -26.971764033666091 0 0 0 0 127.83216269575132 -22.632284914795797 0 -22.632284914795797 -11.746113884512354 0 0 0 0 0.29055624288496773 0.3811848486705145 0 0.3811848486705145 -0.93991514423020717 0 0 0 0 62.299742410854378 -7.2662967295216632 0 -7.2662967295216632 4.794322959138249 0 0 0 0 68.699582328175893 9.7826410607962337 0 9.7826410607962337 -8.3801365893126203 0 0 0 0 57.024578401709732 11.549029907815829 0 11.549029907815829 -12.693247427912908 0 0 0 0 50.24751619385097 7.8331419884287765 0 7.8331419884287765 -5.3778975561147462 0 0 0 0 69.465524049574014 -5.731364880127181 0 -5.731364880127181 -5.7308129390134326 0 0 0 0 50.83012126630183 -5.6678992650024504 0 -5.6678992650024504 -3.6365284550456494 0 0 0 0 0.26950923069488653 0.3752602080497951 0 0.3752602080497951 -2.7806123916055383 0 0 0 0 -125.95601320217247 107.56194000275755 0 107.56194000275755 -34.622635491371625 0 0 0 0 60.891993058597109 62.794065610717446 0 62.794065610717446 -63.742800633810702 0 0 0 0 -27.754450627180631 38.57638428199607 0 38.57638428199607 -42.622324075917163 0 0 0 0 114.05433181242552 53.211961676691175 0 53.211961676691175 -53.728432007365541 0 0 0 0 -17.44734306200553 36.08178350364031 0 36.08178350364031 -19.972941355369755 0 0 0 0 -15.118042947266076 74.089475624554495 0 74.089475624554495 -81.290048753656691 0 0 0 0 165.76201745157596 37.196458279714854 0 37.196458279714854 0.24192683081509203 0 0 0 0 -130.77041032252964 38.655538587687403 0 38.655538587687403 -25.804783284519658 0 0 0 0 32.976658182160463 103.93867384131089 0 103.93867384131089 -55.180656632698117 0 0 0 0 53.32671966691305 11.986842899981205 0 11.986842899981205 -6.7714251236439509 0 0 0 0 259.74108542671456 25.441685541373602 0 25.441685541373602 -38.868991290438572 0 0 0 0 5.6215537860152835 41.56319162910934 0 41.56319162910934 40.458255359706804 0 0 0 0 -25.196566461672774 67.401859366687162 0 67.401859366687162 -81.149926042491003 0 0 0 0 -37.822109598389943 3.7235222667336001 0 3.7235222667336001 13.954083716375306 0 0 0 0 460.9498459611932 -275.50868566300051 0 -275.50868566300051 57.216588117576258 0 0 0 0 2.0197770936887878 0.72154366590181951 0 0.72154366590181951 0.16700827092179676 0 0 0 0 10.678769854806887 -31.453656206021556 0 -31.453656206021556 -5.6839700567014404 0 0 0 0 624.71032419574476 127.29100809036335 0 127.29100809036335 2.8627490019428716 0 0 0 0 0.27191756559676605 -0.45857868754369235 0 -0.45857868754369235 -0.35448545550570021 0 0 0 0 14.961529029351368 28.429496690798064 0 28.429496690798064 -0.047724797007436433 0 0 0 0 1.1419558174462168 0.30373952392899639 0 0.30373952392899639 -0.068562050424612137 0 0 0 0 493.23714202428164 -171.25197576016282 0 -171.25197576016282 22.277482680069749 0 0 0 0 220.88297170856094 -20.812982132396826 0 -20.812982132396826 -4.9859098624787066 0 0 0 0 179.02485677998629 -63.638678419172578 0 -63.638678419172578 68.786608781641121 0 0 0 0 266.47372167868525 -122.91331750772491 0 -122.91331750772491 36.425743115608384 0 0 0 0 264.08860250646103 -133.02430047626041 0 -133.02430047626041 61.570756444572851 0 0 0 0 0.52879516404441063 -1.1541641799989719 0 -1.1541641799989719 -1.4161377592961726 0 0 0 0 2.7737797836708324 1.3993332025710501 0 1.3993332025710501 -0.28288660221293477 0 0 0 0 20.807160039781593 14.799231581995642 0 14.799231581995642 -5.6839700566961051 0 0 0 0 253.45888806186849 -158.77584580871678 0 -158.77584580871678 179.60658784502095 0 0 0 0 320.26855801069178 -190.30718398734462 0 -190.30718398734462 100.71393904129218 0 0 0 0 218.56568658447577 -67.615674118531331 0 -67.615674118531331 -31.196869435568487 0 0 0 0 1.4102124051224578 0.33716939627763054 0 0.33716939627763054 -1.5254079556483453 0 0 0 0 1.3895483545231286 0.30559846844293759 0 0.30559846844293759 -0.83255021545589214 0 0 0 0 176.88145446167255 -37.713597354877976 0 -37.713597354877976 11.717801535051194 0 0 0 0 51.944243504523001 19.870756976466893 0 19.870756976466893 -22.180152215090402 0 0 0 0 152.28566859453167 -44.090577685541376 0 -44.090577685541376 5.6922747974563208 0 0 0 0 143.48119029399822 12.019792648090402 0 12.019792648090402 -41.830195839288422 0 0 0 0 187.11933697194763 -51.097736755733195 0 -51.097736755733195 -23.149537585890812 0 0 0 0 137.4568960009492 -11.190428247275122 0 -11.190428247275122 -37.857870849593439 0 0 0 0 130.90978573581378 -5.757079323205744 0 -5.757079323205744 -55.988800511942145 0 0 0 0 110.92728744485794 -22.983469541466718 0 -22.983469541466718 -38.871440201462519 0 0 0 0 91.949030541996763 -61.015701640796124 0 -61.015701640796124 -11.293491456862853 0 0 0 0 183.68608751363354 -79.997142825291462 0 -79.997142825291462 -25.367128142724596 0 0 0 0 1.6498235108025199 -0.70736741113858059 0 -0.70736741113858059 0.19955215044516383 0 0 0 0 121.47558948504593 -64.779588670962085 0 -64.779588670962085 -91.241125346977697 0 0 0 0 165.88665430594892 -35.761150913766492 0 -35.761150913766492 -73.153064493380271 0 0 0 0 27.339907423840486 19.983049617395181 0 19.983049617395181 26.701791613704927 0 0 0 0 161.60271437331357 124.85582122017369 0 124.85582122017369 104.16442047419014 0 0 0 0 35.651002917918959 26.615372059458423 0 26.615372059458423 -17.577774414080068 0 0 0 0 -20.624967374613334 -8.7721925522550919 0 -8.7721925522550919 -41.634431177033321 0 0 0 0 -16.842363145435229 51.829156135172639 0 51.829156135172639 -44.398428441042597 0 0 0 0 29.671363724015464 33.254894304084985 0 33.254894304084985 -83.376213783873936 0 0 0 0 37.51911607432703 -3.3834748508579864 0 -3.3834748508579864 -14.264398998219406 0 0 0 0 4.557253368035532 -0.20440081561814338 0 -0.20440081561814338 -5.6376212854610008 0 0 0 0 40.361560130433645 -0.037814297445464717 0 -0.037814297445464717 -7.4615084244316563 0 0 0 0 24.286148171573586 5.0085054138276632 0 5.0085054138276632 -1.678036065665097 0 0 0 0 29.822994394864381 0.53835968084889974 0 0.53835968084889974 -2.733461024481441 0 0 0 0 4.8006740500836997 1.2740713361276175 0 1.2740713361276175 -0.99815310442572702 0 0 0 0 22.274453472125877 7.1409841845745277 0 7.1409841845745277 -5.7887119100140918 0 0 0 0 18.036761220842891 29.731478598811236 0 29.731478598811236 12.126402353777536 0 0 0 0 137.22215108488672 -78.333070112388199 0 -78.333070112388199 93.61445538729069 0 0 0 0 28.693729002549972 5.8770684543482155 0 5.8770684543482155 -2.1175064910233985 0 0 0 0 78.539299609012232 -119.27150382622992 0 -119.27150382622992 262.87600547094235 0 0 0 0 212.46597355861871 -72.787660945250366 0 -72.787660945250366 274.63987531193425 0 0 0 0 151.24037966631295 -174.67248552044762 0 -174.67248552044762 306.89599906359155 0 0 0 0 12.24762556118619 -1.7452747103901274 0 -1.7452747103901274 1.9196207916398302 0 0 0 0 47.505077194737169 -136.19337172199161 0 -136.19337172199161 318.86956741090017 0 0 0 0 119.59816763841536 38.494555936513663 0 38.494555936513663 56.648760855006913 0 0 0 0 61.344908800710982 -60.658486810730153 0 -60.658486810730153 134.83922239061647 0 0 0 0 94.51042369870629 70.33847594049189 0 70.33847594049189 -98.647044988446851 0 0 0 0 62.522392919158932 7.4007337631063308 0 7.4007337631063308 -6.2322665216273299 0 0 0 0 109.01487486985116 75.228347770045644 0 75.228347770045644 -6.3342471562800711 0 0 0 0 30.675184546867968 12.27255049374935 0 12.27255049374935 -56.407428181939849 0 0 0 0 39.127836879342794 64.534485063209786 0 64.534485063209786 -39.186589862646315 0 0 0 0 56.26095541350216 7.4810115631799334 0 7.4810115631799334 -7.3472713406705932 0 0 0 0 126.55744425950252 -164.75663774267173 0 -164.75663774267173 171.2211890991249 0 0 0 0 116.86746353871422 -150.55481622489049 0 -150.55481622489049 150.92761339953586 0 0 0 0 121.0646335695601 -148.0898351259811 0 -148.0898351259811 138.67483332986001 0 0 0 0 205.45140426729995 -179.55251381014432 0 -179.55251381014432 173.98738054569242 0 0 0 0 83.358642717234034 -139.7454408437456 0 -139.7454408437456 339.1797315189504 0 0 0 0 203.62270600724781 -97.698570164516241 0 -97.698570164516241 157.53666733353316 0 0 0 0 259.537594038713 -107.45621923109775 0 -107.45621923109775 126.448822137653 0 0 0 0 1.8488114847245996 0.30244024587588925 0 0.30244024587588925 -0.023192390462738022 0 0 0 0 84.802302501237136 -131.70494309655817 0 -131.70494309655817 345.54988625314166 0 0 0 0 348.95277575150612 -289.22331322894155 0 -289.22331322894155 126.54065204597032 0 0 0 0 138.1555126770777 -89.262710644214621 0 -89.262710644214621 156.98429055227575 0 0 0 0 2.0623959308831843 0.60733906576481544 0 0.60733906576481544 0.38816446087374068 0 0 0 0 156.42443870263014 -37.917740898850411 0 -37.917740898850411 191.81070414688361 0 0 0 0 107.42397491815427 -140.15308561421557 0 -140.15308561421557 70.243477780265948 0 0 0 0 55.225950972537248 -143.97449284558024 0 -143.97449284558024 233.69563165032116 0 0 0 0 293.41794512781871 -179.61729381386206 0 -179.61729381386206 -99.070948792455511 0 0 0 0 267.513530116315 140.49949581842225 0 140.49949581842225 -205.35088707195973 0 0 0 0 115.70509648368534 20.309566363767999 0 20.309566363767999 -305.18240696390831 0 0 0 0 34.526081723022799 -1.6971845779448813 0 -1.6971845779448813 -78.415763386831713 0 0 0 0 74.85327315014365 -43.599571642199408 0 -43.599571642199408 -239.970712848311 0 0 0 0 58.013965677440865 64.450171256190515 0 64.450171256190515 -190.57698966810221 0 0 0 0 91.685623589779425 -61.032758133608695 0 -61.032758133608695 -101.79596806942936 0 0 0 0 39.993155129803199 -25.290659030744337 0 -25.290659030744337 39.127284894590161 0 0 0 0 76.748931285917934 -98.724650558195663 0 -98.724650558195663 -49.668774697659501 0 0 0 0 75.337671053181111 -42.8375101242043 0 -42.8375101242043 132.47171413458028 0 0 0 0 77.742919075039936 -210.81950173880159 0 -210.81950173880159 167.5729034373926 0 0 0 0 1.2858464690202567 -0.20921559459902284 0 -0.20921559459902284 -0.30764199435949369 0 0 0 0 115.62994014991273 -149.47086671572015 0 -149.47086671572015 159.64095553604091 0 0 0 0 115.42832787075531 -147.90125341462863 0 -147.90125341462863 150.31867121432253 0 0 0 0 124.10569086627402 -172.2320329525262 0 -172.2320329525262 111.67054034571811 0 0 0 0 1.1687817561006284 -0.61555563780854783 0 -0.61555563780854783 -0.99149967645171344 0 0 0 0 56.051332476083189 -23.80005952014244 0 -23.80005952014244 62.199972443932893 0 0 0 0 81.589410061667877 10.368333878746398 0 10.368333878746398 -104.04960900427341 0 0 0 0 32.774607790131995 -59.898749846989631 0 -59.898749846989631 21.039385977557686 0 0 0 0 22.955536162680801 -41.410334724176892 0 -41.410334724176892 -139.06277708903417 0 0 0 0 24.226231568522053 14.027856966594754 0 14.027856966594754 5.5976383388399427 0 0 0 0 140.61247837324117 104.29232349254607 0 104.29232349254607 -170.08447372935723 0 0 0 0 16.2798890050517 4.2771182018950604 0 4.2771182018950604 -0.6574882041690886 0 0 0 0 36.853368561949537 94.182322478023707 0 94.182322478023707 -160.98220473344736 0 0 0 0 67.140091317975021 -19.63147585070783 0 -19.63147585070783 -57.809507934829526 0 0 0 0 5.1477500728833547 15.430106859861553 0 15.430106859861553 -10.790165482858356 0 0 0 0 -58.484087656150223 -11.8218480065525 0 -11.8218480065525 -17.072464365095584 0 0 0 0 -50.54369196810876 67.793953817866168 0 67.793953817866168 -33.341535197073881 0 0 0 0 6.0663520476955455 -37.615295068054365 0 -37.615295068054365 -60.355637324124473 0 0 0 0 91.056954883946673 -85.719572019328552 0 -85.719572019328552 -221.32637080986615 0 0 0 0 -287.7104218651657 4.4304470610550197 0 4.4304470610550197 -425.01138430950232 0 0 0 0 -0.70318082353104661 1.7889989567594391 0 1.7889989567594391 -3.2189549502814749 0 0 0 0 265.31236123268718 181.82266088165215 0 181.82266088165215 -637.85411781841685 0 0 0 0 173.12455954857069 92.732276141457078 0 92.732276141457078 -167.29779861371276 0 0 0 0 103.59792740588819 35.074103044637923 0 35.074103044637923 -215.05415598654963 0 0 0 0 100.15702902470184 -24.990902670006108 0 -24.990902670006108 -38.500435157539869 0 0 0 0 116.5243632615402 -31.369024962056983 0 -31.369024962056983 -160.80146652430449 0 0 0 0 98.746982625390956 22.14860771183794 0 22.14860771183794 -61.493371129631669 0 0 0 0 90.672752372847754 6.8538781494726209 0 6.8538781494726209 -45.437299861142492 0 0 0 0 97.480257808503666 40.429798321980343 0 40.429798321980343 6.3547679869197964 0 0 0 0 -206.41828203845034 195.11512185214588 0 195.11512185214588 -144.31737068381335 0 0 0 0 63.445708065870349 25.345865134233009 0 25.345865134233009 -166.43313504298749 0 0 0 0 75.782414232824522 -15.913352344374289 0 -15.913352344374289 -66.484095224495377 0 0 0 0 130.92159950483619 -46.488690677057093 0 -46.488690677057093 -52.324066968156785 0 0 0 0 127.6724209766835 27.933673373697275 0 27.933673373697275 -60.784467414962819 0 0 0 0 108.82151475681894 -12.840362125108186 0 -12.840362125108186 -91.175331860019924 0 0 0 0 106.22113075163907 35.184620288444194 0 35.184620288444194 -158.09856184818636 0 0 0 0 118.98990786390277 -12.787046918909255 0 -12.787046918909255 -178.90531482231381 0 0 0 0 112.9547206636089 12.853769438631844 0 12.853769438631844 -210.1326831352294 0 0 0 0 44.001704253589196 -46.548241710117964 0 -46.548241710117964 -211.45386041573238 0 0 0 0 -17.948984386937809 -11.390851261091939 0 -11.390851261091939 -46.039562930341958 0 0 0 0 -7.1123637571181462 -79.524835708723913 0 -79.524835708723913 -153.24674854555997 0 0 0 0 29.768475419947208 -10.902119865226268 0 -10.902119865226268 -48.106097118847174 0 0 0 0 5.7515733342879685 54.564055756361086 0 54.564055756361086 -207.25807345154283 0 0 0 0 -106.99567600857335 -110.31600096662032 0 -110.31600096662032 103.23191120795218 0 0 0 0 1.1447001062019098 -0.33094639941078974 0 -0.33094639941078974 -0.92909580525449087 0 0 0 0 -100.82901234263045 64.736472698481975 0 64.736472698481975 -97.78001542743641 0 0 0 0 95.494194664885072 21.646541828303725 0 21.646541828303725 -87.129148268827294 0 0 0 0 16.321309869396764 4.6652584130484271 0 4.6652584130484271 -0.13725303235404152 0 0 0 0 38.707578581113921 160.19013366636898 0 160.19013366636898 -297.41084917350963 0 0 0 0 -11.455006488653453 3.37647026923878 0 3.37647026923878 36.025065884228752 0 0 0 0 2.7558653209309867 0.075705780926952571 0 0.075705780926952571 -0.9568648496079426 0 0 0 0 4.9165501330039092 1.4169307217699973 0 1.4169307217699973 -1.1876538969408443 0 0 0 0 29.100500076247044 6.5391201363240725 0 6.5391201363240725 -13.752186102566156 0 0 0 0 18.260437629443913 -32.519289562459392 0 -32.519289562459392 -25.915966207052861 0 0 0 0 0.81148669621157055 -1.3248321686671858 0 -1.3248321686671858 -4.3573346328142719 0 0 0 0 85.918957334073639 -38.098483626802818 0 -38.098483626802818 10.229337095759547 0 0 0 0 85.734561859997484 -29.21763457815473 0 -29.21763457815473 -11.316719333444325 0 0 0 0 132.79208022259445 -84.79611448710989 0 -84.79611448710989 52.594647949970749 0 0 0 0 125.308910673426 -35.385863836735552 0 -35.385863836735552 -17.906439020958715 0 0 0 0 137.37606177981525 0.543351850123031 0 0.543351850123031 -59.959536025625312 0 0 0 0 115.7177514120267 15.014302521819218 0 15.014302521819218 -90.56560810146766 0 0 0 0 69.326914576173294 -20.958407078982759 0 -20.958407078982759 -2.383216613674449 0 0 0 0 78.649816809054755 4.4362515698721836 0 4.4362515698721836 -51.054420990935341 0 0 0 0 0.27131556493943521 -0.13232883900280257 0 -0.13232883900280257 -1.9428746965707191 0 0 0 0 9.3670098385100573 48.472743857942305 0 48.472743857942305 -80.344114735639323 0 0 0 0 -21.372030081405683 -56.882592051699703 0 -56.882592051699703 -40.099780457063844 0 0 0 0 -9.5140034863597975 11.771605869036875 0 11.771605869036875 17.298699574219427 0 0 0 0 84.674917110833121 -51.262308137389027 0 -51.262308137389027 -205.04854995561936 0 0 0 0 104.81132902257741 -27.579529349682844 0 -27.579529349682844 -99.329346631768203 0 0 0 0 85.594940026374388 -38.740932022487641 0 -38.740932022487641 -47.956698390995371 0 0 0 0 80.845667238419992 -24.987892095393818 0 -24.987892095393818 -14.930849360553111 0 0 0 0 60.463748817968735 -66.665780355520837 0 -66.665780355520837 -18.118182775800051 0 0 0 0 -31.047023862195601 -79.052989082829527 0 -79.052989082829527 -19.002115080361364 0 0 0 0 73.68088735958554 -30.838670405057087 0 -30.838670405057087 8.3711499208246778 0 0 0 0 26.16519914385896 1.6057096063157346 0 1.6057096063157346 -13.890792685171839 0 0 0 0 91.601691386946186 6.251325087245732 0 6.251325087245732 -58.145292970276387 0 0 0 0 88.868637534451409 -18.751140801202837 0 -18.751140801202837 -43.922578085560417 0 0 0 0 108.43194571058848 -10.993199530538732 0 -10.993199530538732 -43.165613686098311 0 0 0 0 88.352304608014265 -29.154291818086001 0 -29.154291818086001 -16.815012239083444 0 0 0 0 67.651465772763913 -6.2624265647145876 0 -6.2624265647145876 -17.603024224246838 0 0 0 0 30.424470388497866 13.260831203352609 0 13.260831203352609 -23.139870080938636 0 0 0 0 71.247328299155924 44.043947665585392 0 44.043947665585392 -48.676065446577013 0 0 0 0 47.741258811813168 15.90903952778126 0 15.90903952778126 -22.912339521281865 0 0 0 0 109.75382162078313 18.927814668826159 0 18.927814668826159 -59.13868079261573 0 0 0 0 127.58780703695811 24.570542366732298 0 24.570542366732298 -64.358210668143329 0 0 0 0 126.2147771766613 -4.3028858564193797 0 -4.3028858564193797 -62.051802807072818 0 0 0 0 165.96799614264455 29.212732797297576 0 29.212732797297576 -69.448078164304206 0 0 0 0 168.77100957761286 -26.778289744776885 0 -26.778289744776885 -36.197708179667643 0 0 0 0 125.21749041524163 20.340401982335152 0 20.340401982335152 -59.630333144192718 0 0 0 0 214.58359683609888 -12.861673129448263 0 -12.861673129448263 -43.628350562533342 0 0 0 0 173.27485668786539 74.67239095834725 0 74.67239095834725 -89.118246966312654 0 0 0 0 208.42119928157626 -23.315506630352047 0 -23.315506630352047 -40.550593543435298 0 0 0 0 120.17708703933931 49.367839394068938 0 49.367839394068938 -52.154060020447105 0 0 0 0 81.399231603871158 48.595323993368993 0 48.595323993368993 -41.802656205162293 0 0 0 0 53.172308943676398 91.972694122227722 0 91.972694122227722 -41.668193215822612 0 0 0 0 -40.477001758237748 62.284868662916097 0 62.284868662916097 -25.872868782933438 0 0 0 0 276.95198922776763 -17.544259453399832 0 -17.544259453399832 -46.959220604060647 0 0 0 0 172.53581017017132 152.77849317896698 0 152.77849317896698 -141.87744520673368 0 0 0 0 -67.903103388591262 207.25303024310688 0 207.25303024310688 -142.87255028143591 0 0 0 0 -198.52029110301191 9.6345989586450287 0 9.6345989586450287 -77.476276530326686 0 0 0 0 -6.9370741402617568 -159.28098249099742 0 -159.28098249099742 136.9815118081973 0 0 0 0 553.5541554901065 36.389611796969575 0 36.389611796969575 -398.73590405160689 0 0 0 0 4.8629943467979331 2.2203497357243371 0 2.2203497357243371 0.09113816697111865 0 0 0 0 279.74364767031511 -283.38592151842249 0 -283.38592151842249 217.98655376953639 0 0 0 0 1.8189318512515555 -1.0203553383232915 0 -1.0203553383232915 -2.2681501301317839 0 0 0 0 5.7953208538747276 -33.681966704275794 0 -33.681966704275794 -121.43060330843525 0 0 0 0 479.96067810221712 -307.64935211128034 0 -307.64935211128034 -28.192936693987576 0 0 0 0 223.62873520364519 -25.746631840425835 0 -25.746631840425835 28.796568999007377 0 0 0 0 291.24236057457529 -40.340979650944064 0 -40.340979650944064 -22.94942132334927 0 0 0 0 184.90395804033324 -17.951567280996187 0 -17.951567280996187 -4.2616704017355005 0 0 0 0 6.8333202710812628 0.4816994001284236 0 0.4816994001284236 -3.8913573989943302 0 0 0 0 233.1206736461927 -149.26656595704719 0 -149.26656595704719 65.880572582516379 0 0 0 0 12.131467865692684 9.155320687263611 0 9.155320687263611 -11.951151353410637 0 0 0 0 1.4440361245135662 -0.10569533445246293 0 -0.10569533445246293 -2.0383374867457205 0 0 0 0 -53.934936700272374 195.49657903396474 0 195.49657903396474 -272.31870780730128 0 0 0 0 4.9559936340592685 25.961938978319722 0 25.961938978319722 72.900738585381532 0 0 0 0 11.11673168445931 3.5377882327520105 0 3.5377882327520105 -0.83843676273586709 0 0 0 0 -54.754163290381257 255.75103734164031 0 255.75103734164031 -256.55792401530971 0 0 0 0 -156.51516964107941 187.47186768411348 0 187.47186768411348 -162.17903686585396 0 0 0 0 -26.081210621779974 256.56821054066199 0 256.56821054066199 -191.71897266585529 0 0 0 0 -15.311501837881224 141.35963750486371 0 141.35963750486371 -152.63426388597816 0 0 0 0 6.0276470836361113 197.42934463278493 0 197.42934463278493 -147.16252360908879 0 0 0 0 -97.37525381983869 155.12500186043417 0 155.12500186043417 -155.1588473422479 0 0 0 0 -287.48588949933765 259.32619413081875 0 259.32619413081875 -233.01178040798231 0 0 0 0 -108.52726330982114 123.48786834525436 0 123.48786834525436 -237.30856231537416 0 0 0 0 -35.320373556158302 182.5800527812994 0 182.5800527812994 -300.5396134621659 0 0 0 0 -26.018024131419224 53.423284961563013 0 53.423284961563013 -137.73958110752233 0 0 0 0 275.18022594157446 -329.81738392051398 0 -329.81738392051398 360.31756960293569 0 0 0 0 4.6441267953257892 1.0048304674410922 0 1.0048304674410922 -0.018984904031492 0 0 0 0 167.89905104687932 -184.26474696411378 0 -184.26474696411378 257.09080249128152 0 0 0 0 249.35063492545987 -132.89793550842302 0 -132.89793550842302 288.63632185020174 0 0 0 0 173.67246217676302 -159.8086025877036 0 -159.8086025877036 272.08004778053714 0 0 0 0 13.094770198654345 4.4952375541863674 0 4.4952375541863674 0.84217425301018523 0 0 0 0 146.88974909702847 17.527623895761849 0 17.527623895761849 -135.27624315527828 0 0 0 0 46.353204022241698 121.3470533702291 0 121.3470533702291 -148.98767127516521 0 0 0 0 224.63673720437419 -180.40933784372652 0 -180.40933784372652 -8.1461542110914706 0 0 0 0 -85.010945144156722 142.90091435824814 0 142.90091435824814 -101.98184833325649 0 0 0 0 -122.12792891917888 65.235871511669416 0 65.235871511669416 -129.95935028205236 0 0 0 0 387.65564404485485 134.88774817587432 0 134.88774817587432 -320.47625028959385 0 0 0 0 36.00370028101861 -60.599792803432791 0 -60.599792803432791 -9.9718589691699435 0 0 0 0 54.886247661670495 -79.877008100979197 0 -79.877008100979197 -53.26129811615084 0 0 0 0 7.1278666070538748 104.30381882805284 0 104.30381882805284 -151.0206333995761 0 0 0 0 74.641633953557175 3.9802980956530973 0 3.9802980956530973 -48.379106300721105 0 0 0 0 -1.703602164013688 -4.1792898085629204 0 -4.1792898085629204 -11.818094370553688 0 0 0 0 167.50442950146135 -72.303792128979808 0 -72.303792128979808 -62.254324319244006 0 0 0 0 44.433199079245242 -25.999297223821259 0 -25.999297223821259 11.989986333474235 0 0 0 0 66.255713763730455 -54.330040928661276 0 -54.330040928661276 -27.392291970216775 0 0 0 0 56.216823910214771 -30.137345322003398 0 -30.137345322003398 11.650305803124638 0 0 0 0 18.406262793017959 -24.39441900186813 0 -24.39441900186813 22.491539548519228 0 0 0 0 31.561471769788113 -33.019842818604957 0 -33.019842818604957 18.122996119089748 0 0 0 0 -2.059963288937567 -6.1206806270660774 0 -6.1206806270660774 -0.8329076086385987 0 0 0 0 10.348564379251911 -20.672143434151735 0 -20.672143434151735 8.4225408862967015 0 0 0 0 13.284633825445781 -15.397775017123308 0 -15.397775017123308 17.154527501695412 0 0 0 0 27.800945006533766 -23.10804456680799 0 -23.10804456680799 10.486147370042545 0 0 0 0 -118.28021154646922 -147.0630534005652 0 -147.0630534005652 -148.86211339491524 0 0 0 0 119.67049263014496 -78.904400193413139 0 -78.904400193413139 -299.53712904524241 0 0 0 0 112.90289295936236 215.50925885007172 0 215.50925885007172 -352.44424734479867 0 0 0 0 203.21495202594087 -57.95510179442681 0 -57.95510179442681 -330.06655646688688 0 0 0 0 29.753385083620742 -54.552612065088837 0 -54.552612065088837 55.101455599079486 0 0 0 0 -0.60152464165199149 -1.6078235133539174 0 -1.6078235133539174 -1.6000606653655003 0 0 0 0 359.13373475216576 76.667466781196651 0 76.667466781196651 -214.22276066656309 0 0 0 0 173.47085378475458 -58.83693415376365 0 -58.83693415376365 -99.631436777324552 0 0 0 0 140.20654921244204 -21.038214741123284 0 -21.038214741123284 -115.52304169980971 0 0 0 0 145.25257354847963 -18.645832412580205 0 -18.645832412580205 -170.18177284650847 0 0 0 0 0.68130517640722132 -0.77578149203317892 0 -0.77578149203317892 0.25405717010750334 0 0 0 0 325.44747282155231 234.32330951053194 0 234.32330951053194 45.974540767560711 0 0 0 0 -196.33857957857253 -440.59997860358021 0 -440.59997860358021 -476.95110403123448 0 0 0 0 152.44893040923853 56.292460898848276 0 56.292460898848276 53.632867805015621 0 0 0 0 159.72502270810583 -44.755987794015255 0 -44.755987794015255 -66.339026106008532 0 0 0 0 255.29305096030657 10.751667784534334 0 10.751667784534334 -66.265935230005198 0 0 0 0 150.56764019620459 -41.544239928852676 0 -41.544239928852676 -48.254600285923971 0 0 0 0 148.31402572870138 -48.475008753557859 0 -48.475008753557859 -28.853468254585096 0 0 0 0 156.26962334314157 -51.750850532109098 0 -51.750850532109098 -51.235393045228193 0 0 0 0 152.27249982604292 9.1474631896782128 0 9.1474631896782128 -15.682712235111467 0 0 0 0 152.35591417986143 -78.973651698444655 0 -78.973651698444655 -72.967762535306974 0 0 0 0 139.35601540413154 -39.990254195643274 0 -39.990254195643274 -109.059329343625 0 0 0 0 161.90453496900591 -72.592914476723081 0 -72.592914476723081 -71.115169487287403 0 0 0 0 66.162933977670036 1.1403008035133553 0 1.1403008035133553 -156.70924166579124 0 0 0 0 72.998223825308742 20.703553758279838 0 20.703553758279838 -115.18915791312384 0 0 0 0 141.85535635724955 -75.323050942779446 0 -75.323050942779446 -70.342006637955365 0 0 0 0 173.6358922371146 -0.26568521155422786 0 -0.26568521155422786 -134.97931991679957 0 0 0 0 113.2940859188202 -61.060755600296829 0 -61.060755600296829 -121.46150486045349 0 0 0 0 2.6028690399957668 83.759622820769437 0 83.759622820769437 -189.35094149217366 0 0 0 0 -6.4722857345477678 -46.048652446585379 0 -46.048652446585379 -159.56237011102803 0 0 0 0 1.2001972503985598 125.97928346815019 0 125.97928346815019 -228.9578662758795 0 0 0 0 -0.11190858639283974 -1.3143191127247533 0 -1.3143191127247533 -4.6965148373152097 0 0 0 0 -1.0077275931835175 -26.822815106772396 0 -26.822815106772396 -320.03739818667555 0 0 0 0 57.558333600831247 65.534277873976407 0 65.534277873976407 -175.25419058971147 0 0 0 0 -33.610315547513892 67.677697367858855 0 67.677697367858855 -63.407846576746124 0 0 0 0 -72.81538582149733 7.5678108953818537 0 7.5678108953818537 -60.244112614779624 0 0 0 0 0.22715934870705468 1.3145547014019172 0 1.3145547014019172 -0.72365270217387589 0 0 0 0 -30.283606892860917 28.42287998573579 0 28.42287998573579 -10.753291732913567 0 0 0 0 -49.675446681845642 52.819972844101358 0 52.819972844101358 -29.200303299844791 0 0 0 0 97.663150420483362 68.151996326565268 0 68.151996326565268 15.71962955958179 0 0 0 0 164.39287206113659 -69.911493152898856 0 -69.911493152898856 -58.078080949203468 0 0 0 0 244.20269622333581 -43.060755507646263 0 -43.060755507646263 -111.19580537234879 0 0 0 0 231.42541598914249 5.834558400898004 0 5.834558400898004 -15.642554417128849 0 0 0 0 286.48412898566403 175.44452579488427 0 175.44452579488427 67.164716918524391 0 0 0 0 353.09066256857841 -73.29991158143207 0 -73.29991158143207 -61.212346676534253 0 0 0 0 198.63481057932222 -115.42142979232131 0 -115.42142979232131 -18.715821743826496 0 0 0 0 516.34087530306715 -129.73042455667087 0 -129.73042455667087 -22.758996524516988 0 0 0 0 130.24875610144227 142.82564482546923 0 142.82564482546923 802.99603616826516 0 0 0 0 672.363549679485 186.08381994870888 0 186.08381994870888 50.232831465469644 0 0 0 0 24.327065286630386 22.224381393591557 0 22.224381393591557 -16.908631176019298 0 0 0 0 4.6713892398649932 -1.4643136796870522 0 -1.4643136796870522 -1.0077017998780669 0 0 0 0 -25.286109834991294 -56.427063512966015 0 -56.427063512966015 -34.910957814538961 0 0 0 0 37.458926215544125 26.547350779545013 0 26.547350779545013 -16.793515542386558 0 0 0 0 59.872290031972625 -159.36356333698745 0 -159.36356333698745 86.207413229056328 0 0 0 0 295.4140601396648 -38.585446104606717 0 -38.585446104606717 15.733459491149915 0 0 0 0 3.4522833343829689 -4.0280337363359209 0 -4.0280337363359209 0.016850669239225624 0 0 0 0 475.48332712734918 140.11058999848623 0 140.11058999848623 23.405336188721776 0 0 0 0 404.39942288145903 -314.02468376654019 0 -314.02468376654019 -188.26712141636881 0 0 0 0 161.12338988180272 33.256955958066783 0 33.256955958066783 14.621927219329464 0 0 0 0 91.195174682683501 -52.740986121893002 0 -52.740986121893002 41.697367374439409 0 0 0 0 194.27911292628141 -35.62218275153171 0 -35.62218275153171 -2.9015123125227547 0 0 0 0 -5.9229334664122426 -17.492033951140634 0 -17.492033951140634 9.9338612462090037 0 0 0 0 9.964144309695655 -10.176118322234593 0 -10.176118322234593 8.7392812487171838 0 0 0 0 24.490647238435486 -26.263345650347674 0 -26.263345650347674 -14.749948923567899 0 0 0 0 24.58266543762511 -36.44836403317413 0 -36.44836403317413 -54.374036213089482 0 0 0 0 146.28065688288689 17.129622993473035 0 17.129622993473035 0.78809948448906653 0 0 0 0 146.94020211951556 12.117143284964314 0 12.117143284964314 7.0101220059514162 0 0 0 0 2.6480441526533127 -3.0624557974267077 0 -3.0624557974267077 4.244111576973058 0 0 0 0 -8.0117172687823768 1.1767195473496486 0 1.1767195473496486 -5.9748789113500607 0 0 0 0 30.458216791055747 6.1465294693348369 0 6.1465294693348369 -49.796842464025758 0 0 0 0 32.48399220558349 -3.4068447986458068 0 -3.4068447986458068 -20.07520192591528 0 0 0 0 41.828326167561499 0.028004243088162184 0 0.028004243088162184 -18.933837078385295 0 0 0 0 27.308695594369965 -34.11502458719599 0 -34.11502458719599 29.080949137041898 0 0 0 0 51.099332613273873 -13.632956159728565 0 -13.632956159728565 -3.5724222740586811 0 0 0 0 74.082805900034145 -23.088969081912182 0 -23.088969081912182 -10.005098116968611 0 0 0 0 -21.199819292389293 -138.25604578527737 0 -138.25604578527737 42.29549870358187 0 0 0 0 227.17233788602607 -181.11665996427109 0 -181.11665996427109 43.742878777900501 0 0 0 0 52.751605201992788 -87.917828686268422 0 -87.917828686268422 40.753206392287211 0 0 0 0 71.026122179289814 -58.916781864427776 0 -58.916781864427776 12.458109211460169 0 0 0 0 80.631955292628845 -133.21971843369738 0 -133.21971843369738 57.860092266960237 0 0 0 0 177.94555891390337 -158.51181591819386 0 -158.51181591819386 13.927217555897641 0 0 0 0 137.21562324195111 -115.23230337369023 0 -115.23230337369023 -1.5077324447165665 0 0 0 0 117.33376772758766 -92.275304068526395 0 -92.275304068526395 -16.317349035128245 0 0 0 0 184.43571195487311 -68.089087904420012 0 -68.089087904420012 -72.721513221669738 0 0 0 0 164.06531547748455 -103.80967968543109 0 -103.80967968543109 -41.274432434233859 0 0 0 0 66.815145472253789 -19.113961774294694 0 -19.113961774294694 -10.89293134395848 0 0 0 0 66.407161450260901 -52.030020482962755 0 -52.030020482962755 3.097225907412394 0 0 0 0 123.64762603855343 -74.331851980532406 0 -74.331851980532406 -5.6516090736477054 0 0 0 0 101.87014898302004 -51.745731023296457 0 -51.745731023296457 -29.073645328823204 0 0 0 0 114.74046724085201 -27.867473418660779 0 -27.867473418660779 -16.27154077668547 0 0 0 0 89.845132363821904 -13.935248879265146 0 -13.935248879265146 -21.814189519691354 0 0 0 0 94.939418752917845 8.3088583866333465 0 8.3088583866333465 -14.174270145585979 0 0 0 0 53.369432509534818 13.423698768198392 0 13.423698768198392 -15.323138853035744 0 0 0 0 49.71975243781344 2.591594585902385 0 2.591594585902385 -10.380945228971541 0 0 0 0 74.125874598186783 -4.0868454446219857 0 -4.0868454446219857 -18.986570992657107 0 0 0 0 6.8691746748565663 2.6349628616284093 0 2.6349628616284093 -6.7363534292412997 0 0 0 0 9.441815878781199 23.985054840309857 0 23.985054840309857 -14.43553346777162 0 0 0 0 12.150111678205576 2.7257216504988264 0 2.7257216504988264 -16.259910380229741 0 0 0 0 10.92325497562706 12.702452117970552 0 12.702452117970552 8.1399445939780435 0 0 0 0 11.864664321870805 7.9453209340383353 0 7.9453209340383353 -9.2230488432278435 0 0 0 0 18.690955432235306 4.3315823137267273 0 4.3315823137267273 -16.036283077703796 0 0 0 0 43.184584679005638 1.5928815586757992 0 1.5928815586757992 -26.17853504972345 0 0 0 0 44.864965165237663 7.0795844075933019 0 7.0795844075933019 -14.17638002552917 0 0 0 0 37.455584457911755 9.7029169952502343 0 9.7029169952502343 -25.771667510417416 0 0 0 0 42.413863829669936 4.2099185034314814 0 4.2099185034314814 -29.825962823435475 0 0 0 0 137.11036045401329 2.7597495985676002 0 2.7597495985676002 -16.530597831096827 0 0 0 0 16.399190260465815 4.7437944193158792 0 4.7437944193158792 -16.121600871257307 0 0 0 0 178.02304661366293 -239.7700846820899 0 -239.7700846820899 128.6236436360453 0 0 0 0 427.70034651564674 -59.955130638238785 0 -59.955130638238785 -86.345631228751927 0 0 0 0 186.30123567607734 -163.77944210847915 0 -163.77944210847915 65.311066555014236 0 0 0 0 15.77319590139966 1.8987970515960519 0 1.8987970515960519 -17.156439105595673 0 0 0 0 51.371425429989358 30.279346890833438 0 30.279346890833438 10.857544055557128 0 0 0 0 1085.8602233270503 -359.34645993775695 0 -359.34645993775695 -251.52809613746115 0 0 0 0 882.92204779893382 -127.04376435859655 0 -127.04376435859655 -218.39224305371027 0 0 0 0 707.50713884629295 -359.22974306853342 0 -359.22974306853342 -42.317283535590605 0 0 0 0 485.2299753741172 -445.37753739102681 0 -445.37753739102681 253.17638969821115 0 0 0 0 464.69392309828254 -304.1439058148535 0 -304.1439058148535 -1.6780473942995968 0 0 0 0 1478.5348840455845 -511.19484796879721 0 -511.19484796879721 -194.2344464539803 0 0 0 0 1499.8706496720006 -552.32252513043613 0 -552.32252513043613 -115.37232076064147 0 0 0 0 9.014467195427585 -3.2699219206367225 0 -3.2699219206367225 1.0265807144448651 0 0 0 0 1500.3039133987913 -417.33148882396767 0 -417.33148882396767 848.8066144243528 0 0 0 0 1672.6345404359963 -162.32301368717194 0 -162.32301368717194 490.11584684702342 0 0 0 0 1264.9403903266248 -896.35726512903 0 -896.35726512903 426.51098909612534 0 0 0 0 75.027244052900642 -275.35671021436156 0 -275.35671021436156 461.02942936449568 0 0 0 0 -40.440084352376289 212.57410215926666 0 212.57410215926666 149.88044330746879 0 0 0 0 715.34035564410442 316.14044457843488 0 316.14044457843488 35.657503532830702 0 0 0 0 9.8092124758586294 4.5751658291515653 0 4.5751658291515653 -0.36099309353459474 0 0 0 0 1664.9017831857509 -214.79617545631965 0 -214.79617545631965 -90.315317895761012 0 0 0 0 848.81058935839246 -384.61905465117343 0 -384.61905465117343 29.819666661453319 0 0 0 0 1394.8848317956654 183.4877899610519 0 183.4877899610519 47.576800385532835 0 0 0 0 1498.8125519427813 -615.59651226659059 0 -615.59651226659059 -14.812060630484277 0 0 0 0 4.0632274714611682 2.0630705679318382 0 2.0630705679318382 0.46348055312561864 0 0 0 0 -319.65042631853794 353.37540017540942 0 353.37540017540942 -99.603582650872198 0 0 0 0 496.77689857461519 466.88931706731887 0 466.88931706731887 -94.134933766268915 0 0 0 0 264.33558260391874 -119.4628052840367 0 -119.4628052840367 -3.4874556094375748 0 0 0 0 159.01411349280534 -81.083285517738133 0 -81.083285517738133 -196.20057603982661 0 0 0 0 378.18547047145694 183.18322930395783 0 183.18322930395783 -307.46284008197858 0 0 0 0 -32.927049153578992 155.31872819685262 0 155.31872819685262 -308.16248038815826 0 0 0 0 92.77550120055912 -127.17832664355129 0 -127.17832664355129 -401.34217423829932 0 0 0 0 -338.82926686490464 -379.63878943713058 0 -379.63878943713058 -39.440409137649148 0 0 0 0 176.04580023475864 38.266155049527015 0 38.266155049527015 -371.76978716865437 0 0 0 0 108.28961844503647 14.817787609847869 0 14.817787609847869 1.7004487811987019 0 0 0 0 107.90978926997559 10.990653325493213 0 10.990653325493213 8.07701508628179 0 0 0 0 2.7996519458270654 -1.1276839907783369 0 -1.1276839907783369 -1.5101481305538542 0 0 0 0 89.644158811046509 33.024748123169047 0 33.024748123169047 10.258872894447677 0 0 0 0 -247.23518203876301 -442.75062194236153 0 -442.75062194236153 -435.44919228477147 0 0 0 0 54.806853199384932 36.076972224717565 0 36.076972224717565 10.00774081934378 0 0 0 0 69.131606872506381 7.952846750880326 0 7.952846750880326 1.8288505844088832 0 0 0 0 -350.08197438174102 -309.43602997283926 0 -309.43602997283926 -128.41988238268732 0 0 0 0 -147.47975666594721 -277.18548111010722 0 -277.18548111010722 -421.91580792667975 0 0 0 0 -299.00224998341582 -118.44511905906063 0 -118.44511905906063 -13.084043443444216 0 0 0 0 -132.74807903165492 -225.50014018197896 0 -225.50014018197896 -400.96010323262306 0 0 0 0 0.34754937782738438 -0.79171321615523027 0 -0.79171321615523027 1.6977732518821764 0 0 0 0 395.94893760486411 -19.368835461695625 0 -19.368835461695625 -50.797035894771881 0 0 0 0 370.99005886021769 -83.758527603731721 0 -83.758527603731721 -212.25222835777132 0 0 0 0 291.31810088756174 21.624027630414588 0 21.624027630414588 -66.555832056196635 0 0 0 0 22.575069796344906 -73.11463369230772 0 -73.11463369230772 106.77073775919547 0 0 0 0 2.0465938803997332 -3.1385173051629067 0 -3.1385173051629067 5.3900156901711229 0 0 0 0 58.129973953382432 44.694341810325113 0 44.694341810325113 -143.76485727523129 0 0 0 0 -21.104235683316801 -130.11828631431263 0 -130.11828631431263 -223.12410679891207 0 0 0 0 1.2588912705577968 -25.255498154831514 0 -25.255498154831514 15.267354746363935 0 0 0 0 57.966374158228064 -28.297682493272916 0 -28.297682493272916 -156.54631162358066 0 0 0 0 12.594907717253349 0.0033240476363438631 0 0.0033240476363438631 0.76807988414670125 0 0 0 0 135.32087034513097 37.860170905350927 0 37.860170905350927 -32.184395909262498 0 0 0 0 123.46458202293434 -108.69062988382954 0 -108.69062988382954 78.82734722989116 0 0 0 0 1001.3718561226196 -442.51174079758005 0 -442.51174079758005 129.64550821985407 0 0 0 0 4.522369331054378 1.408830976873837 0 1.408830976873837 0.57818865960687649 0 0 0 0 1387.0247990101534 298.45872407672397 0 298.45872407672397 -99.929021886111997 0 0 0 0 1500.6366646486567 104.26765669495421 0 104.26765669495421 130.85302680835508 0 0 0 0 1495.9153528842644 412.04827812101945 0 412.04827812101945 -206.28449096818585 0 0 0 0 799.01765418241121 221.02447821795408 0 221.02447821795408 -98.696433739333727 0 0 0 0 860.26214655159129 -127.54309079320387 0 -127.54309079320387 -26.912966131898315 0 0 0 0 290.06025766353014 7.9875511401703179 0 7.9875511401703179 92.294452110922919 0 0 0 0 17.501998940915655 4.9529120966356004 0 4.9529120966356004 2.2437342975550791 0 0 0 0 10.645393244305524 -0.39630550350614158 0 -0.39630550350614158 2.8648282066192223 0 0 0 0 13.826491396511301 6.0935421476499059 0 6.0935421476499059 3.8637391984270835 0 0 0 0 9.2223678506696984 2.7058309511405616 0 2.7058309511405616 2.3279354915463513 0 0 0 0 26.236584745871369 -39.426673346757298 0 -39.426673346757298 107.70682048855224 0 0 0 0 2.1107391931793806 0.040959208100826316 0 0.040959208100826316 -0.50471555322282846 0 0 0 0 871.43662799723461 951.9821221686534 0 951.9821221686534 773.36459680918927 0 0 0 0 1497.7305867748055 -275.85035412664598 0 -275.85035412664598 -219.93698091230181 0 0 0 0 805.1056335937792 -502.68591136019973 0 -502.68591136019973 315.47102085162828 0 0 0 0 -66.517337500642498 -85.241728062957051 0 -85.241728062957051 -369.58660633609048 0 0 0 0 6.0868419722974494 0.9008736806462192 0 0.9008736806462192 1.1609622607901979 0 0 0 0 136.99062105254598 -224.18902267326135 0 -224.18902267326135 257.9037726144964 0 0 0 0 2.6120739259788435 0.60477436109067284 0 0.60477436109067284 3.3023872581956621 0 0 0 0 1498.366797117138 393.46722216271371 0 393.46722216271371 -226.55208463409542 0 0 0 0 983.91716039801031 13.457393074240215 0 13.457393074240215 -319.52179680989843 0 0 0 0 912.13283619472168 90.096921247695249 0 90.096921247695249 -311.83892966197777 0 0 0 0 12.424530781213434 -15.413537022446405 0 -15.413537022446405 82.810105938695415 0 0 0 0 232.8568670880959 148.21297956220423 0 148.21297956220423 209.27349593319758 0 0 0 0 2.7078576127801899 0.92623439008494302 0 0.92623439008494302 4.140877908301059 0 0 0 0 15.089109380043737 24.91585929727546 0 24.91585929727546 27.925896347785965 0 0 0 0 -2.8988092252075148 -3.4535217046379785 0 -3.4535217046379785 7.8736606509938838 0 0 0 0 0.33297529266299364 -0.12623281566623668 0 -0.12623281566623668 0.45350517937014878 0 0 0 0 33.395720963640542 34.351225967988256 0 34.351225967988256 -33.452733058848025 0 0 0 0 14.701388063382183 6.2836624744986693 0 6.2836624744986693 3.787866505212321 0 0 0 0 9.1426190204450108 0.89749103520042794 0 0.89749103520042794 0.3116712990975814 0 0 0 0 10.733804791767398 0.56941517273190811 0 0.56941517273190811 0.047131985600572079 0 0 0 0 11.45093131028807 1.0665544523116637 0 1.0665544523116637 0.34706533233025993 0 0 0 0 9.1796976770483134 0.60840963365982148 0 0.60840963365982148 0.10526128979169602 0 0 0 0 8.1716467882142751 -0.25105596323078316 0 -0.25105596323078316 -0.66505962019664366 0 0 0 0 15.104265572193981 7.1890543287340165 0 7.1890543287340165 3.8654500587535949 0 0 0 0 6.5327673400088528 2.4969428479960669 0 2.4969428479960669 1.9661752106041384 0 0 0 0 8.5182959126838043 -0.062127578367328962 0 -0.062127578367328962 0.42558919486671698 0 0 0 0 10.702490666852842 -0.77346371285597826 0 -0.77346371285597826 0.81818902000501303 0 0 0 0 9.4928837322731852 -3.5068407568533075 0 -3.5068407568533075 1.1093855016599719 0 0 0 0 13.356390920874517 0.24399372232659289 0 0.24399372232659289 0.99324350254477345 0 0 0 0 17.745664411680991 0.14300560986202981 0 0.14300560986202981 0.45030643807285742 0 0 0 0 12.824797861381828 -3.2013952768420557 0 -3.2013952768420557 1.9430755628535037 0 0 0 0 22.557388596168494 -2.8981268827304234 0 -2.8981268827304234 -0.78781853584496275 0 0 0 0 11.93259196863437 1.2768595721711336 0 1.2768595721711336 -0.20966713526945568 0 0 0 0 30.500094037988674 8.2739526359767979 0 8.2739526359767979 -49.519691307341418 0 0 0 0 15.767104676691439 1.6725773091172726 0 1.6725773091172726 0.66873449459533729 0 0 0 0 23.711498059601581 3.9061538976278598 0 3.9061538976278598 -48.298079436365697 0 0 0 0 11.397245366944844 0.19782651887248903 0 0.19782651887248903 -0.018196683033238514 0 0 0 0 15.697522666230199 3.7931606950585461 0 3.7931606950585461 0.51946267587706796 0 0 0 0 9.7160049024857358 3.0176102018924169 0 3.0176102018924169 2.9904029093920359 0 0 0 0 6.1849394518794725 3.2445856183771866 0 3.2445856183771866 -0.13953490866606444 0 0 0 0 8.8865082940949591 5.4334622549882692 0 5.4334622549882692 2.8089346132269695 0 0 0 0 13.728142252617772 7.0545815006554164 0 7.0545815006554164 3.9677552807174834 0 0 0 0 4.1515682320553502 1.0040174217294933 0 1.0040174217294933 -0.99667003317781866 0 0 0 0 8.6577061154966941 60.097744713998964 0 60.097744713998964 -93.473792649751431 0 0 0 0 -42.041224078133382 -167.01973069858127 0 -167.01973069858127 -219.6728353574008 0 0 0 0 10.271647345289239 -65.435505818141337 0 -65.435505818141337 -214.85441579748203 0 0 0 0 10.945481399327036 -105.26439759940706 0 -105.26439759940706 -96.45494445309987 0 0 0 0 -57.558315286665675 -14.50592833749721 0 -14.50592833749721 228.65647074106982 0 0 0 0 -106.86481985993123 -77.760808044905673 0 -77.760808044905673 101.46597354830965 0 0 0 0 -9.2424156465640408 15.733988790101876 0 15.733988790101876 -178.81626562175074 0 0 0 0 -27.849777985977198 34.914660269919239 0 34.914660269919239 226.81418278544857 0 0 0 0 39.552466709435976 20.541850974775571 0 20.541850974775571 99.37485384777257 0 0 0 0 117.9159413809648 196.14033159850305 0 196.14033159850305 263.16768345548712 0 0 0 0 33.255184825657125 -41.237952186534983 0 -41.237952186534983 30.069991539959119 0 0 0 0 49.185920232357603 -16.902764764417498 0 -16.902764764417498 -50.485865021152222 0 0 0 0 34.118167683031061 -65.57634574573899 0 -65.57634574573899 -123.11351578207791 0 0 0 0 -11.283040309255739 -21.083671459494099 0 -21.083671459494099 139.42131189327688 0 0 0 0 41.612146310901153 -8.2463993741553168 0 -8.2463993741553168 30.538871485967704 0 0 0 0 76.016259934249319 73.733317944394116 0 73.733317944394116 134.05909030712496 0 0 0 0 32.368060940929354 16.846000882220309 0 16.846000882220309 102.38357326893026 0 0 0 0 148.8489964306973 245.95923511725542 0 245.95923511725542 363.31646625396007 0 0 0 0 193.58634929276377 169.64001782532438 0 169.64001782532438 207.93667503167194 0 0 0 0 65.753095229440078 65.61414394774441 0 65.61414394774441 174.64620008792426 0 0 0 0 961.18008383818233 634.29914368584127 0 634.29914368584127 211.1035611996021 0 0 0 0 546.08728202817656 316.2834495942605 0 316.2834495942605 147.98944915818828 0 0 0 0 202.51769373860952 150.22563572523052 0 150.22563572523052 249.97832394760167 0 0 0 0 339.43506765107395 527.05637228249327 0 527.05637228249327 546.38685890875115 0 0 0 0 3.6137180588328377 2.2211187495961973 0 2.2211187495961973 3.7761607953422724 0 0 0 0 378.95956035226118 -94.244268495134889 0 -94.244268495134889 11.416340330495274 0 0 0 0 69.243615808250979 147.5306216374392 0 147.5306216374392 352.89356820731007 0 0 0 0 1497.5567545849899 956.20547189136903 0 956.20547189136903 410.41406405022207 0 0 0 0 921.62536711869325 1005.2993206800888 0 1005.2993206800888 715.84500656169962 0 0 0 0 1233.0790328687799 669.40984260004859 0 669.40984260004859 532.91727147416316 0 0 0 0 1140.001319862311 366.49986409146857 0 366.49986409146857 100.80872684138015 0 0 0 0 1500.1474886086307 516.8094890121198 0 516.8094890121198 -138.32527147626675 0 0 0 0 1012.0709877070713 211.547278434822 0 211.547278434822 -287.89775085584557 0 0 0 0 925.40003591401546 307.88994973495863 0 307.88994973495863 -47.516003597693157 0 0 0 0 1183.2713354795596 215.64193863719953 0 215.64193863719953 -291.11256986734338 0 0 0 0 1499.6066893911757 102.46261225420683 0 102.46261225420683 -446.0717632015544 0 0 0 0 1175.578933714658 -35.451794985378385 0 -35.451794985378385 -445.88393908458528 0 0 0 0 792.77334303782482 25.729798707064987 0 25.729798707064987 -266.90900839346511 0 0 0 0 1178.3358402197064 -7.433968892021781 0 -7.433968892021781 -324.16782651321296 0 0 0 0 784.60398227668543 -156.04449426102872 0 -156.04449426102872 -221.701577449811 0 0 0 0 1499.7427364489715 -216.07673583591685 0 -216.07673583591685 -445.4588017922689 0 0 0 0 84.087430529514677 -47.580277715462643 0 -47.580277715462643 1.4542615105262371 0 0 0 0 259.08505123408304 62.900567830360615 0 62.900567830360615 -35.621494853365334 0 0 0 0 354.72405258052095 -70.291008000274701 0 -70.291008000274701 -79.314462280719113 0 0 0 0 763.44673519218441 34.287036861402179 0 34.287036861402179 -155.43368640448091 0 0 0 0 359.94700698615634 107.54225708486587 0 107.54225708486587 -156.43540408252409 0 0 0 0 -0.39509225426223793 0.68535459677943322 0 0.68535459677943322 -1.0810984740267351 0 0 0 0 303.50436728683417 42.566722514782327 0 42.566722514782327 -38.330107059682412 0 0 0 0 -21.35758921919205 -112.70464155161997 0 -112.70464155161997 -180.3427158683628 0 0 0 0 79.202064994686225 103.14383306157707 0 103.14383306157707 61.065209370778149 0 0 0 0 182.41036871401229 79.872252697120871 0 79.872252697120871 -176.40881344733589 0 0 0 0 766.47057840228899 97.222999405712329 0 97.222999405712329 -264.2913688735008 0 0 0 0 374.84586182546627 43.245603421634485 0 43.245603421634485 -148.8496821027517 0 0 0 0 205.92955281001014 159.14812088847864 0 159.14812088847864 43.245422924956415 0 0 0 0 364.07839172190143 277.67239966327497 0 277.67239966327497 139.80675536855 0 0 0 0 364.99397262102588 101.62076519654799 0 101.62076519654799 45.353685343725147 0 0 0 0 136.9255625162441 166.67792890304653 0 166.67792890304653 173.04717791048031 0 0 0 0 114.61020219363445 73.298704821925739 0 73.298704821925739 52.133785044967198 0 0 0 0 60.992318948243337 78.16650023412447 0 78.16650023412447 105.13252781176936 0 0 0 0 52.004267486929166 47.357591208887868 0 47.357591208887868 37.772058553297938 0 0 0 0 66.69547569329734 79.270419351491341 0 79.270419351491341 51.999531151072631 0 0 0 0 62.976576696575648 27.11269966795966 0 27.11269966795966 18.22561073206748 0 0 0 0 39.718937957895832 11.119737866129867 0 11.119737866129867 12.93376836033579 0 0 0 0 64.77723051850262 61.153544256011571 0 61.153544256011571 -13.061757197739894 0 0 0 0 74.345272464965092 43.659778545851353 0 43.659778545851353 -4.0532757949071083 0 0 0 0 124.76064737934576 38.377243901260954 0 38.377243901260954 -22.181585849680232 0 0 0 0 101.4893810732392 30.539349994577236 0 30.539349994577236 -13.417023074508336 0 0 0 0 88.046544956134312 50.129766041505576 0 50.129766041505576 -25.91600229708456 0 0 0 0 79.410771120414211 97.981877859656478 0 97.981877859656478 -15.446567911247939 0 0 0 0 52.28668648977964 37.205893602322988 0 37.205893602322988 -37.510429561847104 0 0 0 0 118.36104138752853 60.344747610180661 0 60.344747610180661 -97.533473462109669 0 0 0 0 108.40224774494709 23.176775976071099 0 23.176775976071099 -12.867558850119849 0 0 0 0 138.24621394684436 24.95461736028426 0 24.95461736028426 -14.569312925317945 0 0 0 0 151.97864740756359 9.5635591471035468 0 9.5635591471035468 1.8044633205313403 0 0 0 0 9.481150362003973 2.5917617710917966 0 2.5917617710917966 -42.401741459205681 0 0 0 0 3.0964717499039551 2.1694203532682046 0 2.1694203532682046 -6.4465955046179193 0 0 0 0 153.82539787805399 4.6851523502214718 0 4.6851523502214718 6.2002318644581464 0 0 0 0 2.1063992245438925 -1.3982759901773356 0 -1.3982759901773356 1.394169695186382 0 0 0 0 103.86533380697256 -35.517153425111701 0 -35.517153425111701 -2.8736686236725291 0 0 0 0 145.8320371458326 -11.449634751907098 0 -11.449634751907098 -12.687203246207673 0 0 0 0 93.771451259122841 -9.1022857814795088 0 -9.1022857814795088 -12.486042076046687 0 0 0 0 86.329316377206851 -8.2003159717830698 0 -8.2003159717830698 -5.9639305372577383 0 0 0 0 77.399362340031985 -33.212800037639525 0 -33.212800037639525 1.4555214038261965 0 0 0 0 119.15881751281631 15.473748358798446 0 15.473748358798446 -13.188815269211432 0 0 0 0 74.049258737039054 -9.7491729355882057 0 -9.7491729355882057 -5.8309775459149193 0 0 0 0 85.487968648561946 10.432793011184003 0 10.432793011184003 -4.1047996463214531 0 0 0 0 83.640393978173961 14.881664117795879 0 14.881664117795879 -13.08354054198135 0 0 0 0 56.01753680263937 8.5736351098953776 0 8.5736351098953776 -3.98979837003386 0 0 0 0 64.641298876045767 2.1836842268148047 0 2.1836842268148047 -1.9815613461510111 0 0 0 0 42.023547864402644 -2.0848560776511249 0 -2.0848560776511249 0.26649750883927936 0 0 0 0 61.624020411180027 -27.837014647754593 0 -27.837014647754593 -6.5388632652659879 0 0 0 0 56.513879223160984 -12.342230538929055 0 -12.342230538929055 -5.3691337254693963 0 0 0 0 65.409693564964982 -8.7635964864595479 0 -8.7635964864595479 -3.9368016652530287 0 0 0 0 46.566308193781879 -13.030526142110205 0 -13.030526142110205 -3.3917778179934999 0 0 0 0 54.22419132295181 -12.671112833943994 0 -12.671112833943994 -5.3778510339827221 0 0 0 0 47.407574757584371 -20.571247148815928 0 -20.571247148815928 -12.583158775179925 0 0 0 0 46.254385374631966 -29.654544274825273 0 -29.654544274825273 -6.7408549790554417 0 0 0 0 55.394154085712216 -21.828358119484918 0 -21.828358119484918 -12.834062907410498 0 0 0 0 40.541207079215383 -31.931470026127727 0 -31.931470026127727 -18.965054043245516 0 0 0 0 9.2803460997020011 -97.347990058101914 0 -97.347990058101914 -33.648223802602274 0 0 0 0 32.265462862942513 -32.49636938986572 0 -32.49636938986572 -9.0321211055936601 0 0 0 0 30.955632264545358 -19.18950390337443 0 -19.18950390337443 4.0413749941184562 0 0 0 0 16.121475989319151 -35.92451408173747 0 -35.92451408173747 -8.2004049084412145 0 0 0 0 25.518339290345466 -26.458406365249203 0 -26.458406365249203 -4.1248177372660848 0 0 0 0 11.152684727733934 -0.22306331280964287 0 -0.22306331280964287 -2.2102991763092126 0 0 0 0 41.990046189346003 -16.756905396363567 0 -16.756905396363567 -0.42401738468186068 0 0 0 0 -22.394956369085776 -1.5566399116099774 0 -1.5566399116099774 97.195061286097825 0 0 0 0 -9.5105487488581275 26.589327230960748 0 26.589327230960748 39.002690273508733 0 0 0 0 3.1218076440307883 -1.0096679644629822 0 -1.0096679644629822 0.53399649610033828 0 0 0 0 15.431631737541466 25.683183656960182 0 25.683183656960182 -0.75348712342702129 0 0 0 0 28.973264865595411 -26.296412453365292 0 -26.296412453365292 -6.915149003241396 0 0 0 0 -23.390707026229393 -40.608549841451762 0 -40.608549841451762 2.4045727751917241 0 0 0 0 29.745844520925107 -9.9597575796418312 0 -9.9597575796418312 -1.1267259240102536 0 0 0 0 31.885729863224697 -12.141690455096068 0 -12.141690455096068 12.846588213473296 0 0 0 0 34.668562608181674 -8.5091237989948922 0 -8.5091237989948922 -7.8903948440286733 0 0 0 0 54.764821095901425 2.8762644793993104 0 2.8762644793993104 -0.19089687996938665 0 0 0 0 45.492629371143266 20.216046255299148 0 20.216046255299148 27.140784593675221 0 0 0 0 27.331946193025942 -11.193997927515284 0 -11.193997927515284 26.754100072078689 0 0 0 0 37.986153362237019 31.710754663026094 0 31.710754663026094 64.905312318781739 0 0 0 0 30.044295559935563 5.264563707885145 0 5.264563707885145 45.66343569622677 0 0 0 0 32.058396893276949 5.1298083440480013 0 5.1298083440480013 44.509858033487944 0 0 0 0 39.714312887335836 25.517691046863092 0 25.517691046863092 75.220524263912694 0 0 0 0 42.054978362863039 -9.2315162339173185 0 -9.2315162339173185 11.915869221253843 0 0 0 0 27.398758044739225 -26.528180977586544 0 -26.528180977586544 13.679798418627939 0 0 0 0 23.244197360920225 -24.528800939904784 0 -24.528800939904784 68.42238987065025 0 0 0 0 35.657112146755935 -6.706093212834304 0 -6.706093212834304 1.149823338816077 0 0 0 0 26.480703387558606 -17.041429569702359 0 -17.041429569702359 4.1146514538114047 0 0 0 0 32.394319354065374 -28.231359217579666 0 -28.231359217579666 -24.121146491456784 0 0 0 0 25.143211513481219 -13.524829589355136 0 -13.524829589355136 1.5126190949735019 0 0 0 0 22.533710450711297 -7.6073001669553033 0 -7.6073001669553033 -1.6100407563152066 0 0 0 0 24.024471120268572 -5.0196781108668347 0 -5.0196781108668347 -20.55295728527085 0 0 0 0 19.755745373617543 -2.6853164538044805 0 -2.6853164538044805 -2.0716801005769154 0 0 0 0 22.397007384676726 0.89484437078391288 0 0.89484437078391288 -1.2921170770287107 0 0 0 0 16.272206214579839 -5.3558834093282179 0 -5.3558834093282179 -0.57265843163188301 0 0 0 0 17.728143905715115 -14.427073045020961 0 -14.427073045020961 -14.990153453404446 0 0 0 0 41.830043871676025 -15.080224742573591 0 -15.080224742573591 -43.399916893328509 0 0 0 0 25.34657298413731 -4.2378713673439847 0 -4.2378713673439847 -25.185968657903686 0 0 0 0 18.824910919975082 -7.0318805906229613 0 -7.0318805906229613 -1.3563877985993713 0 0 0 0 16.917761592499012 -5.3913507669879861 0 -5.3913507669879861 2.3742075296641763 0 0 0 0 5.3446897653857377 -43.467050649151588 0 -43.467050649151588 18.065359894351786 0 0 0 0 31.624735341987616 14.151166723845108 0 14.151166723845108 15.584769863771157 0 0 0 0 -0.73555540952406595 -3.6755659506370328 0 -3.6755659506370328 1.480336270938313 0 0 0 0 6.4923064444890937 -1.4193070208329814 0 -1.4193070208329814 3.2057785753024728 0 0 0 0 8.9328253986873278 -24.00133687289599 0 -24.00133687289599 8.8695033286527973 0 0 0 0 31.660649695950326 12.661190079947659 0 12.661190079947659 -2.5046838872606259 0 0 0 0 19.770676091470136 0.01290562464338052 0 0.01290562464338052 -61.092866126194167 0 0 0 0 18.741696632368367 -5.0148712009226948 0 -5.0148712009226948 -0.49133284327848714 0 0 0 0 20.049406048228434 -8.1222766835144604 0 -8.1222766835144604 0.94065925161865582 0 0 0 0 26.126935473106414 -48.297992542387078 0 -48.297992542387078 79.579494598274323 0 0 0 0 67.993107467027585 -38.923064006175537 0 -38.923064006175537 -37.336719648843427 0 0 0 0 50.107773624109541 -48.907713293645884 0 -48.907713293645884 11.462066217104621 0 0 0 0 62.846313248988736 -52.857781178699952 0 -52.857781178699952 -26.134904742805247 0 0 0 0 48.606908561418095 -26.281439987710428 0 -26.281439987710428 -15.840167015851875 0 0 0 0 51.423567462825304 -31.759737932731241 0 -31.759737932731241 -5.2456062241558357 0 0 0 0 33.041899875163836 -21.400773363237249 0 -21.400773363237249 13.889879131245294 0 0 0 0 42.627850514039892 -22.927788652068784 0 -22.927788652068784 -1.967265003258035 0 0 0 0 3.9538392115574474 -10.631169778227923 0 -10.631169778227923 -2.333179067760673 0 0 0 0 31.149021752663728 -17.231297088133619 0 -17.231297088133619 2.9969306961461841 0 0 0 0 36.745892927065142 -2.697331584083031 0 -2.697331584083031 -20.679320349137015 0 0 0 0 25.095215829036533 12.342572499687776 0 12.342572499687776 -23.408761172074037 0 0 0 0 38.300037736447848 -10.654572705652868 0 -10.654572705652868 -9.7582159180442432 0 0 0 0 7.2179841173741792 -7.4166057594789159 0 -7.4166057594789159 1.0906863987479323 0 0 0 0 29.950338747979913 0.37928802759756763 0 0.37928802759756763 -2.3812081667175562 0 0 0 0 8.2162063159076197 -2.7396110485356679 0 -2.7396110485356679 -0.9895183275383701 0 0 0 0 54.865887053710139 -27.604500302170493 0 -27.604500302170493 -1.8094732006543381 0 0 0 0 46.868766830988534 -11.017273160228342 0 -11.017273160228342 3.022889820252658 0 0 0 0 48.791633952257143 -18.897173886438395 0 -18.897173886438395 1.4931961455206419 0 0 0 0 29.977461116128307 -18.264707242625157 0 -18.264707242625157 3.619870286445162 0 0 0 0 36.051776238162802 -13.763873401140529 0 -13.763873401140529 3.0090209762702216 0 0 0 0 39.976858927074545 -15.541965640704234 0 -15.541965640704234 4.5123551689885062 0 0 0 0 41.905293107851321 -13.356160417497904 0 -13.356160417497904 -4.7334310362666656 0 0 0 0 52.814299981481781 -20.441592612093245 0 -20.441592612093245 -10.190015284697665 0 0 0 0 -1.0096630805981448 0.18555756977869908 0 0.18555756977869908 -0.56899297225498913 0 0 0 0 47.543366278195663 -23.040731835022939 0 -23.040731835022939 7.4166111501094747 0 0 0 0 -9.5165020377450436 -15.313043968767529 0 -15.313043968767529 1.0587686255450448 0 0 0 0 27.936898378415208 10.166151810835572 0 10.166151810835572 -22.317673171218303 0 0 0 0 14.259636189717639 -32.0660059088666 0 -32.0660059088666 41.995090820748374 0 0 0 0 28.772044261710107 -3.9048880643254051 0 -3.9048880643254051 -7.4208714611422693 0 0 0 0 27.12559247498757 -64.748044870413196 0 -64.748044870413196 38.694213768511872 0 0 0 0 16.726292077681137 -51.242032396125978 0 -51.242032396125978 27.545576443194932 0 0 0 0 50.401197602119737 -82.451749722213975 0 -82.451749722213975 26.054242036114374 0 0 0 0 81.453537385601521 -105.27403310634986 0 -105.27403310634986 41.245551676528748 0 0 0 0 46.366426560824038 -69.001735861093721 0 -69.001735861093721 15.052249857837978 0 0 0 0 82.591315185246458 -87.665060765115072 0 -87.665060765115072 5.6545980672481164 0 0 0 0 69.997127884584188 -67.410437772375758 0 -67.410437772375758 -26.879443009071565 0 0 0 0 57.890943522741509 -68.486699371498503 0 -68.486699371498503 11.514902729419759 0 0 0 0 52.512992189629585 -47.917244905409348 0 -47.917244905409348 7.2006633756229803 0 0 0 0 67.633160657562257 -42.805037407440636 0 -42.805037407440636 -19.144779599072848 0 0 0 0 51.575400059817092 -12.319402402694259 0 -12.319402402694259 0.82553049695501723 0 0 0 0 68.49991998884434 -39.880442364215924 0 -39.880442364215924 3.4861132452406309 0 0 0 0 70.679222825902343 -41.244750544067045 0 -41.244750544067045 -26.793621813491882 0 0 0 0 0.34818808065200102 -15.88299806833936 0 -15.88299806833936 0.16624629481453918 0 0 0 0 105.26098526264468 -27.246345547474334 0 -27.246345547474334 -34.957285732587934 0 0 0 0 59.858192187568882 -37.112286316029561 0 -37.112286316029561 5.1371075223332738 0 0 0 0 82.198032419495576 -31.71143854528168 0 -31.71143854528168 8.0447035150311397 0 0 0 0 20.862252247399802 -0.53719261645333205 0 -0.53719261645333205 -4.9060355544667074 0 0 0 0 6.8921594909625821 -17.927213156688083 0 -17.927213156688083 -0.099312056831383444 0 0 0 0 78.344641593759661 -51.933912463551678 0 -51.933912463551678 -8.4289912534052291 0 0 0 0 54.943363777777677 -23.15917183875041 0 -23.15917183875041 5.9038008813672604 0 0 0 0 -5.2120121739462775 -89.583351757275295 0 -89.583351757275295 54.514917615577133 0 0 0 0 236.62101964022622 325.84393334227525 0 325.84393334227525 51.907641091507458 0 0 0 0 498.69816214371167 -247.19873970001049 0 -247.19873970001049 -341.34649310470104 0 0 0 0 29.055221691316987 -18.748997118376163 0 -18.748997118376163 3.6251721703088844 0 0 0 0 17.898691705833475 -7.0202441463777934 0 -7.0202441463777934 -4.1301286153334873 0 0 0 0 48.816149226845482 -17.495540711714398 0 -17.495540711714398 2.9685516879963529 0 0 0 0 49.811314686990045 -21.414724517787533 0 -21.414724517787533 -1.4869205107303856 0 0 0 0 49.119134458298504 -35.439895132725646 0 -35.439895132725646 -8.3128244170687537 0 0 0 0 37.446213237308257 -27.803299583436335 0 -27.803299583436335 -6.6126354831647234 0 0 0 0 38.016017882764842 -21.983869918433353 0 -21.983869918433353 -2.0301538814551443 0 0 0 0 47.020328386282927 -29.628973915608093 0 -29.628973915608093 -24.309026218111391 0 0 0 0 94.410488539404469 34.20236424134373 0 34.20236424134373 39.249425439321953 0 0 0 0 100.8207346825584 -24.093356095270252 0 -24.093356095270252 10.273641413660698 0 0 0 0 72.363411474543682 -32.124766032631669 0 -32.124766032631669 -16.487020675172971 0 0 0 0 212.51125998284078 120.28013978994795 0 120.28013978994795 -9.6697677627926168 0 0 0 0 -6.0903946623143383 -26.980747219019889 0 -26.980747219019889 68.344381434710613 0 0 0 0 0.19899699301890905 -3.4256513919863156 0 -3.4256513919863156 0.953948790317666 0 0 0 0 60.534526292023656 -25.530490218010129 0 -25.530490218010129 0.15810202493594261 0 0 0 0 -2.3571864809013761 -20.494215276749742 0 -20.494215276749742 -4.9831213444492164 0 0 0 0 63.490624101274079 -35.035142386799009 0 -35.035142386799009 -8.7204068980547049 0 0 0 0 95.784876460031228 -29.95648438219439 0 -29.95648438219439 2.0302104873136955 0 0 0 0 58.960390899203958 -96.324208051796916 0 -96.324208051796916 39.777887219960235 0 0 0 0 22.121364447415566 2.4315200089689615 0 2.4315200089689615 -14.55783243476929 0 0 0 0 59.480716192496175 1.9062671476309561 0 1.9062671476309561 -85.599659358778581 0 0 0 0 44.609215192848296 -35.487160345424776 0 -35.487160345424776 15.891658515348126 0 0 0 0 -9.7381206853837607 -17.654815570808612 0 -17.654815570808612 2.1872812774052957 0 0 0 0 57.573439894994408 -62.561142564806204 0 -62.561142564806204 -27.660462828264826 0 0 0 0 39.199666044334663 -55.103534859399815 0 -55.103534859399815 75.869586129524578 0 0 0 0 65.071477445964774 -97.494201888051066 0 -97.494201888051066 14.807601959511658 0 0 0 0 10.276050146005218 168.86932526686564 0 168.86932526686564 84.13464731744466 0 0 0 0 134.00848325712104 -111.31578762696881 0 -111.31578762696881 -97.975215797080068 0 0 0 0 33.390236432058373 -32.903826031511471 0 -32.903826031511471 61.891630612068866 0 0 0 0 23.207054502154296 -0.45224733885711643 0 -0.45224733885711643 -15.809911306371113 0 0 0 0 -27.297868004787233 -147.79750020795075 0 -147.79750020795075 14.250114645323208 0 0 0 0 34.332524873211788 -10.076006154018179 0 -10.076006154018179 -7.1480090291142515 0 0 0 0 77.220250293160774 3.6689609020617269 0 3.6689609020617269 -1.3895104086582251 0 0 0 0 248.40731480869999 -18.478510142116107 0 -18.478510142116107 -130.39733458111482 0 0 0 0 128.8460710396389 -98.996404438255624 0 -98.996404438255624 -137.82122525297996 0 0 0 0 148.91006334300982 43.945723541997268 0 43.945723541997268 -22.841860433704824 0 0 0 0 36.182181420090359 -8.3807125840724623 0 -8.3807125840724623 -4.6253619702103759 0 0 0 0 34.036873827510135 -133.94223311006402 0 -133.94223311006402 -82.615060570985179 0 0 0 0 51.147322603406792 25.096409346538394 0 25.096409346538394 -133.2067338969959 0 0 0 0 52.008565900149847 -4.6077121094077711 0 -4.6077121094077711 -32.919366173436174 0 0 0 0 47.02882924581138 10.707150681414305 0 10.707150681414305 -1.2341390795653311 0 0 0 0 70.521809790350972 -14.806213333806227 0 -14.806213333806227 -32.117540358056658 0 0 0 0 42.384823034122292 -20.494605581006226 0 -20.494605581006226 8.4353600903328498 0 0 0 0 41.825134157479624 116.39353974366441 0 116.39353974366441 -132.16706403832745 0 0 0 0 54.151703644560229 -4.9470138281360576 0 -4.9470138281360576 -16.038063803534897 0 0 0 0 241.00682699746994 -455.6129471825418 0 -455.6129471825418 339.65376883183126 0 0 0 0 340.4487826786426 -155.27486678029254 0 -155.27486678029254 -83.51692981798692 0 0 0 0 150.86884339562675 -71.927252908521041 0 -71.927252908521041 227.86357987083647 0 0 0 0 496.78022357206646 -32.639163403197927 0 -32.639163403197927 -124.47879718546665 0 0 0 0 -110.14578862235066 200.48943527555912 0 200.48943527555912 -70.532760665856586 0 0 0 0 72.576244081472367 -27.532795360359501 0 -27.532795360359501 8.2799887612404746 0 0 0 0 47.239510905877282 10.605350192327585 0 10.605350192327585 -17.47174889296198 0 0 0 0 41.813735227446159 -51.540080416672026 0 -51.540080416672026 225.27321848468455 0 0 0 0 216.93092043716024 -369.47815478898428 0 -369.47815478898428 381.94590217824589 0 0 0 0 6.4225629862542633 2.5183021748739947 0 2.5183021748739947 -3.4501141998550118 0 0 0 0 35.267799223365273 -22.238636173809255 0 -22.238636173809255 116.05457904942887 0 0 0 0 34.979680865071714 90.808618490163099 0 90.808618490163099 186.68296663462752 0 0 0 0 4.9003492628851788 1.1394638552256184 0 1.1394638552256184 -0.070464479352828846 0 0 0 0 152.73801289629046 130.47019383061706 0 130.47019383061706 34.452320810319179 0 0 0 0 131.57631124918407 262.8209568657594 0 262.8209568657594 -8.8262545870056783 0 0 0 0 93.855294610286364 232.46572909074712 0 232.46572909074712 105.24913561482663 0 0 0 0 166.85686572427949 145.960605250757 0 145.960605250757 -162.14938160500606 0 0 0 0 216.70361014018636 52.499518422339861 0 52.499518422339861 -97.419739667639078 0 0 0 0 101.19268221575136 74.889321509861446 0 74.889321509861446 -20.589325084180018 0 0 0 0 169.84437512763179 34.219590687619529 0 34.219590687619529 -10.637167697097539 0 0 0 0 115.3581656454698 9.0349221161347373 0 9.0349221161347373 -21.285212958899137 0 0 0 0 90.219258551744133 -33.353787261622529 0 -33.353787261622529 -14.750728890609935 0 0 0 0 73.511721527895133 -123.79719431078456 0 -123.79719431078456 101.48572654368036 0 0 0 0 261.2181614080414 -148.75211886085219 0 -148.75211886085219 60.648511965095167 0 0 0 0 23.731624691445518 21.869952644492173 0 21.869952644492173 -43.388024183526795 0 0 0 0 91.754772681626491 39.83034462283922 0 39.83034462283922 7.8237207255019712 0 0 0 0 3.9319227921998263 0.56866253985388582 0 0.56866253985388582 -8.5528396301832856 0 0 0 0 99.171382133115344 54.992925971892674 0 54.992925971892674 37.57686071772514 0 0 0 0 114.58676350271389 44.40022255404778 0 44.40022255404778 -16.16556213846161 0 0 0 0 101.7206696903886 26.580160398851149 0 26.580160398851149 6.2333031872567517 0 0 0 0 55.542721109731247 -33.260646918487964 0 -33.260646918487964 13.801527160267142 0 0 0 0 86.999802077538334 62.634636274609875 0 62.634636274609875 72.381948465174901 0 0 0 0 101.2133008559324 68.603205523713314 0 68.603205523713314 64.755622508599117 0 0 0 0 -13.64914887249688 -1.9776529668506555 0 -1.9776529668506555 32.711211471483693 0 0 0 0 3.2246312773237378 -3.2545545474175945 0 -3.2545545474175945 -0.13470030136742928 0 0 0 0 4.4042538737007773 -11.363097276253811 0 -11.363097276253811 7.9977956168245079 0 0 0 0 25.982523550030464 -22.893686776778537 0 -22.893686776778537 11.668038592097218 0 0 0 0 24.842329064700607 -15.351010757716722 0 -15.351010757716722 3.367320645995278 0 0 0 0 51.203784981453282 1.0832125166161859 0 1.0832125166161859 -32.406483732649576 0 0 0 0 152.76129974628566 -170.36424929017812 0 -170.36424929017812 204.96340241865983 0 0 0 0 15.385212427457276 2.9413653511938844 0 2.9413653511938844 2.0660404698466266 0 0 0 0 204.30629913204575 -202.66478748238296 0 -202.66478748238296 118.32933373393462 0 0 0 0 244.13474283988398 -188.73721480831045 0 -188.73721480831045 35.446978882195253 0 0 0 0 311.49754588738324 18.786873167051453 0 18.786873167051453 -226.54553080075857 0 0 0 0 192.7730100236513 -103.99634427687852 0 -103.99634427687852 41.010523875537046 0 0 0 0 218.44690952899691 -113.0217570678833 0 -113.0217570678833 120.60629102360247 0 0 0 0 174.88920687696555 -150.26680419980721 0 -150.26680419980721 89.965587374776078 0 0 0 0 133.38021094041869 -163.92873120554577 0 -163.92873120554577 -14.518834256203263 0 0 0 0 4.0938976335864368 -4.1592123606736813 0 -4.1592123606736813 1.3112022263453689 0 0 0 0 -49.03578743068465 -4.4773770239748956 0 -4.4773770239748956 20.225866131219846 0 0 0 0 12.023048439647539 -13.805643563553303 0 -13.805643563553303 18.104753587736923 0 0 0 0 5.9082397287096136 -3.5726759244344191 0 -3.5726759244344191 2.9457281960991448 0 0 0 0 324.22189555340447 -99.27434822196301 0 -99.27434822196301 30.854754393611074 0 0 0 0 0.54784289173853939 3.7918549789408296 0 3.7918549789408296 2.7751330403236167 0 0 0 0 -2.3556008217569797 19.930792567836079 0 19.930792567836079 100.25825876438466 0 0 0 0 9.7328923092985633 7.0327743995774519 0 7.0327743995774519 8.5612066216974583 0 0 0 0 -0.27972499964088371 0.0064357667859749057 0 0.0064357667859749057 1.2489625275216394 0 0 0 0 185.6820877691498 -55.421242017688201 0 -55.421242017688201 39.457961420677748 0 0 0 0 216.77234705793671 533.63400380168605 0 533.63400380168605 507.06517531952704 0 0 0 0 275.57229762861607 -140.67581417268048 0 -140.67581417268048 30.003765010362258 0 0 0 0 -408.10849489783004 -413.64998817680498 0 -413.64998817680498 479.24566042148399 0 0 0 0 17.09421077717974 49.392477702148142 0 49.392477702148142 174.22880949243518 0 0 0 0 48.365320152881395 -3.1644876559793431 0 -3.1644876559793431 44.541717968351122 0 0 0 0 0.058378821996257102 184.09586945916664 0 184.09586945916664 -240.58868712638559 0 0 0 0 -1.7488826147162086 0.75348985086978537 0 0.75348985086978537 -0.45452652955894468 0 0 0 0 219.04950378755711 -204.91616339295319 0 -204.91616339295319 102.70652146524776 0 0 0 0 79.734531975129357 -19.012792438108818 0 -19.012792438108818 -109.10219060678503 0 0 0 0 -25.97243506014911 36.115783458162625 0 36.115783458162625 -93.959931562506881 0 0 0 0 51.798749090212368 29.852440838915641 0 29.852440838915641 -114.13795540555179 0 0 0 0 13.048984744591529 -9.1104171272351948 0 -9.1104171272351948 1.7364956822969186 0 0 0 0 138.80458505779325 -108.1028301885236 0 -108.1028301885236 -26.141620043863554 0 0 0 0 91.748855448043201 -22.30526557072989 0 -22.30526557072989 -6.3671283291247267 0 0 0 0 75.873131352214841 -8.7762630454824375 0 -8.7762630454824375 -64.735375548725216 0 0 0 0 66.05885746964799 -15.077296118980545 0 -15.077296118980545 -68.102966516247534 0 0 0 0 52.980917400663664 -4.0880179545596338 0 -4.0880179545596338 -3.4663501690820455 0 0 0 0 105.99755982386341 -57.416036854027425 0 -57.416036854027425 -40.902669977291225 0 0 0 0 77.625647550028589 -10.280785445403183 0 -10.280785445403183 -87.886781259058807 0 0 0 0 148.14881719643745 -47.746361186047807 0 -47.746361186047807 -61.923026016127096 0 0 0 0 136.61208831746808 -63.864117439828078 0 -63.864117439828078 -80.087593740699958 0 0 0 0 90.517272645412959 -65.730663262611984 0 -65.730663262611984 -45.285944030691667 0 0 0 0 76.488092458996107 -90.621438689002389 0 -90.621438689002389 26.908284030997038 0 0 0 0 123.60694936718028 -110.24053751013412 0 -110.24053751013412 13.762851299651174 0 0 0 0 124.0638229238466 -38.221928508138376 0 -38.221928508138376 -27.886552994911654 0 0 0 0 201.82427766104593 -78.549441440406781 0 -78.549441440406781 -10.670741818343458 0 0 0 0 126.14995500054829 -8.5210100422140158 0 -8.5210100422140158 56.82674984903224 0 0 0 0 182.69823560131772 5.2957212611120212 0 5.2957212611120212 -29.271246615730433 0 0 0 0 109.92248041222592 73.234340200234271 0 73.234340200234271 49.689028626707113 0 0 0 0 150.61317896026958 13.030607739341121 0 13.030607739341121 -198.15632470124024 0 0 0 0 40.047701595267426 27.838624198258913 0 27.838624198258913 -32.604175446117324 0 0 0 0 140.22563047645053 -1.3989472581660038 0 -1.3989472581660038 -121.08906143009744 0 0 0 0 108.33317447178342 -56.875134129066964 0 -56.875134129066964 -44.274244809110314 0 0 0 0 231.08654688796196 -42.804639921059561 0 -42.804639921059561 73.562833694107155 0 0 0 0 296.58054749586881 -82.158155578759079 0 -82.158155578759079 33.60910987229272 0 0 0 0 303.70135677357212 -112.46685024474823 0 -112.46685024474823 2.5932204383066164 0 0 0 0 329.56796835737623 -46.313146820337352 0 -46.313146820337352 71.684862268944244 0 0 0 0 342.29679689072873 -50.364550729965458 0 -50.364550729965458 27.405350912344147 0 0 0 0 1.0557104700843283 -0.8776272199588 0 -0.8776272199588 0.16965242650151069 0 0 0 0 403.21637452456707 51.417324423126502 0 51.417324423126502 32.524340215404209 0 0 0 0 241.99841216472089 81.509877990036117 0 81.509877990036117 34.858306804789208 0 0 0 0 227.56296910492165 -30.313818257178468 0 -30.313818257178468 48.088710486226319 0 0 0 0 225.07984163324545 -41.089672762130931 0 -41.089672762130931 32.952162780187336 0 0 0 0 189.93228818794341 -68.613903433348696 0 -68.613903433348696 178.91350248711251 0 0 0 0 -3.5433655953092966 -140.71173208155346 0 -140.71173208155346 145.06442996527085 0 0 0 0 186.7141997608162 -165.19359272122645 0 -165.19359272122645 77.194747664167153 0 0 0 0 -24.416714954762028 8.9407688003890939 0 8.9407688003890939 -2.6368799695769667 0 0 0 0 -58.928520212557487 -40.062980489276924 0 -40.062980489276924 91.201502523187855 0 0 0 0 1.0045610444728368 -1.2096581479347606 0 -1.2096581479347606 1.2901428497613683 0 0 0 0 301.92785215137656 -108.02246587407012 0 -108.02246587407012 -29.150742998765963 0 0 0 0 282.91205200773766 -157.18580335117144 0 -157.18580335117144 94.026927159844035 0 0 0 0 273.82580046388102 -117.31296600655025 0 -117.31296600655025 14.168875919041966 0 0 0 0 234.98112039871103 -12.237131436972845 0 -12.237131436972845 -96.165932969305686 0 0 0 0 277.94852285022353 -27.430566365738287 0 -27.430566365738287 -49.562006144391489 0 0 0 0 8.3433858645912551 41.457396598080322 0 41.457396598080322 -5.2982273530872135 0 0 0 0 1.4235574072525736 -2.404145616406165 0 -2.404145616406165 3.189392636633281 0 0 0 0 -94.85824640668443 -131.6374176413583 0 -131.6374176413583 1.771595178645839 0 0 0 0 180.63625445593607 -90.419425753198766 0 -90.419425753198766 11.96374862529774 0 0 0 0 155.5433069967039 2.1727442510259607 0 2.1727442510259607 -1.8612528334627427 0 0 0 0 333.24487058986779 -111.25849196930812 0 -111.25849196930812 23.016216459600514 0 0 0 0 384.95321939610585 -30.855067671493543 0 -30.855067671493543 -12.451330648720386 0 0 0 0 458.68835806398965 -167.17667207292016 0 -167.17667207292016 55.272134845476558 0 0 0 0 432.67301107390358 16.532253047742358 0 16.532253047742358 28.158437866963141 0 0 0 0 437.24222627265408 -37.758560438116092 0 -37.758560438116092 -14.999104474641172 0 0 0 0 386.82041828979709 -73.589292631545504 0 -73.589292631545504 -17.466096077297493 0 0 0 0 348.53936050306038 -28.917696286800492 0 -28.917696286800492 19.265093152319423 0 0 0 0 28.693082397028775 -49.883997602003546 0 -49.883997602003546 -13.069883050101453 0 0 0 0 325.6040334221907 -41.972255636937916 0 -41.972255636937916 41.263812761176268 0 0 0 0 67.614461529530672 28.134734558872879 0 28.134734558872879 -76.709839962928527 0 0 0 0 396.87338582270968 -13.837614102430052 0 -13.837614102430052 -80.713769739935742 0 0 0 0 -8.4251252870872122 32.933105740229507 0 32.933105740229507 -25.78574004595157 0 0 0 0 668.31154641986632 -113.49739179012624 0 -113.49739179012624 -61.53510983945398 0 0 0 0 0.91059595003506644 0.69009505582851105 0 0.69009505582851105 -0.32524905797478709 0 0 0 0 480.69895574659313 -35.774828275700202 0 -35.774828275700202 62.96330683117877 0 0 0 0 364.38363567134638 -132.00539481295937 0 -132.00539481295937 31.719662387313292 0 0 0 0 219.74375844662063 -81.242777042117723 0 -81.242777042117723 59.460099489504728 0 0 0 0 425.24878648289359 -102.21385104319006 0 -102.21385104319006 -0.17846776283113286 0 0 0 0 608.80199475440895 -162.58800781145578 0 -162.58800781145578 -26.159526229790117 0 0 0 0 1.8814134988915399 2.7687842164284255 0 2.7687842164284255 -0.12220363313061178 0 0 0 0 477.49127449662228 -120.13801185941679 0 -120.13801185941679 116.42538471225998 0 0 0 0 645.18108724037484 -134.62466552508772 0 -134.62466552508772 -25.283950573494621 0 0 0 0 595.98814494773978 -71.448150611095343 0 -71.448150611095343 5.1281264344406736 0 0 0 0 536.89606073591312 -137.15463192840798 0 -137.15463192840798 11.23281447296813 0 0 0 0 502.26956776121369 -114.06897678517225 0 -114.06897678517225 14.375265788147203 0 0 0 0 427.49001977063017 -81.497285747525439 0 -81.497285747525439 53.669854717775706 0 0 0 0 455.5682794722652 -166.52570857254727 0 -166.52570857254727 30.513949713159491 0 0 0 0 254.66746688114654 -62.6178001877106 0 -62.6178001877106 40.262971240349998 0 0 0 0 226.72571091727514 -111.36383950752452 0 -111.36383950752452 -30.04390361822243 0 0 0 0 395.06871704332298 -127.2401842152367 0 -127.2401842152367 19.098820398813587 0 0 0 0 188.65699023520028 -101.22600968627057 0 -101.22600968627057 92.568511452163875 0 0 0 0 326.27097814704757 -47.558451342893022 0 -47.558451342893022 22.642364839486135 0 0 0 0 156.13976947547098 24.73594566749972 0 24.73594566749972 0.51880616748348984 0 0 0 0 315.68514915583728 -121.38312508068839 0 -121.38312508068839 37.019357012975888 0 0 0 0 350.38704346437953 -75.799890356764308 0 -75.799890356764308 56.234801870220508 0 0 0 0 441.97283253772184 -191.63571478168797 0 -191.63571478168797 162.04106086928232 0 0 0 0 568.21794240005693 -114.34742365572401 0 -114.34742365572401 219.73024587285818 0 0 0 0 563.70731937557503 -141.76477359055889 0 -141.76477359055889 27.520614565452888 0 0 0 0 566.8824644098022 -172.21386104578301 0 -172.21386104578301 23.628451148645581 0 0 0 0 416.166400706883 -158.45214755880261 0 -158.45214755880261 76.353102738084999 0 0 0 0 -25.427424985517064 -79.095377593287253 0 -79.095377593287253 74.420126897440241 0 0 0 0 -0.10443211834935795 0.65042023514335057 0 0.65042023514335057 -0.94807544789199305 0 0 0 0 2.2671455366416922 1.3698081588470359 0 1.3698081588470359 -8.5030934153826365 0 0 0 0 -6.9333120693645469 -35.720506207967446 0 -35.720506207967446 50.526966880617238 0 0 0 0 20.949309580717454 -21.84323564445549 0 -21.84323564445549 9.1317789568938679 0 0 0 0 -10.362078536967601 18.435562682374211 0 18.435562682374211 -0.90929057153380199 0 0 0 0 -42.16931963040588 -77.586364847200343 0 -77.586364847200343 20.334866294105723 0 0 0 0 -0.32510716588622302 -0.031505292767800341 0 -0.031505292767800341 0.79724065711887349 0 0 0 0 226.09657718946391 -61.111085064506995 0 -61.111085064506995 14.945370068088778 0 0 0 0 101.27260059082255 -77.920414857321703 0 -77.920414857321703 62.388313011477749 0 0 0 0 236.68234194293655 -94.321275281530916 0 -94.321275281530916 50.530006913284069 0 0 0 0 248.54948017572497 -10.026170848840366 0 -10.026170848840366 29.608220296006039 0 0 0 0 36.371588968630022 17.225396974418686 0 17.225396974418686 37.760142994473426 0 0 0 0 43.867737935588593 -17.837894471165896 0 -17.837894471165896 -64.379914571071822 0 0 0 0 53.154807678376528 -55.040340614775005 0 -55.040340614775005 60.113560097612208 0 0 0 0 -47.867949904831221 -29.297317845572593 0 -29.297317845572593 -16.726416634597626 0 0 0 0 0.78854661605998899 -1.8352364049841263 0 -1.8352364049841263 3.1329309568027881 0 0 0 0 -141.79361161813722 24.874247369731165 0 24.874247369731165 115.84937170144349 0 0 0 0 -139.53147542029546 -77.532775803873392 0 -77.532775803873392 49.663918178141103 0 0 0 0 -44.659310262100917 -38.576141769863852 0 -38.576141769863852 -3.834689491019617 0 0 0 0 -20.834523909165 -16.137961024510105 0 -16.137961024510105 -11.866678994903396 0 0 0 0 15.767351345053612 -9.1844136115346373 0 -9.1844136115346373 -14.116564269352693 0 0 0 0 0.67609535401061294 -40.167608849378439 0 -40.167608849378439 -25.455269644278815 0 0 0 0 4.9414609981831745 -20.29333016941473 0 -20.29333016941473 -19.934541332632307 0 0 0 0 5.0980768477274978 -27.443810897449566 0 -27.443810897449566 -15.788663268311211 0 0 0 0 1.8720887650561053 73.601836505599749 0 73.601836505599749 47.099335409522837 0 0 0 0 -3.3788358148231055 -36.036123125624272 0 -36.036123125624272 -35.161622979715048 0 0 0 0 -49.657591094946838 -1.3115064977946531 0 -1.3115064977946531 8.5870010501535035 0 0 0 0 -45.889278978135735 -21.390352831435735 0 -21.390352831435735 -2.649233713767444 0 0 0 0 -0.42838036028160786 -0.35696633353976992 0 -0.35696633353976992 1.7567823573921597 0 0 0 0 -85.95446283918136 -10.340677834663438 0 -10.340677834663438 29.922224925215232 0 0 0 0 -42.108248670992907 19.420747181871889 0 19.420747181871889 20.420487287794458 0 0 0 0 -47.914052221066868 36.475632786459073 0 36.475632786459073 32.12775777382376 0 0 0 0 27.428141486994718 -42.316810012679525 0 -42.316810012679525 -6.0512717196243102 0 0 0 0 0.14913595983958317 -0.5765483841369381 0 -0.5765483841369381 1.3885772132868404 0 0 0 0 -79.206527447484405 29.309967385120444 0 29.309967385120444 55.512060669562743 0 0 0 0 -90.296982390613266 10.93268241281271 0 10.93268241281271 41.888980715300931 0 0 0 0 -31.538107203004074 -13.91347553870844 0 -13.91347553870844 3.3707712145205733 0 0 0 0 -32.626397737756633 -107.06301732219583 0 -107.06301732219583 -5.4291026025622386 0 0 0 0 -0.19146013790649974 -0.56011152926552654 0 -0.56011152926552654 1.6991950952549004 0 0 0 0 -20.543195454973102 -2.0344969676389155 0 -2.0344969676389155 1.7964912326207809 0 0 0 0 105.21414422991802 -46.346322932713974 0 -46.346322932713974 -38.797021024303831 0 0 0 0 180.30933668884245 2.9173589066399472 0 2.9173589066399472 -7.5427626284717917 0 0 0 0 151.09966433293812 30.748779361935931 0 30.748779361935931 31.329673039884256 0 0 0 0 99.265468236262677 -29.122422528716243 0 -29.122422528716243 13.687333845549688 0 0 0 0 58.692072340258164 -34.996065063536435 0 -34.996065063536435 12.09373071760001 0 0 0 0 88.006903893132403 -8.4063658952300102 0 -8.4063658952300102 -1.7766440552049971 0 0 0 0 -6.5983877026428672 28.195083031162767 0 28.195083031162767 9.0604995861322095 0 0 0 0 -42.968458912691631 40.393656177259714 0 40.393656177259714 39.763302286587532 0 0 0 0 -48.638573050116975 -27.945959061499252 0 -27.945959061499252 27.386884369116387 0 0 0 0 -32.453768773933007 -35.652158241282564 0 -35.652158241282564 21.370327668812479 0 0 0 0 -6.8466896292375168 -65.18777601198326 0 -65.18777601198326 44.355413651477235 0 0 0 0 -0.61873720955981426 -0.24841641624795585 0 -0.24841641624795585 -1.19362769441803 0 0 0 0 62.359535031308042 26.815751377495417 0 26.815751377495417 52.607425776951004 0 0 0 0 107.97306479897816 -7.2602436907045558 0 -7.2602436907045558 -38.308822861427871 0 0 0 0 98.296310441788592 -34.236135721586265 0 -34.236135721586265 -8.4170293551742361 0 0 0 0 113.50348759614371 17.324612299844262 0 17.324612299844262 37.295637664866263 0 0 0 0 182.67295245524292 -1.3681734267388492 0 -1.3681734267388492 26.286456982362324 0 0 0 0 181.65380606326494 14.847195480215561 0 14.847195480215561 14.757285924955795 0 0 0 0 131.21184778740644 -55.418836404244303 0 -55.418836404244303 71.260209118459898 0 0 0 0 67.181297537275896 -6.720331749906336 0 -6.720331749906336 87.304132516858772 0 0 0 0 465.88023873718703 58.141420950967699 0 58.141420950967699 -101.60297583114379 0 0 0 0 4.8098073149958509 -19.787618999990173 0 -19.787618999990173 -0.7411075434824852 0 0 0 0 4.8551186730001064 -26.762458357648029 0 -26.762458357648029 -7.6762437327242878 0 0 0 0 28.265065226703882 -6.5899875497334506 0 -6.5899875497334506 -10.51283944478314 0 0 0 0 12.623214360915881 -13.824730092228947 0 -13.824730092228947 -9.9043863601336852 0 0 0 0 14.283380447788659 -20.249695220844387 0 -20.249695220844387 -21.752437834070406 0 0 0 0 25.40304803852996 -8.3501459073004298 0 -8.3501459073004298 -10.48405986491116 0 0 0 0 35.525716027572344 -14.519594940288357 0 -14.519594940288357 -11.273376579888918 0 0 0 0 175.83491182662874 -71.225254012661935 0 -71.225254012661935 161.39543241720276 0 0 0 0 3.8397947032146629 -2.3455655442815129 0 -2.3455655442815129 -4.7776369963379555 0 0 0 0 25.309256448889712 -11.402938444681611 0 -11.402938444681611 0.40072598275354032 0 0 0 0 211.70347522799057 -84.885636861459716 0 -84.885636861459716 -289.86955470025896 0 0 0 0 26.130813475945615 -12.682016406092771 0 -12.682016406092771 -2.4263177578268369 0 0 0 0 23.633666573430673 -8.3372653608846576 0 -8.3372653608846576 -1.6961987457898431 0 0 0 0 4.605604984593306 1.0818323959463783 0 1.0818323959463783 -4.0528932669029771 0 0 0 0 99.08907828730139 83.152109800853651 0 83.152109800853651 -36.22319173265555 0 0 0 0 3.3978196256311826 0.65671815816248014 0 0.65671815816248014 -1.2411519537374798 0 0 0 0 39.481294711453302 -18.347076469391027 0 -18.347076469391027 -24.587000303067498 0 0 0 0 20.85097898883334 -13.329667900392053 0 -13.329667900392053 2.8557436177522622 0 0 0 0 24.057645523553219 -9.7655182194068573 0 -9.7655182194068573 -4.1102806915678229 0 0 0 0 14.733351403179768 -10.781925884277143 0 -10.781925884277143 -4.0514352933341797 0 0 0 0 -0.17641548306445998 -0.07197148257028374 0 -0.07197148257028374 -0.2066018094091131 0 0 0 0 46.03528010723312 -18.598640360117315 0 -18.598640360117315 -15.552029926806654 0 0 0 0 18.581298297985995 -8.922764742285608 0 -8.922764742285608 6.8698743276318055 0 0 0 0 -88.228559742123252 -47.049496565664867 0 -47.049496565664867 -9.9532797077479813 0 0 0 0 -63.757714683485574 -33.04313771571185 0 -33.04313771571185 -12.35055066473069 0 0 0 0 -21.346443576214369 -9.6350319043931449 0 -9.6350319043931449 -24.345772942795634 0 0 0 0 -28.086144231798244 -13.405651909036862 0 -13.405651909036862 0.42980585025816254 0 0 0 0 3.6007787505845918 -1.3948937100750811 0 -1.3948937100750811 -0.12281541054863432 0 0 0 0 22.925464573097997 -13.630360697585047 0 -13.630360697585047 5.432164672254828 0 0 0 0 -3.1620427029063478 -1.8305344477612131 0 -1.8305344477612131 1.6072612820272925 0 0 0 0 -12.455591189394909 -5.9930891090315299 0 -5.9930891090315299 39.981985776900729 0 0 0 0 -37.739922467088036 -13.619281452035466 0 -13.619281452035466 0.76260895134760176 0 0 0 0 -37.818303266489238 -10.545212729540026 0 -10.545212729540026 29.736616479656732 0 0 0 0 -5.6235744960504235 -44.378371362544385 0 -44.378371362544385 138.80131926304512 0 0 0 0 27.982982691108191 -69.419664047403671 0 -69.419664047403671 -21.016612983766663 0 0 0 0 0.49396547659807766 -0.14299736542445984 0 -0.14299736542445984 -0.24178407977224925 0 0 0 0 -13.490312457366599 -11.581576349173929 0 -11.581576349173929 15.238102995315103 0 0 0 0 -3.6766653567642571 -15.454132664925918 0 -15.454132664925918 2.0661962220537422 0 0 0 0 -2.0300001548196178 -7.4521096739406758 0 -7.4521096739406758 14.822744934201637 0 0 0 0 13.849653240653424 6.8249322506012504 0 6.8249322506012504 -64.258485584839946 0 0 0 0 47.904127592200894 3.0574553754645422 0 3.0574553754645422 -46.578868949096801 0 0 0 0 41.732218848983393 -23.605967553506389 0 -23.605967553506389 -43.670406251980864 0 0 0 0 69.087567712576856 -8.5684967866518491 0 -8.5684967866518491 -39.919043714496183 0 0 0 0 46.036621788869525 -6.7934218111538485 0 -6.7934218111538485 -23.840508881815367 0 0 0 0 54.320987250750477 -9.7703521242092393 0 -9.7703521242092393 -24.188507641159049 0 0 0 0 60.304984964215691 -28.34733493453939 0 -28.34733493453939 -20.701520674909489 0 0 0 0 50.490228225451574 -15.198095979954815 0 -15.198095979954815 -21.121889463302068 0 0 0 0 60.6420749968172 -31.188357658751073 0 -31.188357658751073 -11.292842947252211 0 0 0 0 67.143122257999494 -25.551683995728126 0 -25.551683995728126 -22.234447192693068 0 0 0 0 32.080324035957346 -36.280155471752551 0 -36.280155471752551 54.690574587114611 0 0 0 0 93.986072826550298 -56.564077479110892 0 -56.564077479110892 0.36023152290977123 0 0 0 0 -7.9567399678335278 -62.840135970661436 0 -62.840135970661436 197.25560248305555 0 0 0 0 9.1905964736160968 -68.983558994014629 0 -68.983558994014629 -0.0033076553252158192 0 0 0 0 45.879995093881007 -13.519603333418672 0 -13.519603333418672 -20.464792584729594 0 0 0 0 105.03364056211308 -0.35534368851202203 0 -0.35534368851202203 -27.374991477247477 0 0 0 0 82.815876600429874 -29.057634223342347 0 -29.057634223342347 -16.122679902352047 0 0 0 0 -0.13200601050091576 0.23388962447648431 0 0.23388962447648431 -0.24142065881697583 0 0 0 0 36.755342290409317 -15.483822467557843 0 -15.483822467557843 -11.824451606789353 0 0 0 0 24.018117124545824 -45.242380038572719 0 -45.242380038572719 9.0303704710437387 0 0 0 0 19.355386951102901 -11.470635564594659 0 -11.470635564594659 15.836986823972993 0 0 0 0 16.806400038164611 -25.082563533384246 0 -25.082563533384246 2.0062353620771773 0 0 0 0 47.699639279168878 -30.70111998762809 0 -30.70111998762809 13.171284840692408 0 0 0 0 -0.34033756176525642 0.047680196474045644 0 0.047680196474045644 -0.62827832159360497 0 0 0 0 40.60988711011305 -17.192246305284016 0 -17.192246305284016 -12.344301518040083 0 0 0 0 56.739990335149741 -25.102088512778209 0 -25.102088512778209 -16.33208734478967 0 0 0 0 57.852251660870024 -22.831087063234463 0 -22.831087063234463 -33.199620325355227 0 0 0 0 -23.323905935710627 1.3281498694161655 0 1.3281498694161655 19.811064131791682 0 0 0 0 17.408929426772374 -25.416950390359489 0 -25.416950390359489 -32.412172435490902 0 0 0 0 -3.7639477047669061 1.5942304474383491 0 1.5942304474383491 1.6293109932328207 0 0 0 0 -6.4226164984452225 -19.510764836112259 0 -19.510764836112259 66.392540255619679 0 0 0 0 66.140495824886784 21.840641356885499 0 21.840641356885499 -29.838073308741969 0 0 0 0 -7.9609084489552515 -57.087411553110542 0 -57.087411553110542 72.419978904263189 0 0 0 0 -8.881893124205817 -49.380013020545903 0 -49.380013020545903 10.271257359110677 0 0 0 0 -117.84702178422503 -67.798930116866984 0 -67.798930116866984 119.92536008028924 0 0 0 0 39.635833238147825 -3.9535829625688166 0 -3.9535829625688166 -10.43002977136257 0 0 0 0 47.212953972157038 1.4653940349800791 0 1.4653940349800791 -6.868004796725927 0 0 0 0 237.13586790760019 275.46863104958902 0 275.46863104958902 186.94040175481314 0 0 0 0 19.370281539426401 -2.158165449486404 0 -2.158165449486404 2.5772075383233641 0 0 0 0 5.183973864349225 -0.89197087656827101 0 -0.89197087656827101 0.21559866522435334 0 0 0 0 21.897063487350351 -11.996073800324666 0 -11.996073800324666 -9.3679558419310069 0 0 0 0 14.5018788881207 -8.943695383872182 0 -8.943695383872182 7.2353649378510454 0 0 0 0 4.0040733272896194 -0.10683954295790787 0 -0.10683954295790787 1.1442589143870681 0 0 0 0 12.843852550361589 -2.4213959382942676 0 -2.4213959382942676 3.5286260722346015 0 0 0 0 16.878890020708241 4.1824768001151824 0 4.1824768001151824 8.9944759946604336 0 0 0 0 14.268593658420286 -14.10468541477735 0 -14.10468541477735 -1.4716150770591412 0 0 0 0 -2.1351129736758594 6.4232232062188359 0 6.4232232062188359 -16.826734590918932 0 0 0 0 16.270047098289702 -3.2414207490382498 0 -3.2414207490382498 0.40468774990122647 0 0 0 0 -26.43202261236911 -9.5290006765338262 0 -9.5290006765338262 -5.2196581143020921 0 0 0 0 86.060494156411551 -28.271557508398018 0 -28.271557508398018 -30.885807187761202 0 0 0 0 16.26609252106541 -10.890262908171421 0 -10.890262908171421 2.6285090474742683 0 0 0 0 -0.74361029382615751 -1.2426096873107184 0 -1.2426096873107184 2.1504345955883855 0 0 0 0 -22.965382905022125 -22.153584287372496 0 -22.153584287372496 -12.871733258850441 0 0 0 0 10.002929425493221 2.9822737679675129 0 2.9822737679675129 6.9737774022582926 0 0 0 0 13.17623893122618 -12.825256354340354 0 -12.825256354340354 8.9579426356303884 0 0 0 0 8.0288900443531031 -6.520997556118898 0 -6.520997556118898 3.8276019887410948 0 0 0 0 8.3211988639664867 -11.975666587524586 0 -11.975666587524586 -1.7344021846936357 0 0 0 0 4.3757657139290886 -8.7729466623746468 0 -8.7729466623746468 -2.2571350617633144 0 0 0 0 3.0048047141061192 -6.5151608484712664 0 -6.5151608484712664 2.8550272490339923 0 0 0 0 13.824452220703435 -7.4725168106662636 0 -7.4725168106662636 -4.2369626317436087 0 0 0 0 5.9954697066575591 -8.4977359001122181 0 -8.4977359001122181 3.2751093368181046 0 0 0 0 2.7801091895051577 -2.112076896002697 0 -2.112076896002697 0.076330164699029091 0 0 0 0 19.08997354314215 -12.127324281684878 0 -12.127324281684878 5.0403517777358502 0 0 0 0 6.7702395255203207 -7.5055351908235473 0 -7.5055351908235473 4.0250054289519612 0 0 0 0 28.312329179707035 -15.676173597780675 0 -15.676173597780675 6.9325090309002917 0 0 0 0 5.4942246104824646 -1.9775152742079447 0 -1.9775152742079447 -0.35150553516884209 0 0 0 0 47.652278737394226 -1.4086975535036572 0 -1.4086975535036572 -0.13799978725137407 0 0 0 0 4.1657227515815975 -6.2961347350259871 0 -6.2961347350259871 11.357074713583188 0 0 0 0 4.0685449917230656 -1.8741957927207897 0 -1.8741957927207897 -1.3385268364575502 0 0 0 0 27.061757969856444 -11.44375256121134 0 -11.44375256121134 -5.0920733126131381 0 0 0 0 22.323323578942418 -12.525724549736841 0 -12.525724549736841 5.1447289391448185 0 0 0 0 12.246013827654679 -26.374661336725694 0 -26.374661336725694 7.727351971171629 0 0 0 0 16.30600220257725 7.7235314580698748 0 7.7235314580698748 -11.148136423923567 0 0 0 0 54.368824721430428 -63.352161582312419 0 -63.352161582312419 -4.3970945206910983 0 0 0 0 57.151038828747915 -63.515950699902987 0 -63.515950699902987 -89.491884548277085 0 0 0 0 74.477846569610847 1.6634429724972506 0 1.6634429724972506 -11.619719367248763 0 0 0 0 207.4253589747932 -177.05372224783878 0 -177.05372224783878 -6.6225021970767557 0 0 0 0 -32.953714009396208 -203.69367957228542 0 -203.69367957228542 38.072608836350355 0 0 0 0 0.19513087412989805 -0.28367906225691186 0 -0.28367906225691186 1.3324054138307027 0 0 0 0 -251.75932491674575 -134.96822465799369 0 -134.96822465799369 43.955016207832841 0 0 0 0 -87.683433506772417 -76.516390294981193 0 -76.516390294981193 -3.7349218788757526 0 0 0 0 -48.303319489110436 -33.597138966444618 0 -33.597138966444618 27.455501213060415 0 0 0 0 -194.04153408187631 -66.222405473762592 0 -66.222405473762592 20.939599423434402 0 0 0 0 12.444112154420509 -5.5339332158339403 0 -5.5339332158339403 1.8259311702968262 0 0 0 0 28.727256247153491 5.9199945940531506 0 5.9199945940531506 -14.078643169747011 0 0 0 0 11.264319114601676 5.6651446784087511 0 5.6651446784087511 51.064044845247736 0 0 0 0 3.656988309308165 -6.002794403851837 0 -6.002794403851837 2.9245429138026964 0 0 0 0 7.0296961611700706 -3.8038314521254515 0 -3.8038314521254515 -2.6181300737842648 0 0 0 0 -41.475143613908585 -37.096113606443851 0 -37.096113606443851 9.1911529411650008 0 0 0 0 -103.52135476596959 22.796858874550253 0 22.796858874550253 9.3219668506717426 0 0 0 0 365.58934467810286 -329.41999193459515 0 -329.41999193459515 -3.7557794168460532 0 0 0 0 -0.24119890948307088 -3.7163147187543579 0 -3.7163147187543579 -1.1758860668747619 0 0 0 0 -202.8380270618436 -14.721673625773747 0 -14.721673625773747 -4.8463555725118113 0 0 0 0 2.9795697111289918 -0.38802636297222826 0 -0.38802636297222826 -1.3948524363151709 0 0 0 0 17.610056287559928 -6.7532725072228459 0 -6.7532725072228459 -27.461598099391722 0 0 0 0 219.95083844948203 47.161641920436068 0 47.161641920436068 -0.32363452614754351 0 0 0 0 -222.43073963634015 -35.914162615282862 0 -35.914162615282862 15.09832757164213 0 0 0 0 -203.65779710682182 -43.37008406974337 0 -43.37008406974337 -62.084577859207457 0 0 0 0 -243.38028179199682 -78.312597323058185 0 -78.312597323058185 17.232929955418058 0 0 0 0 -240.31501142827801 -51.101627289335454 0 -51.101627289335454 -17.563695332168436 0 0 0 0 290.11255487368908 -57.953132311969057 0 -57.953132311969057 20.481535708651791 0 0 0 0 1.0239140033987013 -2.6812448610693131 0 -2.6812448610693131 3.9884586474569454 0 0 0 0 337.48520448100771 39.092290321128871 0 39.092290321128871 -28.33184135178999 0 0 0 0 251.26528911011337 75.429712416534528 0 75.429712416534528 33.732744583201566 0 0 0 0 224.84881780187061 -12.127746434049186 0 -12.127746434049186 -5.8325551241057383 0 0 0 0 -268.39158215519353 -13.671403221436748 0 -13.671403221436748 30.606880062826349 0 0 0 0 642.52227893104555 64.849269619132087 0 64.849269619132087 -30.290974239131629 0 0 0 0 0.3079584647455591 -0.18933620580096111 0 -0.18933620580096111 -0.5456695258947839 0 0 0 0 -176.25479505512158 -25.20883124513557 0 -25.20883124513557 7.8596858445073394 0 0 0 0 -369.86159313748067 -19.473833870215955 0 -19.473833870215955 9.9373998171329845 0 0 0 0 672.0031818614425 -92.150985647212678 0 -92.150985647212678 -21.671222634559143 0 0 0 0 -192.27603170384828 -61.354760155152391 0 -61.354760155152391 -30.866295023241719 0 0 0 0 685.82997655014242 -68.210404262026941 0 -68.210404262026941 10.312335056461961 0 0 0 0 -0.078854366343378945 -2.2475873298812843 0 -2.2475873298812843 -1.9069151927205947 0 0 0 0 0.21575808191317769 -2.0476844894423856 0 -2.0476844894423856 -1.1265953302604759 0 0 0 0 196.34866027737007 -7.6581052225665189 0 -7.6581052225665189 14.159119865629236 0 0 0 0 180.15007949311263 34.970409146703766 0 34.970409146703766 65.179369483562368 0 0 0 0 34.749708421867581 32.019240907792891 0 32.019240907792891 -11.947950191545942 0 0 0 0 -2.6780267227520653 -15.479020305911888 0 -15.479020305911888 19.285128699144025 0 0 0 0 -24.185362837490629 23.610498635811439 0 23.610498635811439 17.03206826171845 0 0 0 0 -158.80841376139324 8.7103849758188971 0 8.7103849758188971 30.856826005097673 0 0 0 0 -95.760148880961424 14.083627831551894 0 14.083627831551894 -14.707204315292984 0 0 0 0 -126.55450452063087 -21.177584927607768 0 -21.177584927607768 -39.265751722075493 0 0 0 0 -80.862588448128008 -22.140532847964892 0 -22.140532847964892 -11.19183280614925 0 0 0 0 -116.50847156320378 -30.84032965770632 0 -30.84032965770632 -25.066478803209975 0 0 0 0 -51.779520824129577 26.806089841820267 0 26.806089841820267 -10.324310963298508 0 0 0 0 -148.79387855071036 30.536881199584286 0 30.536881199584286 -36.122422925956286 0 0 0 0 -43.027237916478043 15.818568817486266 0 15.818568817486266 -29.037618378746743 0 0 0 0 6.858143103083421 20.300330050718912 0 20.300330050718912 -33.150809790841208 0 0 0 0 -3.8143567711795185 0.70945582891044978 0 0.70945582891044978 -35.287976544453159 0 0 0 0 2.9542731711921988 16.195912637199967 0 16.195912637199967 -18.705568559636959 0 0 0 0 35.544326528446618 24.276391498009616 0 24.276391498009616 -32.312634139613237 0 0 0 0 8.2461776778327476 15.472871523734284 0 15.472871523734284 -29.821666720994472 0 0 0 0 25.331639931320751 -0.49526584222849124 0 -0.49526584222849124 -15.81748134983718 0 0 0 0 -0.72204445851912169 16.056197783154857 0 16.056197783154857 -6.4998734981514303 0 0 0 0 -3.3224678655260504 14.616562774493559 0 14.616562774493559 24.284913310721095 0 0 0 0 43.325952728941047 12.653188247425533 0 12.653188247425533 -9.1442404151202936 0 0 0 0 -27.558043408918365 -1.995752573278196 0 -1.995752573278196 49.83784785357966 0 0 0 0 -143.03207326580105 -96.434871954523032 0 -96.434871954523032 -30.037568903705505 0 0 0 0 -37.320038888632553 3.1912063923907681 0 3.1912063923907681 -3.7400927830831279 0 0 0 0 67.665635550350999 -54.975843380951574 0 -54.975843380951574 -37.04842710460548 0 0 0 0 4.3037854162776057 -5.6206520573812213 0 -5.6206520573812213 3.6090650660801202 0 0 0 0 7.8205881988184913 -6.4195042779358094 0 -6.4195042779358094 4.0689198621140958 0 0 0 0 20.256393404338723 -21.468935147452555 0 -21.468935147452555 17.843753060804374 0 0 0 0 0.30890501179874263 -9.2519104947032247 0 -9.2519104947032247 2.9527699032780674 0 0 0 0 3.8186616141257748 -5.6055385002284748 0 -5.6055385002284748 5.5031757448637517 0 0 0 0 7.1617149544102467 -6.601506560870571 0 -6.601506560870571 3.6994331304425274 0 0 0 0 21.742494053647466 -2.5149932495837675 0 -2.5149932495837675 -1.041135579361594 0 0 0 0 4.1647822895549211 -4.9064183351627406 0 -4.9064183351627406 3.1054387282429303 0 0 0 0 1.0579685002601309 -14.494671971066758 0 -14.494671971066758 9.7230351433209989 0 0 0 0 52.387046332272803 -13.348987628254235 0 -13.348987628254235 -86.760336285913127 0 0 0 0 13.807716148796747 -9.8436745232902503 0 -9.8436745232902503 6.0700762424043386 0 0 0 0 1.2078851333681087 -40.60946426704686 0 -40.60946426704686 -48.726922242736691 0 0 0 0 7.2317115250382837 -10.64477869015326 0 -10.64477869015326 13.493521086380497 0 0 0 0 4.53322458021578 -2.207328955440202 0 -2.207328955440202 -2.7133550394045614 0 0 0 0 29.817052903864351 2.1410053673489529 0 2.1410053673489529 -42.467712895518162 0 0 0 0 40.087408983523346 15.329915520791019 0 15.329915520791019 -49.726775758713984 0 0 0 0 46.464170190820369 30.656655971347845 0 30.656655971347845 -24.374390331809082 0 0 0 0 44.46665459567339 7.0812600399483472 0 7.0812600399483472 -16.312919494629341 0 0 0 0 68.926603391650133 16.026375930782251 0 16.026375930782251 -76.446177198702685 0 0 0 0 59.440481974767636 -118.60252084435314 0 -118.60252084435314 -41.940418389909382 0 0 0 0 65.224688993549535 39.035396240658656 0 39.035396240658656 -21.355193906745171 0 0 0 0 57.3138962384146 -50.179348917498487 0 -50.179348917498487 87.409358837043158 0 0 0 0 33.991176612604249 29.998269166702926 0 29.998269166702926 61.310121846997845 0 0 0 0 48.894447926303656 13.602442702271219 0 13.602442702271219 31.11131055346857 0 0 0 0 5.0961801343535917 -3.8385522693430989 0 -3.8385522693430989 3.4730433945517154 0 0 0 0 90.464233629902765 -571.38289855652886 0 -571.38289855652886 997.67449796908932 0 0 0 0 131.60518632117692 19.838693962874956 0 19.838693962874956 82.786891968213354 0 0 0 0 -8.0620254427484497 -20.220164663347674 0 -20.220164663347674 6.2054750481111114 0 0 0 0 12.248123055734061 -8.2753763326630807 0 -8.2753763326630807 5.5707960679402104 0 0 0 0 -6.5834320804299296 -8.0313336272270135 0 -8.0313336272270135 97.621138681179218 0 0 0 0 1490.7378868161054 -48.216642561789996 0 -48.216642561789996 -97.535955839583778 0 0 0 0 808.87546593972365 184.72209843672675 0 184.72209843672675 -52.525388194149805 0 0 0 0 4.1263089060646951 -1.7507893826548862 0 -1.7507893826548862 1.2131365541278112 0 0 0 0 1497.512662810966 272.16931769883229 0 272.16931769883229 -54.467760254293637 0 0 0 0 6.8762545124908385 -4.8474966048166861 0 -4.8474966048166861 2.8999797477048563 0 0 0 0 30.517821022393946 -83.874773837909061 0 -83.874773837909061 80.751002799538881 0 0 0 0 28.231725314096877 16.009366554974697 0 16.009366554974697 213.0542588101969 0 0 0 0 1498.2381740562096 -141.59366437019608 0 -141.59366437019608 -277.24380925005715 0 0 0 0 447.74892497504516 -32.128688188136721 0 -32.128688188136721 90.573761241822211 0 0 0 0 710.53954230005093 -464.09994745115779 0 -464.09994745115779 101.90031190994196 0 0 0 0 1433.6775812740318 -689.26730384338953 0 -689.26730384338953 221.54386041427202 0 0 0 0 0.59767727730341313 -0.81959367697945762 0 -0.81959367697945762 0.81978030992206474 0 0 0 0 153.7997478507732 -283.16697576160004 0 -283.16697576160004 56.068520449208762 0 0 0 0 2.5217134124200591 -1.0517163613004339 0 -1.0517163613004339 0.62824928196230267 0 0 0 0 1365.0111074512604 -37.219772675208318 0 -37.219772675208318 -119.52261786506381 0 0 0 0 1499.3400884771031 -386.3316568372195 0 -386.3316568372195 109.16534316397316 0 0 0 0 -152.96611607377054 103.27400002383445 0 103.27400002383445 -80.790190610867739 0 0 0 0 239.45752215128232 143.2794264382722 0 143.2794264382722 56.035890922131301 0 0 0 0 -90.674611840384387 1.8120842869036835 0 1.8120842869036835 91.576630634907929 0 0 0 0 -8.2040837736640242 -78.920920308309576 0 -78.920920308309576 159.06221491567055 0 0 0 0 2.5862716276710991 -0.020541653689825523 0 -0.020541653689825523 -0.34362882660899452 0 0 0 0 1628.1765800737817 409.15718142892479 0 409.15718142892479 55.026236325072873 0 0 0 0 1463.1380120940898 128.92000097619544 0 128.92000097619544 -96.099374439702643 0 0 0 0 63.71009664398207 128.82337933202754 0 128.82337933202754 81.460746930015574 0 0 0 0 22.328917740915131 3.4893055462509892 0 3.4893055462509892 1.1632739328411787 0 0 0 0 1.2279898444138695 1.3853525208475617 0 1.3853525208475617 0.67282726590539776 0 0 0 0 3.3684865709410516 -3.2065216971771608 0 -3.2065216971771608 -1.5891327461309259 0 0 0 0 5.4816915349818593 -3.8150699215437465 0 -3.8150699215437465 2.1430983174872997 0 0 0 0 -68.999303117663658 -38.555329122040121 0 -38.555329122040121 -96.693320894431281 0 0 0 0 1.2399766575132247 -1.1920548476084694 0 -1.1920548476084694 0.89216952900539814 0 0 0 0 17.658045127888727 9.3644400580808451 0 9.3644400580808451 -93.267242080126806 0 0 0 0 77.963550797495373 -182.24471318335821 0 -182.24471318335821 30.541052746479181 0 0 0 0 -18.847331732258681 67.618888120249551 0 67.618888120249551 43.116288843104599 0 0 0 0 -3.8218627717742493 91.014722043119662 0 91.014722043119662 -90.795073285129618 0 0 0 0 -82.324982736303411 99.468117540142671 0 99.468117540142671 20.737622424181836 0 0 0 0 38.876226263344051 21.526113585649981 0 21.526113585649981 46.569976230912744 0 0 0 0 2.4210612181273063 46.149777192127345 0 46.149777192127345 14.789770527484961 0 0 0 0 7.6455151383687125 -5.6463034735970368 0 -5.6463034735970368 3.674894242021236 0 0 0 0 16.569716140798846 18.40259748038477 0 18.40259748038477 -9.3591107361730792 0 0 0 0 8.1336030987608865 41.574842929516379 0 41.574842929516379 -38.584977310888235 0 0 0 0 5.1937548364766428 -19.148638066600483 0 -19.148638066600483 -2.9423477670022748 0 0 0 0 3.8802467980720792 -6.8530419217261169 0 -6.8530419217261169 5.4177742464383982 0 0 0 0 13.903772049906365 -28.859731622139293 0 -28.859731622139293 -3.2291364270247414 0 0 0 0 10.309654897774635 -22.984542862104661 0 -22.984542862104661 8.7145890639624213 0 0 0 0 45.089499626094039 -0.089764396472048702 0 -0.089764396472048702 -9.7418196201319915 0 0 0 0 17.435017447809514 2.7752580534810249 0 2.7752580534810249 -8.6186453635555722 0 0 0 0 20.260641796855452 12.616970803729828 0 12.616970803729828 14.680753590050358 0 0 0 0 78.478368486677937 34.261572330679996 0 34.261572330679996 13.611197661027202 0 0 0 0 -79.949819403127549 -50.853178992135895 0 -50.853178992135895 -24.517277785600982 0 0 0 0 0.19936058883549634 -0.41603357181621003 0 -0.41603357181621003 0.52900831331867959 0 0 0 0 80.747393860177908 -85.471497057315446 0 -85.471497057315446 -38.843459730974701 0 0 0 0 -49.681211285898826 38.908205220621539 0 38.908205220621539 14.251763335366604 0 0 0 0 96.150562940996679 -35.074340240267134 0 -35.074340240267134 -1.8572420184766543 0 0 0 0 -0.4208174060422607 -50.639608208342224 0 -50.639608208342224 50.327217023876756 0 0 0 0 8.1070426294958438 -5.951452750304016 0 -5.951452750304016 4.3001697019958431 0 0 0 0 11.446552754030563 -4.5886393167719461 0 -4.5886393167719461 7.607559652395139 0 0 0 0 -67.890937668065817 -7.209076725851105 0 -7.209076725851105 56.711393536370878 0 0 0 0 7.8814247554482364 -1.7888349772719181 0 -1.7888349772719181 3.9911168128304011 0 0 0 0 9.527845173905007 -3.32582407436621 0 -3.32582407436621 1.208307384906675 0 0 0 0 5.9660363177426916 -2.7434530204986913 0 -2.7434530204986913 1.2139137156168545 0 0 0 0 4.7924368444516752 -1.4732082081612159 0 -1.4732082081612159 6.0101462040531288 0 0 0 0 9.7313561684295564 -3.9482916300601119 0 -3.9482916300601119 2.8562076131565846 0 0 0 0 1.6526737237801523 -0.23201503007495639 0 -0.23201503007495639 -0.28683044540129998 0 0 0 0 4.0413484359582981 1.6454831721619598 0 1.6454831721619598 15.299477171021636 0 0 0 0 11.122103504722318 1.4311762503484948 0 1.4311762503484948 0.076995936734665871 0 0 0 0 14.529513579556806 1.5351219535616849 0 1.5351219535616849 0.88479217075600758 0 0 0 0 5.425026237585703 -1.7923637166447879 0 -1.7923637166447879 -1.3315418909447638 0 0 0 0 11.262824120886542 0.42468510842291418 0 0.42468510842291418 -1.0200489876841758 0 0 0 0 41.807704113434738 -24.892033826633906 0 -24.892033826633906 -27.097342220939254 0 0 0 0 1020.0484452840919 -401.09141614613787 0 -401.09141614613787 160.57384903732193 0 0 0 0 3.548701978812093 -0.22509757990293622 0 -0.22509757990293622 -0.18681839468945868 0 0 0 0 828.92842134152124 644.19067717118969 0 644.19067717118969 402.25664389937111 0 0 0 0 3.1236762923001464 0.49469662874776921 0 0.49469662874776921 1.0389657164456094 0 0 0 0 15.5795805027401 4.1488950304143764 0 4.1488950304143764 1.1112985466120904 0 0 0 0 1498.3808981993636 139.22928692994793 0 139.22928692994793 -147.34794240037814 0 0 0 0 23.486660689432028 21.461113696981471 0 21.461113696981471 16.741738338638129 0 0 0 0 5.3952822728278989 -29.915817682118359 0 -29.915817682118359 15.722722072701572 0 0 0 0 62.436715243956996 -50.508716413612092 0 -50.508716413612092 -19.893985661003171 0 0 0 0 66.107898787510749 -80.686379256303553 0 -80.686379256303553 -65.955822561485547 0 0 0 0 53.798860557452144 -59.81405772457947 0 -59.81405772457947 -8.4071888774324179 0 0 0 0 66.634411257743736 -29.307804267961096 0 -29.307804267961096 10.177773832636174 0 0 0 0 111.13444626618002 -29.249126608577626 0 -29.249126608577626 -57.498017593185978 0 0 0 0 54.964107251271798 -62.425126652169638 0 -62.425126652169638 -2.5593248805562325 0 0 0 0 57.109779787333991 -54.679473446043175 0 -54.679473446043175 23.161948150183889 0 0 0 0 78.425245296726644 -42.695723435990658 0 -42.695723435990658 43.321590745383219 0 0 0 0 84.086142169586765 -40.530746783125323 0 -40.530746783125323 -6.7488153323502047 0 0 0 0 97.655993526857742 27.49713312827555 0 27.49713312827555 114.54160777184006 0 0 0 0 116.93611713914061 -53.293863710160167 0 -53.293863710160167 -12.934480967902346 0 0 0 0 81.740746824174494 -32.386502614024721 0 -32.386502614024721 -25.210054416926141 0 0 0 0 46.959971444294297 -64.310273653839431 0 -64.310273653839431 -8.433717008870758 0 0 0 0 84.019006314148854 -26.44870368513455 0 -26.44870368513455 4.2518548096885027 0 0 0 0 78.837833019792015 -64.311977883445252 0 -64.311977883445252 -153.85306994312486 0 0 0 0 82.3815125444562 -92.972817183739608 0 -92.972817183739608 -19.343306256139385 0 0 0 0 9.4470992213971243 -8.9039213507152972 0 -8.9039213507152972 1.2013243182217721 0 0 0 0 116.81983738694544 -105.36368411866169 0 -105.36368411866169 -101.48326787570932 0 0 0 0 55.441185371648402 -53.305887119933779 0 -53.305887119933779 -138.18879613832723 0 0 0 0 54.976574393486295 49.696877100205114 0 49.696877100205114 -257.50201178680618 0 0 0 0 55.372295152170409 -22.30486420399302 0 -22.30486420399302 -76.219938429740978 0 0 0 0 47.807840779540129 -63.399154128892405 0 -63.399154128892405 -43.184173093949539 0 0 0 0 72.553850304875596 -15.234426691115459 0 -15.234426691115459 -130.25064744123756 0 0 0 0 66.113479477167857 -75.199904659820731 0 -75.199904659820731 -174.07466678779838 0 0 0 0 38.254860307260969 -34.306410160791984 0 -34.306410160791984 -90.361043878869168 0 0 0 0 96.475404527587671 -35.071335446231387 0 -35.071335446231387 -115.03781055943637 0 0 0 0 75.275825063623373 -28.247417455233617 0 -28.247417455233617 10.31610102922753 0 0 0 0 86.983452726926771 -39.390014813087873 0 -39.390014813087873 -87.37179891859796 0 0 0 0 72.36996457711939 -59.341960643929269 0 -59.341960643929269 -100.22046599815212 0 0 0 0 -0.3223387754181779 0.61170725739524201 0 0.61170725739524201 -0.60398714714248314 0 0 0 0 210.82664162926449 68.968260281864787 0 68.968260281864787 -74.151016221147984 0 0 0 0 73.079170711215141 -6.3885410937567961 0 -6.3885410937567961 -13.031636576697565 0 0 0 0 131.27827595706549 -19.756174924606057 0 -19.756174924606057 -171.24751879467294 0 0 0 0 92.961154493565118 -75.537185668906659 0 -75.537185668906659 -170.04420059416481 0 0 0 0 -157.27320999662334 -176.31122632933921 0 -176.31122632933921 -141.21070907842568 0 0 0 0 66.04527556326866 28.619988574225317 0 28.619988574225317 -168.90799042725075 0 0 0 0 55.434759396215668 -64.80495837257331 0 -64.80495837257331 -40.686868647675965 0 0 0 0 82.240708258592349 53.033085716214373 0 53.033085716214373 -21.39957787076446 0 0 0 0 116.02453985886314 17.984904612865193 0 17.984904612865193 -82.711722169711038 0 0 0 0 121.79255783311964 -45.932487067289912 0 -45.932487067289912 -49.391177290684027 0 0 0 0 70.511148764295285 -72.822710777870725 0 -72.822710777870725 -11.423584029209451 0 0 0 0 54.631382069241226 -50.093936946378562 0 -50.093936946378562 -34.701683634302753 0 0 0 0 40.625742019688914 -83.982131625700276 0 -83.982131625700276 -84.297358959215671 0 0 0 0 19.731029278944334 -31.769986824805983 0 -31.769986824805983 -63.345524493633093 0 0 0 0 250.76696123473812 70.90562387791033 0 70.90562387791033 108.67977421428122 0 0 0 0 151.61988959863083 -15.762142895297075 0 -15.762142895297075 124.17285005975737 0 0 0 0 182.13433370352141 79.023882747531843 0 79.023882747531843 73.565219873110664 0 0 0 0 169.23826551048114 39.121523568908401 0 39.121523568908401 -14.890801861924047 0 0 0 0 114.52851055635256 22.79711383312042 0 22.79711383312042 42.080115599655983 0 0 0 0 151.29968697476943 0.8748955760120225 0 0.8748955760120225 -14.043651929696352 0 0 0 0 180.01596261704617 -35.900263402343171 0 -35.900263402343171 0.38792348471088189 0 0 0 0 123.78339609695104 -60.712359661502205 0 -60.712359661502205 28.792898928326395 0 0 0 0 212.20297676750852 -69.768529915564159 0 -69.768529915564159 32.706457525966471 0 0 0 0 223.90554338054426 -18.073458588776248 0 -18.073458588776248 110.58152313080427 0 0 0 0 194.92732858736781 -45.057207545469282 0 -45.057207545469282 -57.548571957779586 0 0 0 0 227.71501839331904 -121.50778340290981 0 -121.50778340290981 36.095129878202897 0 0 0 0 218.43453195911934 -95.447036756893112 0 -95.447036756893112 -36.917273104567357 0 0 0 0 181.78032974237431 -97.278849165785687 0 -97.278849165785687 -36.388173089145312 0 0 0 0 150.56659821393259 -102.55183768025108 0 -102.55183768025108 22.370604324087481 0 0 0 0 165.05976101463966 -102.16040750779575 0 -102.16040750779575 -42.049343755765221 0 0 0 0 168.93071136270464 -83.111472390609606 0 -83.111472390609606 -51.004000232060207 0 0 0 0 138.19883533051325 -76.145415868794771 0 -76.145415868794771 -31.812643858005686 0 0 0 0 132.04488979288726 -112.83265759812821 0 -112.83265759812821 -32.362570108372893 0 0 0 0 111.02683515775789 -109.76877844077489 0 -109.76877844077489 -22.344725962038865 0 0 0 0 126.43341608755873 -80.245234692195936 0 -80.245234692195936 -35.812262789826491 0 0 0 0 120.39592313639514 -43.649795045302653 0 -43.649795045302653 -7.0665906062149588 0 0 0 0 148.7325012029105 -76.420895010349795 0 -76.420895010349795 -35.409664958631765 0 0 0 0 156.41820447846112 -67.381470618658568 0 -67.381470618658568 -48.08554167429611 0 0 0 0 180.31300485270913 -81.100233741462034 0 -81.100233741462034 -50.963758935132319 0 0 0 0 219.95406842051671 -85.059386851481122 0 -85.059386851481122 -70.809246242177323 0 0 0 0 186.59327333112469 -62.098637339694847 0 -62.098637339694847 -84.242810197018116 0 0 0 0 178.24020976126485 -51.396787017461065 0 -51.396787017461065 -69.670414091782732 0 0 0 0 183.25597835262306 -47.951116078877931 0 -47.951116078877931 -106.28308122782983 0 0 0 0 -69.758724184834136 -90.751113678456704 0 -90.751113678456704 -42.269558849038731 0 0 0 0 12.785024757645076 -1.9784218013283699 0 -1.9784218013283699 -6.6538508264530307 0 0 0 0 -5.0617348601530097 -7.5819436136045146 0 -7.5819436136045146 6.6918520817874718 0 0 0 0 113.63348849376052 -103.11106523456692 0 -103.11106523456692 -37.539013484898533 0 0 0 0 101.14933020722674 -78.576080645204456 0 -78.576080645204456 -67.319641525527913 0 0 0 0 92.247741555802349 -103.54481897367259 0 -103.54481897367259 3.7929673632606864 0 0 0 0 88.226950872325688 -118.76311844070642 0 -118.76311844070642 -15.660368098795516 0 0 0 0 64.335417390011571 -71.992660585827252 0 -71.992660585827252 -80.598701646428708 0 0 0 0 93.738746895207441 -87.299268975677478 0 -87.299268975677478 38.466611770349118 0 0 0 0 178.4861594012782 -32.379836990879994 0 -32.379836990879994 -25.827578057205756 0 0 0 0 -0.55909942995117357 -0.97104523009350885 0 -0.97104523009350885 0.048672437652161449 0 0 0 0 8.5255494798038853 -54.863967369544298 0 -54.863967369544298 54.161527439327983 0 0 0 0 80.264613569959693 -75.874139932861453 0 -75.874139932861453 -5.7195560351774475 0 0 0 0 90.414916901567267 33.940003064860775 0 33.940003064860775 6.0766210616075114 0 0 0 0 30.350881081789687 -34.786187156015664 0 -34.786187156015664 18.407198773799191 0 0 0 0 46.421416740050745 -66.81137645754643 0 -66.81137645754643 -2.276086812145877 0 0 0 0 24.500609479481568 -41.236915694799791 0 -41.236915694799791 -8.1587449812243449 0 0 0 0 67.953755405598372 -86.523051335922446 0 -86.523051335922446 9.5006890615113662 0 0 0 0 77.55070311642703 -39.348635940853455 0 -39.348635940853455 0.7970556196548273 0 0 0 0 15.130799898692803 -31.740607416645886 0 -31.740607416645886 9.0220959006839685 0 0 0 0 -28.107089931925373 -85.831871129461433 0 -85.831871129461433 25.119345609275115 0 0 0 0 194.04598362746719 -4.2420543092698608 0 -4.2420543092698608 -27.609786836001149 0 0 0 0 6.9100840554318141 -1.8127608748757069 0 -1.8127608748757069 0.64009441947439427 0 0 0 0 15.113174847633786 -40.970452732420199 0 -40.970452732420199 -17.051426503789116 0 0 0 0 15.131197186362778 -33.895092976003554 0 -33.895092976003554 79.143464411115929 0 0 0 0 151.50325878744297 17.931736807961215 0 17.931736807961215 -95.887160200600192 0 0 0 0 179.96280817873048 -10.027747063193601 0 -10.027747063193601 -129.3994859093018 0 0 0 0 178.80614599313321 -14.465152211072564 0 -14.465152211072564 -62.914924570581206 0 0 0 0 174.17045140894334 -41.340580198122552 0 -41.340580198122552 -80.81805125358369 0 0 0 0 170.60512309912519 -5.9760975394410707 0 -5.9760975394410707 -69.548912106252828 0 0 0 0 171.07210080971709 -1.273905984873636 0 -1.273905984873636 -24.416723334697053 0 0 0 0 170.83984784295899 -38.018372794564129 0 -38.018372794564129 -39.528758754163846 0 0 0 0 169.43479147117978 -2.6291339156750837 0 -2.6291339156750837 4.389056185015761 0 0 0 0 159.1665121478436 -30.038731867100978 0 -30.038731867100978 -41.056526190190198 0 0 0 0 206.68898926075417 19.53279917373311 0 19.53279917373311 5.7712079194825492 0 0 0 0 155.49890816794141 18.55045929555763 0 18.55045929555763 11.998198484761815 0 0 0 0 180.79459744043561 -10.907846939540832 0 -10.907846939540832 -14.925351993892036 0 0 0 0 154.70715924849605 32.54001559124373 0 32.54001559124373 -39.611677476268596 0 0 0 0 172.51919737203571 30.286264733489588 0 30.286264733489588 -41.97483748329978 0 0 0 0 169.31248790321479 102.21347675538254 0 102.21347675538254 20.391819676615341 0 0 0 0 174.08697648661837 89.548155800512177 0 89.548155800512177 -116.2320937418981 0 0 0 0 172.56723743394832 21.844490528095776 0 21.844490528095776 -108.12651439876754 0 0 0 0 71.983553507654506 166.33838388270851 0 166.33838388270851 199.22315114572484 0 0 0 0 71.605782047852699 77.510996271203112 0 77.510996271203112 71.272056229076043 0 0 0 0 -13.987944135402358 58.433496800253124 0 58.433496800253124 67.020009495064187 0 0 0 0 27.976122394818958 -32.453089265070957 0 -32.453089265070957 28.841080999374299 0 0 0 0 110.71088118570788 -18.788425518025406 0 -18.788425518025406 30.815939263251494 0 0 0 0 75.570279962296809 -68.696363374507655 0 -68.696363374507655 44.511153173405546 0 0 0 0 105.30977875006283 22.641628892341942 0 22.641628892341942 -76.163021730701985 0 0 0 0 25.876966070493701 -3.0658737895447921 0 -3.0658737895447921 -2.5555926663488471 0 0 0 0 -212.01766823862442 -801.03731804547169 0 -801.03731804547169 298.36825874068199 0 0 0 0 7.5242392491421413 1.6016658722345873 0 1.6016658722345873 0.84489031063836073 0 0 0 0 84.522267404801823 90.643114887614956 0 90.643114887614956 -88.58997214462488 0 0 0 0 5.1929303705164642 -26.791644070555662 0 -26.791644070555662 45.075897326634731 0 0 0 0 -40.223753960996646 -22.615112709330788 0 -22.615112709330788 42.917635439646801 0 0 0 0 -15.929370105704947 -49.854426049349058 0 -49.854426049349058 24.752921987557784 0 0 0 0 -7.1146649483732496 -1.2431323588319039 0 -1.2431323588319039 0.74230877424121644 0 0 0 0 4.2416663755429171 -28.983624571039122 0 -28.983624571039122 -3.0654767701877361 0 0 0 0 2.6402637596165937 -9.0325476507732354 0 -9.0325476507732354 -2.5844354346100253 0 0 0 0 10.682585610625807 6.8179131173940277 0 6.8179131173940277 -26.475225231575678 0 0 0 0 21.301131598498841 -20.801636889344081 0 -20.801636889344081 -15.998978123663619 0 0 0 0 7.8166147629905254 -19.435546698999588 0 -19.435546698999588 -24.381755656822861 0 0 0 0 68.939879884302513 -69.881615136820074 0 -69.881615136820074 54.083683110739003 0 0 0 0 85.18829837429837 -55.164338415617749 0 -55.164338415617749 5.7979818843989506 0 0 0 0 -0.070936081777056126 -0.097147512190110419 0 -0.097147512190110419 -0.041507073430320673 0 0 0 0 96.557748052009856 -68.350770182779797 0 -68.350770182779797 15.906782359081262 0 0 0 0 2.3394699104897398 -0.059127036788829912 0 -0.059127036788829912 -1.2570203174239012 0 0 0 0 147.39025683878447 -130.76131358238672 0 -130.76131358238672 64.7080619842543 0 0 0 0 124.45587178420431 -27.167668970535487 0 -27.167668970535487 17.489523692601324 0 0 0 0 29.292005509193586 18.015646707426185 0 18.015646707426185 -2.2703289478440638 0 0 0 0 72.274397645215231 -30.362686170776215 0 -30.362686170776215 19.64698434819195 0 0 0 0 71.598169030303097 -29.371870976772698 0 -29.371870976772698 25.484748433529603 0 0 0 0 89.453404288425077 -41.317021356845089 0 -41.317021356845089 -1.885329084066214 0 0 0 0 234.843737741312 1.1031035532610076 0 1.1031035532610076 -6.3673579007991066 0 0 0 0 208.69533394714472 -37.77705978598442 0 -37.77705978598442 7.1630034557829276 0 0 0 0 189.1033178796315 3.3986268017292787 0 3.3986268017292787 -2.4565837381742313 0 0 0 0 162.54890476251649 -35.13727423378441 0 -35.13727423378441 11.136688889899233 0 0 0 0 133.44403325117673 -9.9174289956426946 0 -9.9174289956426946 27.341333402921464 0 0 0 0 80.159988326520079 -44.832187512670771 0 -44.832187512670771 34.031420500188688 0 0 0 0 135.36151978701037 -37.492930022165638 0 -37.492930022165638 16.392882155286316 0 0 0 0 45.422099104205302 -54.378244278992838 0 -54.378244278992838 52.133583607175751 0 0 0 0 267.84121856581532 -85.65120655507144 0 -85.65120655507144 11.179054042253483 0 0 0 0 135.65590376534527 -43.01047410918153 0 -43.01047410918153 19.202285744411711 0 0 0 0 103.29578359994412 -44.587441089142885 0 -44.587441089142885 56.163562876355172 0 0 0 0 107.60353708573848 -24.085443152582229 0 -24.085443152582229 -9.1850101523505145 0 0 0 0 99.805019129433333 -44.446338144205868 0 -44.446338144205868 1.0380599180871286 0 0 0 0 3.8695747387937143 0.50391763513346532 0 0.50391763513346532 -1.2591569781216982 0 0 0 0 492.04444332889398 -102.36345587218329 0 -102.36345587218329 40.272465792038929 0 0 0 0 319.44511818647834 -200.15012300837589 0 -200.15012300837589 49.093441463282943 0 0 0 0 0.19254975451139789 0.0432361986476959 0 0.0432361986476959 1.2010619035029642 0 0 0 0 690.68313058320109 -61.69630858621349 0 -61.69630858621349 -19.826661401546517 0 0 0 0 -340.3020172897759 -166.01339365005515 0 -166.01339365005515 208.29145619177962 0 0 0 0 405.0005168483292 58.884010845731382 0 58.884010845731382 40.912156105285248 0 0 0 0 349.45557038435027 -17.199998901548497 0 -17.199998901548497 -28.344038165753773 0 0 0 0 -110.67285563184214 -116.04427118590775 0 -116.04427118590775 -25.626759834305631 0 0 0 0 37.446360212137733 -120.22598684794411 0 -120.22598684794411 -58.727567468433335 0 0 0 0 -174.07521825091089 14.77424918560223 0 14.77424918560223 88.513116813508532 0 0 0 0 58.017664501583567 -62.361968746396997 0 -62.361968746396997 100.34419946281832 0 0 0 0 136.09637161987484 -176.49296185956973 0 -176.49296185956973 139.18272001629953 0 0 0 0 317.03128270833986 17.226782481398004 0 17.226782481398004 113.96651211269273 0 0 0 0 352.92981964496403 -112.42804992747767 0 -112.42804992747767 -113.87666323092162 0 0 0 0 162.7741012706465 -40.688914490650859 0 -40.688914490650859 -133.02103720160403 0 0 0 0 63.758699650238668 -65.366947212856303 0 -65.366947212856303 -27.63209718959115 0 0 0 0 103.66581399510687 -127.18353120432948 0 -127.18353120432948 -66.884945475901077 0 0 0 0 10.266718719372875 -75.672459040904869 0 -75.672459040904869 -87.342265999575829 0 0 0 0 175.9058862003767 -56.478754106657107 0 -56.478754106657107 -131.97956879540652 0 0 0 0 71.2430436208233 -39.850464842324072 0 -39.850464842324072 -133.68324015169401 0 0 0 0 78.737945483534531 -64.443853318522542 0 -64.443853318522542 -109.71189084549769 0 0 0 0 132.31725430721235 -1.7743071847316969 0 -1.7743071847316969 -138.28089161959724 0 0 0 0 224.31452864895437 -15.431459807557076 0 -15.431459807557076 -183.76828153948009 0 0 0 0 113.35183896751914 25.223168631780936 0 25.223168631780936 -171.11347726421081 0 0 0 0 56.036067972221645 13.70004820271015 0 13.70004820271015 -129.24659986407642 0 0 0 0 23.608011088216664 4.8179205680350812 0 4.8179205680350812 -6.3944091958887999 0 0 0 0 43.119864475989743 -9.2120671079919703 0 -9.2120671079919703 -63.908656338877336 0 0 0 0 10.229477170212704 8.6787660031568521 0 8.6787660031568521 -20.626909723604626 0 0 0 0 84.595875355089447 38.30254187351602 0 38.30254187351602 -9.2058774905590326 0 0 0 0 -15.815543503500521 -69.812084300680908 0 -69.812084300680908 -100.57936412460913 0 0 0 0 2.4544441229734879 1.1324936331895543 0 1.1324936331895543 0.29163475050777521 0 0 0 0 31.714364909747943 2.2167578587231151 0 2.2167578587231151 -9.9147343064948181 0 0 0 0 18.679509476045453 10.922143338413736 0 10.922143338413736 -11.226554868006652 0 0 0 0 49.463657056207012 0.3131165357062855 0 0.3131165357062855 -7.7290640627252287 0 0 0 0 43.976124308377621 15.802337163426273 0 15.802337163426273 19.344446036095178 0 0 0 0 44.287178022161243 -1.4269881618711224 0 -1.4269881618711224 3.8117691272054799 0 0 0 0 42.917568547141855 5.5785838154042722 0 5.5785838154042722 0.8786472296451393 0 0 0 0 45.138395208516158 6.1328647059235664 0 6.1328647059235664 -9.101742348895641 0 0 0 0 -1.4866644811663718 -12.102248555924234 0 -12.102248555924234 2.0779942517328891 0 0 0 0 1.5585033543744009 -3.0589191048579991 0 -3.0589191048579991 1.6203310845671979 0 0 0 0 33.918635907692078 0.66292562647140585 0 0.66292562647140585 -0.33074336830031825 0 0 0 0 32.329942427491915 3.6659542675588455 0 3.6659542675588455 -5.4072450216626748 0 0 0 0 24.360706379862677 -3.7245161818100314 0 -3.7245161818100314 0.81675169474328868 0 0 0 0 16.658805733277404 -5.6076133099850267 0 -5.6076133099850267 -0.56506682100007311 0 0 0 0 16.2227548255687 0.87073067269375315 0 0.87073067269375315 -0.5240270251815673 0 0 0 0 20.258118517973344 -1.1612335865684145 0 -1.1612335865684145 2.1591629604718037 0 0 0 0 21.296385566409299 -2.6507156911211496 0 -2.6507156911211496 0.23487566760741174 0 0 0 0 31.376392280679283 -3.2986615156623884 0 -3.2986615156623884 -1.6356825437287625 0 0 0 0 48.063430058175072 5.6173796618031702 0 5.6173796618031702 -3.9342079562775325 0 0 0 0 62.925356603707769 11.997822854929836 0 11.997822854929836 -2.9114123651243062 0 0 0 0 89.702075054134184 6.4692935776110971 0 6.4692935776110971 -44.563629782762291 0 0 0 0 27.787215881525299 -27.400735853960214 0 -27.400735853960214 -34.8548867929876 0 0 0 0 8.7306424445960147 -23.648108158763534 0 -23.648108158763534 -6.9653767961826816 0 0 0 0 188.06429917568676 -43.271872837601222 0 -43.271872837601222 11.491385621480731 0 0 0 0 245.23280844348346 -8.9266862539243448 0 -8.9266862539243448 -6.5350357457155042 0 0 0 0 273.33163809917676 10.21973660448495 0 10.21973660448495 -8.3188105128720053 0 0 0 0 0.78022074155899457 -2.2964273534681681 0 -2.2964273534681681 1.7601754094459849 0 0 0 0 12.650799741466699 -63.67346990277656 0 -63.67346990277656 -64.444164413294857 0 0 0 0 70.544186552788233 -15.988887091698416 0 -15.988887091698416 -54.248294752967922 0 0 0 0 27.489973387761893 30.561644993055324 0 30.561644993055324 -54.24406852987704 0 0 0 0 5.8068463604431599 -11.889544832184583 0 -11.889544832184583 -8.6050499097764259 0 0 0 0 30.008591065766346 -5.9226682149002992 0 -5.9226682149002992 -10.370582903169502 0 0 0 0 9.2470053270481003 6.3349581813131408 0 6.3349581813131408 -59.224975644546248 0 0 0 0 -60.356288370383481 39.239127569308039 0 39.239127569308039 -32.820643664449562 0 0 0 0 -22.333480441338907 89.47930120717001 0 89.47930120717001 -88.819676397899457 0 0 0 0 25.697879851959442 54.541139705695059 0 54.541139705695059 -91.85371180812399 0 0 0 0 -3.0507156434941862 16.257507830924624 0 16.257507830924624 -26.19310133689487 0 0 0 0 -26.047658339000918 62.159978549779225 0 62.159978549779225 -65.574414842123588 0 0 0 0 -27.217893864457437 110.39025066725844 0 110.39025066725844 -69.908578897358893 0 0 0 0 -31.472597120913633 40.498832062665315 0 40.498832062665315 -143.52969757331402 0 0 0 0 5.0464591001748076 0.3328634522265852 0 0.3328634522265852 -0.97271092485190636 0 0 0 0 -50.255813953132019 159.32565174399224 0 159.32565174399224 -91.066896919764986 0 0 0 0 308.0598462391622 60.849737834561324 0 60.849737834561324 -145.19248064855128 0 0 0 0 97.42904715417535 149.85386162827854 0 149.85386162827854 -93.774450271237129 0 0 0 0 125.5043008443281 88.052803758972004 0 88.052803758972004 -145.46661317955014 0 0 0 0 -27.983614650271193 114.95452135500454 0 114.95452135500454 -117.78424007483591 0 0 0 0 137.11359766579517 62.739203916023143 0 62.739203916023143 -200.26775093028482 0 0 0 0 1.2251396385436237 22.925524050146123 0 22.925524050146123 -161.66663097659512 0 0 0 0 -8.3841462996319933 132.42301953236444 0 132.42301953236444 -94.053805383313374 0 0 0 0 11.469486594922756 -0.37963927595702529 0 -0.37963927595702529 -3.7909438661560557 0 0 0 0 28.617823459610463 -0.28359418215131882 0 -0.28359418215131882 -16.1628460073116 0 0 0 0 39.459394619831556 -2.3754093077650253 0 -2.3754093077650253 -3.204483951500142 0 0 0 0 64.836089440242176 33.17308218375274 0 33.17308218375274 -86.191950191838259 0 0 0 0 175.01620032346 -30.707480560173281 0 -30.707480560173281 -32.491488571396985 0 0 0 0 35.513774327760565 -1.7768578186516653 0 -1.7768578186516653 -4.162357689616309 0 0 0 0 33.163360044617093 -12.890681407446436 0 -12.890681407446436 -5.2166541303113263 0 0 0 0 27.993582808926917 6.8606111695257646 0 6.8606111695257646 -8.7262046259243746 0 0 0 0 16.693166058148563 28.161616583313389 0 28.161616583313389 -55.367271728640844 0 0 0 0 18.272994325837317 55.461412715770166 0 55.461412715770166 -18.692584184504085 0 0 0 0 37.73364199177724 0.52983387257388337 0 0.52983387257388337 -9.3292032858982115 0 0 0 0 57.69052749221737 33.695947542295471 0 33.695947542295471 -207.16231948874156 0 0 0 0 109.0124799929813 15.195148691461327 0 15.195148691461327 -82.51279547253489 0 0 0 0 33.973027989899151 -2.8440135222567786 0 -2.8440135222567786 -9.0827148948598619 0 0 0 0 -0.72620248000021093 -8.5692423969830998 0 -8.5692423969830998 -22.262777069512595 0 0 0 0 3.7263406907362278 -5.3320544397893137 0 -5.3320544397893137 1.400687905279669 0 0 0 0 16.867112045272734 37.262368948651329 0 37.262368948651329 68.55339568286945 0 0 0 0 -12.892930555708517 -54.729230604043551 0 -54.729230604043551 131.48055060115075 0 0 0 0 143.16171859014776 65.894980480694358 0 65.894980480694358 13.899948391549515 0 0 0 0 -25.489057269574914 -114.73589659809659 0 -114.73589659809659 101.57667229138497 0 0 0 0 -239.3890787172877 -193.66722639236832 0 -193.66722639236832 77.192180768281105 0 0 0 0 20.829656401340504 -5.6586795653389075 0 -5.6586795653389075 0.10240274932339588 0 0 0 0 247.35775750134235 -38.43035217249826 0 -38.43035217249826 -56.837628382463663 0 0 0 0 100.71789887213708 -219.43550592615429 0 -219.43550592615429 -1.1193769375231568 0 0 0 0 449.05579200309694 162.54513373901682 0 162.54513373901682 94.460424103277091 0 0 0 0 25.440562351217523 -14.930107582862547 0 -14.930107582862547 16.823659499357746 0 0 0 0 66.436818915637559 -117.07421900483405 0 -117.07421900483405 -87.047237110484275 0 0 0 0 6.3378338359840694 -8.2741475706763481 0 -8.2741475706763481 12.208482758978755 0 0 0 0 -73.821321309282894 -90.461011122120226 0 -90.461011122120226 21.665852584108507 0 0 0 0 17.958352737423411 -33.784635862025425 0 -33.784635862025425 -0.80867215682337701 0 0 0 0 45.06591808223402 -26.642514504176233 0 -26.642514504176233 -56.958675705891437 0 0 0 0 48.38435188625499 -57.357504980473095 0 -57.357504980473095 15.543800080362416 0 0 0 0 214.57472075011538 -41.371218082087125 0 -41.371218082087125 -50.492600480349665 0 0 0 0 159.94315470431184 -3.0271553654644663 0 -3.0271553654644663 -45.432903698169866 0 0 0 0 157.77428051425159 -11.341830005973861 0 -11.341830005973861 -20.360671459380683 0 0 0 0 122.86402463855484 -65.505743598749859 0 -65.505743598749859 -15.391710710331154 0 0 0 0 68.771565878363774 -26.898054564720915 0 -26.898054564720915 -0.78171981810214208 0 0 0 0 155.88531172664079 -28.577599775416019 0 -28.577599775416019 -136.41374608791307 0 0 0 0 46.879571769488393 -15.45391115917505 0 -15.45391115917505 -37.480635547648944 0 0 0 0 84.005065325858595 1.8792617733997758 0 1.8792617733997758 -47.608552457669418 0 0 0 0 105.76740374926339 -26.249527792422668 0 -26.249527792422668 -5.1105592390854326 0 0 0 0 62.981092592090135 5.7399712513918075 0 5.7399712513918075 -48.149078978158798 0 0 0 0 52.020194596046224 -13.490581893501302 0 -13.490581893501302 -12.221469541578838 0 0 0 0 107.31364707861485 14.434621414693822 0 14.434621414693822 -57.43400173485702 0 0 0 0 30.963838742918597 70.79285425111199 0 70.79285425111199 -142.54071203385183 0 0 0 0 -0.12166841967574271 9.9634982856606698 0 9.9634982856606698 -4.0320474451839701 0 0 0 0 39.020454516161621 -5.0587839015166098 0 -5.0587839015166098 -6.3050757928750736 0 0 0 0 4.2654548852879088 -133.78774792056129 0 -133.78774792056129 85.771443288406772 0 0 0 0 11.065555332000471 -11.258755362867792 0 -11.258755362867792 8.2692726419086089 0 0 0 0 74.4906277019345 19.035756781089731 0 19.035756781089731 -52.799451475282922 0 0 0 0 75.868986807385227 17.675224843528582 0 17.675224843528582 -52.48640228275076 0 0 0 0 49.56378177352417 7.2371786374883982 0 7.2371786374883982 -33.626342579203197 0 0 0 0 77.52830136889952 10.217272796620875 0 10.217272796620875 -31.634584383865786 0 0 0 0 114.60647618931398 -15.029211470832706 0 -15.029211470832706 -15.841361345936093 0 0 0 0 79.546372615888686 31.501568796954416 0 31.501568796954416 -14.140714143038622 0 0 0 0 123.06105691571793 6.5898928003371111 0 6.5898928003371111 -8.9239552594922316 0 0 0 0 132.24668749864213 17.568048604325213 0 17.568048604325213 -11.12841121388692 0 0 0 0 137.78909666549225 17.08052550321554 0 17.08052550321554 -13.029584250608877 0 0 0 0 2.1240751758423464 2.7194883539461756 0 2.7194883539461756 -15.450094974384429 0 0 0 0 35.110917833458188 14.561646625539424 0 14.561646625539424 -26.573201229671668 0 0 0 0 14.772195887322596 8.0604177010982312 0 8.0604177010982312 -19.159644814877087 0 0 0 0 5.8319445853776415 -12.693765283312132 0 -12.693765283312132 -19.480554812192686 0 0 0 0 8.7764526432728474 2.9380618510285714 0 2.9380618510285714 -21.515306347288856 0 0 0 0 8.0129164533886978 -22.352120672693673 0 -22.352120672693673 28.25685541593748 0 0 0 0 36.591622668417585 -10.076032474935346 0 -10.076032474935346 58.79813557811849 0 0 0 0 33.967093574779028 -12.81137868859696 0 -12.81137868859696 73.91123872638309 0 0 0 0 26.981932187153774 -20.371438690515852 0 -20.371438690515852 9.958657086870268 0 0 0 0 96.843278686053964 12.775598300434467 0 12.775598300434467 -14.20951890855963 0 0 0 0 120.23564874712974 -89.658013176696841 0 -89.658013176696841 10.256782874888131 0 0 0 0 2.1469999913142885 -1.6736676935239618 0 -1.6736676935239618 0.67054369839545647 0 0 0 0 107.7105468046866 11.786206636561928 0 11.786206636561928 -29.70069595262521 0 0 0 0 157.3643372356637 -49.487771664084448 0 -49.487771664084448 -22.365576137092148 0 0 0 0 41.891443557540697 8.9051490068036401 0 8.9051490068036401 -9.4907242564590888 0 0 0 0 89.508955448462075 -31.226349417275344 0 -31.226349417275344 -4.7228117814333928 0 0 0 0 104.84377610717002 -6.5441689763687236 0 -6.5441689763687236 -21.332761348361601 0 0 0 0 52.467899507897528 -2.6717828955063396 0 -2.6717828955063396 -14.69738501191523 0 0 0 0 87.989694495325239 -18.894534830384856 0 -18.894534830384856 -17.716139747238685 0 0 0 0 45.449826502610449 -20.257307787642077 0 -20.257307787642077 -3.1944902839271947 0 0 0 0 13.883493133585944 -7.8087828761193805 0 -7.8087828761193805 -9.4480613334397674 0 0 0 0 1.4457829863749794 13.895260894527325 0 13.895260894527325 -7.7875594334996094 0 0 0 0 27.471850995294517 4.3690367913966384 0 4.3690367913966384 -6.7508110471158034 0 0 0 0 14.170066927539665 0.27844970797696078 0 0.27844970797696078 -21.852203610540982 0 0 0 0 48.316771108442481 -7.1009295588021359 0 -7.1009295588021359 -11.2783189029509 0 0 0 0 36.371752479433781 -6.2236953632387895 0 -6.2236953632387895 -18.500345144092535 0 0 0 0 18.714304508361238 10.151799520171835 0 10.151799520171835 -6.5211362208628998 0 0 0 0 85.775443841295782 49.697453774911082 0 49.697453774911082 17.601471724050498 0 0 0 0 -11.960747595836438 -9.9154450798012022 0 -9.9154450798012022 -12.574829230738715 0 0 0 0 134.62882801254045 5.1496770693745475 0 5.1496770693745475 -9.9594212046131361 0 0 0 0 194.01872520226789 19.377654361712075 0 19.377654361712075 32.150839389119028 0 0 0 0 1.5455128662559297 0.77397492606122853 0 0.77397492606122853 -1.5176827753599618 0 0 0 0 3.0585861222725264 -4.3390492339584696 0 -4.3390492339584696 0.41544021039524992 0 0 0 0 9.5797096243659325 -18.246142447003194 0 -18.246142447003194 -2.5036090240755584 0 0 0 0 3.3207024645280434 -0.37125850289416817 0 -0.37125850289416817 -10.573872333910964 0 0 0 0 184.11513389383254 36.138915532282226 0 36.138915532282226 -37.065771439340097 0 0 0 0 192.9366939518186 90.475217707385923 0 90.475217707385923 -11.671742948572501 0 0 0 0 89.715584456229408 26.283987591200002 0 26.283987591200002 -15.076390145150981 0 0 0 0 153.00084659975255 44.907502239305813 0 44.907502239305813 16.958036567985346 0 0 0 0 157.46391909886552 37.405085753076605 0 37.405085753076605 -52.928873246100011 0 0 0 0 95.985060946917656 -12.627293878603268 0 -12.627293878603268 -37.129982786947039 0 0 0 0 -152.61571660765867 -8.405617387680195 0 -8.405617387680195 172.81584432110685 0 0 0 0 76.608090852482462 10.702817065535161 0 10.702817065535161 -22.260634561808736 0 0 0 0 478.31232444353191 -74.52269243304363 0 -74.52269243304363 -141.07581504323457 0 0 0 0 144.97660974159726 84.402838826933078 0 84.402838826933078 -156.36492640329743 0 0 0 0 -152.6157166076573 -8.4056173876797402 0 -8.4056173876797402 172.81584432108502 0 0 0 0 297.16121207548463 -92.298102363009207 0 -92.298102363009207 21.334929873490182 0 0 0 0 307.68338131019846 37.599405611407747 0 37.599405611407747 2.7564804913045009 0 0 0 0 4.2193326369312487 -1.6528053929185305 0 -1.6528053929185305 -0.35812247508889783 0 0 0 0 -152.61571660765549 -8.4056173876924731 0 -8.4056173876924731 172.81584432107684 0 0 0 0 12.007643162016919 7.9288708849357299 0 7.9288708849357299 -3.7664797697353372 0 0 0 0 -38.136679627410558 154.65760187324486 0 154.65760187324486 -69.257636968271981 0 0 0 0 -3.6182120839494019 146.19665950767376 0 146.19665950767376 -123.41161335694778 0 0 0 0 3.7676047348268185 4.3372066563370026 0 4.3372066563370026 -1.9122785012150416 0 0 0 0 -49.891992151500745 160.17576949252452 0 160.17576949252452 -16.716419390635565 0 0 0 0 31.910685428556462 9.866269200174429 0 9.866269200174429 -15.870252472057473 0 0 0 0 -41.305472813122833 50.652869038764038 0 50.652869038764038 -7.9522402391248761 0 0 0 0 16.509782954963157 8.8857213009323459 0 8.8857213009323459 -10.999602501964546 0 0 0 0 8.8178371968097053 7.4331517718965188 0 7.4331517718965188 -7.927940217545256 0 0 0 0 6.8348573100738577 6.7522695416628267 0 6.7522695416628267 -6.633536865003407 0 0 0 0 15.231110678636469 7.3000580111838644 0 7.3000580111838644 -8.9918785281988676 0 0 0 0 5.8644718146988453 -1.4313750034161785 0 -1.4313750034161785 1.0752918911166489 0 0 0 0 9.0594694590836298 3.5586264999583364 0 3.5586264999583364 -4.2585085571045056 0 0 0 0 14.860684362938628 3.2969823403836926 0 3.2969823403836926 -4.4130062901331257 0 0 0 0 15.138731868686591 2.3004343697302829 0 2.3004343697302829 -4.3114324021153152 0 0 0 0 23.186496767011704 0.1406128195594647 0 0.1406128195594647 -4.1582485274411738 0 0 0 0 33.835201288078679 8.0259227495844243 0 8.0259227495844243 -12.786266122871893 0 0 0 0 22.255348059785319 3.9796946916467277 0 3.9796946916467277 -7.6959886930126231 0 0 0 0 22.32326439584449 3.1203430228404159 0 3.1203430228404159 -5.7462024803244276 0 0 0 0 23.27116489925163 4.912254439445519 0 4.912254439445519 -4.6849287821096368 0 0 0 0 48.170298655611987 8.1559214775315922 0 8.1559214775315922 -16.815816888789413 0 0 0 0 -15.474888430719147 41.747904446834582 0 41.747904446834582 -29.276896732466412 0 0 0 0 38.183660276932642 3.5923769440487376 0 3.5923769440487376 -9.5059308622840035 0 0 0 0 20.103086860184249 15.372348290959053 0 15.372348290959053 -136.94500030110794 0 0 0 0 49.930356008128001 3.967666980362992 0 3.967666980362992 -14.659699322604865 0 0 0 0 29.956010551319601 23.686001787174785 0 23.686001787174785 -37.164347070130539 0 0 0 0 28.80775337486557 40.489739208034734 0 40.489739208034734 -63.16871303841026 0 0 0 0 2.0758468453358816 -0.69477198754200131 0 -0.69477198754200131 -1.0739271021894865 0 0 0 0 97.050558683051349 -65.897807724506492 0 -65.897807724506492 6.7826726797857191 0 0 0 0 -36.901815111604265 7.4104924977918927 0 7.4104924977918927 -29.846339366098391 0 0 0 0 146.05512149220067 -30.949125474745188 0 -30.949125474745188 -27.532295387001795 0 0 0 0 53.386816949246167 22.268648663676231 0 22.268648663676231 -37.765772288240555 0 0 0 0 44.043172883758416 -25.23420695772495 0 -25.23420695772495 7.7867732881615765 0 0 0 0 161.91668476154518 -23.580570165531867 0 -23.580570165531867 36.525180383818224 0 0 0 0 24.655142060057379 -22.14661928153561 0 -22.14661928153561 -5.2292747693109085 0 0 0 0 8.1429308544057228 -3.6418740525353908 0 -3.6418740525353908 0.70028670076945509 0 0 0 0 84.077473148878198 -21.559939113395899 0 -21.559939113395899 -11.34241750551837 0 0 0 0 103.96353110044583 -39.937001792259025 0 -39.937001792259025 -18.397699623797052 0 0 0 0 87.474703936214837 -19.753285356282873 0 -19.753285356282873 -12.090277730535036 0 0 0 0 10.609327803230411 -5.5554372409660076 0 -5.5554372409660076 -14.140354735965845 0 0 0 0 46.33293576993492 -26.813911696294525 0 -26.813911696294525 -3.0478760856846066 0 0 0 0 95.572199657655347 -36.481117111646824 0 -36.481117111646824 20.229624542565489 0 0 0 0 40.113620422220265 -15.82940389702253 0 -15.82940389702253 -7.7135983004514515 0 0 0 0 17.195622326512364 -22.182555182906135 0 -22.182555182906135 -0.48415074529622437 0 0 0 0 134.3502258310582 -30.665218002139227 0 -30.665218002139227 -43.553515301041443 0 0 0 0 102.64625123879341 -50.205219030367971 0 -50.205219030367971 15.99515967230991 0 0 0 0 74.086714715644121 -9.3589166843121347 0 -9.3589166843121347 -20.641607777806712 0 0 0 0 80.676449919213169 2.9210302338158343 0 2.9210302338158343 -15.42904369906978 0 0 0 0 122.69953208154766 64.728948045676134 0 64.728948045676134 -40.170438781002758 0 0 0 0 5.6101900127933533 8.1561383997135621 0 8.1561383997135621 -5.197786557105343 0 0 0 0 124.11884594765797 -24.167551050036082 0 -24.167551050036082 -29.575189992692685 0 0 0 0 125.79156691142998 -47.107137852889537 0 -47.107137852889537 -147.38450206127573 0 0 0 0 138.06560633587833 -87.188029023196123 0 -87.188029023196123 -46.055080962873944 0 0 0 0 96.757360177965893 -84.363164859421886 0 -84.363164859421886 11.046994759211884 0 0 0 0 104.25016551429871 -78.719414374019607 0 -78.719414374019607 32.894751719304622 0 0 0 0 123.11354974786082 -97.565328296886037 0 -97.565328296886037 5.4874856981252833 0 0 0 0 130.24825415927535 -81.999026751475412 0 -81.999026751475412 38.572104919643607 0 0 0 0 141.23851602678587 -117.46245159463956 0 -117.46245159463956 33.892277874430874 0 0 0 0 150.22563919638196 -76.593814201645273 0 -76.593814201645273 69.612715092629514 0 0 0 0 178.0906800123048 -94.847171174129926 0 -94.847171174129926 26.973003994144165 0 0 0 0 127.34155021011975 -105.26272622190572 0 -105.26272622190572 36.089367600654441 0 0 0 0 111.67323725702954 -89.450735730594261 0 -89.450735730594261 61.605295987604222 0 0 0 0 25.21522294425813 0.082535086149846393 0 0.082535086149846393 -29.482129008903939 0 0 0 0 2.2848066337679498 -1.7694712348835751 0 -1.7694712348835751 -10.611094832704454 0 0 0 0 172.89233608951326 -129.64455567967116 0 -129.64455567967116 26.806299343116279 0 0 0 0 158.73289283864142 -70.443383956143862 0 -70.443383956143862 -8.7825269725190083 0 0 0 0 137.50216617514525 -72.909063525888996 0 -72.909063525888996 -2.8596664827141467 0 0 0 0 133.22046033216975 -86.868318995299433 0 -86.868318995299433 65.327668873312632 0 0 0 0 0.83499993422186947 -2.5276970058414463 0 -2.5276970058414463 -11.946564926558452 0 0 0 0 44.911285370730184 -25.577857875476013 0 -25.577857875476013 -8.2292667107572015 0 0 0 0 41.779129284859664 -19.984106962816213 0 -19.984106962816213 -5.9548157930656771 0 0 0 0 25.782484418974491 -17.674631813396104 0 -17.674631813396104 -4.5891727589171296 0 0 0 0 32.675117700033297 -23.884062545327879 0 -23.884062545327879 -7.7524789983463052 0 0 0 0 38.734817842796474 -15.921209776134674 0 -15.921209776134674 -4.9254093483684755 0 0 0 0 40.43898895748498 -22.184454656889898 0 -22.184454656889898 -9.432553722727107 0 0 0 0 67.177727963243797 -21.936568106498157 0 -21.936568106498157 -10.698610955009372 0 0 0 0 42.273989305755094 -19.01424995494142 0 -19.01424995494142 -5.0947268270845143 0 0 0 0 57.836059912704513 -25.749404227761488 0 -25.749404227761488 -12.954562803286535 0 0 0 0 38.095171939443389 -23.567554887219444 0 -23.567554887219444 -5.6019141265369399 0 0 0 0 16.656338420791144 -17.930489668849987 0 -17.930489668849987 -0.72828336809811844 0 0 0 0 24.596277684369852 -17.915235401074369 0 -17.915235401074369 -3.2182865651098496 0 0 0 0 18.254515363872088 -9.2886178216442126 0 -9.2886178216442126 -6.0624744936629469 0 0 0 0 -2.2473417824325637 -4.3233917185139923 0 -4.3233917185139923 -9.5235586072980283 0 0 0 0 53.201031801310819 -46.536008473794823 0 -46.536008473794823 3.9260769896341117 0 0 0 0 37.802182718423865 -36.389708552835145 0 -36.389708552835145 -2.6309252168143757 0 0 0 0 58.328026266000961 -25.996764155462188 0 -25.996764155462188 -12.960409265582257 0 0 0 0 77.511116882400529 -28.808525520370949 0 -28.808525520370949 -22.87203403785746 0 0 0 0 50.82684678962687 -16.872038810685808 0 -16.872038810685808 -23.008007539080818 0 0 0 0 29.395061812640051 9.3593300968548192 0 9.3593300968548192 -24.302866227920504 0 0 0 0 13.437754981387116 -2.4243046843623688 0 -2.4243046843623688 -17.7449404457534 0 0 0 0 59.178728184633655 -42.253226501042263 0 -42.253226501042263 -62.915346397489884 0 0 0 0 -29.445524859351281 50.876078698654737 0 50.876078698654737 -83.256435498089559 0 0 0 0 0.80053623481337155 -0.68130992629230747 0 -0.68130992629230747 0.16425751484509732 0 0 0 0 124.56585474307167 -109.25901548957086 0 -109.25901548957086 67.324374224366693 0 0 0 0 8.7584632779107778 4.5598532590852301 0 4.5598532590852301 -19.058231681377947 0 0 0 0 0.69262340059869842 0.46867923134733047 0 0.46867923134733047 -1.5437626252775671 0 0 0 0 2.927258572391338 -1.340068564715871 0 -1.340068564715871 -7.4352011058244427 0 0 0 0 126.21130437776083 -100.06173290286699 0 -100.06173290286699 67.625067400584157 0 0 0 0 119.92184924069079 -105.01174303107177 0 -105.01174303107177 56.570008425134802 0 0 0 0 119.10442658896682 -102.83396254657146 0 -102.83396254657146 76.996629335855687 0 0 0 0 -14.935923673525394 18.708609533427989 0 18.708609533427989 -11.116081975762427 0 0 0 0 62.413973146747139 -46.165187910784198 0 -46.165187910784198 6.3550876840845376 0 0 0 0 0.72595371132634057 -0.11064736104059136 0 -0.11064736104059136 -0.49683688614279831 0 0 0 0 28.914308676004339 -17.718711780774168 0 -17.718711780774168 -2.7417158525513514 0 0 0 0 42.161935388932761 -29.299443915493612 0 -29.299443915493612 7.3795680971398951 0 0 0 0 4.799445989105152 -12.076825759400435 0 -12.076825759400435 -22.599752055947874 0 0 0 0 -43.965841906087007 -50.777041572934422 0 -50.777041572934422 -5.0143358555515078 0 0 0 0 -23.54595310194054 -7.1645409283505614 0 -7.1645409283505614 -10.361149944667432 0 0 0 0 5.8397191498972916 -17.316569819063616 0 -17.316569819063616 -13.645596818892955 0 0 0 0 193.14531920712579 68.054641104910615 0 68.054641104910615 42.339457119192502 0 0 0 0 1.8165825389848678 -1.789112181391161 0 -1.789112181391161 1.1756365360671257 0 0 0 0 -18.093930882045242 -24.517801910606067 0 -24.517801910606067 -10.027497075290739 0 0 0 0 26.534349233545072 -7.5407541849529025 0 -7.5407541849529025 -14.39067486054546 0 0 0 0 -0.11061088283167919 -4.7314852302438339 0 -4.7314852302438339 -1.2845582073516368 0 0 0 0 24.824426463103009 -4.9606905623920738 0 -4.9606905623920738 -16.562129740447745 0 0 0 0 2.8987515607636851 -8.5887658008769563 0 -8.5887658008769563 -9.045986760013875 0 0 0 0 27.878273617414379 -9.5264678628368529 0 -9.5264678628368529 -10.192840228366549 0 0 0 0 6.2138587610243121 -4.6130739470304434 0 -4.6130739470304434 -6.6177913162682671 0 0 0 0 9.9476182609309838 -4.1387954919897787 0 -4.1387954919897787 -6.251217601207963 0 0 0 0 32.502267383586513 -8.7751094174304285 0 -8.7751094174304285 -4.5939110492956843 0 0 0 0 33.470337852952071 4.7826016723511202 0 4.7826016723511202 -6.4062961196814285 0 0 0 0 27.265483645114728 4.8388523614494261 0 4.8388523614494261 -4.5820172528920011 0 0 0 0 31.315773455837189 3.6583996696836039 0 3.6583996696836039 -5.405224544633711 0 0 0 0 27.047476967716648 -9.6960977563550728 0 -9.6960977563550728 -8.1585797645552702 0 0 0 0 24.279366013125582 1.358517503119856 0 1.358517503119856 -13.214689661356033 0 0 0 0 7.5117413481461455 2.9790991320477609 0 2.9790991320477609 -4.6503518864367273 0 0 0 0 6.2600837108168133 -0.66975919377339643 0 -0.66975919377339643 -1.1527361339298707 0 0 0 0 22.801724390284107 -6.590955879088142 0 -6.590955879088142 -9.4808782474219697 0 0 0 0 16.640391760224556 -15.778555400786502 0 -15.778555400786502 -10.6464663496655 0 0 0 0 130.76234266229994 51.629644869212882 0 51.629644869212882 -9.8320675073541679 0 0 0 0 19.4292196341612 -26.069109021594329 0 -26.069109021594329 -8.9995595102147945 0 0 0 0 131.15575509640257 43.562755958072557 0 43.562755958072557 15.601264143033404 0 0 0 0 24.766065129664639 -15.409142518414399 0 -15.409142518414399 -13.810314408563727 0 0 0 0 15.884193967247484 -9.8983623343807352 0 -9.8983623343807352 -7.3892583693418601 0 0 0 0 31.673104277899256 -14.121729788741959 0 -14.121729788741959 -3.5790736643502896 0 0 0 0 31.961538249450332 15.737043203795603 0 15.737043203795603 -6.4449942327805587 0 0 0 0 41.465192794275936 12.4778234003752 0 12.4778234003752 -13.046919250597057 0 0 0 0 4.3354743504742395 -2.1964588313597382 0 -2.1964588313597382 -2.5414098495165689 0 0 0 0 36.007577458806281 -10.101166909756643 0 -10.101166909756643 -8.6535274500618016 0 0 0 0 2.9109018459183957 -6.3735904790389242 0 -6.3735904790389242 -11.516049077665013 0 0 0 0 34.925530300864921 -14.140033764886766 0 -14.140033764886766 -9.0297657136752605 0 0 0 0 24.363217035339403 -14.977440964982719 0 -14.977440964982719 -7.9729793857745364 0 0 0 0 24.094630449941178 -7.1471224936436784 0 -7.1471224936436784 -9.3743121730861532 0 0 0 0 19.852928964562125 -6.1962173782508216 0 -6.1962173782508216 -4.7116463635175023 0 0 0 0 5.3467195626719466 -7.2181854823740785 0 -7.2181854823740785 -3.6403465396115653 0 0 0 0 33.781693200300651 2.1020459185401705 0 2.1020459185401705 -6.7186728528031381 0 0 0 0 3.0698870488870753 -0.11563763297446883 0 -0.11563763297446883 -8.7309640523307284 0 0 0 0 27.350576177554899 10.127856866015264 0 10.127856866015264 -5.9058282307705667 0 0 0 0 6.307091449597003 1.1039458430099032 0 1.1039458430099032 -2.2163674460337077 0 0 0 0 45.52045926070241 -4.9589485857491127 0 -4.9589485857491127 -6.1948610215904409 0 0 0 0 26.893885659119405 3.0956609367872261 0 3.0956609367872261 -2.7828079906128096 0 0 0 0 24.531549465264106 -5.9649182840935282 0 -5.9649182840935282 -10.444125556024119 0 0 0 0 13.525852232738544 -7.2592584777889897 0 -7.2592584777889897 -6.6388848792839781 0 0 0 0 30.663068598378231 -1.2998647427484684 0 -1.2998647427484684 -9.6572362600318229 0 0 0 0 27.523992105041543 0.21635071397668071 0 0.21635071397668071 -4.7900277774442657 0 0 0 0 27.927024235561476 -1.2769642984189886 0 -1.2769642984189886 -1.3393503666325159 0 0 0 0 31.136143203177198 -2.8713959116091701 0 -2.8713959116091701 -5.4841986821793398 0 0 0 0 26.314564045020234 -7.0989429548742464 0 -7.0989429548742464 -24.006930658632427 0 0 0 0 18.027416971344792 -1.2154664049676285 0 -1.2154664049676285 -4.5078706040762881 0 0 0 0 -4.5594133195627364 -27.434374228769229 0 -27.434374228769229 -5.546878530123422 0 0 0 0 45.455206024771542 -25.500273881758517 0 -25.500273881758517 -8.7013892203476644 0 0 0 0 16.053604008007824 -9.1595799344563602 0 -9.1595799344563602 -11.04145116896234 0 0 0 0 19.547579026666426 -2.1577730069723202 0 -2.1577730069723202 1.0466203199675874 0 0 0 0 55.710585360398909 -10.897809125014419 0 -10.897809125014419 -17.257198754537967 0 0 0 0 45.244635383278364 18.526245955690456 0 18.526245955690456 15.708124077245884 0 0 0 0 30.559235682603685 0.13555464494243097 0 0.13555464494243097 -5.9101032172143277 0 0 0 0 5.3343255275580894 -5.6139548340466483 0 -5.6139548340466483 -4.2233130879577896 0 0 0 0 29.309033141800228 3.7425468351724476 0 3.7425468351724476 2.6856130408523313 0 0 0 0 37.69788505296674 8.2985920802639157 0 8.2985920802639157 -4.3707286395149367 0 0 0 0 39.982459982631553 8.3454788829544668 0 8.3454788829544668 -2.7197610920570696 0 0 0 0 5.8714623055129778 -10.600436464680683 0 -10.600436464680683 -13.475710432503774 0 0 0 0 6.9612515122679035 -5.8539583920798535 0 -5.8539583920798535 -6.4901448625843887 0 0 0 0 11.278859852660389 -5.0642866896612304 0 -5.0642866896612304 -7.8295156514772231 0 0 0 0 11.483049082366961 -7.6650770019314223 0 -7.6650770019314223 -8.104762599172318 0 0 0 0 11.000902581381524 -7.3852367878142786 0 -7.3852367878142786 -4.2764462516270214 0 0 0 0 11.677256478970662 -11.466418726889987 0 -11.466418726889987 -11.795089685912217 0 0 0 0 18.11875292645891 -8.3958928027062711 0 -8.3958928027062711 -10.49309408613567 0 0 0 0 2.7145506563104895 -3.1443925671354833 0 -3.1443925671354833 -10.650076070525296 0 0 0 0 20.887885821852251 -5.1554569693271333 0 -5.1554569693271333 -34.794747230328539 0 0 0 0 14.453980542285663 -7.5246635575762468 0 -7.5246635575762468 -3.2799810731480465 0 0 0 0 17.419845348587842 0.86514863644379147 0 0.86514863644379147 -18.758909643161132 0 0 0 0 21.296139117643179 1.0771585046727523 0 1.0771585046727523 -17.306381700911345 0 0 0 0 17.470545262181986 1.2359704593204697 0 1.2359704593204697 -17.266653459842018 0 0 0 0 24.175850770523539 -1.360358778108548 0 -1.360358778108548 -24.632548887981102 0 0 0 0 39.556462490974809 -5.8033251019246563 0 -5.8033251019246563 -19.332313573612225 0 0 0 0 21.122535499664082 -2.3415060367619844 0 -2.3415060367619844 -18.822402135411721 0 0 0 0 55.205720855949039 -23.84440637055468 0 -23.84440637055468 -16.706918090938586 0 0 0 0 37.71859351486637 -11.50006516009671 0 -11.50006516009671 -28.54871405402173 0 0 0 0 11.312883979850085 -17.863409100531783 0 -17.863409100531783 -29.066615361750337 0 0 0 0 16.305103954880906 -1.4172500444069556 0 -1.4172500444069556 -24.522323841606294 0 0 0 0 7.7081233538385874 -9.5129145386212564 0 -9.5129145386212564 1.3216170907765192 0 0 0 0 16.23721740235851 -17.929545540375784 0 -17.929545540375784 -36.87476291421558 0 0 0 0 -20.26393570365326 -31.291499329554426 0 -31.291499329554426 -24.537855150038013 0 0 0 0 27.027545349312277 -13.754790673690422 0 -13.754790673690422 -17.613400157038996 0 0 0 0 41.849427709650627 -36.219769718150246 0 -36.219769718150246 -27.323202833575124 0 0 0 0 13.192973847995745 -37.913152729451213 0 -37.913152729451213 -14.132602834647514 0 0 0 0 57.627020207910391 -72.253028108449598 0 -72.253028108449598 -35.105411313776131 0 0 0 0 58.921333642312675 -51.869281429433386 0 -51.869281429433386 12.488324309908421 0 0 0 0 62.673924219459877 -35.302122181411505 0 -35.302122181411505 -15.243305220039247 0 0 0 0 35.713878464724985 -49.872487328087118 0 -49.872487328087118 37.812058781293672 0 0 0 0 -11.468899537157995 -66.484948716892404 0 -66.484948716892404 -17.835454455029321 0 0 0 0 27.513051055138931 -32.900296334334598 0 -32.900296334334598 -24.736816979856485 0 0 0 0 5.6033817978995124 -8.0236272168166742 0 -8.0236272168166742 2.2385647376784199 0 0 0 0 -24.153523243280688 -61.795289685636931 0 -61.795289685636931 -16.431934525692668 0 0 0 0 645.67998831606565 -126.452096317621 0 -126.452096317621 -3.8072554646669232 0 0 0 0 -14.727979805560608 -61.727255928342402 0 -61.727255928342402 -24.334077320276265 0 0 0 0 -2.7943114672671072 -43.383517290658347 0 -43.383517290658347 -98.406385405654873 0 0 0 0 -214.85855947807431 -58.477839751802094 0 -58.477839751802094 -24.096791101590497 0 0 0 0 -457.41633488982916 -113.84523534874825 0 -113.84523534874825 10.438918229519913 0 0 0 0 -182.57556559098884 -159.71296674795121 0 -159.71296674795121 -70.254690631511039 0 0 0 0 15.941140332019131 -84.033722363345987 0 -84.033722363345987 -10.218575369804967 0 0 0 0 51.07734568635351 -33.155411854827435 0 -33.155411854827435 -32.495164274305864 0 0 0 0 754.52738736809988 -208.80821316056608 0 -208.80821316056608 81.696740568920177 0 0 0 0 765.79047514026752 -233.26454971429666 0 -233.26454971429666 129.93490860158158 0 0 0 0 1128.0457624593691 -259.20410961882681 0 -259.20410961882681 131.41575504492948 0 0 0 0 997.90743443506653 -37.449393792676346 0 -37.449393792676346 34.45163885310285 0 0 0 0 1184.5158190685906 -95.45562258263908 0 -95.45562258263908 36.328102985833539 0 0 0 0 -29.853293306518026 -54.388000887091039 0 -54.388000887091039 -58.73296292593659 0 0 0 0 2.487916706005862 0.33624791393860676 0 0.33624791393860676 1.7785293070778785 0 0 0 0 2.1159463876768392 0.56368805985258774 0 0.56368805985258774 -0.77509949530836053 0 0 0 0 728.69271746878803 -57.776839819278393 0 -57.776839819278393 41.90582274889357 0 0 0 0 656.82377353865741 -220.249122276251 0 -220.249122276251 83.647196241053052 0 0 0 0 3.8019595100161752 4.9417776917969327 0 4.9417776917969327 1.9603392643745128 0 0 0 0 26.179982186233246 -14.13674412773571 0 -14.13674412773571 -0.28247591985746112 0 0 0 0 22.167377607416256 12.716100861823065 0 12.716100861823065 15.924408261464123 0 0 0 0 -0.74717325508960641 -5.8603708170445659 0 -5.8603708170445659 0.37049583026174271 0 0 0 0 8.2251106748343403 -2.1408754579461853 0 -2.1408754579461853 -1.9991923705668004 0 0 0 0 21.160326939450897 -42.697222272057161 0 -42.697222272057161 12.924445224939063 0 0 0 0 39.586117780690984 -32.023587936176455 0 -32.023587936176455 14.743142343997533 0 0 0 0 -4.8093720582692185 -106.49505654762629 0 -106.49505654762629 201.54948819630391 0 0 0 0 20.779540529868655 -39.489972189835768 0 -39.489972189835768 39.65791193588575 0 0 0 0 2.872783467238321 -0.2929608457415438 0 -0.2929608457415438 0.35129551896333155 0 0 0 0 67.760181189791183 -104.73637510269396 0 -104.73637510269396 -19.29897624181217 0 0 0 0 44.877266231369504 -9.6301104306894558 0 -9.6301104306894558 -109.33246914078882 0 0 0 0 63.441373175428453 -57.657231132711559 0 -57.657231132711559 8.2742208550985197 0 0 0 0 90.468888900921229 -29.361123975445253 0 -29.361123975445253 1.3592786658473415 0 0 0 0 47.100092768725517 -34.355536643458436 0 -34.355536643458436 22.161270008893098 0 0 0 0 10.356078995823736 -7.0050463314273799 0 -7.0050463314273799 -7.5645028044189075 0 0 0 0 -0.66751677477323312 -3.533132862138892 0 -3.533132862138892 -8.8305887500463651 0 0 0 0 -0.5416465761705247 -0.88978768037669198 0 -0.88978768037669198 -0.098100824258334995 0 0 0 0 0.022932670442969538 -16.827680642435553 0 -16.827680642435553 15.271341811938669 0 0 0 0 11.581897071355343 -11.056373062268904 0 -11.056373062268904 -5.130088788336252 0 0 0 0 19.395466386318731 -12.087339742709673 0 -12.087339742709673 -9.3008269657318579 0 0 0 0 9.3742596569049965 -4.8049503063311017 0 -4.8049503063311017 -4.775229298478318 0 0 0 0 13.639477076008916 -7.549979165708578 0 -7.549979165708578 -11.512051071712904 0 0 0 0 8.4133041979366681 -7.7454031323773052 0 -7.7454031323773052 -7.7247182884044037 0 0 0 0 6.8497709559378563 -6.5989938206716943 0 -6.5989938206716943 -4.835032120985943 0 0 0 0 4.4171776979649842 -1.2116782169088296 0 -1.2116782169088296 -7.8879447668016152 0 0 0 0 3.0179697036273865 -17.5167639984179 0 -17.5167639984179 -33.804278662201796 0 0 0 0 5.2969522806370755 -2.6685393703452576 0 -2.6685393703452576 -10.423579780489407 0 0 0 0 11.938755786883121 -2.8925174923249415 0 -2.8925174923249415 -11.411140637923097 0 0 0 0 10.535634825709167 -5.7086523485137857 0 -5.7086523485137857 -14.89527265012596 0 0 0 0 18.244933866684732 -7.1187306663998697 0 -7.1187306663998697 -18.028624077274799 0 0 0 0 7.7183860091096079 -3.1559663129483795 0 -3.1559663129483795 -15.449072975363933 0 0 0 0 18.672416781108041 -1.0132393402177513 0 -1.0132393402177513 -15.992028868871785 0 0 0 0 19.438521097094053 -2.659261504605638 0 -2.659261504605638 -11.484818480901563 0 0 0 0 5.1041401122379924 3.5753378906965736 0 3.5753378906965736 -14.150327934531006 0 0 0 0 -10.771146318649699 -39.700442998794415 0 -39.700442998794415 -25.295829884391878 0 0 0 0 -86.748782325179491 -98.51380928676258 0 -98.51380928676258 -69.839719211904139 0 0 0 0 -28.725549906812375 -13.467048796497522 0 -13.467048796497522 -16.59229457832771 0 0 0 0 3.7091194604760886 -3.8903082296490581 0 -3.8903082296490581 -9.292382254988711 0 0 0 0 -18.58658345884669 -66.34009124974699 0 -66.34009124974699 -73.507899397667643 0 0 0 0 19.976282749739767 -31.798892885252485 0 -31.798892885252485 -50.185013653190708 0 0 0 0 0.089243865757453023 -23.79547338964835 0 -23.79547338964835 -43.573350402700044 0 0 0 0 20.932642610728863 -26.034919014289073 0 -26.034919014289073 -91.9771763862027 0 0 0 0 88.23236651530533 -13.241537332476923 0 -13.241537332476923 -93.755343329758261 0 0 0 0 52.611550915458793 -64.751920361251678 0 -64.751920361251678 -128.92975484616113 0 0 0 0 49.338508936543803 -52.01983697228593 0 -52.01983697228593 -101.42407766525093 0 0 0 0 82.34132788313218 -25.567720771821314 0 -25.567720771821314 -85.040275119830426 0 0 0 0 152.60561499978576 -90.226802747082047 0 -90.226802747082047 -87.295889730029558 0 0 0 0 112.33766761765401 17.699400380893621 0 17.699400380893621 -89.346451261875245 0 0 0 0 87.454697815272084 -52.538273040864397 0 -52.538273040864397 -51.0742896860869 0 0 0 0 261.74791114186883 -85.65861706605142 0 -85.65861706605142 -99.052731770958871 0 0 0 0 35.089165251912164 -11.66441893568782 0 -11.66441893568782 -59.822047026141718 0 0 0 0 89.811150236506364 -0.40287965591801367 0 -0.40287965591801367 -70.00082392161039 0 0 0 0 -113.51907111866967 144.98876385419817 0 144.98876385419817 -156.40039515073278 0 0 0 0 143.29838079668298 2.2781691530126409 0 2.2781691530126409 -126.11273002416374 0 0 0 0 362.13794135615171 -69.53458759252311 0 -69.53458759252311 -12.670631196323484 0 0 0 0 409.78423355801488 -293.28258089907126 0 -293.28258089907126 170.47429609035544 0 0 0 0 198.33265130937798 -124.10612375169285 0 -124.10612375169285 140.83900838422016 0 0 0 0 1.3025690976198803 0.19390318297336506 0 0.19390318297336506 -0.25952107869163932 0 0 0 0 195.37608407265907 -107.82987125444765 0 -107.82987125444765 96.918233310177129 0 0 0 0 193.43163479730356 -114.93949693299282 0 -114.93949693299282 90.6218469102987 0 0 0 0 272.98987364048298 -131.70442032091205 0 -131.70442032091205 78.512552517664517 0 0 0 0 185.36443693896945 -74.093996849268478 0 -74.093996849268478 56.081837792573424 0 0 0 0 189.82954426062497 -30.684089610602314 0 -30.684089610602314 34.1270758713963 0 0 0 0 291.32267484626755 -55.43511603745759 0 -55.43511603745759 20.733663117991455 0 0 0 0 -8.1284660835926843 -64.63640615956308 0 -64.63640615956308 25.993497657474563 0 0 0 0 10.051447576472128 204.08536939793157 0 204.08536939793157 -104.06555674867127 0 0 0 0 3.7098578443684644 0.20364076572186462 0 0.20364076572186462 -1.8390447825299612 0 0 0 0 173.29064620884947 -155.52933396823403 0 -155.52933396823403 139.02780745486689 0 0 0 0 116.45049061626924 -113.96405832403252 0 -113.96405832403252 126.17111283660529 0 0 0 0 143.447725545715 -112.0628660159183 0 -112.0628660159183 -40.205783508351487 0 0 0 0 16.670253331096319 42.952294371395055 0 42.952294371395055 -177.5752812398714 0 0 0 0 103.22422091645785 -103.55880328098237 0 -103.55880328098237 89.819008936973205 0 0 0 0 107.6010635061466 -95.089530435690904 0 -95.089530435690904 85.781100007675377 0 0 0 0 -15.386960578412982 56.579973099676863 0 56.579973099676863 -162.61568230050761 0 0 0 0 4.0429517979736147 -0.16202192960960815 0 -0.16202192960960815 -4.4295513040743622 0 0 0 0 105.37143531488255 -106.55063558628899 0 -106.55063558628899 72.14894941133025 0 0 0 0 98.359477223646536 -100.96322887722181 0 -100.96322887722181 49.075490253993848 0 0 0 0 105.26312697405956 -105.42361481823809 0 -105.42361481823809 66.479763151133284 0 0 0 0 108.10537532084709 -91.442601574326545 0 -91.442601574326545 57.355503016516195 0 0 0 0 141.63605294320769 -74.23079532773545 0 -74.23079532773545 39.01636363831858 0 0 0 0 103.2268239351688 -95.361596675271585 0 -95.361596675271585 70.72548283193828 0 0 0 0 86.383098409183731 -82.019447936058441 0 -82.019447936058441 53.675021101423795 0 0 0 0 110.34503620887972 -93.026575060080859 0 -93.026575060080859 55.165204740927038 0 0 0 0 104.50047757999255 -97.545468254199136 0 -97.545468254199136 103.62184084119872 0 0 0 0 133.96257643885474 -98.495549361353369 0 -98.495549361353369 68.562615543514767 0 0 0 0 153.78476636744108 -120.0646934035999 0 -120.0646934035999 91.145332835392765 0 0 0 0 169.08873414372283 -40.069545675857626 0 -40.069545675857626 25.135728056148764 0 0 0 0 139.64797039703262 -82.427245763306928 0 -82.427245763306928 60.719744444992557 0 0 0 0 158.57131278761358 -79.133066765420324 0 -79.133066765420324 60.30498041546889 0 0 0 0 159.38514183177904 -34.356377386788154 0 -34.356377386788154 27.196499729761456 0 0 0 0 227.15212452047126 -65.674322927209232 0 -65.674322927209232 26.20909808302531 0 0 0 0 185.1261194249073 -12.189671686465772 0 -12.189671686465772 12.233270137759064 0 0 0 0 148.77816620581143 -2.2297263766913602 0 -2.2297263766913602 14.933355858250252 0 0 0 0 127.51190967897492 -37.85443169956875 0 -37.85443169956875 29.479899373804983 0 0 0 0 147.2221331637702 -23.908268971641974 0 -23.908268971641974 16.360220487786137 0 0 0 0 136.43496173153289 -1.2501762225663242 0 -1.2501762225663242 20.753891640855727 0 0 0 0 92.686873042432126 -72.029513049286379 0 -72.029513049286379 40.959555291577772 0 0 0 0 128.35348306299966 -52.411106245377823 0 -52.411106245377823 11.48408472677329 0 0 0 0 108.05250391050504 -33.355700974228512 0 -33.355700974228512 29.594325638356167 0 0 0 0 82.165059643768473 -49.289614259726022 0 -49.289614259726022 11.464862085077584 0 0 0 0 100.56773496602909 -49.784703852863458 0 -49.784703852863458 -22.818202213749828 0 0 0 0 124.27580058419699 -15.967018312156597 0 -15.967018312156597 15.459937683481257 0 0 0 0 99.361721218956518 -32.248711634366828 0 -32.248711634366828 7.0785837826583702 0 0 0 0 108.47749515746182 -25.949538915654557 0 -25.949538915654557 -21.031804217393983 0 0 0 0 113.91999031918203 5.6105630591547424 0 5.6105630591547424 13.289798906012948 0 0 0 0 91.449698053838802 -32.005744442551986 0 -32.005744442551986 -16.264690491456349 0 0 0 0 96.792558516126519 -20.08445164700629 0 -20.08445164700629 -51.506709665921335 0 0 0 0 63.47007176463012 -47.413162754716268 0 -47.413162754716268 -21.287082021226375 0 0 0 0 -7.0841645162799978 -59.673507916602375 0 -59.673507916602375 -54.932996076920972 0 0 0 0 98.041080600723944 -41.949891745818832 0 -41.949891745818832 -86.882226839074974 0 0 0 0 72.111804633324937 -49.3612446087227 0 -49.3612446087227 -22.80662308553292 0 0 0 0 97.1007994639549 -54.436344299185748 0 -54.436344299185748 -81.886766804853323 0 0 0 0 65.395800439704544 -55.998432162450854 0 -55.998432162450854 -74.244073602545541 0 0 0 0 86.026017309668532 -40.436776045201441 0 -40.436776045201441 -66.650399846315395 0 0 0 0 56.676667024905328 -53.693911208818463 0 -53.693911208818463 -15.91806049193201 0 0 0 0 71.171098670629362 -71.762857014406109 0 -71.762857014406109 -68.040407605465589 0 0 0 0 86.898583472517203 -85.421689205228176 0 -85.421689205228176 -43.646363987702145 0 0 0 0 98.912284496080247 -66.010611166430465 0 -66.010611166430465 -17.000503452902194 0 0 0 0 64.3652029927689 -52.863963526534917 0 -52.863963526534917 -10.85087708797073 0 0 0 0 80.616976468343637 -76.078400284100553 0 -76.078400284100553 29.29221613880145 0 0 0 0 90.574421583929507 -83.319644176391648 0 -83.319644176391648 -13.671127790143601 0 0 0 0 93.694542508012091 -96.628558069558494 0 -96.628558069558494 4.7923160839718548 0 0 0 0 100.93335888767433 -81.096714934376564 0 -81.096714934376564 25.603702682295079 0 0 0 0 105.94389034119013 -102.10788355076284 0 -102.10788355076284 41.075556776579106 0 0 0 0 110.28035821139929 -68.21030118169665 0 -68.21030118169665 20.368435802649401 0 0 0 0 76.64339381301761 -71.025138277947917 0 -71.025138277947917 20.476150151895354 0 0 0 0 82.130088461298328 -50.315228614154648 0 -50.315228614154648 -16.136426849516283 0 0 0 0 171.76915323707726 87.038206051486213 0 87.038206051486213 -6.6044779881058275 0 0 0 0 186.90297162523893 60.157990134436204 0 60.157990134436204 -17.023479961791963 0 0 0 0 132.85425820441378 42.722902966155289 0 42.722902966155289 -26.389606261239351 0 0 0 0 136.20010698324768 66.19722860772481 0 66.19722860772481 -11.473927150364489 0 0 0 0 219.12826486869744 61.617700340163537 0 61.617700340163537 -32.667254442339072 0 0 0 0 219.48037964268588 46.352718566747171 0 46.352718566747171 -25.072925704488625 0 0 0 0 246.0358854277747 52.007764579043624 0 52.007764579043624 -28.354410135481885 0 0 0 0 253.90417760917626 44.864447906172245 0 44.864447906172245 -22.793157542146218 0 0 0 0 244.75008890855679 85.398394013237521 0 85.398394013237521 -11.443943467050303 0 0 0 0 186.49229873311197 66.959830084832902 0 66.959830084832902 32.593260053007725 0 0 0 0 359.73757631316425 65.082268988568472 0 65.082268988568472 -27.426825618191288 0 0 0 0 250.37712312578105 57.033525084816795 0 57.033525084816795 3.9706225656536844 0 0 0 0 182.41559700106063 51.679179101071782 0 51.679179101071782 -19.101423119098399 0 0 0 0 119.8718664646949 72.340325910960019 0 72.340325910960019 13.546051893094955 0 0 0 0 119.41078268433557 63.920155235092125 0 63.920155235092125 -41.737114501265751 0 0 0 0 57.474596441181347 -21.678466696394139 0 -21.678466696394139 -36.832374436288774 0 0 0 0 112.33452949753337 79.274571697887495 0 79.274571697887495 -10.203389719298798 0 0 0 0 227.03311077018225 32.092277294010273 0 32.092277294010273 -32.371812503140063 0 0 0 0 140.47251465190789 -1.7213253371536723 0 -1.7213253371536723 26.52517910149254 0 0 0 0 140.90426141497301 -8.2765145318689974 0 -8.2765145318689974 9.6812605013292341 0 0 0 0 0.20117804317465193 0.034488372340049978 0 0.034488372340049978 0.22783319819506431 0 0 0 0 68.922737069689902 99.628701048395669 0 99.628701048395669 -0.18835064492486708 0 0 0 0 238.78927437569791 0.99246944415637017 0 0.99246944415637017 -1.9157565945934039 0 0 0 0 -4.8689723677580332 47.86607022810108 0 47.86607022810108 25.919798828767853 0 0 0 0 108.7975254170824 -3.598450356417402 0 -3.598450356417402 -24.820303972638612 0 0 0 0 192.33887420703832 23.862462280709224 0 23.862462280709224 -21.769186440219528 0 0 0 0 181.69253080827184 19.670549536484032 0 19.670549536484032 -20.769933788879825 0 0 0 0 164.04207098986444 30.464680641732684 0 30.464680641732684 -11.959112519189148 0 0 0 0 0.24671844663687748 -0.33070609640233073 0 -0.33070609640233073 0.22865888514307997 0 0 0 0 188.90784327627443 -17.930709888334604 0 -17.930709888334604 -6.3142075912121527 0 0 0 0 149.2692245084163 11.257815795270517 0 11.257815795270517 15.37885284586082 0 0 0 0 151.43194811953435 8.9166407415600588 0 8.9166407415600588 17.169999771335824 0 0 0 0 163.63668755923391 13.824338363984452 0 13.824338363984452 -7.0183325814732598 0 0 0 0 197.66462078993573 -28.823343537022538 0 -28.823343537022538 -12.228177818845722 0 0 0 0 170.74989683748754 4.5553468460991553 0 4.5553468460991553 21.577432189057618 0 0 0 0 195.98556273470422 31.022774117736162 0 31.022774117736162 -8.5573485608674673 0 0 0 0 0.43199856827455996 0.36340705972614273 0 0.36340705972614273 0.27020544091221588 0 0 0 0 198.56085001859901 31.602295979094379 0 31.602295979094379 -3.9584948607107435 0 0 0 0 186.47408568249921 40.206505521491863 0 40.206505521491863 -10.008176656192518 0 0 0 0 192.06159808337543 35.454521207819653 0 35.454521207819653 5.7436836546603445 0 0 0 0 193.54843470826745 57.415688746599244 0 57.415688746599244 -7.1269910407127099 0 0 0 0 193.91085421841854 56.288297803796922 0 56.288297803796922 -11.420089711668197 0 0 0 0 190.6749417932183 62.227734369471619 0 62.227734369471619 -14.426207476397394 0 0 0 0 205.08394905695604 56.162969784474171 0 56.162969784474171 -13.802914651456376 0 0 0 0 189.54299823651672 51.617790243261879 0 51.617790243261879 -13.41047005814562 0 0 0 0 174.99224549962855 60.207945288578571 0 60.207945288578571 -18.178952610902343 0 0 0 0 194.79785345110213 60.584851501267167 0 60.584851501267167 -21.163829754396374 0 0 0 0 181.27932855022755 63.090560566162992 0 63.090560566162992 -21.185519348482558 0 0 0 0 182.55524491102187 55.336995553753695 0 55.336995553753695 -24.600577354701272 0 0 0 0 220.30910816719063 50.200402686236743 0 50.200402686236743 -29.659658803440834 0 0 0 0 196.6649776534905 68.91891924378524 0 68.91891924378524 -29.934852124455119 0 0 0 0 210.34959317550238 51.517250221274026 0 51.517250221274026 -25.324320182980955 0 0 0 0 194.83985599708831 58.311800968876469 0 58.311800968876469 -18.909476026592529 0 0 0 0 195.26495701440581 54.734797534535574 0 54.734797534535574 -25.803870106207796 0 0 0 0 204.9869842756525 41.636678838101489 0 41.636678838101489 -15.884521184643745 0 0 0 0 182.97277667971866 58.222154533032153 0 58.222154533032153 -11.470810938575141 0 0 0 0 172.28783762309831 43.237898265264448 0 43.237898265264448 -15.94319122579401 0 0 0 0 191.33962958227858 63.010771769489111 0 63.010771769489111 -8.748735942796884 0 0 0 0 152.4413076731862 59.7033555780352 0 59.7033555780352 1.5237975870841183 0 0 0 0 201.94363013678594 67.432681992746893 0 67.432681992746893 -6.9896562746112068 0 0 0 0 202.11219307173087 51.283264037505887 0 51.283264037505887 9.2264238646121157 0 0 0 0 229.95497336878907 56.355488711025373 0 56.355488711025373 -10.463369981717051 0 0 0 0 252.16997510018882 57.450490282818919 0 57.450490282818919 -16.457516412398945 0 0 0 0 299.69236360526338 71.125755171359174 0 71.125755171359174 -23.540216519215846 0 0 0 0 253.9707117435355 34.575582927702271 0 34.575582927702271 -6.8141425523739372 0 0 0 0 224.78826565741292 88.052036713765574 0 88.052036713765574 -15.818289368900423 0 0 0 0 127.26635876445471 84.402528710151159 0 84.402528710151159 12.137945414994647 0 0 0 0 182.59042849729121 -19.927253009548167 0 -19.927253009548167 -40.02775636909746 0 0 0 0 157.12787424891212 -27.58163147816208 0 -27.58163147816208 47.351489789958123 0 0 0 0 205.5630838070756 -1.3303802246180112 0 -1.3303802246180112 31.513217001503108 0 0 0 0 0.35057860630836957 -0.55577986838132887 0 -0.55577986838132887 0.45704562424014483 0 0 0 0 212.03468844358395 15.910757937586936 0 15.910757937586936 22.053685195027356 0 0 0 0 296.83530096482536 -12.15364671023292 0 -12.15364671023292 6.6998173281208437 0 0 0 0 0.38712495178171835 -0.091065792978660909 0 -0.091065792978660909 0.10350423299739475 0 0 0 0 134.72105905722128 3.5133400560590644 0 3.5133400560590644 42.630559673827975 0 0 0 0 366.8080957928214 19.511675473079322 0 19.511675473079322 -43.10411010096459 0 0 0 0 315.89254346723465 -89.723279437834208 0 -89.723279437834208 12.838836611529018 0 0 0 0 0.34049545966102146 -0.59675533191931152 0 -0.59675533191931152 0.24634074270342587 0 0 0 0 277.02605493490046 -70.039262726818492 0 -70.039262726818492 12.910128680212893 0 0 0 0 309.94362487484977 -54.210485225602497 0 -54.210485225602497 -13.691981861259364 0 0 0 0 215.49064914543305 22.745190277975226 0 22.745190277975226 -42.003171383536937 0 0 0 0 333.554625512028 25.746127805881201 0 25.746127805881201 -33.586637044458712 0 0 0 0 304.46228736583726 -41.946244537576149 0 -41.946244537576149 -10.10972318244103 0 0 0 0 347.17938260917708 -18.765500741580865 0 -18.765500741580865 -5.3214677210953596 0 0 0 0 335.88819548136053 -16.543966899054908 0 -16.543966899054908 16.592579767935149 0 0 0 0 267.78411656396474 -62.885205440621519 0 -62.885205440621519 -13.135422190769987 0 0 0 0 340.77273547128061 -42.33493127392012 0 -42.33493127392012 -87.932621540251603 0 0 0 0 45.6538079076945 67.732624235528192 0 67.732624235528192 26.111416724947617 0 0 0 0 312.13241825168643 162.792226035591 0 162.792226035591 14.753259444006289 0 0 0 0 397.70077670240426 -1.3475203480797973 0 -1.3475203480797973 -28.401287990783203 0 0 0 0 2.1280896555335431 0.29778380715551478 0 0.29778380715551478 -0.38791419121986248 0 0 0 0 106.99522433585116 -128.83097976617864 0 -128.83097976617864 -98.564187150598855 0 0 0 0 334.71579364338231 47.105125473155482 0 47.105125473155482 -16.561028645529404 0 0 0 0 315.65683596344934 -12.968723138651967 0 -12.968723138651967 -68.918901246423729 0 0 0 0 151.29776480866803 53.126499351712852 0 53.126499351712852 17.338460403163481 0 0 0 0 168.66349801918113 -16.023630397311308 0 -16.023630397311308 -2.4299618588381691 0 0 0 0 376.923252881792 30.560898004200908 0 30.560898004200908 -58.21494557466599 0 0 0 0 347.88107578860399 37.336080217577432 0 37.336080217577432 -11.997425979999889 0 0 0 0 344.91306103711031 35.352063881402273 0 35.352063881402273 -5.2427585572574458 0 0 0 0 364.85231375485273 18.989308311730952 0 18.989308311730952 -58.338511143637106 0 0 0 0 369.42790508120743 -0.36708289849400444 0 -0.36708289849400444 -1.2376006215393147 0 0 0 0 473.47758945575515 35.853484730614923 0 35.853484730614923 -79.095222028899116 0 0 0 0 328.18389052934435 71.058863554042318 0 71.058863554042318 -75.489146503137135 0 0 0 0 366.52565056602043 56.892011911384415 0 56.892011911384415 -22.676968815845044 0 0 0 0 373.73414871926298 28.446063506568194 0 28.446063506568194 -35.695308808037908 0 0 0 0 160.81643084883217 31.959499012488834 0 31.959499012488834 33.269825942869602 0 0 0 0 295.46928934288917 19.070607050123158 0 19.070607050123158 -30.944171864118914 0 0 0 0 290.43365840340812 44.089372649637141 0 44.089372649637141 -10.763592035823876 0 0 0 0 243.20477326845867 79.544895071363698 0 79.544895071363698 27.463883794287323 0 0 0 0 200.17346875640578 75.8073441085117 0 75.8073441085117 27.825023715060979 0 0 0 0 159.17621160023555 126.32482709975316 0 126.32482709975316 108.66785036672047 0 0 0 0 147.62877829404533 85.696409215289492 0 85.696409215289492 107.20791807348313 0 0 0 0 166.25781308823434 160.66529150508646 0 160.66529150508646 157.51580237327798 0 0 0 0 137.76300785500462 98.331421807834573 0 98.331421807834573 106.63663869760751 0 0 0 0 426.42408432781122 332.70199727851411 0 332.70199727851411 270.78854295697226 0 0 0 0 346.41395512329836 152.62395575370289 0 152.62395575370289 43.81698306610059 0 0 0 0 346.0907671264298 72.287792872851853 0 72.287792872851853 29.951039529209652 0 0 0 0 393.51504129875684 63.507969389449315 0 63.507969389449315 -27.685908467748348 0 0 0 0 313.69948893137189 64.652827942631347 0 64.652827942631347 -5.7420805513735615 0 0 0 0 372.11455937793608 8.2918435450332382 0 8.2918435450332382 48.356247739423679 0 0 0 0 336.82874279675525 69.509730160084018 0 69.509730160084018 62.003550142095463 0 0 0 0 455.37628576074894 -29.640662889630129 0 -29.640662889630129 128.03446923793132 0 0 0 0 583.74587472082385 146.87688862326974 0 146.87688862326974 49.999449466051097 0 0 0 0 467.78624925966142 74.129291665013625 0 74.129291665013625 172.37882325994264 0 0 0 0 321.022777206912 -55.458143189747879 0 -55.458143189747879 135.29521949371758 0 0 0 0 543.68323621339732 88.715281871266598 0 88.715281871266598 74.041349023476698 0 0 0 0 541.97700797175276 32.801502699058432 0 32.801502699058432 -23.414303638960462 0 0 0 0 20.877342131479963 -25.971843798744374 0 -25.971843798744374 126.00365231071669 0 0 0 0 32.848635678634309 46.270382484297613 0 46.270382484297613 -41.912656064138559 0 0 0 0 24.893260416210978 58.327763916733645 0 58.327763916733645 45.646583768944311 0 0 0 0 160.85074240104223 -151.54675733095252 0 -151.54675733095252 -49.166887089393811 0 0 0 0 3.4080085786443988 -0.43478869315789126 0 -0.43478869315789126 -0.24268513293719052 0 0 0 0 138.56460843637979 -31.424624289629861 0 -31.424624289629861 166.31908128939807 0 0 0 0 145.62478956913355 -81.467651769725776 0 -81.467651769725776 170.01555712922061 0 0 0 0 185.36116987548303 -91.618394849102103 0 -91.618394849102103 218.26100636649832 0 0 0 0 266.30289507426278 30.037597463401006 0 30.037597463401006 179.06797484232223 0 0 0 0 265.64690785580751 -53.110320163864323 0 -53.110320163864323 169.40754169341184 0 0 0 0 120.7878938610811 -25.859032153133512 0 -25.859032153133512 227.82167064731328 0 0 0 0 305.22832554699926 -23.25408365035716 0 -23.25408365035716 186.00925409042378 0 0 0 0 196.73953025720584 27.305651540215734 0 27.305651540215734 168.19347068323552 0 0 0 0 182.89473484102564 -8.9426972919222862 0 -8.9426972919222862 160.87270812431535 0 0 0 0 317.12556219105727 -14.837997140280079 0 -14.837997140280079 108.02287165187747 0 0 0 0 158.77242772460522 53.08059280699149 0 53.08059280699149 78.895361684346028 0 0 0 0 167.62065662700115 -30.274922218382983 0 -30.274922218382983 67.438064763075658 0 0 0 0 96.291069626557146 -5.0958073505375694 0 -5.0958073505375694 133.4384120889658 0 0 0 0 204.15955511859465 -15.931336249033478 0 -15.931336249033478 134.49505908874687 0 0 0 0 75.176761857030215 -75.348715615089148 0 -75.348715615089148 58.068753093302576 0 0 0 0 150.06396108047375 -40.030472772286572 0 -40.030472772286572 67.379135530234919 0 0 0 0 223.58579433154955 -31.029083646718732 0 -31.029083646718732 -59.84159947187527 0 0 0 0 113.24394884196136 21.756467640421064 0 21.756467640421064 21.632458679541173 0 0 0 0 -54.722156909065234 -24.72847856503013 0 -24.72847856503013 15.405921983495887 0 0 0 0 2.0515476431301209 -0.07947159996913733 0 -0.07947159996913733 -0.39479886100855399 0 0 0 0 87.772611080241404 -162.78545210538533 0 -162.78545210538533 -151.75833651324592 0 0 0 0 224.21305541023321 136.27753731298708 0 136.27753731298708 -20.603056293426732 0 0 0 0 301.19887485193976 28.831714912744474 0 28.831714912744474 -27.821263211547951 0 0 0 0 317.7797923497144 48.908685860155209 0 48.908685860155209 -29.380760045398688 0 0 0 0 4.1744453059210684 -0.31810015943802128 0 -0.31810015943802128 -0.68277419853403454 0 0 0 0 112.39614584204901 -33.110827947919859 0 -33.110827947919859 -163.37321820238105 0 0 0 0 62.891908580957534 112.5792666581159 0 112.5792666581159 12.321652616380106 0 0 0 0 2.3719379679181998 0.03698441312138101 0 0.03698441312138101 -0.49109687359739906 0 0 0 0 371.16467597325391 165.89950670565565 0 165.89950670565565 -24.1853698267048 0 0 0 0 40.976297968489234 -151.88962017762867 0 -151.88962017762867 -129.3554300204147 0 0 0 0 46.48560463997876 36.485257900756302 0 36.485257900756302 -95.380420628099273 0 0 0 0 319.60958278381804 -69.424868144103982 0 -69.424868144103982 -117.76521772256638 0 0 0 0 68.809037083001613 30.168049042632433 0 30.168049042632433 -90.672930924818957 0 0 0 0 62.956768534604635 -12.128904471414671 0 -12.128904471414671 -153.29890013289446 0 0 0 0 64.94209112725548 -9.1156727847362617 0 -9.1156727847362617 -68.935218505466423 0 0 0 0 102.85735909214964 -10.327139467152165 0 -10.327139467152165 -140.49198385797922 0 0 0 0 166.06449251703089 26.759741934396288 0 26.759741934396288 -121.3390576124425 0 0 0 0 136.12084919523022 -53.719207525285668 0 -53.719207525285668 -185.95457740002598 0 0 0 0 131.95938215607384 -10.84420040017028 0 -10.84420040017028 -133.29089044741659 0 0 0 0 124.31896806349687 -78.831060931355296 0 -78.831060931355296 -257.8603263831302 0 0 0 0 44.164980708845178 -83.9264329478126 0 -83.9264329478126 -148.76936739457051 0 0 0 0 -41.72774251615192 -113.36828191135623 0 -113.36828191135623 -151.65600207415264 0 0 0 0 52.552267512928665 -65.346993352047548 0 -65.346993352047548 -129.46297470222805 0 0 0 0 -46.794220742223843 -140.75978161493771 0 -140.75978161493771 -292.44909264677744 0 0 0 0 -214.22660474422446 -97.903380019584347 0 -97.903380019584347 -54.832314945484541 0 0 0 0 1.0815550784913412 1.2317666158839486 0 1.2317666158839486 -2.7896956036073925 0 0 0 0 -6.2900326365615911 -37.516293433560861 0 -37.516293433560861 -204.01149389680222 0 0 0 0 0.45322825382523391 2.8379435286135219 0 2.8379435286135219 -12.384534770057869 0 0 0 0 44.569119595420489 -7.4537618190495323 0 -7.4537618190495323 -20.809251964055875 0 0 0 0 14.989968267880613 0.47296771919877756 0 0.47296771919877756 -15.574057457220306 0 0 0 0 -72.392458250078562 95.801473429237205 0 95.801473429237205 -67.252046007587751 0 0 0 0 -334.65420515289952 -343.69990925591043 0 -343.69990925591043 -241.84570933092192 0 0 0 0 -0.94468149360948672 1.5403294342121043 0 1.5403294342121043 -4.0457019342849616 0 0 0 0 -12.123605755255994 -10.304751162483171 0 -10.304751162483171 14.043049140624134 0 0 0 0 -191.22241223128731 -154.56021629262108 0 -154.56021629262108 -169.05653414019696 0 0 0 0 -182.23021406308544 -192.93597541691344 0 -192.93597541691344 -99.310853734423347 0 0 0 0 27.239395151915232 -76.90298695653604 0 -76.90298695653604 -336.48890341523537 0 0 0 0 -36.89044394604025 27.208534683096161 0 27.208534683096161 -61.133442213799981 0 0 0 0 -19.37528224574271 -36.549530064707994 0 -36.549530064707994 -512.49540995487109 0 0 0 0 -224.15729396742245 30.148804946266466 0 30.148804946266466 49.794190661302423 0 0 0 0 33.190147545705258 -61.834438301825003 0 -61.834438301825003 43.496316190254419 0 0 0 0 34.525974776793419 -22.409696338946322 0 -22.409696338946322 -29.333925673484828 0 0 0 0 100.95556969214158 6.4828728953990549 0 6.4828728953990549 63.428707061881141 0 0 0 0 26.586194351551967 54.545555082830333 0 54.545555082830333 33.096667691681205 0 0 0 0 181.55712961045356 53.845178264846766 0 53.845178264846766 7.006260108144545 0 0 0 0 113.0646473033521 -3.7052095657596738 0 -3.7052095657596738 49.157546311195233 0 0 0 0 272.10808063346485 -37.986698475117848 0 -37.986698475117848 -140.49726260648504 0 0 0 0 115.04817938437554 -14.438979606091038 0 -14.438979606091038 -112.73187471931874 0 0 0 0 31.556641307518589 -3.2002928359909859 0 -3.2002928359909859 -98.716076324978303 0 0 0 0 262.35473250217001 -183.99868275520282 0 -183.99868275520282 -31.545894912254653 0 0 0 0 224.44955574219784 -190.82689397338493 0 -190.82689397338493 -22.983178964993755 0 0 0 0 205.65696441247565 -201.72554279269889 0 -201.72554279269889 25.005002883645261 0 0 0 0 254.23236624876699 -176.902735774093 0 -176.902735774093 -6.8479918519947205 0 0 0 0 454.71068095878582 -175.67589259787655 0 -175.67589259787655 -6.9829407341636625 0 0 0 0 273.93731604178174 -234.9025311591995 0 -234.9025311591995 67.53302560125212 0 0 0 0 483.14962626134002 -194.23268271408551 0 -194.23268271408551 207.14499081193571 0 0 0 0 588.20652857361711 -248.61910142268925 0 -248.61910142268925 67.902282259666208 0 0 0 0 645.83391363686678 -510.53721596230969 0 -510.53721596230969 291.23761988399747 0 0 0 0 -276.10763838653656 -273.87917021574776 0 -273.87917021574776 543.60803094232779 0 0 0 0 721.77118019879708 -364.8722615463771 0 -364.8722615463771 430.99937890645924 0 0 0 0 780.66222021883186 -20.645929991861749 0 -20.645929991861749 304.50912021646036 0 0 0 0 49.72722320912726 -166.61255647467124 0 -166.61255647467124 233.58094049764031 0 0 0 0 -62.946376624415279 7.4034217389880723 0 7.4034217389880723 110.33716456602087 0 0 0 0 -6.6452671550214291 -33.262370824515529 0 -33.262370824515529 -30.380152944224847 0 0 0 0 133.75454532434378 -351.25337729862167 0 -351.25337729862167 254.45831170974407 0 0 0 0 133.20903050144989 -187.33168100993817 0 -187.33168100993817 130.82500639331738 0 0 0 0 35.863453238904185 -67.680167850452563 0 -67.680167850452563 72.07587044266802 0 0 0 0 133.44645633166328 -154.31051860314938 0 -154.31051860314938 81.336925316895758 0 0 0 0 190.36382971755302 -173.05338071056008 0 -173.05338071056008 20.231001420482244 0 0 0 0 115.8179798500114 -205.55465253896602 0 -205.55465253896602 149.79557624932932 0 0 0 0 272.41999384179508 -243.8598192144218 0 -243.8598192144218 69.229083430675928 0 0 0 0 124.80752164815931 -112.12104717201521 0 -112.12104717201521 16.755707252581487 0 0 0 0 112.9027428458503 -158.02244683754134 0 -158.02244683754134 89.523590337719725 0 0 0 0 62.537541286044871 -114.32225344622202 0 -114.32225344622202 118.31945726973845 0 0 0 0 63.141710572108423 -67.475533559207406 0 -67.475533559207406 44.295226406029087 0 0 0 0 85.768756364190267 -77.332116385847712 0 -77.332116385847712 38.124693876985475 0 0 0 0 48.492134007217828 -43.5037223579493 0 -43.5037223579493 32.428911691557687 0 0 0 0 71.241867092845496 -73.636956666921833 0 -73.636956666921833 44.458329264398344 0 0 0 0 44.335514520582365 -21.908355157426854 0 -21.908355157426854 2.6866332372092074 0 0 0 0 88.058144822465692 -57.668182744237583 0 -57.668182744237583 4.0203267502438393 0 0 0 0 128.64322179406008 -113.91403190556912 0 -113.91403190556912 17.571890116728355 0 0 0 0 107.66186064121212 -70.841240345144286 0 -70.841240345144286 -35.70684310842671 0 0 0 0 161.18571104951025 -118.45532132096841 0 -118.45532132096841 -55.264619207728174 0 0 0 0 166.72142673581402 -155.30337098981863 0 -155.30337098981863 -7.5114765772141254 0 0 0 0 184.04197596757149 -155.01930014100458 0 -155.01930014100458 -40.540594844793077 0 0 0 0 211.78685610144021 -186.91336126620416 0 -186.91336126620416 -26.418541503264606 0 0 0 0 206.86235045507055 -145.04793081592808 0 -145.04793081592808 -117.96586679341368 0 0 0 0 182.73582595556582 -71.366822550913298 0 -71.366822550913298 -125.34530127812513 0 0 0 0 166.79136035457486 -117.244957474172 0 -117.244957474172 -58.306529570454131 0 0 0 0 142.00882985115459 -9.2146812884041651 0 -9.2146812884041651 -218.49851589042726 0 0 0 0 81.3474288599391 -19.900865167874144 0 -19.900865167874144 -64.296046707958112 0 0 0 0 79.974539105688109 -6.1503051805388793 0 -6.1503051805388793 -91.725260260796858 0 0 0 0 104.50075707471842 -63.417946725775437 0 -63.417946725775437 -13.71244950826167 0 0 0 0 92.4815674439742 -26.85932950451172 0 -26.85932950451172 -60.069556513355565 0 0 0 0 63.1979554758218 -29.501006726483411 0 -29.501006726483411 -20.348888597827568 0 0 0 0 37.378355362321599 -6.153832173338742 0 -6.153832173338742 -13.786341541166621 0 0 0 0 68.418833249212184 -23.243120573772785 0 -23.243120573772785 -15.625217444579903 0 0 0 0 22.915130968318408 4.0899090957507269 0 4.0899090957507269 -18.147212568991108 0 0 0 0 45.469956302995342 -3.6610275718698517 0 -3.6610275718698517 -23.941925778711266 0 0 0 0 44.951669189322274 -5.3013953400652554 0 -5.3013953400652554 -26.421598382024513 0 0 0 0 20.326887111004908 7.3358635530792071 0 7.3358635530792071 -16.772282641433776 0 0 0 0 21.673165827101911 21.302354859389197 0 21.302354859389197 -50.08547574593922 0 0 0 0 15.953002871563513 4.2632959848037899 0 4.2632959848037899 -18.251656633904076 0 0 0 0 -35.629946842193021 57.530958928495863 0 57.530958928495863 -60.561077504243713 0 0 0 0 74.281301821287343 25.934228196991285 0 25.934228196991285 -120.26370070471944 0 0 0 0 81.187408289755695 4.7194448476664661 0 4.7194448476664661 -103.20468707556404 0 0 0 0 4.111312826134963 157.10910175223358 0 157.10910175223358 -273.8325601107382 0 0 0 0 209.5117108633749 -63.233058746957454 0 -63.233058746957454 -480.3149359570707 0 0 0 0 -132.0806869520743 -349.95777768283898 0 -349.95777768283898 -150.26048003295386 0 0 0 0 225.07864410606635 -125.03717180751437 0 -125.03717180751437 -13.330008400612257 0 0 0 0 19.336340658213885 -259.32863805798911 0 -259.32863805798911 167.6457759752617 0 0 0 0 152.50986938410279 -217.06284779235278 0 -217.06284779235278 112.61819004382494 0 0 0 0 433.03797819799001 -99.793167336726356 0 -99.793167336726356 155.01768512346609 0 0 0 0 328.70838740553518 -264.15852238443892 0 -264.15852238443892 -128.44545124233593 0 0 0 0 218.83671568632781 -160.16005517211988 0 -160.16005517211988 -118.27331160389821 0 0 0 0 242.3320759138951 -162.02642503034286 0 -162.02642503034286 -187.63642849711221 0 0 0 0 252.47199144011029 -210.56320149960101 0 -210.56320149960101 -88.688324086826697 0 0 0 0 216.53562721211711 -218.21912116621868 0 -218.21912116621868 -44.524608458444163 0 0 0 0 225.78097647716277 -192.30325262226461 0 -192.30325262226461 -51.73349378744058 0 0 0 0 219.15462599577222 -222.70920413550553 0 -222.70920413550553 -36.897511668246921 0 0 0 0 249.77009297483164 -315.86053783459596 0 -315.86053783459596 85.194463799746018 0 0 0 0 225.92042920571112 -259.65818360788001 0 -259.65818360788001 -37.78449035517157 0 0 0 0 186.36564650421133 -249.34383236972462 0 -249.34383236972462 110.10963807270207 0 0 0 0 141.22838246327592 -218.66844879077189 0 -218.66844879077189 75.172257111600857 0 0 0 0 184.1726892209299 -270.71991066433611 0 -270.71991066433611 127.81194917236508 0 0 0 0 191.64226885679818 -257.25304525273862 0 -257.25304525273862 57.819090695598561 0 0 0 0 174.79204159994333 -220.68924324158746 0 -220.68924324158746 2.1823964727602743 0 0 0 0 120.59160660232737 -191.46716057023195 0 -191.46716057023195 52.670672543586761 0 0 0 0 142.81516637043023 -208.18369984830821 0 -208.18369984830821 64.952451807048419 0 0 0 0 58.688230029139959 -153.91849923045174 0 -153.91849923045174 130.33839116396803 0 0 0 0 50.754974117113306 -110.06928347376675 0 -110.06928347376675 41.736737209649164 0 0 0 0 74.600662137047038 -112.25792593795586 0 -112.25792593795586 32.424359263153292 0 0 0 0 126.33202462603549 -146.94130337082947 0 -146.94130337082947 4.8371478590549941 0 0 0 0 113.27200632560925 -146.70578140999464 0 -146.70578140999464 9.1992313200919398 0 0 0 0 180.36800741649608 -149.60901492324618 0 -149.60901492324618 -22.913175380359945 0 0 0 0 219.17724111025018 -209.85847774532556 0 -209.85847774532556 -18.100618875286102 0 0 0 0 186.26887479078869 -208.727825184827 0 -208.727825184827 -10.007662485056191 0 0 0 0 222.98722470642315 -199.31709205096627 0 -199.31709205096627 -32.248990046606309 0 0 0 0 248.05586039987065 -152.01596945863452 0 -152.01596945863452 -24.253984678458892 0 0 0 0 10.849157222521626 1.3602435268761841 0 1.3602435268761841 -6.1551030926063959 0 0 0 0 10.796918096230002 -0.26721494772863252 0 -0.26721494772863252 -5.912490956588897 0 0 0 0 56.805221291382622 -57.087888039056907 0 -57.087888039056907 66.807778562800877 0 0 0 0 -1.5540216166227765 -53.837080514279705 0 -53.837080514279705 79.096376747829709 0 0 0 0 23.436978818317584 -116.93191593347683 0 -116.93191593347683 105.03467049949177 0 0 0 0 0.10250180574250578 0.8476116221487735 0 0.8476116221487735 -0.75333948684453755 0 0 0 0 24.743793488920346 -99.346600326329735 0 -99.346600326329735 152.87112936548965 0 0 0 0 13.40813630149205 -3.7274227138941569 0 -3.7274227138941569 171.14694858852113 0 0 0 0 9.6363641518135665 -3.4528772028066079 0 -3.4528772028066079 -2.4960233748070046 0 0 0 0 59.679073515040727 -196.03279507357615 0 -196.03279507357615 260.4741729955681 0 0 0 0 1.097656366128831 -90.744502998985539 0 -90.744502998985539 562.09157141190508 0 0 0 0 7.4838660434142881 -1.527744174230115 0 -1.527744174230115 -2.1928719672855186 0 0 0 0 17.073699841535927 -4.0563669483452998 0 -4.0563669483452998 19.577011106656073 0 0 0 0 2.9436266556804185 27.828863070183502 0 27.828863070183502 54.934478532681169 0 0 0 0 264.07060239426937 -7.5894219538690777 0 -7.5894219538690777 20.371236023933761 0 0 0 0 7.115372183346679 0.84114955050832663 0 0.84114955050832663 -0.19242570732276443 0 0 0 0 72.43270497834601 16.630126285933329 0 16.630126285933329 -4.9602910949879515 0 0 0 0 -36.366571516518889 10.234451560042885 0 10.234451560042885 13.37297189617027 0 0 0 0 41.398579780518048 -246.34077366444512 0 -246.34077366444512 352.12977113717716 0 0 0 0 124.74615302258826 -334.78378691766943 0 -334.78378691766943 406.13054127464056 0 0 0 0 202.92311527088168 -299.74174154543834 0 -299.74174154543834 254.59037431990555 0 0 0 0 3.0969957903096699 -1.3444852627284156 0 -1.3444852627284156 0.70914697109190072 0 0 0 0 493.28261261734588 -197.11851447442723 0 -197.11851447442723 33.271102207657464 0 0 0 0 394.88030226214687 -459.37120969073931 0 -459.37120969073931 320.22076700499883 0 0 0 0 143.55498186629848 -199.59715982450598 0 -199.59715982450598 487.75284170643749 0 0 0 0 348.21854286788221 -440.51486587494537 0 -440.51486587494537 341.9556696799591 0 0 0 0 214.71801233859151 -395.72354025787081 0 -395.72354025787081 488.97606137942762 0 0 0 0 171.40913806802564 -306.49197876137953 0 -306.49197876137953 334.83045411070816 0 0 0 0 166.94782966221464 -152.49659359886911 0 -152.49659359886911 244.85578464616583 0 0 0 0 227.54412207286077 -290.59603952505154 0 -290.59603952505154 274.69171046809709 0 0 0 0 300.81242344187922 -473.83649012135129 0 -473.83649012135129 481.06883448821679 0 0 0 0 2.5918398060337893 0.43127829533527873 0 0.43127829533527873 0.39894625243162229 0 0 0 0 217.21221316402443 -313.62197437473083 0 -313.62197437473083 330.78607828646 0 0 0 0 303.33694929610647 -364.19837701908409 0 -364.19837701908409 325.98745129220845 0 0 0 0 223.89289218588692 -404.6495498007784 0 -404.6495498007784 355.09193119236443 0 0 0 0 558.09373972821777 -339.50315951831521 0 -339.50315951831521 290.18222245147035 0 0 0 0 -24.70004677088582 50.129980747689615 0 50.129980747689615 147.41790538200189 0 0 0 0 125.40516495520365 101.04901495577712 0 101.04901495577712 47.504283528103315 0 0 0 0 145.89178251637395 -219.387573918973 0 -219.387573918973 299.00147715568482 0 0 0 0 77.993411769079103 45.396009130180801 0 45.396009130180801 -18.625017448756296 0 0 0 0 54.95149369774299 19.336378639493319 0 19.336378639493319 -28.483779229690242 0 0 0 0 0.079012440773150061 -0.1167348944254627 0 -0.1167348944254627 0.28125204551493255 0 0 0 0 86.114717504832697 47.548567773094277 0 47.548567773094277 17.722480057177563 0 0 0 0 -53.123030684438163 26.674085296089089 0 26.674085296089089 106.40660143290006 0 0 0 0 51.440309421588609 12.941679586152873 0 12.941679586152873 8.4533459881040471 0 0 0 0 32.998840891792497 14.228215419801927 0 14.228215419801927 12.213551697830894 0 0 0 0 29.640321042705182 18.677647374760454 0 18.677647374760454 14.023967619757741 0 0 0 0 22.701730266664526 13.275113740214692 0 13.275113740214692 10.655388496713385 0 0 0 0 13.318954960937845 15.44686582911163 0 15.44686582911163 16.605357732772859 0 0 0 0 31.843591807453777 26.919789707872155 0 26.919789707872155 13.908758501815555 0 0 0 0 77.241057085175271 -38.77129912401665 0 -38.77129912401665 166.51023642085812 0 0 0 0 53.592004775571695 -58.720374434358121 0 -58.720374434358121 274.92179103960291 0 0 0 0 125.46612742851721 -54.074034391513521 0 -54.074034391513521 142.80913700774056 0 0 0 0 103.88038391699592 -37.625908762050472 0 -37.625908762050472 149.23908171310791 0 0 0 0 99.733633476484101 -67.396538334544459 0 -67.396538334544459 202.03229917333613 0 0 0 0 79.165673468435671 31.205074792207739 0 31.205074792207739 77.480696907460697 0 0 0 0 107.73707753849521 -45.853023932258736 0 -45.853023932258736 156.15336343938333 0 0 0 0 13.795238323549711 59.960881342314906 0 59.960881342314906 63.32403248297544 0 0 0 0 40.636763623388106 -19.27618813222216 0 -19.27618813222216 211.93879353469629 0 0 0 0 -40.164930516648383 -48.218669360287663 0 -48.218669360287663 202.95525471245583 0 0 0 0 -20.59812013581768 -41.21842655472885 0 -41.21842655472885 186.57575215632187 0 0 0 0 71.55190514836795 -11.311101029661813 0 -11.311101029661813 204.79954193694391 0 0 0 0 109.60314144229051 -164.70976138711444 0 -164.70976138711444 247.97790533801509 0 0 0 0 91.604781807163818 -159.39225862737675 0 -159.39225862737675 293.37493192396641 0 0 0 0 185.2495248330597 -186.85828967455404 0 -186.85828967455404 365.36785094071365 0 0 0 0 172.10610009286393 -65.035486078833173 0 -65.035486078833173 302.94721987315029 0 0 0 0 351.84241501163342 -181.99232936129812 0 -181.99232936129812 270.59206146258794 0 0 0 0 370.38708075559953 -70.080544894637796 0 -70.080544894637796 353.44926033192587 0 0 0 0 74.217625623481581 -29.806599275828148 0 -29.806599275828148 195.94065451003172 0 0 0 0 56.068024859774596 -97.468748906155611 0 -97.468748906155611 316.89921030424227 0 0 0 0 173.45045769011085 -194.13773222098379 0 -194.13773222098379 189.68421582830626 0 0 0 0 81.773293014930459 -120.81116270027402 0 -120.81116270027402 279.72882283727972 0 0 0 0 89.518457869942722 -120.64083128578216 0 -120.64083128578216 241.54060335217218 0 0 0 0 191.73790027213909 -236.30073898772764 0 -236.30073898772764 286.15095643656866 0 0 0 0 0.6366224399839453 -0.65136347776854819 0 -0.65136347776854819 0.55056459374553324 0 0 0 0 104.48171771932539 -171.20110077668789 0 -171.20110077668789 391.21947347194623 0 0 0 0 90.365284356394113 52.137435636036741 0 52.137435636036741 -31.501973415807527 0 0 0 0 291.42214486045123 -130.32567769006312 0 -130.32567769006312 73.151975420811141 0 0 0 0 125.38434852478895 -103.56366918867559 0 -103.56366918867559 142.46917383955071 0 0 0 0 116.91186200837546 -110.62251657907572 0 -110.62251657907572 204.58964635706369 0 0 0 0 94.131809742479163 -112.06935794633972 0 -112.06935794633972 204.72101755580763 0 0 0 0 122.17974084981688 -88.885953086912139 0 -88.885953086912139 194.42727865421523 0 0 0 0 116.51710389358414 -82.331749768362386 0 -82.331749768362386 191.63483114993426 0 0 0 0 181.42583154287058 -80.694264971489275 0 -80.694264971489275 190.03257573179064 0 0 0 0 192.36148376541655 -75.25219847756577 0 -75.25219847756577 149.72426614233257 0 0 0 0 125.73215485334367 -115.106434078999 0 -115.106434078999 189.3033921959711 0 0 0 0 69.493110371135117 3.7982027955282831 0 3.7982027955282831 90.71300532801547 0 0 0 0 76.38089620854953 -72.930632052090488 0 -72.930632052090488 186.08007808210272 0 0 0 0 126.51178887976766 -99.868701317811443 0 -99.868701317811443 123.32167763053087 0 0 0 0 89.935269810775935 -49.60775577947993 0 -49.60775577947993 158.25884180601275 0 0 0 0 105.27052629387617 -12.947657587421759 0 -12.947657587421759 62.547047939918457 0 0 0 0 177.04723541923886 -63.499930920950675 0 -63.499930920950675 67.89905094281221 0 0 0 0 63.517543677051435 27.306849821919741 0 27.306849821919741 34.787706961794783 0 0 0 0 42.16540941931089 21.061185177139976 0 21.061185177139976 65.553172559284349 0 0 0 0 32.57435689797785 26.861849784576805 0 26.861849784576805 74.405480830105887 0 0 0 0 32.324284678831788 48.257358208973926 0 48.257358208973926 45.742225402798795 0 0 0 0 81.683764745499502 2.6595161206286093 0 2.6595161206286093 71.817572756640459 0 0 0 0 5.9577396894837875 31.365900940981589 0 31.365900940981589 77.607988161146295 0 0 0 0 36.689459887831617 65.711021265643524 0 65.711021265643524 16.764976687163426 0 0 0 0 34.967529591551283 53.2659435340492 0 53.2659435340492 52.47130891236668 0 0 0 0 23.874785714062455 58.187291420734141 0 58.187291420734141 51.22060712014968 0 0 0 0 14.711947979725664 81.129289660429379 0 81.129289660429379 -34.434901630063791 0 0 0 0 20.577695424082776 48.414356562993362 0 48.414356562993362 9.9487118665313119 0 0 0 0 0.57970462181037874 23.687673566634373 0 23.687673566634373 -31.070837226909873 0 0 0 0 25.668720492940338 74.008666009835082 0 74.008666009835082 9.6615158729691757 0 0 0 0 2.5354911831273057 -51.379860856184564 0 -51.379860856184564 81.736694827268991 0 0 0 0 105.63931955164662 39.409864029573214 0 39.409864029573214 -60.746967924416253 0 0 0 0 153.72658857231602 -9.5933117778217749 0 -9.5933117778217749 87.969737528493113 0 0 0 0 33.505637392961944 12.191699909402814 0 12.191699909402814 4.164105089020893 0 0 0 0 33.087163543841598 13.86806297400085 0 13.86806297400085 4.0342182312708701 0 0 0 0 34.783747728619346 12.811361961241346 0 12.811361961241346 2.5677415796169498 0 0 0 0 31.443249741641921 13.380636783852765 0 13.380636783852765 2.6211707887280227 0 0 0 0 29.218198006004968 15.696995447106701 0 15.696995447106701 9.6876508773075329 0 0 0 0 32.450124541519472 15.149439661000429 0 15.149439661000429 4.0675527854930351 0 0 0 0 33.553395705770527 18.008142718609975 0 18.008142718609975 10.201521375704317 0 0 0 0 41.80541652361353 17.591765173198894 0 17.591765173198894 0.91677500928881273 0 0 0 0 19.517539229542308 4.8353435878447044 0 4.8353435878447044 5.6148642033028864 0 0 0 0 31.62143195049066 8.2245279907273243 0 8.2245279907273243 -4.5424269479822215 0 0 0 0 123.34686105857327 49.957625436706337 0 49.957625436706337 19.152866557304414 0 0 0 0 47.069058624457284 32.257895105449762 0 32.257895105449762 1.0160670392795055 0 0 0 0 80.284537181571068 9.8105593729661678 0 9.8105593729661678 11.753223260634542 0 0 0 0 0.074417543321853685 0.068203224499121973 0 0.068203224499121973 0.63784501738477761 0 0 0 0 91.509048278119735 41.33024033526641 0 41.33024033526641 -18.34759834162287 0 0 0 0 -13.030739050986085 -0.060936746338626335 0 -0.060936746338626335 63.499985097901401 0 0 0 0 0.73708719332974226 -0.84187512398144548 0 -0.84187512398144548 1.0153061849815295 0 0 0 0 42.273047729904647 27.936516727541914 0 27.936516727541914 17.787874992353295 0 0 0 0 38.689828987142391 54.107452286383818 0 54.107452286383818 33.571239726608098 0 0 0 0 50.209936761570134 64.774863026630101 0 64.774863026630101 33.194410177446343 0 0 0 0 40.191359428208671 56.242810779859894 0 56.242810779859894 12.51167384055384 0 0 0 0 41.9614995840966 48.191375569772703 0 48.191375569772703 48.948185350885524 0 0 0 0 37.343457037630287 67.805743796320229 0 67.805743796320229 -2.7402309130641243 0 0 0 0 47.799404385623347 35.309512589644612 0 35.309512589644612 -20.242510533958921 0 0 0 0 50.925324856223597 53.92166574475732 0 53.92166574475732 22.911086990542344 0 0 0 0 82.933154553524218 24.906055198318995 0 24.906055198318995 -6.2367952782793736 0 0 0 0 67.20298487956461 29.628981485920349 0 29.628981485920349 -7.3181330525161457 0 0 0 0 90.547213355137501 28.722897937524863 0 28.722897937524863 -11.038907609879857 0 0 0 0 122.41957831034961 26.403694274336317 0 26.403694274336317 11.327379516505744 0 0 0 0 113.54205241727686 73.479244935314355 0 73.479244935314355 50.227812918669997 0 0 0 0 83.41242676609113 38.623729096008759 0 38.623729096008759 8.116974156150718 0 0 0 0 0.35541845255440307 -0.23333757540068945 0 -0.23333757540068945 0.3653652956093647 0 0 0 0 50.323773193238594 62.103368745357557 0 62.103368745357557 53.038025236274962 0 0 0 0 68.505411591755546 24.649240794600985 0 24.649240794600985 69.905953591692878 0 0 0 0 3.9952849948931544 11.293844717420086 0 11.293844717420086 25.026374278564845 0 0 0 0 0.11728558594025884 -0.025877287909743529 0 -0.025877287909743529 0.29107739231338003 0 0 0 0 124.01434136187527 55.352583726925559 0 55.352583726925559 56.907458511394225 0 0 0 0 26.500872183933097 15.446238443314769 0 15.446238443314769 18.274868998794773 0 0 0 0 58.083418116475514 66.445015334591176 0 66.445015334591176 51.830869659242126 0 0 0 0 18.026050118933199 31.027558107152231 0 31.027558107152231 50.036671609927453 0 0 0 0 93.315130714145198 43.573454736796407 0 43.573454736796407 10.823674566531963 0 0 0 0 92.310454580416263 56.662258298596157 0 56.662258298596157 -1.0428825467632805 0 0 0 0 65.480101492998074 50.314412937419206 0 50.314412937419206 4.6989281381347894 0 0 0 0 42.597150609384698 50.598555584509199 0 50.598555584509199 35.908652920326404 0 0 0 0 75.193859771025018 54.554914498809239 0 54.554914498809239 6.0193330520473864 0 0 0 0 87.537304805562599 68.927063068534153 0 68.927063068534153 21.657512031588794 0 0 0 0 43.990586955660547 36.625086944085297 0 36.625086944085297 12.854238128617681 0 0 0 0 63.966492752122576 45.292240126331023 0 45.292240126331023 -5.4132457047464868 0 0 0 0 51.153540046336047 31.790767846581673 0 31.790767846581673 -0.38188596656618756 0 0 0 0 50.719605497659359 39.430695106863141 0 39.430695106863141 14.019137444965509 0 0 0 0 39.085449737760428 21.743603208978207 0 21.743603208978207 6.6049685627424424 0 0 0 0 33.691237746708794 16.304208350458794 0 16.304208350458794 14.088983491119734 0 0 0 0 38.832342895531838 28.674187844174391 0 28.674187844174391 26.106064970055286 0 0 0 0 35.847426155029098 20.596594276252745 0 20.596594276252745 15.926233917781246 0 0 0 0 36.525887380304084 12.462706601368978 0 12.462706601368978 5.4669486866123407 0 0 0 0 35.648046858045745 16.94005803318916 0 16.94005803318916 12.895212324217482 0 0 0 0 73.348370449246431 24.078908080583574 0 24.078908080583574 -30.835719841805769 0 0 0 0 68.391761283572123 28.959545983881696 0 28.959545983881696 -23.914070023093103 0 0 0 0 68.005319839947333 31.919000260604776 0 31.919000260604776 -25.709026178867532 0 0 0 0 62.524116454488194 32.065652307301754 0 32.065652307301754 -12.389223166327383 0 0 0 0 63.352287301909655 36.744120339890429 0 36.744120339890429 -10.353707103541183 0 0 0 0 70.084706196681509 38.232941054981325 0 38.232941054981325 -14.999591917694488 0 0 0 0 72.036538482425385 40.757799394838344 0 40.757799394838344 -18.340570261291361 0 0 0 0 72.221385171706061 36.368789821526093 0 36.368789821526093 -33.271517195209299 0 0 0 0 82.939807293179911 49.036211513517401 0 49.036211513517401 -18.511427051241981 0 0 0 0 80.566701960749924 43.615986499481437 0 43.615986499481437 -21.893553805872216 0 0 0 0 79.936886301607956 39.566207481926128 0 39.566207481926128 -19.174625666350494 0 0 0 0 77.400655214141807 32.349180011741083 0 32.349180011741083 -39.52245437444958 0 0 0 0 69.106760095331992 26.716700485011671 0 26.716700485011671 -37.225773985257092 0 0 0 0 62.180222509556188 13.257050030369783 0 13.257050030369783 -51.836044352471077 0 0 0 0 66.986166266950022 26.390925233860116 0 26.390925233860116 -26.152483759240368 0 0 0 0 50.983896445108257 -14.88184216360645 0 -14.88184216360645 -80.592489511816979 0 0 0 0 73.121270917254151 31.414674630631794 0 31.414674630631794 -37.722372512882998 0 0 0 0 60.934490114781511 16.199630905113679 0 16.199630905113679 -43.033093225404059 0 0 0 0 83.923863733447433 28.037042082855464 0 28.037042082855464 -49.106037863859456 0 0 0 0 79.178975649094355 43.730316218470819 0 43.730316218470819 -28.449094065905342 0 0 0 0 66.753361168623087 39.020145580145424 0 39.020145580145424 -59.646156687496273 0 0 0 0 51.184054554421891 5.8659749649598325 0 5.8659749649598325 -57.103027775427293 0 0 0 0 68.708266351961356 14.892014254323101 0 14.892014254323101 -68.41794648760515 0 0 0 0 36.609122824316728 -26.241024949887723 0 -26.241024949887723 -59.037152988515572 0 0 0 0 21.242375526504475 -37.137642728325545 0 -37.137642728325545 -65.553492818769541 0 0 0 0 40.084891482221792 -35.968230273258534 0 -35.968230273258534 -67.672054458637263 0 0 0 0 1.1646570093507762 -48.991943575407063 0 -48.991943575407063 -55.292789939077522 0 0 0 0 21.327938740983882 -42.646884148910075 0 -42.646884148910075 -53.520210019744241 0 0 0 0 28.703527124861012 -9.8379296147036861 0 -9.8379296147036861 -40.546292615085747 0 0 0 0 14.315117362479214 -27.067346665275629 0 -27.067346665275629 -48.445998150834953 0 0 0 0 47.691032409085892 -8.4911590617564343 0 -8.4911590617564343 -56.223060733209124 0 0 0 0 62.575470501109521 10.80506103808905 0 10.80506103808905 -46.782584175804345 0 0 0 0 44.555630143274357 11.147520216709292 0 11.147520216709292 -32.271798638130406 0 0 0 0 65.84048371159588 11.949520707110878 0 11.949520707110878 -43.883370091980794 0 0 0 0 33.120143321018986 5.4467788902050565 0 5.4467788902050565 -32.511195861195986 0 0 0 0 46.642514274615678 -3.4423663102785085 0 -3.4423663102785085 -32.20843800073078 0 0 0 0 62.442464759078575 11.326337013047635 0 11.326337013047635 -38.396678948632797 0 0 0 0 61.355823876416252 10.579528450903609 0 10.579528450903609 -24.148415440604452 0 0 0 0 57.96607886608399 14.876211796568146 0 14.876211796568146 -24.442622656999518 0 0 0 0 81.782560447481956 4.6239399238119887 0 4.6239399238119887 -14.481476894300982 0 0 0 0 82.682599096435297 8.0070984164495371 0 8.0070984164495371 -32.639184843727605 0 0 0 0 75.927059870948142 16.489536805472369 0 16.489536805472369 -32.668499298825907 0 0 0 0 64.934902546759076 19.329419084240108 0 19.329419084240108 -25.73208521801746 0 0 0 0 -16.605496263586247 69.510109329936768 0 69.510109329936768 -102.58722951455366 0 0 0 0 2.7562888759578925 -0.13324037992190796 0 -0.13324037992190796 -2.9338780851152095 0 0 0 0 63.588288443897909 98.526510951007424 0 98.526510951007424 -319.70257269510842 0 0 0 0 111.17703580624948 12.507029318069954 0 12.507029318069954 -174.7538765906254 0 0 0 0 -64.698609055284692 -113.69044975517849 0 -113.69044975517849 -192.85203680418249 0 0 0 0 -47.726416230101904 114.89672065426325 0 114.89672065426325 -113.26924397508412 0 0 0 0 38.719139469234506 -8.9236751815768685 0 -8.9236751815768685 -108.27717697983925 0 0 0 0 52.37822949180736 50.375099639557192 0 50.375099639557192 -112.75550051971527 0 0 0 0 24.545723295756034 -4.4107038985997633 0 -4.4107038985997633 -101.97536512445799 0 0 0 0 54.83215327328071 -0.2785629503343614 0 -0.2785629503343614 -111.98069506683601 0 0 0 0 36.553229644126986 2.7273004350152519 0 2.7273004350152519 -107.38517487360406 0 0 0 0 29.824424582038773 -46.882929238674251 0 -46.882929238674251 -306.19326741753588 0 0 0 0 -69.301410362262686 -114.91690104581824 0 -114.91690104581824 -163.96699009664661 0 0 0 0 -20.345060182875386 -51.772503967922816 0 -51.772503967922816 26.474725960340606 0 0 0 0 1.4416149885824439 -1.8745337276210172 0 -1.8745337276210172 -0.216639383354434 0 0 0 0 42.533541889250046 -15.415881516461241 0 -15.415881516461241 -1.5073152309455509 0 0 0 0 25.32848470501267 -73.992732805950538 0 -73.992732805950538 -149.635048070078 0 0 0 0 -33.08752559741697 -87.002573695416515 0 -87.002573695416515 -34.885542378726768 0 0 0 0 3.985440171956725 -61.22751176654873 0 -61.22751176654873 -73.42610110020857 0 0 0 0 9.5146705583028961 -31.239559882762592 0 -31.239559882762592 -26.063086409396757 0 0 0 0 25.303271878497355 -13.40097935985105 0 -13.40097935985105 5.4504913542104152 0 0 0 0 5.7096959449528839 -0.03918642145372786 0 -0.03918642145372786 -5.1445180411066467 0 0 0 0 42.09150035872517 2.7556032572153981 0 2.7556032572153981 -64.280551525396731 0 0 0 0 -5.4091050184360938 -29.734712652607186 0 -29.734712652607186 -5.7724565865564728 0 0 0 0 -15.412259685846948 -43.572832668354749 0 -43.572832668354749 -24.624802032042226 0 0 0 0 18.263173573435779 -20.886901462918786 0 -20.886901462918786 -17.621628686460554 0 0 0 0 13.514870126425862 -8.4802986052522868 0 -8.4802986052522868 -1.5469185812782169 0 0 0 0 13.036722975899465 -10.261308480155208 0 -10.261308480155208 -6.37273893853245 0 0 0 0 21.178345156597203 -9.1515766595681356 0 -9.1515766595681356 -1.8717745413179729 0 0 0 0 18.112202596140797 -10.114959921301811 0 -10.114959921301811 0.54122312276750717 0 0 0 0 36.639490415596811 -29.913970499729658 0 -29.913970499729658 37.165049358232409 0 0 0 0 32.162746739523655 -10.654911793400863 0 -10.654911793400863 1.7222920663066015 0 0 0 0 11.130397934508437 51.943976381371471 0 51.943976381371471 -149.3733366077663 0 0 0 0 -34.021085561140353 -62.015570876817385 0 -62.015570876817385 2.7029555259319054 0 0 0 0 -2.5708158890878821 -5.7115201305190268 0 -5.7115201305190268 0.56480711939378558 0 0 0 0 21.931245829779073 -5.8612913421497979 0 -5.8612913421497979 -50.460951434050912 0 0 0 0 -2.3788380451482425 0.21127835745550527 0 0.21127835745550527 0.1882979703759351 0 0 0 0 309.3652278302834 34.881395075901878 0 34.881395075901878 16.395980652383173 0 0 0 0 291.07411328669696 -176.51861578877322 0 -176.51861578877322 414.43711970267759 0 0 0 0 1124.6750715158196 61.433176787878665 0 61.433176787878665 -43.187751033761515 0 0 0 0 172.31862032441131 175.30737566364726 0 175.30737566364726 37.291605218775146 0 0 0 0 219.25564640102675 -142.06688984003449 0 -142.06688984003449 -115.14925396547426 0 0 0 0 760.32993717472709 -20.036770745874264 0 -20.036770745874264 -52.778131883121887 0 0 0 0 -35.677255953767599 -19.232670063930264 0 -19.232670063930264 114.69053091306253 0 0 0 0 23.583133252363154 -7.4159424839634482 0 -7.4159424839634482 1.7461290439207919 0 0 0 0 72.194332342368398 -84.823197189520215 0 -84.823197189520215 -278.35674188202211 0 0 0 0 45.036887861784635 -279.12579922211495 0 -279.12579922211495 -1.6891184680922606 0 0 0 0 164.79357918597088 0.26041281079847067 0 0.26041281079847067 -216.30962925796757 0 0 0 0 32.477943810563374 -0.77949872121104136 0 -0.77949872121104136 -61.110727661917622 0 0 0 0 400.1707632696889 457.40296752991628 0 457.40296752991628 624.25476101208505 0 0 0 0 8.7050990686627685 4.3284445772719096 0 4.3284445772719096 0.10282214252326938 0 0 0 0 675.93535883088771 -400.32813063384674 0 -400.32813063384674 -167.76984861425353 0 0 0 0 1161.2601690812307 285.65336588580874 0 285.65336588580874 -316.49529176701026 0 0 0 0 282.23775379141443 -501.83681832902579 0 -501.83681832902579 -34.375739581789048 0 0 0 0 773.60463860880554 522.56972800496931 0 522.56972800496931 168.25389612490557 0 0 0 0 9.8212748179359153 -2.4390070255597394 0 -2.4390070255597394 0.41400446639329669 0 0 0 0 1045.1421782411248 -277.27243958332832 0 -277.27243958332832 -417.26541450915011 0 0 0 0 -7.8429946254545939 30.736822268622518 0 30.736822268622518 -38.377351480567086 0 0 0 0 -219.29652139479003 -3.2688367438072419 0 -3.2688367438072419 -16.15536431952205 0 0 0 0 2.1909957156115496 -1.5252904356280226 0 -1.5252904356280226 0.83232321805571718 0 0 0 0 24.763248526838652 -103.17151535919061 0 -103.17151535919061 -43.389377971501744 0 0 0 0 10.738799990619086 -8.0973957558305827 0 -8.0973957558305827 6.4883202015352222 0 0 0 0 -19.987109221008723 51.492550199240895 0 51.492550199240895 33.181513049589739 0 0 0 0 130.45975669200561 -51.162079547072835 0 -51.162079547072835 -124.4633173356699 0 0 0 0 400.52033120108536 -368.18264680016927 0 -368.18264680016927 -213.69791673811881 0 0 0 0 461.29282732029969 235.58293577789675 0 235.58293577789675 -70.954506570094509 0 0 0 0 766.99529363255715 405.29828296976893 0 405.29828296976893 23.174987740378356 0 0 0 0 1147.7265545850169 397.63197378024665 0 397.63197378024665 -31.887301938230394 0 0 0 0 3.8271086437040722 -3.2767742113952423 0 -3.2767742113952423 2.3688095196072823 0 0 0 0 229.03633418398385 77.32651701244572 0 77.32651701244572 -56.318162169281095 0 0 0 0 -47.920627383215106 -169.66252467599287 0 -169.66252467599287 103.22923423142493 0 0 0 0 369.66985396794917 36.552790877730786 0 36.552790877730786 -31.550794572018958 0 0 0 0 227.93476665393246 63.087383869767564 0 63.087383869767564 14.986989192572651 0 0 0 0 563.59041639591305 33.969609471421677 0 33.969609471421677 -50.58449055838355 0 0 0 0 439.57403182359121 25.868445136162791 0 25.868445136162791 -26.49690270254797 0 0 0 0 652.61133232557768 153.97822191292562 0 153.97822191292562 -13.694272738710879 0 0 0 0 438.1605847829378 108.65089560293484 0 108.65089560293484 -11.866316813042431 0 0 0 0 365.18349187770582 139.54652836047524 0 139.54652836047524 -15.483127047588823 0 0 0 0 191.27746249354823 -6.535667757180363 0 -6.535667757180363 -43.327428955854089 0 0 0 0 228.87858664698433 72.410940211945672 0 72.410940211945672 -13.060706734450832 0 0 0 0 4.9157990186419624 6.5802433314467237 0 6.5802433314467237 5.9733289227500883 0 0 0 0 571.70720963983149 -76.197114598348662 0 -76.197114598348662 -4.4902540776433852 0 0 0 0 505.3209223586382 -8.6937171555682653 0 -8.6937171555682653 21.236306814195245 0 0 0 0 649.21706239411287 -135.35836871255606 0 -135.35836871255606 76.867179257440171 0 0 0 0 -143.1360631131829 105.5940314888843 0 105.5940314888843 -3.2221164374232103 0 0 0 0 217.78338303277633 145.27638329187778 0 145.27638329187778 -22.046210827610821 0 0 0 0 -158.63348738148215 65.078490194948472 0 65.078490194948472 -30.243932609218177 0 0 0 0 2.012344695659209 1.8263792290722805 0 1.8263792290722805 2.0289242144495692 0 0 0 0 1217.0526979315291 -154.97982321027507 0 -154.97982321027507 -76.0814063077637 0 0 0 0 164.87706086061371 -8.0716225245789701 0 -8.0716225245789701 33.830809084071802 0 0 0 0 361.99642183944525 7.1571017369276433 0 7.1571017369276433 -12.410229059277526 0 0 0 0 70.881577332736924 64.216717585366496 0 64.216717585366496 -0.4725778716883724 0 0 0 0 210.58062021214573 50.87618014081545 0 50.87618014081545 -91.6050924496476 0 0 0 0 153.57554716481536 13.953961867630369 0 13.953961867630369 -80.815400723403854 0 0 0 0 207.55546468650778 8.8503748509364826 0 8.8503748509364826 28.979664791051164 0 0 0 0 722.76069291993554 179.22894997336584 0 179.22894997336584 30.50527258136708 0 0 0 0 417.22645556343195 137.48736671491758 0 137.48736671491758 17.321419038266413 0 0 0 0 553.43380487938703 -31.342197064796096 0 -31.342197064796096 35.977359589748232 0 0 0 0 617.51921015898552 27.617856801696504 0 27.617856801696504 56.269643554957568 0 0 0 0 622.42941153856009 122.62647730575922 0 122.62647730575922 14.241229872347972 0 0 0 0 14.241991919271669 -13.950842506727135 0 -13.950842506727135 9.973410741690838 0 0 0 0 161.74006681362516 -10.627598803243245 0 -10.627598803243245 79.428943043915638 0 0 0 0 236.42318786750548 108.66443491476309 0 108.66443491476309 99.960650990791805 0 0 0 0 11.500048786006261 -10.370630760878221 0 -10.370630760878221 5.6449196544822993 0 0 0 0 -48.238672284931454 -178.52704751839457 0 -178.52704751839457 -254.40482489106193 0 0 0 0 418.53043898614851 5.4411194125071631 0 5.4411194125071631 -354.70329172531058 0 0 0 0 4.6152746774681148 -3.8140082606661565 0 -3.8140082606661565 2.2449785914032003 0 0 0 0 -556.26080733206982 -597.89545030127317 0 -597.89545030127317 -158.07517546951968 0 0 0 0 1364.8477675265531 -601.7051443773853 0 -601.7051443773853 -382.13797704747986 0 0 0 0 107.36152719104211 121.22034661379739 0 121.22034661379739 -82.38588238232154 0 0 0 0 191.7851065157156 25.247139060100196 0 25.247139060100196 -50.100519689474027 0 0 0 0 149.87674112271804 129.40901355005917 0 129.40901355005917 -86.376897080792332 0 0 0 0 158.94456573463685 -48.1949083636827 0 -48.1949083636827 232.64811366330875 0 0 0 0 711.43065903587922 -134.71772613562166 0 -134.71772613562166 -131.05263507070427 0 0 0 0 702.20544743457867 82.453536968473031 0 82.453536968473031 43.943653648418035 0 0 0 0 1835.5791984128518 397.16536846500929 0 397.16536846500929 -58.755101147702412 0 0 0 0 1031.4468849255863 -771.01076146714206 0 -771.01076146714206 132.76948986256477 0 0 0 0 -527.03803909021372 -442.99572082578004 0 -442.99572082578004 568.10447689169143 0 0 0 0 -163.01348858742131 394.89294245281508 0 394.89294245281508 -145.48357191309265 0 0 0 0 475.1007032080197 28.471719481110988 0 28.471719481110988 61.904767383566139 0 0 0 0 -237.50572686970372 141.15142905168614 0 141.15142905168614 85.933759084846997 0 0 0 0 -9.4993384317658638 71.05512948966313 0 71.05512948966313 -253.61660938692026 0 0 0 0 -77.123305402710685 -0.83528283097484746 0 -0.83528283097484746 259.01927470622036 0 0 0 0 19.645265650823745 1.2338203511196406 0 1.2338203511196406 -1.4871068036631443 0 0 0 0 30.847283545757819 -37.133079132546186 0 -37.133079132546186 107.22449431084323 0 0 0 0 82.425224830272782 251.12287217864389 0 251.12287217864389 -475.47392848860909 0 0 0 0 26.261072240840804 21.032465732136572 0 21.032465732136572 84.581012927521442 0 0 0 0 -34.535397628402279 14.813488602337429 0 14.813488602337429 204.93740112914816 0 0 0 0 -31.06399798898201 21.926592381442276 0 21.926592381442276 216.73342443638421 0 0 0 0 3.9330324468691966 2.2340476149190351 0 2.2340476149190351 -0.97873315643628533 0 0 0 0 1016.7683226787594 -463.84190077339088 0 -463.84190077339088 -217.80702983053152 0 0 0 0 -30.889558599660631 -53.438043692454386 0 -53.438043692454386 246.98820297583006 0 0 0 0 33.396348992203457 137.03088175660238 0 137.03088175660238 318.48943839993512 0 0 0 0 590.38070687800791 297.02158817976368 0 297.02158817976368 223.6699561760276 0 0 0 0 241.8565268849452 55.281497485042536 0 55.281497485042536 141.407962695489 0 0 0 0 181.0113030131065 64.996866118427448 0 64.996866118427448 144.52626045003171 0 0 0 0 173.62832613431056 115.58935381063105 0 115.58935381063105 241.7383870832291 0 0 0 0 186.21053397950709 42.122537009514346 0 42.122537009514346 135.68191669608325 0 0 0 0 25.687894535734813 -17.35024618713345 0 -17.35024618713345 151.22132016732701 0 0 0 0 -43.938385973699951 3.9055977240990671 0 3.9055977240990671 222.4256186882676 0 0 0 0 -42.728867508682015 -0.98256987203967583 0 -0.98256987203967583 208.36696629034486 0 0 0 0 -20.707415869652323 178.79427494012623 0 178.79427494012623 586.37587378554235 0 0 0 0 787.35866821706441 -429.64191935651974 0 -429.64191935651974 375.62915371457819 0 0 0 0 1195.4472118650883 170.92024950825606 0 170.92024950825606 49.217464009191474 0 0 0 0 506.95539261488739 382.84270535390897 0 382.84270535390897 415.59528428834165 0 0 0 0 9.1792034469312256 -0.31069432206812042 0 -0.31069432206812042 0.13010693109210655 0 0 0 0 618.64489189011204 71.107045560818776 0 71.107045560818776 7.0151949373245088 0 0 0 0 610.2955858035748 34.281087597708904 0 34.281087597708904 43.810273152598256 0 0 0 0 613.2677636513472 -77.160386683336981 0 -77.160386683336981 125.22282999674349 0 0 0 0 227.29548872426062 -130.07070639153733 0 -130.07070639153733 258.0389407929498 0 0 0 0 244.3038097496235 -16.244118665304796 0 -16.244118665304796 109.04460467734813 0 0 0 0 -52.361884221869332 -67.664118095021649 0 -67.664118095021649 184.06179683903756 0 0 0 0 -259.52036485388817 228.76953290659213 0 228.76953290659213 165.79334643772305 0 0 0 0 148.9632035771092 108.54497456392053 0 108.54497456392053 159.34709631313444 0 0 0 0 185.54264168745453 -36.790766050926877 0 -36.790766050926877 255.7353395414238 0 0 0 0 478.88151496759747 18.189928605483658 0 18.189928605483658 162.85009490372067 0 0 0 0 2.1604672867925103 1.791614882819438 0 1.791614882819438 0.31238134365282066 0 0 0 0 747.44879799703267 -271.72436386186331 0 -271.72436386186331 103.40121696585479 0 0 0 0 339.65883186326209 -157.37124429113646 0 -157.37124429113646 119.90073087992826 0 0 0 0 525.88138607026667 -174.67167042062616 0 -174.67167042062616 -69.685988859470029 0 0 0 0 375.90764918312561 -34.061246776035603 0 -34.061246776035603 9.2866316445213215 0 0 0 0 152.18091034888795 -82.567234557517281 0 -82.567234557517281 175.50110302942966 0 0 0 0 109.07282704289136 -111.63960668240207 0 -111.63960668240207 -0.91394862692868628 0 0 0 0 556.76996902886094 -354.07268451537141 0 -354.07268451537141 -185.10518213712203 0 0 0 0 5.0979989455273227 5.5596257461784688 0 5.5596257461784688 -0.034349486660468331 0 0 0 0 -83.896488490820047 194.8617818030024 0 194.8617818030024 -67.112480898637301 0 0 0 0 57.500607382284215 60.191513322264257 0 60.191513322264257 -137.77032217033943 0 0 0 0 76.527136054226503 -14.864462562915548 0 -14.864462562915548 -73.166586929536152 0 0 0 0 117.51903281454634 171.53715386935471 0 171.53715386935471 -94.853235297898067 0 0 0 0 81.382914844229163 116.07232538996993 0 116.07232538996993 -111.94602238596758 0 0 0 0 402.23476867888348 91.600361448541548 0 91.600361448541548 -150.26633856464065 0 0 0 0 0.94351657983924397 3.1457693633298458 0 3.1457693633298458 0.34748319969941216 0 0 0 0 -551.95274208680439 395.61284720472821 0 395.61284720472821 48.226188787754623 0 0 0 0 1500.5835101149096 -195.4621735567693 0 -195.4621735567693 -28.528022650930318 0 0 0 0 27.640867635694121 -3.812435347597571 0 -3.812435347597571 -138.36780087392549 0 0 0 0 65.764436963107073 111.10065425655509 0 111.10065425655509 -208.19451702400357 0 0 0 0 87.825766763855427 42.83739138532377 0 42.83739138532377 -68.237670258358818 0 0 0 0 259.89347512365111 -7.9254375059267517 0 -7.9254375059267517 -136.75840220897848 0 0 0 0 166.07221656740421 59.974262037653446 0 59.974262037653446 -153.22398414866421 0 0 0 0 251.72951670782095 -11.727031912403035 0 -11.727031912403035 -114.08658110330751 0 0 0 0 250.5255837867353 11.064373174037826 0 11.064373174037826 -145.34491149407978 0 0 0 0 239.8773142375212 -15.578592378799193 0 -15.578592378799193 -113.70129750080706 0 0 0 0 254.30463574634132 -115.95233448762053 0 -115.95233448762053 -1.9629162448395903 0 0 0 0 445.92221350833097 -156.4371815124353 0 -156.4371815124353 -63.803367029054584 0 0 0 0 291.76271523226205 -72.764267879814909 0 -72.764267879814909 -75.636359205057346 0 0 0 0 179.15083229911397 -0.2454170682849508 0 -0.2454170682849508 -5.9917506830372247 0 0 0 0 342.72528420674189 -148.51833307946146 0 -148.51833307946146 -37.956684630831788 0 0 0 0 308.9579105963719 -100.75706810868179 0 -100.75706810868179 -52.511389125911194 0 0 0 0 324.26594932082867 -155.46535046783225 0 -155.46535046783225 -18.774113133090225 0 0 0 0 340.1317926616839 -158.65585380820264 0 -158.65585380820264 -22.59928806372335 0 0 0 0 278.05906259378025 6.8022131762134066 0 6.8022131762134066 -138.6995773656559 0 0 0 0 332.7205905862902 -96.627675049973718 0 -96.627675049973718 -74.710185968685167 0 0 0 0 384.8939580249089 -95.889391360095701 0 -95.889391360095701 -60.496266767593831 0 0 0 0 548.36183914479716 -137.02902517264377 0 -137.02902517264377 12.534183651853979 0 0 0 0 489.97124640146558 -183.32246648798684 0 -183.32246648798684 37.080655883237675 0 0 0 0 408.31546646617983 -63.939270369017272 0 -63.939270369017272 -25.203252918202878 0 0 0 0 424.5607013466315 -157.56843247955084 0 -157.56843247955084 -42.826683240259008 0 0 0 0 347.26135777261425 -180.8334358298888 0 -180.8334358298888 46.21969156001856 0 0 0 0 335.28126875941041 -238.16462250505 0 -238.16462250505 176.06158925157342 0 0 0 0 480.98099012563227 -118.08643184403516 0 -118.08643184403516 78.889750293759278 0 0 0 0 719.45032607335997 -138.7531187217061 0 -138.7531187217061 62.825382503650388 0 0 0 0 913.64302211428094 47.309421352751826 0 47.309421352751826 -21.842205200225465 0 0 0 0 559.25413308008365 94.755039608077155 0 94.755039608077155 27.286891999599987 0 0 0 0 452.93915536923123 10.220717416625945 0 10.220717416625945 -38.453028014674913 0 0 0 0 641.12272951648856 603.72400214140271 0 603.72400214140271 -6.3269465923055739 0 0 0 0 1495.886327966391 288.44271698212873 0 288.44271698212873 -248.46413084734817 0 0 0 0 926.88865188952605 60.357192580441193 0 60.357192580441193 -236.52181384809649 0 0 0 0 1500.3464721979667 -106.9026742513004 0 -106.9026742513004 -229.15085427248539 0 0 0 0 895.77922063149674 -176.02606702062801 0 -176.02606702062801 -94.574965860110638 0 0 0 0 915.64921160058907 -269.2484722013599 0 -269.2484722013599 -196.82624059183914 0 0 0 0 1500.2665636115416 -444.78782718182532 0 -444.78782718182532 -170.28713654112198 0 0 0 0 702.86563975307058 -495.64989745811334 0 -495.64989745811334 21.706153731508266 0 0 0 0 719.39456259337271 -357.79080784336355 0 -357.79080784336355 98.040335071431613 0 0 0 0 1496.4284757985483 -907.23265232637004 0 -907.23265232637004 228.40096540493204 0 0 0 0 51.58109029714069 -43.809690887834492 0 -43.809690887834492 171.5701512436946 0 0 0 0 149.42922478706441 -29.835337242306629 0 -29.835337242306629 70.491750357718601 0 0 0 0 123.22188620429552 -206.1093778874797 0 -206.1093778874797 392.39982918756687 0 0 0 0 336.27901263062358 -132.47384238632523 0 -132.47384238632523 -7.7727714762758353 0 0 0 0 370.94214685475799 -212.83474943828858 0 -212.83474943828858 75.502882471265195 0 0 0 0 131.27199000575547 -172.06835674034494 0 -172.06835674034494 157.36794569680472 0 0 0 0 214.80873745574581 -42.9671911058104 0 -42.9671911058104 -130.55260448269593 0 0 0 0 412.25677614402048 -282.39350181861425 0 -282.39350181861425 72.426806724718517 0 0 0 0 437.27050206590684 -220.03726328120069 0 -220.03726328120069 -7.5739846789448411 0 0 0 0 647.46772312251142 -235.52819234994439 0 -235.52819234994439 -10.945858483001558 0 0 0 0 8.5078023690757618 60.441604126946913 0 60.441604126946913 -130.61886464159966 0 0 0 0 1.6037151442257134 -0.40461181648993527 0 -0.40461181648993527 -1.4102696857328281 0 0 0 0 654.34771943845954 -369.4577823878617 0 -369.4577823878617 201.98918330425528 0 0 0 0 30.762977586909074 -66.243350180382038 0 -66.243350180382038 -27.986281280964761 0 0 0 0 73.654942244285849 -35.295380730245398 0 -35.295380730245398 -35.82071704062912 0 0 0 0 20.713738601618388 -46.550375955080085 0 -46.550375955080085 -2.9324266535199968 0 0 0 0 -4.7563822689280641 -62.179014019411738 0 -62.179014019411738 5.2187945311325166 0 0 0 0 -30.78277146119035 -60.439151930347492 0 -60.439151930347492 1.2988904394651399 0 0 0 0 -33.489822997647934 -63.436041411522268 0 -63.436041411522268 5.6670879702179704 0 0 0 0 -3.2443060206769587 -95.313410639938894 0 -95.313410639938894 26.855022757799588 0 0 0 0 -45.121234249510962 -55.702963272941247 0 -55.702963272941247 19.936896201810526 0 0 0 0 -72.045234850116685 -44.682457235165884 0 -44.682457235165884 19.583649738502743 0 0 0 0 30.575738390038168 -88.759375614384282 0 -88.759375614384282 -23.239092938631337 0 0 0 0 74.0710313120303 -136.50047590266485 0 -136.50047590266485 28.582050791248605 0 0 0 0 11.853498663496794 -78.407160268289545 0 -78.407160268289545 65.050369359463758 0 0 0 0 80.665094928935105 -80.020832074582103 0 -80.020832074582103 50.13810536460916 0 0 0 0 -9.856034986179111 -70.315036273029079 0 -70.315036273029079 114.34450070347856 0 0 0 0 -13.628523467099512 -39.972142285866369 0 -39.972142285866369 29.487016313255964 0 0 0 0 0.041860578066007292 -103.92095461446756 0 -103.92095461446756 56.322338839230099 0 0 0 0 -52.946147309994103 -66.578529062032089 0 -66.578529062032089 30.051543588800769 0 0 0 0 -93.469140794060877 -19.377722027636608 0 -19.377722027636608 -3.1508412595490327 0 0 0 0 -112.28669858144349 -36.4706900983102 0 -36.4706900983102 39.634859576884111 0 0 0 0 -72.751439670212676 -26.200261842283567 0 -26.200261842283567 -3.1918616640882647 0 0 0 0 -60.966922502224634 -60.77962258073407 0 -60.77962258073407 43.545093668480831 0 0 0 0 -118.75684747730156 -16.979360151274705 0 -16.979360151274705 29.042287712639791 0 0 0 0 -88.068125645934288 -9.0262712920344939 0 -9.0262712920344939 -1.5646524387277623 0 0 0 0 -89.131823406706189 -8.0655449485618789 0 -8.0655449485618789 44.297666730279843 0 0 0 0 -9.7387238432365848 -29.68356943643181 0 -29.68356943643181 9.46873426715986 0 0 0 0 -10.933071862665201 -20.061175888318132 0 -20.061175888318132 80.8116879557424 0 0 0 0 61.987169265491502 -45.853211112285862 0 -45.853211112285862 45.181458432443947 0 0 0 0 2.2743190518069305 -5.2757137473474103 0 -5.2757137473474103 7.7892594332981364 0 0 0 0 236.59994663100133 43.917107728739097 0 43.917107728739097 -5.7350359020720134 0 0 0 0 129.22006289773708 2.4792533031923085 0 2.4792533031923085 49.741972537953188 0 0 0 0 156.1656327691029 59.586821150971765 0 59.586821150971765 45.204236422871872 0 0 0 0 83.693606783079304 -20.110851520023516 0 -20.110851520023516 11.68997455367662 0 0 0 0 155.28550378442063 -7.554596874277717 0 -7.554596874277717 -7.7153909163216667 0 0 0 0 164.10309448240696 24.692833415883115 0 24.692833415883115 5.1499425608544698 0 0 0 0 -207.71164340428913 21.549551950901503 0 21.549551950901503 27.571721609196857 0 0 0 0 600.57107353548236 153.16718517583712 0 153.16718517583712 -28.436837247554195 0 0 0 0 -316.03185404180294 92.956026011727374 0 92.956026011727374 153.54026069023394 0 0 0 0 0.21500237170971648 -0.089220421922831861 0 -0.089220421922831861 -0.47126302642728701 0 0 0 0 -125.85682900248185 17.946463370226539 0 17.946463370226539 -54.688760144175831 0 0 0 0 119.07147650785191 -375.98934417653095 0 -375.98934417653095 0.53589080942174405 0 0 0 0 -141.43531806824194 -12.137064263109245 0 -12.137064263109245 25.601297658334204 0 0 0 0 108.8071572258541 -319.89003054978684 0 -319.89003054978684 -251.03837000089698 0 0 0 0 172.20070037289543 -5.9868722270777539 0 -5.9868722270777539 -38.890312175614781 0 0 0 0 -126.62472623903705 -44.693539575344268 0 -44.693539575344268 39.567643900704645 0 0 0 0 1.2570312044715395 -5.35351435597914 0 -5.35351435597914 -4.1382448445931939 0 0 0 0 -1.1243726129776253 -7.5356316997123116 0 -7.5356316997123116 13.242905896082306 0 0 0 0 -113.31447707593725 -43.260150057581342 0 -43.260150057581342 -3.648340724397201 0 0 0 0 149.67859335044341 -16.968448611114582 0 -16.968448611114582 -26.598695056607539 0 0 0 0 148.55617771371908 -20.557702838950718 0 -20.557702838950718 13.611688407658221 0 0 0 0 171.60048913084302 -9.6415649692985426 0 -9.6415649692985426 -50.891953460597506 0 0 0 0 130.1662300311491 15.809593680864282 0 15.809593680864282 -4.9924044235922338 0 0 0 0 150.46962837325736 -15.8193789216798 0 -15.8193789216798 -33.096071082544768 0 0 0 0 148.94046599154171 -28.522103325170974 0 -28.522103325170974 -101.43764298033057 0 0 0 0 93.829216839196306 10.935960260186675 0 10.935960260186675 -45.661139611322142 0 0 0 0 155.67021615898193 -6.1718309990151283 0 -6.1718309990151283 -7.347028128610873 0 0 0 0 166.61587138874165 -45.278745359118147 0 -45.278745359118147 60.413882718394234 0 0 0 0 151.62951740837161 -5.8837016171337382 0 -5.8837016171337382 -7.3672641816675082 0 0 0 0 -79.320620417805912 -10.15918870331484 0 -10.15918870331484 -27.811373733733149 0 0 0 0 -5.8522726435441337 1.1233620084296358 0 1.1233620084296358 0.79274569678501705 0 0 0 0 -53.909668390269871 -34.158546959682553 0 -34.158546959682553 18.564875302652354 0 0 0 0 -70.342769093585503 -51.178563619735911 0 -51.178563619735911 1.2136904261562904 0 0 0 0 -31.297190793123264 -36.484121847482186 0 -36.484121847482186 15.670406366062878 0 0 0 0 1.8727759975661771 -13.767882810999376 0 -13.767882810999376 12.428692235445515 0 0 0 0 -3.7670402420668516 0.14733439265405579 0 0.14733439265405579 1.34787335403926 0 0 0 0 19.489830541037009 -54.457035649712907 0 -54.457035649712907 73.402406672047164 0 0 0 0 -24.906258822472864 -19.415572600601308 0 -19.415572600601308 16.863054113636736 0 0 0 0 -20.989218689785048 -31.970632201943914 0 -31.970632201943914 13.045244681238273 0 0 0 0 180.96802041649607 -44.681823225947369 0 -44.681823225947369 -28.781709223723283 0 0 0 0 128.09249754156554 -79.754393966601128 0 -79.754393966601128 54.813517225694682 0 0 0 0 116.24360108308974 -48.496862275721014 0 -48.496862275721014 -24.639490672476313 0 0 0 0 121.52519474383553 -93.763724840307304 0 -93.763724840307304 -75.000481764001051 0 0 0 0 141.29983658392484 -60.35779638685483 0 -60.35779638685483 -21.734272508705544 0 0 0 0 77.387702492465905 -22.928428461585668 0 -22.928428461585668 -33.311569126693939 0 0 0 0 245.17327097040106 -121.51895537111386 0 -121.51895537111386 -73.73923232551715 0 0 0 0 -403.63219462352936 -42.622129953630747 0 -42.622129953630747 142.43081668448349 0 0 0 0 28.709823591572786 -152.16756283445739 0 -152.16756283445739 164.86682328475854 0 0 0 0 27.631547397170493 -107.24911294499655 0 -107.24911294499655 -131.73461029811097 0 0 0 0 -67.527147547488426 142.50384646128214 0 142.50384646128214 21.676868079432097 0 0 0 0 346.9631160079698 -103.87962290847122 0 -103.87962290847122 -55.607515155506917 0 0 0 0 -62.583279224918016 -152.19664404110625 0 -152.19664404110625 105.00473907412743 0 0 0 0 8.4476091157777162 -14.606961707376097 0 -14.606961707376097 15.971186616805989 0 0 0 0 -0.23730257220555551 0.17368411466671674 0 0.17368411466671674 -0.2851255515179929 0 0 0 0 -44.100910632421801 -33.925942387718408 0 -33.925942387718408 59.526173775228926 0 0 0 0 9.0005946728961135 -40.035756504074925 0 -40.035756504074925 13.58014068013108 0 0 0 0 74.619519244675757 36.27504925948233 0 36.27504925948233 33.767236534048607 0 0 0 0 -20.578701461698074 47.021741858553014 0 47.021741858553014 72.578335331390008 0 0 0 0 38.29697430147462 -54.05776441677267 0 -54.05776441677267 -1.6795011711890311 0 0 0 0 2.6570297038699335 -2.9162850177976267 0 -2.9162850177976267 -1.2024144534479415 0 0 0 0 -102.95511787427677 -94.302788463787238 0 -94.302788463787238 49.319657766593082 0 0 0 0 -3.3175783563938239 -24.264607141773467 0 -24.264607141773467 11.657984005189746 0 0 0 0 4.6301173138301621 -13.737805651139642 0 -13.737805651139642 17.064452775474855 0 0 0 0 2.9663085874981334 -27.783988920257229 0 -27.783988920257229 13.577340377942164 0 0 0 0 0.44474814317641176 -38.753951043914284 0 -38.753951043914284 -4.894726675140646 0 0 0 0 18.917320731990912 -27.729146006351812 0 -27.729146006351812 -1.079594207809123 0 0 0 0 28.713513336682354 -17.047395415682502 0 -17.047395415682502 10.26709022423438 0 0 0 0 2.4121455457107004 -18.62097146844485 0 -18.62097146844485 15.051518529265195 0 0 0 0 2.3497366302779596 -0.50177406729889462 0 -0.50177406729889462 -3.5700854228278653 0 0 0 0 30.497809723906357 -18.574123476395584 0 -18.574123476395584 -32.648136229623617 0 0 0 0 324.52781618043127 -194.12947309448356 0 -194.12947309448356 76.697633608220698 0 0 0 0 285.386690260465 -193.478940305827 0 -193.478940305827 78.203045883062899 0 0 0 0 16.817198054611254 -28.973876983391847 0 -28.973876983391847 18.347771866446124 0 0 0 0 5.7030236481607304 -4.1047303567578357 0 -4.1047303567578357 -2.0878127704829748 0 0 0 0 20.392609112679565 -21.824856488318574 0 -21.824856488318574 13.01638841545423 0 0 0 0 292.46260880898171 -70.167797008502788 0 -70.167797008502788 25.103714952631293 0 0 0 0 224.71904388198345 -36.613214756284464 0 -36.613214756284464 8.5156374674892419 0 0 0 0 -106.43904914347149 -181.41605731909817 0 -181.41605731909817 -220.26949581195913 0 0 0 0 211.31483046535777 -117.92267134678997 0 -117.92267134678997 28.367387558758494 0 0 0 0 354.37568572689088 -110.19163731237391 0 -110.19163731237391 19.223986988666169 0 0 0 0 287.2810630875847 -80.755383600084656 0 -80.755383600084656 23.759869068113503 0 0 0 0 459.52678261688197 40.118295332278393 0 40.118295332278393 92.423430980989238 0 0 0 0 -21.632663546610274 -188.14092028069763 0 -188.14092028069763 -198.39792148277968 0 0 0 0 5.5844147903914738 -8.748923704051645 0 -8.748923704051645 9.0907360502956003 0 0 0 0 -94.134106314126257 -210.38262811093364 0 -210.38262811093364 -185.49994600051707 0 0 0 0 -48.082903860500664 -68.532215071806377 0 -68.532215071806377 -147.10607219704309 0 0 0 0 -158.45338828321474 -23.395744692858898 0 -23.395744692858898 -180.30390567546419 0 0 0 0 67.10991900137742 -79.006513296185176 0 -79.006513296185176 -174.81965876670665 0 0 0 0 32.235769742655975 -40.065981717107093 0 -40.065981717107093 -151.90848090097734 0 0 0 0 105.19035508311208 1.5480818928642748 0 1.5480818928642748 -143.81789520654445 0 0 0 0 124.57536673333016 45.615353497749538 0 45.615353497749538 -181.4118446983116 0 0 0 0 178.3905918188575 15.564743976114187 0 15.564743976114187 -166.22625691364601 0 0 0 0 193.2364304422008 57.95352720201754 0 57.95352720201754 -108.12308578893317 0 0 0 0 179.90999582274162 18.872169420614 0 18.872169420614 -186.91658647244458 0 0 0 0 187.03877015707985 -2.7216662735415866 0 -2.7216662735415866 -128.26232937679652 0 0 0 0 139.30322595140751 -25.896918431154063 0 -25.896918431154063 -219.93114258280275 0 0 0 0 32.525106820936344 -14.042202382018786 0 -14.042202382018786 -178.71743308291479 0 0 0 0 135.09448847210297 -17.780074268745238 0 -17.780074268745238 -230.58231014470493 0 0 0 0 180.35978417769911 -38.01461310948639 0 -38.01461310948639 -109.86296246266647 0 0 0 0 168.71550144007779 -67.189296968978852 0 -67.189296968978852 -181.72683856137266 0 0 0 0 369.87114644333269 -81.178739086316455 0 -81.178739086316455 -151.16229204422689 0 0 0 0 101.70820904192806 43.223138762928556 0 43.223138762928556 94.615175751484173 0 0 0 0 -113.87753733327008 -207.24838107931078 0 -207.24838107931078 -140.23820523624954 0 0 0 0 -9.9221065055828603 -277.33611347637958 0 -277.33611347637958 -54.428506795119574 0 0 0 0 228.56981785828975 -105.15691575221979 0 -105.15691575221979 -71.930901859581354 0 0 0 0 -20.533033353858627 -0.34882026210198092 0 -0.34882026210198092 -10.363834492148271 0 0 0 0 5.1236275444428969 -4.7654614197313023 0 -4.7654614197313023 1.1003845174439935 0 0 0 0 -261.58264269539359 -20.379181739079286 0 -20.379181739079286 -2.2666111569092209 0 0 0 0 19.180878217182908 -90.570115209670348 0 -90.570115209670348 -356.13338365736809 0 0 0 0 -193.26529257489801 -299.45900056945368 0 -299.45900056945368 -40.926872431388801 0 0 0 0 38.380153684604011 -7.100151016430118 0 -7.100151016430118 -12.969881325970164 0 0 0 0 41.613306377832487 -4.041015391838414 0 -4.041015391838414 -24.585244456362034 0 0 0 0 97.394553849368094 -74.920168694136464 0 -74.920168694136464 21.634196369245274 0 0 0 0 2.8212194819209415 -0.86807582337293088 0 -0.86807582337293088 -0.33803577144304153 0 0 0 0 190.83430508295714 -202.64057623420422 0 -202.64057623420422 121.60961463729291 0 0 0 0 227.89609379023022 -7.3585997166105699 0 -7.3585997166105699 -155.60493540282141 0 0 0 0 181.09129958897392 -7.3541426422250424 0 -7.3541426422250424 -98.335431011336482 0 0 0 0 246.00750098152639 -66.935507888618531 0 -66.935507888618531 -95.006835636238065 0 0 0 0 203.01024042875724 20.05051164858412 0 20.05051164858412 -151.32333620786278 0 0 0 0 132.34424127146121 15.485225546021809 0 15.485225546021809 -68.566363743714192 0 0 0 0 109.25915647395323 -18.821870023857059 0 -18.821870023857059 -16.213721358016755 0 0 0 0 47.182005359372852 11.431486150408716 0 11.431486150408716 -12.09268804314911 0 0 0 0 46.102001146300609 2.8580202996161574 0 2.8580202996161574 -8.016952795050031 0 0 0 0 12.887816362912417 -4.0459283906743622 0 -4.0459283906743622 -4.0344034712695702 0 0 0 0 6.8702841421891208 8.0609172403385401 0 8.0609172403385401 -2.1160002988157949 0 0 0 0 13.636742405215045 7.0893798296223167 0 7.0893798296223167 -24.322888080127086 0 0 0 0 5.5825279445999385 2.1030336590486591 0 2.1030336590486591 -7.4246007309383728 0 0 0 0 22.610841441281082 -2.1955692342007751 0 -2.1955692342007751 -18.813321648580541 0 0 0 0 12.884434713010705 -3.12015189310182 0 -3.12015189310182 -16.553377402178512 0 0 0 0 8.2946278690742474 6.8625314559859589 0 6.8625314559859589 -15.391687668539817 0 0 0 0 10.389993776272902 -0.70076565675953018 0 -0.70076565675953018 -2.6023330185542042 0 0 0 0 -2.2778862361374195 -13.178526509685526 0 -13.178526509685526 -38.010914666846134 0 0 0 0 6.9263817243170678 -0.4631860016532392 0 -0.4631860016532392 -0.20568931544142233 0 0 0 0 -8.4347771441443911 -5.0223158603512275 0 -5.0223158603512275 -15.253456968378487 0 0 0 0 12.080792323977221 -1.5941010135693432 0 -1.5941010135693432 -30.456112860676512 0 0 0 0 10.733427601084259 -1.9167650103687492 0 -1.9167650103687492 -17.225267030958548 0 0 0 0 8.2364197707574931 -19.302895441754117 0 -19.302895441754117 -22.74312649143576 0 0 0 0 -2.6809273513608787 -0.98706020387839999 0 -0.98706020387839999 -8.6440266525212337 0 0 0 0 14.419414778250939 -26.958644153406908 0 -26.958644153406908 -76.107796794891101 0 0 0 0 6.6875174109815489 -1.2625905994593865 0 -1.2625905994593865 0.47702053460388738 0 0 0 0 -27.74473834796845 -35.895537385643365 0 -35.895537385643365 -7.8249795316100972 0 0 0 0 -15.292763735518747 26.781023045714846 0 26.781023045714846 -30.723310621374139 0 0 0 0 -35.413796201655259 19.476803407923001 0 19.476803407923001 10.644313940043503 0 0 0 0 -25.669486055558082 -17.956291904275304 0 -17.956291904275304 -23.899224726374086 0 0 0 0 78.246379391457594 -57.288220662106141 0 -57.288220662106141 62.256567171543225 0 0 0 0 2.4594390298065889 -0.60661623114939545 0 -0.60661623114939545 -0.02129225489347697 0 0 0 0 139.49579015469499 -0.21945364771954701 0 -0.21945364771954701 -135.9446377123827 0 0 0 0 330.19923056442531 -130.24196498244794 0 -130.24196498244794 -51.446026474683094 0 0 0 0 209.84681414139322 -39.281799477237428 0 -39.281799477237428 -75.194850828728704 0 0 0 0 118.68636543168759 13.245611998950608 0 13.245611998950608 -98.961458898353612 0 0 0 0 73.327154789340057 -31.728837300702708 0 -31.728837300702708 7.4041764210837755 0 0 0 0 91.247262054952444 -5.4331183139534005 0 -5.4331183139534005 -76.158667461894595 0 0 0 0 15.093200658164278 -3.6731525190996308 0 -3.6731525190996308 16.157547444414888 0 0 0 0 47.111713257221709 -58.240640658934808 0 -58.240640658934808 82.555820868636147 0 0 0 0 -4.196861647539663 -15.136950245899015 0 -15.136950245899015 46.730063090358726 0 0 0 0 5.4343253683910007 -16.299198556991769 0 -16.299198556991769 -85.012428659306352 0 0 0 0 35.083983509586687 -61.661472758522677 0 -61.661472758522677 -46.764811289157706 0 0 0 0 0.20751278787849969 -0.8791730180812527 0 -0.8791730180812527 -0.50099756977417176 0 0 0 0 0.3180364152492956 -0.23095814144837168 0 -0.23095814144837168 -0.16523174445716915 0 0 0 0 -20.830356456712252 4.6350264121754208 0 4.6350264121754208 -20.26503862901518 0 0 0 0 93.355998146262209 -80.683330408655593 0 -80.683330408655593 93.433224107898695 0 0 0 0 101.16019275482722 41.878597005450274 0 41.878597005450274 -169.73562554087357 0 0 0 0 6.9940680549952958 45.602270197654889 0 45.602270197654889 -81.271119127726251 0 0 0 0 6.0735546710093331 -34.56822544874808 0 -34.56822544874808 10.418130239870152 0 0 0 0 88.679062685682766 -18.165091489202126 0 -18.165091489202126 -46.874606901338666 0 0 0 0 23.63385399433173 -14.568205465991014 0 -14.568205465991014 -9.6521447475515743 0 0 0 0 90.285483604842739 -19.02530294954704 0 -19.02530294954704 -14.108287525206833 0 0 0 0 30.789710906699838 -31.474467754744239 0 -31.474467754744239 -9.4880508403311978 0 0 0 0 -37.548253475917591 34.982393563344658 0 34.982393563344658 -0.51432308234984703 0 0 0 0 -40.445083548387629 -63.454110323849363 0 -63.454110323849363 33.84743701148227 0 0 0 0 -0.081761628783624474 -0.24298952371432847 0 -0.24298952371432847 0.72614151144146888 0 0 0 0 -0.46801961537971692 -70.490476622665199 0 -70.490476622665199 -33.905303678587643 0 0 0 0 17.923948963183648 -28.266915141891786 0 -28.266915141891786 20.489869524737514 0 0 0 0 8.2268397285697574 1.2008241372622024 0 1.2008241372622024 -53.75237625014006 0 0 0 0 48.720085153085165 -3.0386955727581153 0 -3.0386955727581153 6.6132579689156046 0 0 0 0 87.891605630517006 -2.9473022733125163 0 -2.9473022733125163 -1.7870661234210274 0 0 0 0 84.577122749578848 1.0750904392548364 0 1.0750904392548364 17.754144963094404 0 0 0 0 46.022507777970532 -51.060269339274555 0 -51.060269339274555 -16.514227926447347 0 0 0 0 -6.079419160638281 0.89212993504258975 0 0.89212993504258975 -2.4709822777931549 0 0 0 0 -20.563571342030627 -27.935437728505576 0 -27.935437728505576 -14.466709877665608 0 0 0 0 -20.106377921620151 -17.871875994576385 0 -17.871875994576385 3.3559740587152191 0 0 0 0 -7.0997411880343861 -18.384733295625438 0 -18.384733295625438 -30.930398721532129 0 0 0 0 -22.550960408985702 -1.7713699786090729 0 -1.7713699786090729 1.3252279793711068 0 0 0 0 -0.57675505371410196 -0.34903702429441918 0 -0.34903702429441918 0.087444968386596766 0 0 0 0 -52.8235629569308 -22.766126464377294 0 -22.766126464377294 -11.604033786746641 0 0 0 0 -8.9794778993400541 -11.502799364008297 0 -11.502799364008297 -17.606751965864305 0 0 0 0 1.2804190576011933 -3.3266932928647179 0 -3.3266932928647179 -11.479576462724708 0 0 0 0 2.7745355573206325 6.5873061163455304 0 6.5873061163455304 -14.320820623010491 0 0 0 0 -7.1367683171301906 -1.3627574486437197 0 -1.3627574486437197 -19.637495652773396 0 0 0 0 -6.0149179545660445 -4.6910396452117311 0 -4.6910396452117311 -10.656422007335379 0 0 0 0 -5.8166486821787657 -30.156407068407049 0 -30.156407068407049 21.794419880466194 0 0 0 0 6.1720103033876512 1.7104070737582333 0 1.7104070737582333 4.6970676082587488 0 0 0 0 -0.70390030744187015 -1.276290054200854 0 -1.276290054200854 -0.30897896667630853 0 0 0 0 1.3409365507177426 -0.02497534232338694 0 -0.02497534232338694 -17.089518428279234 0 0 0 0 2.4188879235371132 -16.675707513807083 0 -16.675707513807083 -3.9080756617649968 0 0 0 0 -1.14886056362662 -1.5018749671378235 0 -1.5018749671378235 -3.7660922664187262 0 0 0 0 34.279885871139413 21.255709810070584 0 21.255709810070584 -29.367380585839328 0 0 0 0 34.271430972632515 19.578971287544164 0 19.578971287544164 -26.136292640680836 0 0 0 0 18.173601011127175 -0.3907440411717289 0 -0.3907440411717289 -22.915291936445669 0 0 0 0 28.723253850199399 18.120760800733933 0 18.120760800733933 -2.3918809540857637 0 0 0 0 1.1131759032248567 -1.5636497231916504 0 -1.5636497231916504 -4.3792174871905125 0 0 0 0 -0.41207804153252869 -0.10389221852215513 0 -0.10389221852215513 -9.8011858164102481 0 0 0 0 4.6310695446400132 3.0004785356006991 0 3.0004785356006991 -0.82343420368226816 0 0 0 0 -1.7464790559351968 -2.5082022924173089 0 -2.5082022924173089 -5.8239404262719745 0 0 0 0 -1.2056448133207596 -0.042316665619750893 0 -0.042316665619750893 -11.22336828761263 0 0 0 0 -3.9382916127578937 0.54548924217806416 0 0.54548924217806416 -4.1360187733922658 0 0 0 0 -1.6471199670821619 -0.60724071822671588 0 -0.60724071822671588 -1.5125370556324669 0 0 0 0 -0.30992429367767249 1.2430656323258411 0 1.2430656323258411 -3.9734911918226281 0 0 0 0 1.132465076478411 3.4174370152999956 0 3.4174370152999956 -4.8726953001814763 0 0 0 0 -69.930126317444319 17.9005244236414 0 17.9005244236414 48.177284904058297 0 0 0 0 -9.3736202590935136 -4.8892190006456531 0 -4.8892190006456531 -7.424621647812728 0 0 0 0 -8.6870765074618248 0.77761606920239501 0 0.77761606920239501 0.5430094753510275 0 0 0 0 273.6723155646614 -1.4481469410166028 0 -1.4481469410166028 80.723635408066343 0 0 0 0 383.15808612680121 -92.862186883810068 0 -92.862186883810068 70.508592882590165 0 0 0 0 422.10054055019646 -82.194013292174304 0 -82.194013292174304 2.9615026938954543 0 0 0 0 475.96069646193428 -196.16697067332916 0 -196.16697067332916 262.22401445899322 0 0 0 0 618.79603049577781 -80.950857980781166 0 -80.950857980781166 52.425006761794066 0 0 0 0 435.14948011184242 -74.286923270843999 0 -74.286923270843999 77.082776120028257 0 0 0 0 328.95354603688247 -112.09338512841464 0 -112.09338512841464 109.3964533837916 0 0 0 0 238.63876705613802 -1.2477927927352539 0 -1.2477927927352539 50.744897849916924 0 0 0 0 147.06251504839383 -36.11138541721391 0 -36.11138541721391 78.390127611551634 0 0 0 0 153.04664659595983 10.578305942643738 0 10.578305942643738 -53.082715678148134 0 0 0 0 263.72358521910792 -38.24316673431008 0 -38.24316673431008 -18.973996517147953 0 0 0 0 137.60617029545756 -25.851588312976247 0 -25.851588312976247 -36.564955626495305 0 0 0 0 199.70761634518203 37.837938445291172 0 37.837938445291172 -10.868361738843717 0 0 0 0 222.60726142018029 -60.526575725904394 0 -60.526575725904394 3.193522116869755 0 0 0 0 309.70565379178606 -102.72420026568474 0 -102.72420026568474 -25.613621802948217 0 0 0 0 169.11521797274327 -99.337634993569338 0 -99.337634993569338 -18.274714442604008 0 0 0 0 124.79371680401164 -99.78813647818248 0 -99.78813647818248 -0.39166687832209846 0 0 0 0 142.32444333408966 -8.3865703598112873 0 -8.3865703598112873 -29.364179455401313 0 0 0 0 0.71747829308268507 -1.0302516561750279 0 -1.0302516561750279 -1.7502577569384177 0 0 0 0 36.507156886198572 32.715995913161237 0 32.715995913161237 14.525789443727959 0 0 0 0 34.820492562972504 0.68609427538922318 0 0.68609427538922318 -29.045949503922884 0 0 0 0 42.457644475747657 -1.4397512850571275 0 -1.4397512850571275 -45.475648953194195 0 0 0 0 20.072254803788383 -14.662982339149494 0 -14.662982339149494 -48.588725507920344 0 0 0 0 127.27632717625511 -93.447840759913632 0 -93.447840759913632 -16.566720507602213 0 0 0 0 62.707741436777724 0.75048434613609061 0 0.75048434613609061 -59.908869637461066 0 0 0 0 29.512429921684088 -85.28395799088139 0 -85.28395799088139 -6.1993498993700769 0 0 0 0 85.853887022100025 -95.546033201150067 0 -95.546033201150067 -35.175586416651186 0 0 0 0 14.676937532329489 -3.252484987677783 0 -3.252484987677783 -0.15826578280778758 0 0 0 0 52.574990554090618 -26.630128154562044 0 -26.630128154562044 -39.521897572651596 0 0 0 0 1.5975203800654754 -2.2247895692285979 0 -2.2247895692285979 -0.61955146023215368 0 0 0 0 20.119953609242657 -0.63019536737363069 0 -0.63019536737363069 -16.877850630891189 0 0 0 0 12.290716260471527 -26.441734540052494 0 -26.441734540052494 -10.755245721904203 0 0 0 0 17.654272315470735 0.35810610371606799 0 0.35810610371606799 -11.553670574169473 0 0 0 0 23.888010047496209 -3.5561074763314764 0 -3.5561074763314764 -7.5384784653467705 0 0 0 0 27.577597534098459 -0.44920374669459306 0 -0.44920374669459306 -11.540485292975218 0 0 0 0 19.994882257113204 10.553963795586583 0 10.553963795586583 2.6802092774883022 0 0 0 0 19.375594136501604 -10.807737992699458 0 -10.807737992699458 -7.55323964170816 0 0 0 0 25.543579729501289 -14.140130970565536 0 -14.140130970565536 -11.242810007501021 0 0 0 0 17.476153562590071 -9.5902464404863554 0 -9.5902464404863554 -14.862872383453805 0 0 0 0 30.426281740037666 -4.982508680109845 0 -4.982508680109845 -13.249009730801163 0 0 0 0 18.32242512196899 -9.0910377854477247 0 -9.0910377854477247 -14.730058227132304 0 0 0 0 25.300768196342688 2.7166355481567734 0 2.7166355481567734 -57.44769859219241 0 0 0 0 38.239788029908595 -8.9955553699307984 0 -8.9955553699307984 -65.820778008373054 0 0 0 0 18.941905997293219 -5.1728776893351816 0 -5.1728776893351816 -0.84593948792404905 0 0 0 0 23.586588756672427 -10.498145123557606 0 -10.498145123557606 -18.687856861075716 0 0 0 0 21.227782032725372 -24.885894898113293 0 -24.885894898113293 -68.112490249548955 0 0 0 0 16.211589038226521 -35.559570441982942 0 -35.559570441982942 -88.170673343485305 0 0 0 0 16.490853179665464 13.130052020782045 0 13.130052020782045 -52.278713618549773 0 0 0 0 14.67236577544827 -15.49197049687973 0 -15.49197049687973 -45.808256944209234 0 0 0 0 39.043767899809609 5.7827237755618626 0 5.7827237755618626 -62.440417980765233 0 0 0 0 4.0068946416789686 -1.4157895641616562 0 -1.4157895641616562 -17.621115691849035 0 0 0 0 19.913092797098216 0.80534084543205608 0 0.80534084543205608 -36.288675234654875 0 0 0 0 21.663593990946538 -3.7840790417290009 0 -3.7840790417290009 -26.275058106408324 0 0 0 0 8.638631929154414 -8.0241157294892549 0 -8.0241157294892549 -7.4234267408620216 0 0 0 0 5.5975894102334891 -0.27464848528224195 0 -0.27464848528224195 -3.9468619850907301 0 0 0 0 9.9405465790480747 -2.2694749549566575 0 -2.2694749549566575 -2.8303135069922867 0 0 0 0 13.791708042706887 -12.492596640282954 0 -12.492596640282954 -35.288325274293982 0 0 0 0 5.4337845129939524 -2.8753803205260056 0 -2.8753803205260056 -18.305850102944987 0 0 0 0 13.682043548004003 -3.7106728872358872 0 -3.7106728872358872 -23.402446081112828 0 0 0 0 8.3717903601864236 -6.3275332442312902 0 -6.3275332442312902 -14.656042322673784 0 0 0 0 13.809635942463501 0.98144171917078893 0 0.98144171917078893 -16.330163510114744 0 0 0 0 17.270673180857557 -11.125193137242036 0 -11.125193137242036 -12.813667722803075 0 0 0 0 8.5315263450356724 -2.6812481251462259 0 -2.6812481251462259 -7.0605890118407615 0 0 0 0 8.7523302802165581 -0.78109273952055247 0 -0.78109273952055247 -10.487322689610522 0 0 0 0 10.109088618133242 -4.4035955340975832 0 -4.4035955340975832 -6.4996132589799629 0 0 0 0 9.6724419496677001 -4.5396961257806652 0 -4.5396961257806652 -11.893044229496837 0 0 0 0 4.7484717698862369 -4.2015067478413357 0 -4.2015067478413357 -2.3399044044529091 0 0 0 0 16.736039753137447 -13.735250486013911 0 -13.735250486013911 -0.49675004277878543 0 0 0 0 3.6044341381566483 -3.4428117459550549 0 -3.4428117459550549 0.84182046006480959 0 0 0 0 5.9929773392177594 -3.1619572082325931 0 -3.1619572082325931 -5.7081789915728223 0 0 0 0 1.4272687515201028 -0.27024114983406911 0 -0.27024114983406911 -0.84086253288682766 0 0 0 0 7.8618608362035047 0.31482352855488926 0 0.31482352855488926 -5.6840936058350735 0 0 0 0 4.6278070031063576 -0.28981997037003993 0 -0.28981997037003993 -6.1834913264615219 0 0 0 0 6.0989232855191347 -1.394077604435676 0 -1.394077604435676 -6.6367239951366859 0 0 0 0 7.9005074391423733 0.5097489867992806 0 0.5097489867992806 -5.8330496170491255 0 0 0 0 10.481599481128796 -0.96263719291255256 0 -0.96263719291255256 1.8603155266098383 0 0 0 0 -0.49963291821040912 16.340866379838303 0 16.340866379838303 -21.361120047043187 0 0 0 0 0.81932757772507081 0.55633420801808597 0 0.55633420801808597 -0.47751269861567014 0 0 0 0 19.135528060007346 8.2262577182639234 0 8.2262577182639234 -50.053314795982942 0 0 0 0 -11.815094477185994 -13.336810610677489 0 -13.336810610677489 -13.692449108454639 0 0 0 0 -0.16589251191908261 -15.677168596124375 0 -15.677168596124375 -21.03052287568471 0 0 0 0 15.384921575103363 -11.858349197369648 0 -11.858349197369648 -21.561399867286354 0 0 0 0 -2.9000692167537636 -8.5148864838279223 0 -8.5148864838279223 -15.508722272663476 0 0 0 0 89.501308585444349 33.060482699831482 0 33.060482699831482 -9.0860333500368142 0 0 0 0 9.3146413256389735 -4.1840578835778643 0 -4.1840578835778643 0.15669093271435308 0 0 0 0 53.253790947448579 43.93939864909089 0 43.93939864909089 -12.337536138370865 0 0 0 0 19.373612525911199 3.9618213643457736 0 3.9618213643457736 6.6322913293604415 0 0 0 0 32.751236599355252 40.789144698480015 0 40.789144698480015 9.8603690191343958 0 0 0 0 0.52027668806009331 -0.047534768846910325 0 -0.047534768846910325 -0.041711584248473876 0 0 0 0 19.61806495525525 9.0251004853575978 0 9.0251004853575978 10.955191727870442 0 0 0 0 23.923443620697071 10.741999959490386 0 10.741999959490386 10.13002052491629 0 0 0 0 22.104250081989449 8.7965493401742378 0 8.7965493401742378 8.0886356524783878 0 0 0 0 21.365304961262154 10.726014456407711 0 10.726014456407711 12.46757567439272 0 0 0 0 39.644603562053817 60.292819039094411 0 60.292819039094411 102.83216881421413 0 0 0 0 17.910558414501793 -4.3156660205278286 0 -4.3156660205278286 26.686847576630043 0 0 0 0 7.9268015277167549 -3.248562173727219 0 -3.248562173727219 -0.61928937340907675 0 0 0 0 18.878087901743129 -3.0341276016293932 0 -3.0341276016293932 4.4815444629682588 0 0 0 0 18.341405794833918 9.0565727762691495 0 9.0565727762691495 13.273581237133385 0 0 0 0 54.485552767440822 7.4495728582934362 0 7.4495728582934362 -3.8918859430605153 0 0 0 0 32.222195129928878 -10.370600820936147 0 -10.370600820936147 -2.5745131861594928 0 0 0 0 35.083466545380361 -18.607396712131049 0 -18.607396712131049 -4.001039800288936 0 0 0 0 8.1485429622407537 -15.0269455682905 0 -15.0269455682905 14.463583801631103 0 0 0 0 32.968413850452635 -31.935309123302659 0 -31.935309123302659 25.953669631940443 0 0 0 0 75.262571250159453 -13.78022322715384 0 -13.78022322715384 -3.7613667215623536 0 0 0 0 25.775769693042093 3.9057525286267492 0 3.9057525286267492 0.85899021530349273 0 0 0 0 29.039014006506477 7.6672304828970255 0 7.6672304828970255 2.3960377299063111 0 0 0 0 23.588020800569211 5.1449670990250524 0 5.1449670990250524 2.550122304423212 0 0 0 0 28.684249618825561 6.497086217088281 0 6.497086217088281 1.3587720816412627 0 0 0 0 33.155306475760881 10.191324702608199 0 10.191324702608199 2.350996572331205 0 0 0 0 29.350480904540746 7.4463246549660198 0 7.4463246549660198 2.43544108691556 0 0 0 0 36.12407947293832 13.461218398960909 0 13.461218398960909 4.0768486972821734 0 0 0 0 32.051326665750821 11.317125425377299 0 11.317125425377299 3.7932672456828129 0 0 0 0 33.365484121863119 10.635170867376019 0 10.635170867376019 2.9395928958310833 0 0 0 0 28.689259184240655 8.5795739645677713 0 8.5795739645677713 4.4620402225336875 0 0 0 0 28.518982284695085 9.1402536093287381 0 9.1402536093287381 3.0267251156805344 0 0 0 0 31.978798996853584 12.326499736051346 0 12.326499736051346 4.4147695523097354 0 0 0 0 26.543929089002631 10.379018027738312 0 10.379018027738312 7.0643448549471941 0 0 0 0 25.911697435120004 11.540005575444411 0 11.540005575444411 5.0057074158949035 0 0 0 0 22.205799877418031 6.899266579411119 0 6.899266579411119 4.8467462639778205 0 0 0 0 21.618055148723215 5.4988118634312286 0 5.4988118634312286 5.2163041402880026 0 0 0 0 23.178750605771711 5.7561797359023785 0 5.7561797359023785 5.2586137796070034 0 0 0 0 24.958151990278566 4.7637348172393104 0 4.7637348172393104 1.7747655423902415 0 0 0 0 15.316297944416874 1.6581517122317564 0 1.6581517122317564 3.5704830702850927 0 0 0 0 70.83587764105323 0.75425179313560875 0 0.75425179313560875 -27.669488236480788 0 0 0 0 36.614444567163446 67.604412741501847 0 67.604412741501847 44.040851160512375 0 0 0 0 -11.015508893258811 51.819440407606862 0 51.819440407606862 56.6698942924113 0 0 0 0 25.885817051304912 -14.591926597026486 0 -14.591926597026486 -41.058404949162764 0 0 0 0 -15.410393334629816 -7.67755175263067 0 -7.67755175263067 10.620688570821585 0 0 0 0 55.95167598988337 31.657881483806705 0 31.657881483806705 23.288048585182651 0 0 0 0 42.691489716688352 -12.276436038585189 0 -12.276436038585189 0.09222021807136116 0 0 0 0 55.749169728980632 5.0018527729685047 0 5.0018527729685047 65.567236013747333 0 0 0 0 40.715112079403752 23.019212527287735 0 23.019212527287735 44.330311997311583 0 0 0 0 64.947512818383984 19.575321771262907 0 19.575321771262907 37.6557537631179 0 0 0 0 6.4113335705696954 -4.2096435736956437 0 -4.2096435736956437 -1.1305849426072427 0 0 0 0 50.32919539336217 6.6316233288271178 0 6.6316233288271178 69.544183980883417 0 0 0 0 10.156692438795019 -5.2595086136338054 0 -5.2595086136338054 1.4446043360564005 0 0 0 0 15.819037817258504 -5.767849257162311 0 -5.767849257162311 -1.2000731140112748 0 0 0 0 13.284805539731678 -2.4630312151879252 0 -2.4630312151879252 3.1005734627588026 0 0 0 0 20.000049779944675 -0.87881384574848198 0 -0.87881384574848198 -0.90452360839663015 0 0 0 0 18.145681317706476 -1.892407894385542 0 -1.892407894385542 -2.6396941130096252 0 0 0 0 21.007045762653433 -3.2335759517469569 0 -3.2335759517469569 -4.2094216915927518 0 0 0 0 23.434065338056826 2.1452269255121337 0 2.1452269255121337 0.69084827883210664 0 0 0 0 18.560849198285723 -1.1060948506701607 0 -1.1060948506701607 -1.2677308124123101 0 0 0 0 25.726527021346556 1.1207594173516782 0 1.1207594173516782 -2.6989365050867491 0 0 0 0 34.313124082320428 3.2202308459275173 0 3.2202308459275173 -3.8651411565278977 0 0 0 0 27.300973989644262 -0.23290878445209273 0 -0.23290878445209273 -4.3345438939209089 0 0 0 0 25.420827639620256 1.8825172964125159 0 1.8825172964125159 -1.9749761480807138 0 0 0 0 18.250492979839692 -13.078102234218335 0 -13.078102234218335 -8.9027346856148597 0 0 0 0 9.3070953878423097 -17.025575656476043 0 -17.025575656476043 -6.109555593705295 0 0 0 0 11.386768756752268 -6.7476145011283641 0 -6.7476145011283641 3.0245332139202366 0 0 0 0 20.453921847058155 -6.8051191125681498 0 -6.8051191125681498 -4.485774074118126 0 0 0 0 15.250056331322412 -5.2253156583025202 0 -5.2253156583025202 -2.695784666255804 0 0 0 0 19.018463146872818 -14.056756032325907 0 -14.056756032325907 -1.3844759539192637 0 0 0 0 24.845841388014378 -7.2297807887431418 0 -7.2297807887431418 -5.8844044940165077 0 0 0 0 26.501865356738563 -2.9753750566561052 0 -2.9753750566561052 -3.5473179602906839 0 0 0 0 28.261346640290867 0.1014341978877269 0 0.1014341978877269 -4.0800247933700575 0 0 0 0 29.498861900927295 -4.7203091484578863 0 -4.7203091484578863 -3.9583769940368256 0 0 0 0 40.072666617248615 2.4726577153885501 0 2.4726577153885501 -4.9569438107470205 0 0 0 0 36.322507819586463 6.0213234219502851 0 6.0213234219502851 -4.6767788944010817 0 0 0 0 41.431391107385025 17.31706020570897 0 17.31706020570897 0.80812476867095029 0 0 0 0 43.181029207240499 9.1871018474802781 0 9.1871018474802781 -3.9743238953479931 0 0 0 0 32.933991921473535 7.9825086652775497 0 7.9825086652775497 -0.40757276179601831 0 0 0 0 31.547870852409687 5.5046195448642266 0 5.5046195448642266 -1.6051150646511587 0 0 0 0 30.213225136991241 5.7849471392486294 0 5.7849471392486294 0.43001712669320113 0 0 0 0 36.286187972003972 9.7970323896112177 0 9.7970323896112177 0.0060125920174414205 0 0 0 0 25.068045251100557 1.5254788080259232 0 1.5254788080259232 -1.0315471541900934 0 0 0 0 30.925075647312042 5.8011784580764925 0 5.8011784580764925 -1.410963883884051 0 0 0 0 35.065604297720711 12.406761843649292 0 12.406761843649292 7.6702755840876762 0 0 0 0 34.517163638420016 13.554715626061309 0 13.554715626061309 6.1618450302862584 0 0 0 0 34.473059100440878 12.700350838746544 0 12.700350838746544 4.4208831418902719 0 0 0 0 34.668274287158852 9.5978068008452944 0 9.5978068008452944 2.1562950721449852 0 0 0 0 37.372753183051827 13.638216245991657 0 13.638216245991657 1.9614392469990207 0 0 0 0 39.528928984356753 19.596704713265353 0 19.596704713265353 9.920825444982313 0 0 0 0 46.28749705919472 20.126177577993872 0 20.126177577993872 -0.46578450387244175 0 0 0 0 44.703183556324802 27.3851823259306 0 27.3851823259306 10.845423802196024 0 0 0 0 42.518040221875708 19.169311085315258 0 19.169311085315258 3.7811170288769631 0 0 0 0 45.023162100376794 18.060007526326558 0 18.060007526326558 -3.6519951664433847 0 0 0 0 54.423145817152545 29.017424007113334 0 29.017424007113334 -3.0455935187183059 0 0 0 0 57.771093689672853 22.286515643265091 0 22.286515643265091 -3.8784758703548334 0 0 0 0 68.811449586777599 28.575904997456348 0 28.575904997456348 -12.622256616687196 0 0 0 0 57.100249048713522 8.4259692511375874 0 8.4259692511375874 -6.1968225380364856 0 0 0 0 50.790134652212146 15.54881642354141 0 15.54881642354141 -9.262688482985709 0 0 0 0 59.183672386221588 6.4906114705511868 0 6.4906114705511868 -8.8905879868818829 0 0 0 0 79.327150857730885 13.496261219953965 0 13.496261219953965 -16.117185610434234 0 0 0 0 68.737764257166418 14.371720471989079 0 14.371720471989079 -9.2017596071421792 0 0 0 0 68.990987543660594 15.628249826346007 0 15.628249826346007 -12.384279937359281 0 0 0 0 69.108353685849579 25.380014915498123 0 25.380014915498123 -19.622699093384767 0 0 0 0 72.486885083502784 21.608435998851199 0 21.608435998851199 -16.441693158752514 0 0 0 0 88.868000308651972 1.2852196973315841 0 1.2852196973315841 -12.463295090943831 0 0 0 0 81.27452662531141 17.021046642487732 0 17.021046642487732 -24.387233483163044 0 0 0 0 75.799841797756244 12.801923715939107 0 12.801923715939107 -15.727767819013991 0 0 0 0 79.333299932392947 8.8603053489019103 0 8.8603053489019103 -7.2305477176351474 0 0 0 0 84.230586312489322 3.272967453232269 0 3.272967453232269 1.1603858512058309 0 0 0 0 79.599857250323396 -2.8005488372187006 0 -2.8005488372187006 -5.1373013626356396 0 0 0 0 83.210702176251289 -10.172665366420835 0 -10.172665366420835 31.095587089727857 0 0 0 0 90.854537042429001 -38.761005820585154 0 -38.761005820585154 32.313182100557228 0 0 0 0 107.41495674553153 -27.695214719226041 0 -27.695214719226041 -3.3259625218562476 0 0 0 0 110.45901299823163 -11.636835797897376 0 -11.636835797897376 -23.43704253711741 0 0 0 0 91.671374350647966 5.0525912328138105 0 5.0525912328138105 -25.396886492666653 0 0 0 0 87.727196255884337 -4.9769163780504471 0 -4.9769163780504471 3.973494828788148 0 0 0 0 4.5601337306507048 -17.642854805009321 0 -17.642854805009321 49.643540148179738 0 0 0 0 89.193886175659827 -15.824299017211818 0 -15.824299017211818 -0.42828399522323934 0 0 0 0 57.838893078816909 -38.7281805729571 0 -38.7281805729571 21.78167550523608 0 0 0 0 21.004276321356883 -16.99332682153667 0 -16.99332682153667 14.673309177147814 0 0 0 0 45.380582051486499 -16.925766791270327 0 -16.925766791270327 1.6332907402468209 0 0 0 0 44.955829846960114 -11.108564530211879 0 -11.108564530211879 -0.70973309347400004 0 0 0 0 64.27819694217942 -2.3948814196372581 0 -2.3948814196372581 -6.6894409357387303 0 0 0 0 40.276561125210719 -1.8395004942431683 0 -1.8395004942431683 -6.6285626681485468 0 0 0 0 38.710222350853655 -1.7693825203049016 0 -1.7693825203049016 -3.5561042848297575 0 0 0 0 31.065017001532397 -12.842920029523327 0 -12.842920029523327 -2.5459045779298322 0 0 0 0 21.988086525183462 -11.172311884807129 0 -11.172311884807129 1.4702617517551175 0 0 0 0 17.825234482261294 -18.194791529368274 0 -18.194791529368274 2.1396846839350587 0 0 0 0 9.06250315133002 -12.70132861488446 0 -12.70132861488446 -1.0435507381674256 0 0 0 0 2.9892009029754263 -16.095736991593697 0 -16.095736991593697 2.741070395743435 0 0 0 0 8.9375063506522565 -14.881482569242706 0 -14.881482569242706 4.8021876285820895 0 0 0 0 5.1993890343874227 -11.63771886302635 0 -11.63771886302635 2.3224817626979757 0 0 0 0 2.1039941483832081 -11.327853163019881 0 -11.327853163019881 12.256995092213685 0 0 0 0 1.921660516183465 -8.7535985403379009 0 -8.7535985403379009 3.5994800801371412 0 0 0 0 9.5550260415147932 -13.039363010038699 0 -13.039363010038699 9.2227178209263343 0 0 0 0 4.387461093148886 -12.08261419684392 0 -12.08261419684392 24.935930898552158 0 0 0 0 21.444271409326575 -16.202534749558907 0 -16.202534749558907 8.0352757521121703 0 0 0 0 2.7477573760952509 -3.9327193709122952 0 -3.9327193709122952 5.8441799474639851 0 0 0 0 -1.7585309885143943 -5.957439423293053 0 -5.957439423293053 9.353755802506285 0 0 0 0 7.6106602321870014 4.7388283827463695 0 4.7388283827463695 11.92917781017805 0 0 0 0 91.344004106184002 -24.617548973843043 0 -24.617548973843043 -2.4524689111172506 0 0 0 0 -0.36533828558328096 -0.69900830055735952 0 -0.69900830055735952 1.2059225935758298 0 0 0 0 -7.5810582449157664 0.47482930828356018 0 0.47482930828356018 3.7093499823223812 0 0 0 0 -0.35850988020683872 -9.4675619863334646 0 -9.4675619863334646 5.4365504436033518 0 0 0 0 384.08711546906852 -73.575720324890057 0 -73.575720324890057 -48.128575047290155 0 0 0 0 30.080456953170597 -39.694242816696999 0 -39.694242816696999 63.102298569098366 0 0 0 0 4.6724451004748389 -2.4566231444961879 0 -2.4566231444961879 0.87642965748144985 0 0 0 0 2.70767230235586 -1.6854780464567511 0 -1.6854780464567511 -1.2220787358333887 0 0 0 0 600.41214332150412 490.21036133078053 0 490.21036133078053 209.08798525011522 0 0 0 0 -1.4968795242675696 -7.9640801722908634 0 -7.9640801722908634 3.4750755674640459 0 0 0 0 2.0281017842917208 -10.036309509278482 0 -10.036309509278482 -3.1553517372311717 0 0 0 0 2.9244554432443692 -12.886423734859591 0 -12.886423734859591 5.4439061982046155 0 0 0 0 3.4216521945636487 -16.692666277731917 0 -16.692666277731917 -2.2545018973732027 0 0 0 0 -262.59609079634356 326.54942913011354 0 326.54942913011354 -59.675394934769429 0 0 0 0 378.11703762747857 -315.93561948591855 0 -315.93561948591855 -223.00729327744375 0 0 0 0 13.616949192435762 -7.7527618998825787 0 -7.7527618998825787 2.0970703276531824 0 0 0 0 4.0267679786890085 -1.6322990597160398 0 -1.6322990597160398 0.073788206299755466 0 0 0 0 667.35509912918496 151.41736503373568 0 151.41736503373568 98.429457734819607 0 0 0 0 339.94074792045649 339.98259212744324 0 339.98259212744324 69.133183667139292 0 0 0 0 38.43440946408009 -1094.024217173549 0 -1094.024217173549 447.10050792290582 0 0 0 0 470.05034642078317 555.61316780127174 0 555.61316780127174 118.83466022266293 0 0 0 0 -8.200935413073239 -139.80866410974204 0 -139.80866410974204 343.16262046928387 0 0 0 0 8.9348149415675806 -3.898957248171131 0 -3.898957248171131 1.1387422422999922 0 0 0 0 288.44160717521845 -16.503532175320061 0 -16.503532175320061 -641.7333546708644 0 0 0 0 -43.284886127215941 40.444234971178503 0 40.444234971178503 116.07884510519398 0 0 0 0 11.518471265498917 -3.2212647746234362 0 -3.2212647746234362 -0.70095006946176341 0 0 0 0 2.8222111610521097 -77.542394555677674 0 -77.542394555677674 -623.52893935477709 0 0 0 0 -25.491523734461225 340.39333829210318 0 340.39333829210318 -186.17428463156193 0 0 0 0 46.632545368825959 210.51061302288417 0 210.51061302288417 -150.17275123034051 0 0 0 0 -24.592636337765725 248.31596026921716 0 248.31596026921716 -153.8309264527943 0 0 0 0 54.18768946439377 304.75847106621268 0 304.75847106621268 -469.35440475453561 0 0 0 0 63.006567056727363 -236.58502061167928 0 -236.58502061167928 -790.72665309615331 0 0 0 0 1.496552663374203 0.31157403880692058 0 0.31157403880692058 -1.1067585226614138 0 0 0 0 677.80782093085872 -106.77071368215684 0 -106.77071368215684 -173.51221607601599 0 0 0 0 27.464828088814102 -148.27123369681112 0 -148.27123369681112 -148.5827716021895 0 0 0 0 -70.138018014797126 260.64139763995172 0 260.64139763995172 48.313430316732592 0 0 0 0 -13.136340686949552 164.81209730168757 0 164.81209730168757 49.991382125391958 0 0 0 0 224.43499914702625 511.50631479043204 0 511.50631479043204 555.92522480913067 0 0 0 0 784.0039233304924 -610.95114157174794 0 -610.95114157174794 923.91060466850513 0 0 0 0 990.80607523862636 149.78837078940182 0 149.78837078940182 -275.85450630923333 0 0 0 0 165.38867990176732 270.10179333346241 0 270.10179333346241 -286.71876650015292 0 0 0 0 -258.01375356659264 1.2817964137882427 0 1.2817964137882427 660.70942844361934 0 0 0 0 -199.6343263304625 -88.341519767580621 0 -88.341519767580621 56.354696862903893 0 0 0 0 13.116582662639956 -8.4804703452556076 0 -8.4804703452556076 4.4166921179217828 0 0 0 0 7.4255273023227346 -20.947496183561611 0 -20.947496183561611 -5.1270959672122558 0 0 0 0 11.016927972988924 -8.1783163238195016 0 -8.1783163238195016 -3.251503834037635 0 0 0 0 28.350541721127229 46.913642708285352 0 46.913642708285352 46.560845468258776 0 0 0 0 24.088183836320241 55.272144337314671 0 55.272144337314671 30.453418840791073 0 0 0 0 -48.191510367258161 94.11661781421526 0 94.11661781421526 94.695857096810414 0 0 0 0 -3.3251430809941667 6.1003407058876746 0 6.1003407058876746 -47.398572866172799 0 0 0 0 -27.465235140179175 224.29816383138342 0 224.29816383138342 -0.69734309724663035 0 0 0 0 -38.981597497782786 224.3227435478284 0 224.3227435478284 -0.58998849756653726 0 0 0 0 38.649619597243145 69.279875062292376 0 69.279875062292376 -180.02330151173965 0 0 0 0 22.852209304939606 173.108359562023 0 173.108359562023 -207.13915160084412 0 0 0 0 -55.351808301644269 133.68965048720622 0 133.68965048720622 -121.43825805818415 0 0 0 0 -0.17841760997551148 -1.7309121864162971 0 -1.7309121864162971 -0.092689812530936333 0 0 0 0 -11.679370639834815 -8.4414170607846586 0 -8.4414170607846586 1.8684357172735417 0 0 0 0 39.77425836601833 59.111208203544038 0 59.111208203544038 -184.04535305013042 0 0 0 0 7.3710229614820761 -2.4497832637544974 0 -2.4497832637544974 -2.6207854949906273 0 0 0 0 2.4022793260191975 1.0857866357137027 0 1.0857866357137027 -7.8324508728537694 0 0 0 0 32.781846067715378 38.829624593259723 0 38.829624593259723 20.894099726820968 0 0 0 0 5.2621584342923597 -10.821846202834877 0 -10.821846202834877 23.158025362202807 0 0 0 0 0.17155316416840094 -0.10691641668057894 0 -0.10691641668057894 0.093915694189232291 0 0 0 0 0.73717174676448849 -24.734634702226572 0 -24.734634702226572 -5.2538320039138853 0 0 0 0 6.6318787512609561 -5.6054173372413061 0 -5.6054173372413061 -18.956207692257976 0 0 0 0 16.545122231462301 -21.060970661590488 0 -21.060970661590488 4.1202211608433572 0 0 0 0 11.971837737037276 -1.3874898842545136 0 -1.3874898842545136 -1.905322262813238 0 0 0 0 4.501415203991499 -1.1970798907074887 0 -1.1970798907074887 -5.1981187292732702 0 0 0 0 12.907715279440481 9.4291898408998662 0 9.4291898408998662 1.7958988565998197 0 0 0 0 34.953491751082765 13.224888763612725 0 13.224888763612725 -6.0978034955450369 0 0 0 0 23.089070233196253 -0.053938903777520864 0 -0.053938903777520864 -5.8390186736780514 0 0 0 0 32.245801159552229 24.593395684130737 0 24.593395684130737 9.766789356330321 0 0 0 0 32.372989184354083 15.167862471398394 0 15.167862471398394 7.881464072649635 0 0 0 0 77.076735159684176 17.562982559436925 0 17.562982559436925 -11.794279826148081 0 0 0 0 162.40794556331457 52.969169895711673 0 52.969169895711673 -53.404206951534348 0 0 0 0 87.631110506319601 53.05780880548695 0 53.05780880548695 -10.247978358894329 0 0 0 0 197.51441633650393 95.433341583247625 0 95.433341583247625 -58.367624010432337 0 0 0 0 162.46542074760191 52.880882106146629 0 52.880882106146629 -101.9722319581922 0 0 0 0 228.0091676232405 98.281212903883329 0 98.281212903883329 -59.002607047372351 0 0 0 0 127.61783678338361 119.80849102733129 0 119.80849102733129 39.893398777969992 0 0 0 0 87.876683525311819 65.311241305809745 0 65.311241305809745 -0.5500489418254233 0 0 0 0 36.692770722504065 45.636023235909306 0 45.636023235909306 37.581639277805039 0 0 0 0 50.112222735268006 90.537593368784542 0 90.537593368784542 88.852978960796918 0 0 0 0 25.036846925926511 35.198807800638519 0 35.198807800638519 42.08132780462131 0 0 0 0 32.848174228667631 36.768818810384062 0 36.768818810384062 29.732609408263215 0 0 0 0 77.649283680984809 93.886331895009391 0 93.886331895009391 38.085529243662222 0 0 0 0 -54.532458743533425 1.0442534754532176 0 1.0442534754532176 95.523118076491755 0 0 0 0 -19.024193633867071 110.34893936403736 0 110.34893936403736 156.18283831635631 0 0 0 0 -0.42525959904014599 -26.417897815302126 0 -26.417897815302126 18.969115603054888 0 0 0 0 3.8359833008107671 13.833363008736796 0 13.833363008736796 15.826810287103513 0 0 0 0 25.696246852552576 -9.9139524599927427 0 -9.9139524599927427 -21.806319791574879 0 0 0 0 5.8025202276403434 -7.6413059022439711 0 -7.6413059022439711 8.0077448341282889 0 0 0 0 19.567551583975728 18.438735958951995 0 18.438735958951995 17.19993941222674 0 0 0 0 24.638346875013667 9.5024808981654587 0 9.5024808981654587 13.256105240156785 0 0 0 0 46.520937779157975 33.735811702714159 0 33.735811702714159 20.895374642620709 0 0 0 0 14.093183415032399 15.231548229710143 0 15.231548229710143 23.289186920489783 0 0 0 0 249.69306582959689 -194.30251298988992 0 -194.30251298988992 132.16870180217211 0 0 0 0 341.01485479288021 -97.584035670326216 0 -97.584035670326216 60.080266065244814 0 0 0 0 362.99032761005947 -38.578072279582685 0 -38.578072279582685 -42.840137261861742 0 0 0 0 392.08196357851921 -132.6060328262073 0 -132.6060328262073 28.915402862621477 0 0 0 0 282.45613460200548 -142.93180806492023 0 -142.93180806492023 32.77509581891033 0 0 0 0 98.520864544872893 -148.71736928451577 0 -148.71736928451577 83.775965509105248 0 0 0 0 261.67931122822483 -284.05612169588971 0 -284.05612169588971 192.62542519140038 0 0 0 0 246.64937645537429 -257.34322405890453 0 -257.34322405890453 211.04431472036049 0 0 0 0 391.95056826902146 -406.86403503976135 0 -406.86403503976135 389.90837502050226 0 0 0 0 263.41329483570007 -297.37911925475328 0 -297.37911925475328 298.44684753356432 0 0 0 0 432.73654374202306 -264.55167174734243 0 -264.55167174734243 153.86339888665179 0 0 0 0 388.69054379474255 -218.16739167268247 0 -218.16739167268247 160.98533716715338 0 0 0 0 535.42522931613712 -128.77057973146213 0 -128.77057973146213 54.569410608413364 0 0 0 0 542.98582891403203 -272.54421472828744 0 -272.54421472828744 174.03458572894385 0 0 0 0 509.29038413873786 -240.82584563536875 0 -240.82584563536875 196.33627167697796 0 0 0 0 760.84770225640386 -338.38964380527796 0 -338.38964380527796 232.02250191777284 0 0 0 0 727.22588256661584 -136.17753019833526 0 -136.17753019833526 125.85591320627282 0 0 0 0 691.95101855895336 -115.42705566296399 0 -115.42705566296399 79.263766136065897 0 0 0 0 634.72738719396875 -2.0416930291280551 0 -2.0416930291280551 56.75668841539823 0 0 0 0 612.61023699037469 70.830352957806781 0 70.830352957806781 2.8225696826377771 0 0 0 0 714.17519797578279 -153.85101979445881 0 -153.85101979445881 104.941613816055 0 0 0 0 676.48850442836556 58.028894714500893 0 58.028894714500893 140.7354090133922 0 0 0 0 482.78412989345088 -136.42271077228747 0 -136.42271077228747 96.692249537630005 0 0 0 0 324.44496138652175 292.38458510184796 0 292.38458510184796 221.37192918052369 0 0 0 0 220.13463352520921 235.55537289205 0 235.55537289205 131.08622562703562 0 0 0 0 392.95987982859515 88.683349036597406 0 88.683349036597406 -13.510541458180569 0 0 0 0 347.52437414133601 72.352622814713072 0 72.352622814713072 24.64629734155659 0 0 0 0 512.75456126524659 -33.430968416547898 0 -33.430968416547898 -5.8626656039418776 0 0 0 0 305.87223800237552 -4.6330619897211136 0 -4.6330619897211136 -8.8630749746189252 0 0 0 0 286.78476199229772 27.398750548049406 0 27.398750548049406 -73.246279860964648 0 0 0 0 342.27126622469223 -9.7181237201752122 0 -9.7181237201752122 -50.315121286757517 0 0 0 0 225.85519228623889 -5.4873815984183238 0 -5.4873815984183238 -90.414389165167222 0 0 0 0 211.87767604295368 78.165139470425515 0 78.165139470425515 -42.05675996707015 0 0 0 0 301.91011675562186 120.36383207561296 0 120.36383207561296 -22.651825016873843 0 0 0 0 262.1567287252401 88.206461311355724 0 88.206461311355724 -75.292225471707411 0 0 0 0 201.52927614856935 41.36797258628782 0 41.36797258628782 -106.39539804483661 0 0 0 0 153.39574567135696 -30.041645249254117 0 -30.041645249254117 -125.65890071218018 0 0 0 0 233.10033949716308 6.0024086584364795 0 6.0024086584364795 -112.95693066006015 0 0 0 0 190.82679180965351 62.925546481583865 0 62.925546481583865 -129.26222383247205 0 0 0 0 105.07335964814985 -115.641008670823 0 -115.641008670823 -146.06887364787553 0 0 0 0 144.02724111473071 -73.353540097607834 0 -73.353540097607834 -126.81903668841824 0 0 0 0 131.49347432912691 -75.423319346594042 0 -75.423319346594042 -83.60621924005568 0 0 0 0 187.61622002965487 -79.849976385631308 0 -79.849976385631308 -7.5987751651809958 0 0 0 0 268.53869036067044 -59.91324277118153 0 -59.91324277118153 -83.022616641663589 0 0 0 0 242.69154698214697 -55.751913921275637 0 -55.751913921275637 -45.012350892800896 0 0 0 0 203.10154286702618 -188.29963987202274 0 -188.29963987202274 -46.628494868348128 0 0 0 0 -6.6019748594080738 -184.72249729273844 0 -184.72249729273844 -44.06889414697082 0 0 0 0 -56.523421541518474 -105.95602622870825 0 -105.95602622870825 -160.15618856785403 0 0 0 0 -474.04778610756694 -424.93191825102406 0 -424.93191825102406 145.95348636090091 0 0 0 0 -371.15888682051991 -161.94978315714226 0 -161.94978315714226 57.744026464122726 0 0 0 0 1.7282099159953876 -2.4834946257066477 0 -2.4834946257066477 3.8991379116134564 0 0 0 0 1248.9351044497489 95.918277530169917 0 95.918277530169917 -249.49238849731387 0 0 0 0 668.76770502102818 -804.41830840714124 0 -804.41830840714124 -198.22074425098276 0 0 0 0 732.91998544893795 40.149031743778096 0 40.149031743778096 132.42440867358755 0 0 0 0 -68.301524874625102 -108.83498450305513 0 -108.83498450305513 160.96218301019897 0 0 0 0 4.1811247225357455 -2.2296830786298543 0 -2.2296830786298543 -1.9426627811801813 0 0 0 0 34.459521827159278 -331.00737083861912 0 -331.00737083861912 109.9522868888223 0 0 0 0 -148.83508555034132 -155.81232669566862 0 -155.81232669566862 335.2764150355631 0 0 0 0 -151.3587625780383 -317.6488828161639 0 -317.6488828161639 12.003407051375689 0 0 0 0 21.748585592469681 -397.32074564357072 0 -397.32074564357072 585.45814367733374 0 0 0 0 33.392685592237427 6.4252946958498498 0 6.4252946958498498 0.50341092911742669 0 0 0 0 187.73559431986905 61.057826583588394 0 61.057826583588394 -86.924792383089198 0 0 0 0 115.99683438017018 -26.615781453663203 0 -26.615781453663203 -98.74514004503726 0 0 0 0 10.374282982948557 -2.5622997618657308 0 -2.5622997618657308 -2.7705866594906885 0 0 0 0 33.406097733280149 153.53270462739675 0 153.53270462739675 -322.90966958974514 0 0 0 0 45.289452518001781 34.759467578201111 0 34.759467578201111 -301.87401222557168 0 0 0 0 -0.12123752034858626 77.817125473314661 0 77.817125473314661 -200.85306534935489 0 0 0 0 54.35392290325035 70.114153489768796 0 70.114153489768796 -206.13893647959685 0 0 0 0 148.2522859305609 -11.846575660266467 0 -11.846575660266467 -222.80072523679337 0 0 0 0 -0.58172045823268803 1.2101519743223292 0 1.2101519743223292 1.0372602035814698 0 0 0 0 238.24363756991443 -209.23322434465672 0 -209.23322434465672 94.384620584069921 0 0 0 0 166.37649796639562 125.33224374952556 0 125.33224374952556 -79.66785607903239 0 0 0 0 415.68588141092914 24.095151589670877 0 24.095151589670877 -116.98818453658384 0 0 0 0 -88.7767293823199 -103.87756173856587 0 -103.87756173856587 147.9935894140815 0 0 0 0 -291.68595375086807 -128.93657082376933 0 -128.93657082376933 311.91809418278353 0 0 0 0 259.76812648755731 -523.31453506033677 0 -523.31453506033677 570.17371320195605 0 0 0 0 2.1010226087254935 -2.5849893991370312 0 -2.5849893991370312 -1.3842821538319918 0 0 0 0 611.02093423383485 -467.12882835501523 0 -467.12882835501523 376.77948565438811 0 0 0 0 684.75266830551118 -373.72204538527785 0 -373.72204538527785 402.90426912457224 0 0 0 0 847.13052429283562 -357.57966918952479 0 -357.57966918952479 202.4973900195946 0 0 0 0 759.54230234347779 -346.31284030096595 0 -346.31284030096595 298.16227405718791 0 0 0 0 5.1033032011155655 -2.1485696797690061 0 -2.1485696797690061 0.71627733130347826 0 0 0 0 430.41940764647006 -615.70761422815258 0 -615.70761422815258 44.7966558237963 0 0 0 0 673.51892898326332 235.11843165875052 0 235.11843165875052 210.66353213170925 0 0 0 0 904.16189476381987 53.089582579274975 0 53.089582579274975 99.506240606906431 0 0 0 0 987.17201214158558 -215.75898364319073 0 -215.75898364319073 131.52993449754831 0 0 0 0 1075.1978301201161 -248.86552371583912 0 -248.86552371583912 117.64825397244567 0 0 0 0 856.15488076393376 -253.05171218021223 0 -253.05171218021223 204.15549337409539 0 0 0 0 955.73388791929756 -319.86396379282542 0 -319.86396379282542 203.42152677376362 0 0 0 0 1181.4418226699054 -386.48008595376632 0 -386.48008595376632 215.83032602173535 0 0 0 0 1471.524209526091 -633.20460477470988 0 -633.20460477470988 312.37645150969183 0 0 0 0 747.15650085665402 -690.51366512354434 0 -690.51366512354434 689.15706366106679 0 0 0 0 1036.1606625815548 -958.24577832561135 0 -958.24577832561135 799.8610126033891 0 0 0 0 1311.8773763525096 -77.35500887442322 0 -77.35500887442322 138.89953179189797 0 0 0 0 760.82793510170086 -211.06678576778768 0 -211.06678576778768 521.26249488240535 0 0 0 0 42.290525788732339 231.3845436739357 0 231.3845436739357 162.57847422898999 0 0 0 0 13.404196187206672 1.3218929951656229 0 1.3218929951656229 0.35886285166626664 0 0 0 0 11.449411829162273 614.81101369363796 0 614.81101369363796 -167.68589177897047 0 0 0 0 18.095114286724275 -7.2099790417293619 0 -7.2099790417293619 0.62454398649558973 0 0 0 0 160.81987908786687 -179.50760114852778 0 -179.50760114852778 -527.93041941969318 0 0 0 0 347.52347118277976 -280.5665715091767 0 -280.5665715091767 -345.17032704658982 0 0 0 0 365.27502242593982 254.81413216595638 0 254.81413216595638 -666.14726942374796 0 0 0 0 75.790360726161452 -54.286126782570818 0 -54.286126782570818 107.85105516884641 0 0 0 0 41.102540552088612 339.57938037815302 0 339.57938037815302 -506.25669970010267 0 0 0 0 124.51322688878281 22.809436218843985 0 22.809436218843985 -209.03357116886832 0 0 0 0 -123.24257100412069 121.29631262115814 0 121.29631262115814 172.86638235199416 0 0 0 0 11.038741916629078 208.2977931163793 0 208.2977931163793 105.55222719796598 0 0 0 0 -83.017241035729739 -230.03017328878582 0 -230.03017328878582 -250.85841241773645 0 0 0 0 41.650490490934317 -17.33558992318649 0 -17.33558992318649 250.43880991571572 0 0 0 0 851.52748160566262 209.46653813237921 0 209.46653813237921 -139.95643851339196 0 0 0 0 243.82632807552 156.76553726809158 0 156.76553726809158 -297.65071914499129 0 0 0 0 604.53649498944651 -185.6790246607228 0 -185.6790246607228 5.2818692958642828 0 0 0 0 477.52915114358575 241.28598059235622 0 241.28598059235622 17.990721956601249 0 0 0 0 137.74555643037365 34.795947268228474 0 34.795947268228474 47.936542180110564 0 0 0 0 241.11198438678184 85.170733194599933 0 85.170733194599933 18.55457230977629 0 0 0 0 193.68884024181898 131.38557177716007 0 131.38557177716007 -19.861183018005988 0 0 0 0 367.80586300966388 -264.4239206971713 0 -264.4239206971713 -13.475180861104775 0 0 0 0 74.915404157665762 105.07242008977764 0 105.07242008977764 -28.647922957676144 0 0 0 0 -46.102233892493587 -307.53990410786588 0 -307.53990410786588 9.8726147662035828 0 0 0 0 4.9424072208140757 -1.8694842079797702 0 -1.8694842079797702 0.54304384105504322 0 0 0 0 381.86155024441905 275.92075716321006 0 275.92075716321006 246.0466813075729 0 0 0 0 171.3218601439512 20.218309416648822 0 20.218309416648822 -34.317362452216457 0 0 0 0 132.98676664975937 189.48317111483016 0 189.48317111483016 -147.81577044508003 0 0 0 0 13.560844218140858 -5.3206499803709484 0 -5.3206499803709484 0.84605050843508178 0 0 0 0 -119.45975579853985 261.95587228640136 0 261.95587228640136 -137.42160153733312 0 0 0 0 -107.10852263781157 49.849540100521992 0 49.849540100521992 -156.23187685089306 0 0 0 0 84.327358550392091 145.21763325191228 0 145.21763325191228 -126.47463276890676 0 0 0 0 238.16288913492463 18.201816176778721 0 18.201816176778721 -209.5088206615701 0 0 0 0 193.38650868997865 -108.94118325923193 0 -108.94118325923193 -108.15903088225241 0 0 0 0 62.758159365315805 -118.99579368305217 0 -118.99579368305217 -61.511785592353959 0 0 0 0 75.210038792683918 -91.075304352389821 0 -91.075304352389821 -56.3810126886695 0 0 0 0 206.06640493035229 -206.75478097053053 0 -206.75478097053053 -24.586620106059854 0 0 0 0 202.45160736913022 -49.350752470607631 0 -49.350752470607631 -40.188582977926444 0 0 0 0 582.93588188584545 -166.54793273320092 0 -166.54793273320092 -48.035461700494693 0 0 0 0 160.13889768527588 -287.31230871834316 0 -287.31230871834316 227.41318827986476 0 0 0 0 -28.847416938060633 -111.99565164707212 0 -111.99565164707212 137.44540467730695 0 0 0 0 -10.263423871650957 -132.87503583497545 0 -132.87503583497545 -99.566434309137662 0 0 0 0 146.7983967921864 86.253940810381465 0 86.253940810381465 139.51273742525743 0 0 0 0 424.46201199908865 -134.3957736548706 0 -134.3957736548706 -41.518638090109448 0 0 0 0 1403.0774448910634 -133.3983825294595 0 -133.3983825294595 4.0320387752483198 0 0 0 0 -93.938077965918637 57.571947766449796 0 57.571947766449796 -103.20729453832161 0 0 0 0 -0.97679210007488493 -8.126546313022132 0 -8.126546313022132 -3.0545455860589543 0 0 0 0 -303.90510767545311 -26.421711440501838 0 -26.421711440501838 132.06001345495241 0 0 0 0 -13.797454781252327 -77.930401296959573 0 -77.930401296959573 -33.917795108357268 0 0 0 0 1497.5277622510494 -186.74150986711209 0 -186.74150986711209 -4.3875755321490129 0 0 0 0 1500.5316169470861 -214.30847308675371 0 -214.30847308675371 9.1901452333398783 0 0 0 0 1467.41159453398 -185.25133651435991 0 -185.25133651435991 -3.0825388293884273 0 0 0 0 -1.8325763441385803 -12.59279900333383 0 -12.59279900333383 -5.224015663864412 0 0 0 0 -116.482708610587 -91.149307795157142 0 -91.149307795157142 61.002873551738503 0 0 0 0 79.53901486806717 -77.529854775879585 0 -77.529854775879585 -32.704417127197758 0 0 0 0 62.185962596370132 -108.3757633693796 0 -108.3757633693796 -14.026956605732494 0 0 0 0 1472.3823483316173 -217.09020235458385 0 -217.09020235458385 9.0887292294001103 0 0 0 0 -3.6198144672322421 -17.093515942133838 0 -17.093515942133838 -8.3600543762323181 0 0 0 0 1500.1628061595111 -244.71624227218607 0 -244.71624227218607 8.4764261893066593 0 0 0 0 1287.363024332024 -250.2003196519052 0 -250.2003196519052 14.643495672971572 0 0 0 0 3.6159341652534849 -19.399690907411852 0 -19.399690907411852 -11.825580200600708 0 0 0 0 123.00003912471948 -2.3651305400171623 0 -2.3651305400171623 -52.588502503435393 0 0 0 0 85.377121830482793 -20.439037470977382 0 -20.439037470977382 -46.642726536163536 0 0 0 0 61.177597259986214 28.099309628738411 0 28.099309628738411 -83.821783718282177 0 0 0 0 86.545263150133906 -82.500317374705617 0 -82.500317374705617 -35.361308161517627 0 0 0 0 73.282853667528116 -44.909708142772281 0 -44.909708142772281 -70.183651292882587 0 0 0 0 73.069005075511086 -50.932164198729197 0 -50.932164198729197 10.272086853543897 0 0 0 0 73.079263540632383 -87.359731974306897 0 -87.359731974306897 -46.180042345509719 0 0 0 0 150.23731763567048 -74.340150614891172 0 -74.340150614891172 -138.45399079427852 0 0 0 0 100.91652688444083 -18.489805651239976 0 -18.489805651239976 -155.96097792878982 0 0 0 0 50.804085028510599 4.8653936270507074 0 4.8653936270507074 -139.70576254988976 0 0 0 0 46.696959386086107 8.6531170137787505 0 8.6531170137787505 0.43258969610860731 0 0 0 0 79.367409318056161 9.0623075526170851 0 9.0623075526170851 -169.13850180964846 0 0 0 0 52.083512476099713 48.269955072487846 0 48.269955072487846 -190.02636828960067 0 0 0 0 112.19349347471689 -110.49549045465608 0 -110.49549045465608 -41.048183593506053 0 0 0 0 77.445560186159128 19.687566484434683 0 19.687566484434683 -132.85812415785722 0 0 0 0 77.869908160238992 -39.476289832060047 0 -39.476289832060047 -64.328921339941189 0 0 0 0 82.607644911164243 -12.993357501777155 0 -12.993357501777155 -131.71589144099698 0 0 0 0 38.861220007369411 14.991866504199436 0 14.991866504199436 -113.40329525630023 0 0 0 0 119.84046556784402 121.86820564592165 0 121.86820564592165 -134.68748776901566 0 0 0 0 -290.22302538011718 -136.75004799817987 0 -136.75004799817987 177.82422910026639 0 0 0 0 289.43790162778714 -274.07631997037879 0 -274.07631997037879 18.5581526508754 0 0 0 0 55.676467251610191 9.8538766805126166 0 9.8538766805126166 1.422068401290947 0 0 0 0 120.9649497013088 -193.5785950893154 0 -193.5785950893154 65.297929972831867 0 0 0 0 172.18163990818357 159.0536299340618 0 159.0536299340618 -37.441220447448472 0 0 0 0 11.109769787138323 -2.4138952739950366 0 -2.4138952739950366 -3.1285748541875975 0 0 0 0 -120.04840667758344 -100.25627279151422 0 -100.25627279151422 164.53213670524013 0 0 0 0 30.923890760764607 165.49841610142158 0 165.49841610142158 -131.88240436012262 0 0 0 0 1.0533357055651109 0.7127072333403035 0 0.7127072333403035 -0.049914772581140743 0 0 0 0 585.01739442199323 186.62492589380176 0 186.62492589380176 -149.15693138948131 0 0 0 0 193.09413788417078 174.53292616761541 0 174.53292616761541 -294.41754951961366 0 0 0 0 2.6365434501409268 -0.30086548464957374 0 -0.30086548464957374 -0.74520564179564741 0 0 0 0 210.31874518915674 64.790192190820918 0 64.790192190820918 -176.61629366982604 0 0 0 0 307.77490667448058 -63.048851653154749 0 -63.048851653154749 -257.61892956650331 0 0 0 0 302.12081427029989 45.180186065324165 0 45.180186065324165 -204.520881591879 0 0 0 0 106.54096068414765 -25.753408881479373 0 -25.753408881479373 -153.13357398084813 0 0 0 0 106.1889678706375 -17.766425465873098 0 -17.766425465873098 16.758242485405617 0 0 0 0 468.79055714255537 -3.1228936773781015 0 -3.1228936773781015 -100.31440693671709 0 0 0 0 95.766246442135525 256.40660087964199 0 256.40660087964199 90.931705585759204 0 0 0 0 1382.9894863856771 196.63244550776602 0 196.63244550776602 27.222152245645319 0 0 0 0 1498.215056154896 -195.91321795982145 0 -195.91321795982145 -28.608888433695704 0 0 0 0 -40.436702402585979 37.864608820537683 0 37.864608820537683 -59.395175228670496 0 0 0 0 10.195990361797071 7.8245636362826421 0 7.8245636362826421 -0.91070900834893875 0 0 0 0 -207.89389566702084 174.97699803281211 0 174.97699803281211 17.379627450282271 0 0 0 0 1498.483255091508 -573.3195620097913 0 -573.3195620097913 102.7879844930418 0 0 0 0 3.1495467966316113 -3.8971957483244886 0 -3.8971957483244886 -1.3477597775411261 0 0 0 0 62.134425349219384 10.682957032889883 0 10.682957032889883 -1.6179614587932991 0 0 0 0 99.087303103649901 168.56057656165063 0 168.56057656165063 -241.59268788033376 0 0 0 0 -44.802294398332833 76.342828802218349 0 76.342828802218349 -40.526789633196813 0 0 0 0 1181.8665694583251 99.934989074877933 0 99.934989074877933 -219.83892192131208 0 0 0 0 1130.9845135587998 136.75143526898609 0 136.75143526898609 -226.49184402340063 0 0 0 0 1177.7063876841567 146.58986094002526 0 146.58986094002526 -258.95882978857406 0 0 0 0 1141.7537471758769 178.20594568264832 0 178.20594568264832 -259.67775210240529 0 0 0 0 1499.8576224472854 331.84745953059905 0 331.84745953059905 -254.93901858397518 0 0 0 0 541.63741477585427 252.11347093109069 0 252.11347093109069 -14.437366775699267 0 0 0 0 872.89528414067172 253.64988755452669 0 253.64988755452669 -33.402190445136497 0 0 0 0 546.23625594962505 224.72908014306506 0 224.72908014306506 66.601665207827381 0 0 0 0 482.6477414170331 188.35657984706086 0 188.35657984706086 39.220665854851461 0 0 0 0 521.22682834786974 121.04901430702003 0 121.04901430702003 -18.214402001158192 0 0 0 0 714.85429760227453 127.25460426402965 0 127.25460426402965 -41.665967235160281 0 0 0 0 381.49201025509137 159.3290235438391 0 159.3290235438391 -5.0408063564773329 0 0 0 0 406.26335563072644 11.11584588220137 0 11.11584588220137 4.2908509451397094 0 0 0 0 331.53329900511017 65.37531968407535 0 65.37531968407535 -27.429814366886717 0 0 0 0 295.44170811714412 140.49267231514409 0 140.49267231514409 -108.18810939019522 0 0 0 0 239.2353862884338 -14.306185027975403 0 -14.306185027975403 -93.895255943269774 0 0 0 0 613.42068050693524 -290.60320241986904 0 -290.60320241986904 -213.86934578854436 0 0 0 0 1165.3746649698332 -57.23894830216932 0 -57.23894830216932 -65.106544389475374 0 0 0 0 1140.3688249419647 3.3693602192860794 0 3.3693602192860794 -199.91215446971373 0 0 0 0 827.03716805717522 -47.093933439573973 0 -47.093933439573973 -159.15216885787839 0 0 0 0 1499.7453032771591 42.459874930110701 0 42.459874930110701 -318.04823972907974 0 0 0 0 1204.2500787914178 -30.436351976739942 0 -30.436351976739942 -311.80348171188024 0 0 0 0 1296.7237356561855 -302.93656892375657 0 -302.93656892375657 -392.10207496567421 0 0 0 0 1499.7568407359577 -134.65523311992158 0 -134.65523311992158 -303.83713310611256 0 0 0 0 1582.6481555361825 -4.4526949670373028 0 -4.4526949670373028 -531.47207641001705 0 0 0 0 509.642234538097 304.99763311567142 0 304.99763311567142 -365.63899869347142 0 0 0 0 1149.6294991467221 -196.96393112210228 0 -196.96393112210228 -109.14400846794378 0 0 0 0 2.3865130974595488 -0.10269414361714979 0 -0.10269414361714979 -2.4115689998185292 0 0 0 0 906.74356860835178 -376.05569503681249 0 -376.05569503681249 -106.47808919406236 0 0 0 0 1133.2170752927341 -505.48842839912453 0 -505.48842839912453 -32.560128482869928 0 0 0 0 1499.7779415927926 -473.03013020059223 0 -473.03013020059223 -173.40606325492328 0 0 0 0 1146.7755103152231 -205.49720080560505 0 -205.49720080560505 -327.83724650523624 0 0 0 0 1309.516516210213 -287.7734724191655 0 -287.7734724191655 -287.37504905543278 0 0 0 0 1149.6539414245963 -514.0437605096389 0 -514.0437605096389 179.11037479948087 0 0 0 0 1127.9292750360219 -418.43595572237683 0 -418.43595572237683 9.955077352594131 0 0 0 0 794.99614103789418 -648.93129584997803 0 -648.93129584997803 7.595786716055045 0 0 0 0 5.3644627405361831 0.68366508552347227 0 0.68366508552347227 -4.3075972758794157 0 0 0 0 811.38038319845964 -228.31425213987814 0 -228.31425213987814 -230.08953905747444 0 0 0 0 1496.950094288436 -524.29038168273655 0 -524.29038168273655 -76.500181132238367 0 0 0 0 0.15694959579379564 -2.4795161496702534 0 -2.4795161496702534 -1.3569448496338794 0 0 0 0 -636.54565003172502 -72.561571232824349 0 -72.561571232824349 54.760270155155013 0 0 0 0 -141.44262378546046 -421.65041922419459 0 -421.65041922419459 -168.47968065168925 0 0 0 0 785.95532459550668 154.57335767415523 0 154.57335767415523 108.68636128221148 0 0 0 0 1499.5374992385493 -757.32985912320237 0 -757.32985912320237 334.47964218774842 0 0 0 0 4.0661082590919335 0.28484183872107138 0 0.28484183872107138 -1.6796400062081966 0 0 0 0 24.606056614613408 0.88597552655193113 0 0.88597552655193113 -87.267641100126866 0 0 0 0 -9.8189652987348381 34.794284423495128 0 34.794284423495128 -91.138042998486213 0 0 0 0 252.41576634715057 -68.763255190360582 0 -68.763255190360582 -120.26155133808402 0 0 0 0 274.8264345817297 56.106134297725589 0 56.106134297725589 120.46265790920938 0 0 0 0 161.68498691650984 114.13663662892412 0 114.13663662892412 -68.8313062848963 0 0 0 0 6.4446975027045141 -4.0936520759482811 0 -4.0936520759482811 1.276312349240623 0 0 0 0 52.861612247803805 -191.61569627532816 0 -191.61569627532816 -94.358471343289921 0 0 0 0 267.05671552814601 51.728136250633042 0 51.728136250633042 -131.20669586787966 0 0 0 0 1327.4730897622467 -520.82259607907258 0 -520.82259607907258 46.586974401589885 0 0 0 0 586.15059371676762 -385.26695741814024 0 -385.26695741814024 371.04880969763326 0 0 0 0 123.67536012662458 93.594587872638613 0 93.594587872638613 366.01379741782125 0 0 0 0 922.63447590408032 396.96382945070536 0 396.96382945070536 -206.54241161014579 0 0 0 0 39.38346886540603 -368.89933126643587 0 -368.89933126643587 -178.7641481122231 0 0 0 0 4.2994683142342822 -2.290790261166336 0 -2.290790261166336 0.3622778818314909 0 0 0 0 1256.7180776900714 233.95800263832723 0 233.95800263832723 -150.64802463670424 0 0 0 0 133.36931582897159 112.47530698392004 0 112.47530698392004 -73.457429558360559 0 0 0 0 -9.134750171810083 19.900134649773321 0 19.900134649773321 -39.195690079006454 0 0 0 0 362.66396500303017 82.761444048224348 0 82.761444048224348 -94.007715833897748 0 0 0 0 323.13683011848116 45.288059511786571 0 45.288059511786571 -40.290705453149123 0 0 0 0 464.56812831710522 21.100675112566336 0 21.100675112566336 -44.969299971554619 0 0 0 0 328.72443842999928 108.58962803477397 0 108.58962803477397 19.431280900506408 0 0 0 0 268.86971094147884 66.72551849790392 0 66.72551849790392 -7.2865081514042913 0 0 0 0 2.6861071255019624 -1.6459901147738734 0 -1.6459901147738734 0.75337585284643982 0 0 0 0 734.19304197671954 176.45469133830829 0 176.45469133830829 20.963393803185969 0 0 0 0 455.19328086611313 -111.36328475900828 0 -111.36328475900828 85.333437615828302 0 0 0 0 245.48547659203086 51.578733915016684 0 51.578733915016684 196.97096336654215 0 0 0 0 88.288236319669522 -337.64079283364197 0 -337.64079283364197 -34.790376266180488 0 0 0 0 428.58873735116686 -237.0395853350006 0 -237.0395853350006 -58.943547869925396 0 0 0 0 229.42732827897271 87.136982022748725 0 87.136982022748725 39.015995851969592 0 0 0 0 270.31965399182445 22.940268783055103 0 22.940268783055103 30.309264888349531 0 0 0 0 279.13216202269905 -5.8751554482170718 0 -5.8751554482170718 49.956610789338697 0 0 0 0 244.03796011098166 -33.47474906367745 0 -33.47474906367745 67.975050354787115 0 0 0 0 182.82354582192784 7.5526254137116666 0 7.5526254137116666 58.198839053505594 0 0 0 0 271.78557833914601 -3.3468290807238645 0 -3.3468290807238645 0.87589967999883811 0 0 0 0 309.40314561719424 -49.381499029896588 0 -49.381499029896588 43.988997450468169 0 0 0 0 311.66450820393038 37.008336890279367 0 37.008336890279367 -3.1173892140142243 0 0 0 0 233.68765624031948 -27.424806698598132 0 -27.424806698598132 9.3679049845610507 0 0 0 0 190.95884480291716 -11.856941346386009 0 -11.856941346386009 46.17195973607641 0 0 0 0 226.2561128369598 56.330874028352923 0 56.330874028352923 49.529474909744351 0 0 0 0 185.89889175402823 4.3700791700169361 0 4.3700791700169361 48.05895693221737 0 0 0 0 135.07778694543981 10.654146572575096 0 10.654146572575096 66.559639524352519 0 0 0 0 139.22513405698555 61.559944922467224 0 61.559944922467224 51.759286254127616 0 0 0 0 238.67909737944137 58.135056367346905 0 58.135056367346905 -3.7951988937758188 0 0 0 0 282.04815242022596 114.89166932012552 0 114.89166932012552 -13.881796364630532 0 0 0 0 286.18414565969942 99.14551789327075 0 99.14551789327075 19.973379831375496 0 0 0 0 307.08500931556046 110.82617659350376 0 110.82617659350376 -41.825300594279611 0 0 0 0 318.04417211710097 129.08729105354763 0 129.08729105354763 -52.709994565323967 0 0 0 0 359.92832635411469 132.67134617268005 0 132.67134617268005 -37.173760927888836 0 0 0 0 306.84869303769165 133.44192026442104 0 133.44192026442104 20.09875357685064 0 0 0 0 334.01326613056881 158.84683937305624 0 158.84683937305624 43.548865167555888 0 0 0 0 307.51909595902907 141.87912750381562 0 141.87912750381562 8.6204254914167677 0 0 0 0 242.32237942705251 136.89299911981303 0 136.89299911981303 49.680728609877491 0 0 0 0 224.38456553224023 89.941756529744112 0 89.941756529744112 19.924257557459853 0 0 0 0 300.48955728204237 158.03320980497239 0 158.03320980497239 53.347634386195438 0 0 0 0 332.19265980893397 119.4188282130529 0 119.4188282130529 51.324521742264686 0 0 0 0 259.93754201318734 114.6899543045741 0 114.6899543045741 70.768023440644996 0 0 0 0 315.50059607609001 179.03887778269927 0 179.03887778269927 70.984600413590471 0 0 0 0 216.48775819639741 145.88852143782634 0 145.88852143782634 75.893184202216091 0 0 0 0 98.118663982630096 80.39762815015041 0 80.39762815015041 47.47336962565754 0 0 0 0 119.1420266273617 63.385755412254433 0 63.385755412254433 60.341701168785079 0 0 0 0 194.81981757786161 97.480900906134224 0 97.480900906134224 61.244570128162565 0 0 0 0 90.346207946580307 -28.096713971947196 0 -28.096713971947196 28.109604289054261 0 0 0 0 135.40657768559686 21.792949274957252 0 21.792949274957252 60.879896867132175 0 0 0 0 67.815699678198143 51.479261333515495 0 51.479261333515495 73.460446250110749 0 0 0 0 115.16435559634556 17.131261800792686 0 17.131261800792686 84.949337793090194 0 0 0 0 81.65263537878127 7.3930933802808525 0 7.3930933802808525 24.553217838650344 0 0 0 0 76.82594031500048 29.59970668985294 0 29.59970668985294 -8.2473260401959365 0 0 0 0 45.153325306593615 -39.335674540412974 0 -39.335674540412974 -5.7817113776724334 0 0 0 0 7.6796398376645811 -9.212604964702706 0 -9.212604964702706 24.005407504981662 0 0 0 0 70.432344311928318 -29.454254321682726 0 -29.454254321682726 -37.058092098867618 0 0 0 0 -0.1593817884058808 -65.932073431757985 0 -65.932073431757985 -48.13080039099119 0 0 0 0 -5.3189630645592842 -48.579410803079512 0 -48.579410803079512 12.246705333446407 0 0 0 0 31.822015165162156 -27.79256936440493 0 -27.79256936440493 23.254045686144771 0 0 0 0 4.821860977630422 -26.862979067035702 0 -26.862979067035702 24.33961978260843 0 0 0 0 33.805266886953177 -50.290750971465428 0 -50.290750971465428 105.92964362918526 0 0 0 0 33.838684254911641 55.50788581879165 0 55.50788581879165 146.90815288945282 0 0 0 0 -7.0512050522775098 -20.498928409567888 0 -20.498928409567888 50.931648541049334 0 0 0 0 25.41875291611268 21.853846928847105 0 21.853846928847105 12.634241654258531 0 0 0 0 -0.41007843625510532 0.57666410695212988 0 0.57666410695212988 0.96280950563734669 0 0 0 0 73.18057272088663 64.103954333607575 0 64.103954333607575 35.679693152606305 0 0 0 0 20.173090412932652 17.797086683843403 0 17.797086683843403 8.8952477427740888 0 0 0 0 63.63133495753209 98.044767008075127 0 98.044767008075127 61.061634366917033 0 0 0 0 0.059465200518461714 0.11698976222515256 0 0.11698976222515256 1.1611237226451194 0 0 0 0 45.988051695770992 -83.554345303049232 0 -83.554345303049232 110.07830194286205 0 0 0 0 118.38923505962885 -82.17409163034651 0 -82.17409163034651 20.824501336381616 0 0 0 0 62.174426629134587 -14.072194204585768 0 -14.072194204585768 201.17029130186671 0 0 0 0 62.803535419953732 -7.7673609464807392 0 -7.7673609464807392 84.704241488663627 0 0 0 0 156.40099012725113 13.179919842291497 0 13.179919842291497 63.570998868707733 0 0 0 0 157.13681257043208 -34.471570971857517 0 -34.471570971857517 79.485753724947983 0 0 0 0 0.43972674706957093 -0.061528483599325057 0 -0.061528483599325057 0.72586673890168041 0 0 0 0 190.72160990277553 -16.579945584249458 0 -16.579945584249458 2.7335273051291438 0 0 0 0 0.11870366183312875 0.12751890922784526 0 0.12751890922784526 2.6860392509890638 0 0 0 0 -39.686909608670248 25.39712467940376 0 25.39712467940376 37.412104633376202 0 0 0 0 0.69389226522616809 -3.3788528795080879 0 -3.3788528795080879 45.099215031478451 0 0 0 0 0.093491175619089262 -0.49256151381291602 0 -0.49256151381291602 3.0668744212886363 0 0 0 0 40.405824488483631 20.251728549214079 0 20.251728549214079 30.398041703379874 0 0 0 0 -1.0313481936027529 2.6647144925149502 0 2.6647144925149502 3.0100349029292865 0 0 0 0 179.83094302617405 -13.739924652208831 0 -13.739924652208831 -18.234476209764011 0 0 0 0 -0.068575609395812975 -0.51553792503768392 0 -0.51553792503768392 2.5601186371721694 0 0 0 0 -7.0836231168796076 2.9783598036390426 0 2.9783598036390426 3.4855602251200537 0 0 0 0 249.90551441087041 11.777776534700141 0 11.777776534700141 -38.373277296339438 0 0 0 0 68.264413957702345 20.771828073115728 0 20.771828073115728 33.416065797364922 0 0 0 0 5.4318124230840112 -1.1900038969513158 0 -1.1900038969513158 2.5913732734204018 0 0 0 0 2.6972833151485247 3.5526241007156614 0 3.5526241007156614 1.7170579883652834 0 0 0 0 2.0250767336619901 0.61543848211864116 0 0.61543848211864116 1.9187405153543478 0 0 0 0 2.7386097291291662 1.8913941107248231 0 1.8913941107248231 2.800294545207251 0 0 0 0 25.874835212003745 -6.5481558410123561 0 -6.5481558410123561 -27.126376105493371 0 0 0 0 0.83263821071086852 -0.62028091141240438 0 -0.62028091141240438 0.34243136235498828 0 0 0 0 -6.8701140809207573 16.447475231843114 0 16.447475231843114 30.987851142617188 0 0 0 0 11.278525040892418 -41.594422074046363 0 -41.594422074046363 -5.0452670448001697 0 0 0 0 0.38260346279538737 -0.28480410470858786 0 -0.28480410470858786 0.90214110631743227 0 0 0 0 25.523987423785456 61.606652383789772 0 61.606652383789772 117.89702918630149 0 0 0 0 98.90216582622088 -6.3667936403300587 0 -6.3667936403300587 19.520779715654356 0 0 0 0 33.687862368184142 69.361944615307095 0 69.361944615307095 76.121544318436833 0 0 0 0 31.093668631249784 33.633410364439811 0 33.633410364439811 32.778910338687865 0 0 0 0 51.280363471734745 20.641320409919331 0 20.641320409919331 49.014367452513966 0 0 0 0 29.337463029714854 42.511719431701152 0 42.511719431701152 34.230175292979141 0 0 0 0 7.8288778694477514 27.131530301293559 0 27.131530301293559 40.240028867060097 0 0 0 0 75.088077337397408 8.1753062987775991 0 8.1753062987775991 -7.306945101320327 0 0 0 0 21.775464345133514 40.087096126155416 0 40.087096126155416 41.962582227831746 0 0 0 0 0.50846290712158293 -0.26741874102565433 0 -0.26741874102565433 0.13545793005309806 0 0 0 0 88.278084317301364 -41.481511455171855 0 -41.481511455171855 30.067403357667018 0 0 0 0 82.319025061719913 -22.053776650719936 0 -22.053776650719936 -2.9783337078327037 0 0 0 0 99.851251137584768 -53.18091318433153 0 -53.18091318433153 75.456017622167622 0 0 0 0 133.19144077461897 -57.047691331327123 0 -57.047691331327123 8.6835375192055437 0 0 0 0 117.88000941201972 -41.205710488867908 0 -41.205710488867908 33.366401499015751 0 0 0 0 103.06725777233441 -24.466550380904852 0 -24.466550380904852 -1.651300294507223 0 0 0 0 92.373678087036751 -40.693091472282866 0 -40.693091472282866 31.844209210212881 0 0 0 0 58.179896966208617 0.88344356109058708 0 0.88344356109058708 32.487110771437102 0 0 0 0 99.939708356563642 -51.151347391524808 0 -51.151347391524808 37.950253634739951 0 0 0 0 64.840799424848228 -22.063566258205142 0 -22.063566258205142 114.43004241652238 0 0 0 0 67.418807141486468 -20.341054434466173 0 -20.341054434466173 81.235028047801507 0 0 0 0 54.392108118117903 31.601657437994618 0 31.601657437994618 79.709269113108292 0 0 0 0 80.580244845492416 59.07654069388758 0 59.07654069388758 150.50331819356097 0 0 0 0 68.264535777911078 22.860993181121017 0 22.860993181121017 72.719929995843245 0 0 0 0 61.303727812795842 -23.316394322961116 0 -23.316394322961116 119.33704256533233 0 0 0 0 78.970422905375017 90.77051901240344 0 90.77051901240344 212.23233678397108 0 0 0 0 61.311963713797013 -16.813101456359249 0 -16.813101456359249 167.47733433224562 0 0 0 0 123.03255285667547 -102.24427131334994 0 -102.24427131334994 131.1427388208906 0 0 0 0 229.30109325495141 -111.15983155406346 0 -111.15983155406346 -368.82020698745498 0 0 0 0 158.89642180369265 -73.078436074510876 0 -73.078436074510876 10.953138312207102 0 0 0 0 115.21885624308925 -80.17942891819655 0 -80.17942891819655 108.02236810694581 0 0 0 0 125.6544343894202 -165.12883347735431 0 -165.12883347735431 188.56731664947461 0 0 0 0 149.11411795490858 -140.86907091447765 0 -140.86907091447765 71.763444579978682 0 0 0 0 56.600109569000779 -64.94085503232094 0 -64.94085503232094 325.78360924576396 0 0 0 0 76.114635310470476 254.55347867542315 0 254.55347867542315 1388.4489054004107 0 0 0 0 4.8398826223723432 1.5912500273185941 0 1.5912500273185941 -1.0750724924981103 0 0 0 0 -77.885645381769791 -274.30861005196448 0 -274.30861005196448 282.26328631846343 0 0 0 0 264.2306298694748 -56.653681768706093 0 -56.653681768706093 -133.80526156252097 0 0 0 0 79.922907083433529 81.744674287220562 0 81.744674287220562 73.507109455580348 0 0 0 0 5.3775778324706351 -1.7205703251368405 0 -1.7205703251368405 -1.8016328455588255 0 0 0 0 166.01949337001133 52.116342524497895 0 52.116342524497895 -113.31112562097752 0 0 0 0 61.750996729184408 44.496901954814234 0 44.496901954814234 36.614159065482767 0 0 0 0 57.489558184002817 43.933197774467374 0 43.933197774467374 68.678563651770517 0 0 0 0 111.35783733261633 18.800420136684835 0 18.800420136684835 -10.232298817431854 0 0 0 0 44.20437253082855 9.2343900894596231 0 9.2343900894596231 22.710809151200749 0 0 0 0 48.785332819083123 33.000087007096965 0 33.000087007096965 27.564366263331692 0 0 0 0 18.540497399260303 6.6784151448741582 0 6.6784151448741582 -4.8878099259999495 0 0 0 0 33.990826172850575 -2.8361394640042477 0 -2.8361394640042477 4.1617917926548103 0 0 0 0 12.712483518989337 -10.820081664381789 0 -10.820081664381789 1.0157962514906322 0 0 0 0 26.008340296370079 -5.9711864137956354 0 -5.9711864137956354 4.6516807372719313 0 0 0 0 26.903862851348094 -10.003341612616346 0 -10.003341612616346 -7.3597288253342867 0 0 0 0 24.819660587513482 -6.7651390173223618 0 -6.7651390173223618 0.86151560880252043 0 0 0 0 27.044466877670175 -6.2030549284167389 0 -6.2030549284167389 -3.4208788744537628 0 0 0 0 23.890878357313341 -5.2514819574063836 0 -5.2514819574063836 2.4102285509670409 0 0 0 0 32.513024973992287 -1.0018874056930116 0 -1.0018874056930116 0.65811276098514782 0 0 0 0 10.659233420865512 -10.542544130954596 0 -10.542544130954596 0.3392345437015365 0 0 0 0 26.405495933235215 -2.1005098988302393 0 -2.1005098988302393 7.2885519098032319 0 0 0 0 28.191838450053183 3.9124070707673866 0 3.9124070707673866 23.635453633302742 0 0 0 0 5.4071797229116783 -4.2532247513584309 0 -4.2532247513584309 84.805953995392557 0 0 0 0 5.1487749953138575 -0.35416936282209832 0 -0.35416936282209832 2.1258417589848588 0 0 0 0 11.155028394075977 -10.011437836435775 0 -10.011437836435775 -0.85679146420088426 0 0 0 0 26.340290552947408 -0.32155952165351209 0 -0.32155952165351209 7.2937319635513163 0 0 0 0 27.177826909828127 -4.5727619423776193 0 -4.5727619423776193 -2.3581796426637993 0 0 0 0 17.061454122092982 -6.622645599573616 0 -6.622645599573616 -3.143668584252282 0 0 0 0 19.87119757589884 -8.5443974980687329 0 -8.5443974980687329 2.6800974402887743 0 0 0 0 25.308272863184847 -9.4000169189081362 0 -9.4000169189081362 -1.2654636262245127 0 0 0 0 21.749105228183907 -6.0287793466702055 0 -6.0287793466702055 0.81959082175757203 0 0 0 0 -7.9684631472919136 -13.846697661693788 0 -13.846697661693788 14.746576803375582 0 0 0 0 10.75218645062705 -26.884651402280653 0 -26.884651402280653 9.9662332937840006 0 0 0 0 6.5406368290930459 -41.072311714750853 0 -41.072311714750853 -14.437691261084098 0 0 0 0 10.649970070466225 -53.636510396540181 0 -53.636510396540181 -16.801613529520807 0 0 0 0 47.251695647559245 -28.470174052772109 0 -28.470174052772109 -32.085247052527507 0 0 0 0 38.780478635890177 -30.316844566980762 0 -30.316844566980762 -30.392782691104003 0 0 0 0 35.125799818270934 -13.645358058625394 0 -13.645358058625394 3.8713850848640479 0 0 0 0 10.584694186102503 -1.8698105776463194 0 -1.8698105776463194 -4.7516752820698738 0 0 0 0 27.030566252542485 -23.460260266037949 0 -23.460260266037949 -23.794915814825799 0 0 0 0 21.148585739618284 1.7637707441881503 0 1.7637707441881503 -25.386462992188399 0 0 0 0 3.9739330789961116 -5.2260412137372825 0 -5.2260412137372825 -5.7095794261464796 0 0 0 0 27.358128277774085 -15.248115051452942 0 -15.248115051452942 -8.4396423665634757 0 0 0 0 16.178751443456235 -11.351095865522339 0 -11.351095865522339 1.2711624605572647 0 0 0 0 47.773773423752573 -25.163772409105604 0 -25.163772409105604 -25.703429233342149 0 0 0 0 34.3533941988062 -14.260287812167149 0 -14.260287812167149 -21.112447674701684 0 0 0 0 28.080233360240527 -21.309521307325184 0 -21.309521307325184 -8.8164974165973931 0 0 0 0 24.992064696911257 -13.749919644520688 0 -13.749919644520688 -0.2962115917224466 0 0 0 0 17.413379048703064 -18.827877483332031 0 -18.827877483332031 -2.5277476942541455 0 0 0 0 25.707472471400251 -7.7522968265821106 0 -7.7522968265821106 -3.7804810461564102 0 0 0 0 24.771656894517946 -24.688952940464105 0 -24.688952940464105 -10.319700295416254 0 0 0 0 24.376654825566845 -6.731866065181265 0 -6.731866065181265 -0.1373618626923202 0 0 0 0 -10.661015723315359 56.701262519505008 0 56.701262519505008 4.1557718005906281 0 0 0 0 11.798405595567601 -18.67795184522609 0 -18.67795184522609 -12.311902202328124 0 0 0 0 46.282717833229981 -53.705866505713843 0 -53.705866505713843 18.513348561652904 0 0 0 0 23.827499687762611 -31.05630792589686 0 -31.05630792589686 -2.1509484038245326 0 0 0 0 45.400631550313847 -21.029945841254026 0 -21.029945841254026 2.2852683071887352 0 0 0 0 -1.0029820968384797 -1.3432091237861385 0 -1.3432091237861385 -3.6505999921033316 0 0 0 0 45.016107372823171 -4.597952893046795 0 -4.597952893046795 -41.053592239264617 0 0 0 0 48.454971276965807 -36.58476841689253 0 -36.58476841689253 0.39352983883418347 0 0 0 0 70.530702019466844 -24.195410292806912 0 -24.195410292806912 -35.610651164320913 0 0 0 0 38.194774646475707 -37.87711229646149 0 -37.87711229646149 2.6501741757174386 0 0 0 0 43.343437577765144 -27.665314331682794 0 -27.665314331682794 -22.795196056758869 0 0 0 0 47.704251719093008 -24.301518103893272 0 -24.301518103893272 -22.035929000990365 0 0 0 0 39.434304423042249 -48.559919539930114 0 -48.559919539930114 40.313094577179477 0 0 0 0 45.025683730840683 -24.64665962478291 0 -24.64665962478291 5.8586807165594372 0 0 0 0 146.35622193874042 -102.95930203986035 0 -102.95930203986035 63.515184557114679 0 0 0 0 0.02164737548068274 -0.95069456498085714 0 -0.95069456498085714 1.5541697190575978 0 0 0 0 6.179070334386779 -10.747350292189822 0 -10.747350292189822 108.70134030399458 0 0 0 0 4.2361405735814515 10.737849271463311 0 10.737849271463311 18.035046695614483 0 0 0 0 3.2471190665731058 -1.6518134670626381 0 -1.6518134670626381 1.5913875000919122 0 0 0 0 25.505161825140931 4.8102058526588323 0 4.8102058526588323 1.0488950259079957 0 0 0 0 26.413985517487163 0.23636117971142312 0 0.23636117971142312 -2.6264284159879026 0 0 0 0 120.21831384304824 43.596864189937889 0 43.596864189937889 11.886728996280794 0 0 0 0 134.37798202162821 -39.495405588702027 0 -39.495405588702027 -2.5257074388802039 0 0 0 0 14.327862803285825 -20.396074074652233 0 -20.396074074652233 -5.5353454666328616 0 0 0 0 69.652437888567874 70.683493672310505 0 70.683493672310505 120.54982256211954 0 0 0 0 4.4158767472836189 -81.718626000023249 0 -81.718626000023249 83.672004267931442 0 0 0 0 3.883231251471841 -49.196176778886958 0 -49.196176778886958 -1.4858083026247186 0 0 0 0 0.19820641914449766 -0.33344084262945017 0 -0.33344084262945017 -1.3977949780451455 0 0 0 0 -54.994034649022069 -54.534506771135497 0 -54.534506771135497 25.176546879960796 0 0 0 0 -53.572715897040325 19.687489892609861 0 19.687489892609861 45.597142953919757 0 0 0 0 -52.6228584773271 -61.4476790565447 0 -61.4476790565447 24.759562223285684 0 0 0 0 10.973537057201611 -22.097243160026323 0 -22.097243160026323 -21.134864766548908 0 0 0 0 -43.453067994865705 -69.688100207062917 0 -69.688100207062917 16.606605349104029 0 0 0 0 4.0743606060699733 -3.0872395879969758 0 -3.0872395879969758 2.1617917993033191 0 0 0 0 -48.58007792285207 8.5745219033501598 0 8.5745219033501598 15.622741854675724 0 0 0 0 -1.3368350225905488 -22.505535863912009 0 -22.505535863912009 -14.675614209281157 0 0 0 0 -2.7445683132682461 -6.5216024345563621 0 -6.5216024345563621 0.74606252343480861 0 0 0 0 24.689182020019871 -7.6149807897609998 0 -7.6149807897609998 -4.9547575985802723 0 0 0 0 3.3004046006317367 -6.6776068697191713 0 -6.6776068697191713 3.0713178871688558 0 0 0 0 3.8142231173560504 -12.337087366826411 0 -12.337087366826411 -1.9975216602875854 0 0 0 0 21.479015192329825 -13.405075581319673 0 -13.405075581319673 -0.0098411020439667755 0 0 0 0 -2.64634660207048 -14.526266777538497 0 -14.526266777538497 18.19447801083189 0 0 0 0 -2.065590736870945 -13.60155743258627 0 -13.60155743258627 0.22982710921202809 0 0 0 0 6.0350150843441952 -0.85362582004860244 0 -0.85362582004860244 -0.73285191039765962 0 0 0 0 -0.11860608899496583 0.0055446958220528586 0 0.0055446958220528586 0.092807328555241556 0 0 0 0 -1.3314444781426573 -13.96706887807991 0 -13.96706887807991 0.033225061721239714 0 0 0 0 -2.8916298519470729 -9.9195592806026447 0 -9.9195592806026447 -2.4838028592548049 0 0 0 0 -4.9049990541680017 -13.920183402315137 0 -13.920183402315137 0.19601903896483996 0 0 0 0 7.4742063896863442 -4.3594207127448854 0 -4.3594207127448854 2.3604926173792249 0 0 0 0 1.2151076667614689 -16.038129269903052 0 -16.038129269903052 -11.239036588372709 0 0 0 0 1.5983597485464998 -15.463992332956764 0 -15.463992332956764 -12.287857543599586 0 0 0 0 17.800901069967949 -16.60809924897535 0 -16.60809924897535 -80.663692573018636 0 0 0 0 2.926844436180545 -9.6243910836504938 0 -9.6243910836504938 -3.5200914418282423 0 0 0 0 -1.9388112776505295 -21.533434548324067 0 -21.533434548324067 -39.277438041036021 0 0 0 0 4.4358311122632585 -14.620499319353712 0 -14.620499319353712 -50.265662448919102 0 0 0 0 14.077217788086273 6.9033729008485807 0 6.9033729008485807 -58.902335402284962 0 0 0 0 17.234153565628731 32.002351925895482 0 32.002351925895482 -90.592840706066909 0 0 0 0 13.190327797594364 32.692086337769638 0 32.692086337769638 -20.266025501985496 0 0 0 0 1.4752759308685199 12.164107612925136 0 12.164107612925136 2.8492997539981388 0 0 0 0 66.473583963954297 -144.4467104779776 0 -144.4467104779776 -67.135847242045202 0 0 0 0 -19.544491114611446 58.632521785225777 0 58.632521785225777 19.554844767056693 0 0 0 0 6.4180237634468256 -4.2860414085831309 0 -4.2860414085831309 2.6120032339365395 0 0 0 0 25.148224179531098 38.830633595673703 0 38.830633595673703 -23.961321703962767 0 0 0 0 108.25278989943035 11.036626456824592 0 11.036626456824592 -38.554971100410057 0 0 0 0 115.93657786610311 -25.768660122835513 0 -25.768660122835513 -4.3122112937048769 0 0 0 0 -2.1176970403930682 17.434500428821934 0 17.434500428821934 9.7349729466823192 0 0 0 0 0.97042156996408835 0.28172508316609424 0 0.28172508316609424 0.079315627481993722 0 0 0 0 -10.909448740610969 -11.762816651929256 0 -11.762816651929256 80.132965859217848 0 0 0 0 2.5749507847193911 1.1185236470308269 0 1.1185236470308269 -0.0066130774648431867 0 0 0 0 1.8295493607729441 12.033810528186677 0 12.033810528186677 4.4514448277298015 0 0 0 0 -2.1408882852890656 3.7468932238288986 0 3.7468932238288986 -2.7258478535168149 0 0 0 0 -15.047957882066839 20.115279847652669 0 20.115279847652669 0.064921123510670559 0 0 0 0 3.8064969830447808 10.031793253725368 0 10.031793253725368 4.6521683679739283 0 0 0 0 0.57108782058639918 2.2646753308819143 0 2.2646753308819143 23.109287156793584 0 0 0 0 0.60635543650460022 14.076963645411197 0 14.076963645411197 -6.698199291527942 0 0 0 0 -8.7681183557142504 7.8434303594956987 0 7.8434303594956987 12.322605540087281 0 0 0 0 4.3133527291447535 5.0198909645710472 0 5.0198909645710472 -6.525157883455222 0 0 0 0 7.1795040838678688 1.4483781482240374 0 1.4483781482240374 -6.8825974644028065 0 0 0 0 5.0235870282576798 7.2578215475351442 0 7.2578215475351442 -6.1358244417160677 0 0 0 0 3.9418477648050612 17.691447124022176 0 17.691447124022176 -9.8142862456488729 0 0 0 0 7.9577505926645244 8.6849197732549328 0 8.6849197732549328 -9.5845504380977218 0 0 0 0 7.5470710481895367 7.1224247936097527 0 7.1224247936097527 -14.859423819186759 0 0 0 0 10.986611629341496 12.093583786910358 0 12.093583786910358 -24.191341458985335 0 0 0 0 5.7644637487101136 7.4824689632735826 0 7.4824689632735826 -35.455269714910081 0 0 0 0 7.9357529389089905 -4.774026320824305 0 -4.774026320824305 -26.84664153426894 0 0 0 0 9.2265903444276773 -4.2615147195962209 0 -4.2615147195962209 -29.5975829966319 0 0 0 0 -4.9425015152082779 -16.941662746406564 0 -16.941662746406564 -21.472609129247417 0 0 0 0 11.071260721917497 -5.8952501880150479 0 -5.8952501880150479 -11.812522682850691 0 0 0 0 -0.42099797430287822 -2.1221830543040641 0 -2.1221830543040641 0.98295923970598265 0 0 0 0 7.4161254650098272 -15.31022428117295 0 -15.31022428117295 -28.520853732626868 0 0 0 0 11.114544393698452 -15.684302290066675 0 -15.684302290066675 0.015627849213124989 0 0 0 0 -0.47564655740279704 -6.708790112312272 0 -6.708790112312272 -1.960789780133382 0 0 0 0 8.4118444417969158 -3.0182700421017872 0 -3.0182700421017872 -0.4682887573167635 0 0 0 0 9.1280409807804972 -0.17678844783984005 0 -0.17678844783984005 -16.059014843957357 0 0 0 0 7.438304064273126 -0.033382770849403443 0 -0.033382770849403443 -0.67582964736435902 0 0 0 0 7.719469383933756 1.3386827705218138 0 1.3386827705218138 -15.974883710313634 0 0 0 0 1.4619222664083367 -2.1178020840338192 0 -2.1178020840338192 -2.4333517429688056 0 0 0 0 1.7781079515614238 -1.3174303957517779 0 -1.3174303957517779 0.11661244127198669 0 0 0 0 -8.7633331602919498 53.367605360014686 0 53.367605360014686 -13.402181988363392 0 0 0 0 170.87104010058829 34.318876291331705 0 34.318876291331705 -203.45994376898233 0 0 0 0 22.244440079128253 -166.38322697844526 0 -166.38322697844526 10.35479161812259 0 0 0 0 10.966517175147601 -7.2436054825657834 0 -7.2436054825657834 -24.29242783310994 0 0 0 0 7.7420594146387884 -14.513337898879868 0 -14.513337898879868 -2.8715213018819465 0 0 0 0 -78.181765226647258 20.970257681759193 0 20.970257681759193 45.521549900694538 0 0 0 0 69.940610954916338 8.4536778427274157 0 8.4536778427274157 11.326658990166308 0 0 0 0 0.73882243346841392 -0.18893126737031452 0 -0.18893126737031452 -0.7156642478409373 0 0 0 0 5.9447131181903785 -0.34579825447722357 0 -0.34579825447722357 -0.11758021027843395 0 0 0 0 127.29068237969477 18.422377049272491 0 18.422377049272491 -4.8768846624213857 0 0 0 0 134.92183942880456 24.727394467103103 0 24.727394467103103 -5.7401546661670011 0 0 0 0 -47.87529952784098 -10.53001796030992 0 -10.53001796030992 -11.720262044125434 0 0 0 0 -0.93916428544359576 -0.11139257703840855 0 -0.11139257703840855 -0.65063682839848236 0 0 0 0 335.93282276112586 -0.53148268690603118 0 -0.53148268690603118 -88.229944757336796 0 0 0 0 -2.8204641655509874 1.9151741820423922 0 1.9151741820423922 -2.2832860153484673 0 0 0 0 -4.1757714199411566 -5.8670350661985537 0 -5.8670350661985537 -13.748866001534992 0 0 0 0 -7.9630913293367485 14.782631366099611 0 14.782631366099611 1.6338785188319775 0 0 0 0 -4.4188403614898562 -1.1848972092363681 0 -1.1848972092363681 10.144910553229806 0 0 0 0 -1.3661052416573511 34.554458071071139 0 34.554458071071139 60.424351348192118 0 0 0 0 -32.86522069433704 -29.261284532676285 0 -29.261284532676285 26.324310180729583 0 0 0 0 -61.491191842986154 43.500402206736055 0 43.500402206736055 190.99296223337848 0 0 0 0 25.889481504098512 21.415072372322939 0 21.415072372322939 -0.52787032421151991 0 0 0 0 160.46720158989774 104.25221291738606 0 104.25221291738606 49.66104417194839 0 0 0 0 14.050958207314125 7.9860809448131524 0 7.9860809448131524 -20.518703483071647 0 0 0 0 92.389258773757319 30.570723968080983 0 30.570723968080983 -14.572620004951006 0 0 0 0 60.909131457014155 21.666828358828852 0 21.666828358828852 -55.616284725666695 0 0 0 0 23.184633131414699 -0.04400755156407854 0 -0.04400755156407854 -2.1088326135110922 0 0 0 0 15.149435137576802 -9.8859618165621725 0 -9.8859618165621725 13.888644517012324 0 0 0 0 15.804166270104773 2.7144512476569247 0 2.7144512476569247 -1.9564731754403315 0 0 0 0 -5.9668789915012894 11.113350985529365 0 11.113350985529365 -0.35224517417334766 0 0 0 0 19.973376182349512 46.412229860128527 0 46.412229860128527 -39.194698814256427 0 0 0 0 -9.1872113664103381 22.770913949315638 0 22.770913949315638 -8.4849761211040118 0 0 0 0 13.354319125393786 0.68446661976386025 0 0.68446661976386025 -3.0379655445758664 0 0 0 0 10.963882722855487 -0.66711743841369753 0 -0.66711743841369753 14.731164838475138 0 0 0 0 12.570431255844596 -6.6325223730631251 0 -6.6325223730631251 12.274691589332861 0 0 0 0 5.7189287890942069 -5.6836434222401522 0 -5.6836434222401522 46.171078977494972 0 0 0 0 10.217298487288645 -2.7874448202568374 0 -2.7874448202568374 15.373163489567901 0 0 0 0 15.357286040351028 -7.1423228782815755 0 -7.1423228782815755 18.999256825452022 0 0 0 0 21.438222494805814 -13.962820908034587 0 -13.962820908034587 -2.7640856672599057 0 0 0 0 19.151660302450182 -20.256938837648818 0 -20.256938837648818 7.8327420020629006 0 0 0 0 19.030131528023048 -24.03717845220217 0 -24.03717845220217 10.205338522629518 0 0 0 0 21.783784939587349 -20.126278649668507 0 -20.126278649668507 -14.799945336419114 0 0 0 0 24.741748107603598 -31.341420362011149 0 -31.341420362011149 -17.107256892245914 0 0 0 0 32.161468967393915 -10.73266579808498 0 -10.73266579808498 2.9402786350921888 0 0 0 0 27.289190764982251 -8.8800606742596493 0 -8.8800606742596493 2.0593989492759142 0 0 0 0 40.12737860638299 -65.671618750972371 0 -65.671618750972371 -88.647416745710672 0 0 0 0 41.027329307664331 -7.7836720057897839 0 -7.7836720057897839 -47.720624845312841 0 0 0 0 9.2867571446113288 -5.5371762859549998 0 -5.5371762859549998 -5.0376557109203901 0 0 0 0 22.118155016327506 -13.043350329419066 0 -13.043350329419066 -2.8882173609885058 0 0 0 0 24.004188827241606 -4.5550149046249722 0 -4.5550149046249722 0.22184217101696468 0 0 0 0 52.122562940490752 -25.428625186973761 0 -25.428625186973761 -62.546110400623917 0 0 0 0 21.722709671341818 -18.44658764444123 0 -18.44658764444123 -7.9921500553009537 0 0 0 0 22.247519068409019 -4.1451424546262388 0 -4.1451424546262388 4.8246762140667556 0 0 0 0 40.457754217532056 -58.501396459653733 0 -58.501396459653733 1.5949243624003202 0 0 0 0 3.6375321731058108 -3.7805068317540282 0 -3.7805068317540282 -0.33477068951302213 0 0 0 0 41.483898771072063 45.312243302494764 0 45.312243302494764 -6.7460729477983534 0 0 0 0 119.84100954419409 23.289698853389709 0 23.289698853389709 -2.3373139802148586 0 0 0 0 81.512282971973036 80.432301572932374 0 80.432301572932374 92.136684682174177 0 0 0 0 239.79961518150958 118.3558828691055 0 118.3558828691055 45.122098086831215 0 0 0 0 213.01633861227765 171.41450560424505 0 171.41450560424505 136.80548624438734 0 0 0 0 55.295552337753179 50.834566661485667 0 50.834566661485667 91.859359019767453 0 0 0 0 33.365689970996954 -6.9899379738164242 0 -6.9899379738164242 -1.3391043711550066 0 0 0 0 61.576301321484607 -27.581070198827916 0 -27.581070198827916 -10.533218475460899 0 0 0 0 57.998869953466055 -85.820604272168566 0 -85.820604272168566 -67.761924668292906 0 0 0 0 107.16391057720102 138.65659495628898 0 138.65659495628898 128.05314966253968 0 0 0 0 6.6620697135610953 -2.3145391664872825 0 -2.3145391664872825 -1.0289227389515667 0 0 0 0 -5.944129606156821 -37.500468627760853 0 -37.500468627760853 -0.38679225535358341 0 0 0 0 1.91540407087939 0.18039738311682818 0 0.18039738311682818 0.18467115532716988 0 0 0 0 -0.77522446516377386 -48.111589397075434 0 -48.111589397075434 104.30293831159301 0 0 0 0 27.01735761107193 23.467125853608977 0 23.467125853608977 -28.152049902953792 0 0 0 0 32.907130030318513 -88.198700110251878 0 -88.198700110251878 17.624687869772146 0 0 0 0 92.449658457004261 22.433607250944078 0 22.433607250944078 -28.626240475353455 0 0 0 0 40.005151144102228 -7.7658649516187666 0 -7.7658649516187666 -0.87991390174823736 0 0 0 0 56.388431806699373 -19.859671733832762 0 -19.859671733832762 -62.102775947138326 0 0 0 0 35.826735037504477 -16.614336154208381 0 -16.614336154208381 54.341888661282837 0 0 0 0 38.384793354278372 -13.169020209537194 0 -13.169020209537194 -5.9964473994771197 0 0 0 0 165.95501202883361 -11.068471949908908 0 -11.068471949908908 -11.151919186413977 0 0 0 0 100.73051484920506 -119.79111363234615 0 -119.79111363234615 -143.61777601204861 0 0 0 0 20.444556323105189 67.028165894597564 0 67.028165894597564 -72.768438250679935 0 0 0 0 32.516952052559645 -142.41430207724031 0 -142.41430207724031 18.462798541693267 0 0 0 0 40.899084320662951 42.062097289496762 0 42.062097289496762 52.374365650278094 0 0 0 0 2.6979649299316577 -0.42015677880981173 0 -0.42015677880981173 -0.073438122591364507 0 0 0 0 78.880175097976462 73.684174822314773 0 73.684174822314773 61.208920411429077 0 0 0 0 154.64318994458881 139.3903119536653 0 139.3903119536653 87.127620580183958 0 0 0 0 322.46537646314573 69.208299720159133 0 69.208299720159133 -70.548126231818287 0 0 0 0 129.79791361469688 43.307887649204595 0 43.307887649204595 19.528781791453412 0 0 0 0 110.63882636460858 75.914034173572617 0 75.914034173572617 20.473222562868841 0 0 0 0 103.32332399257575 28.346289306232414 0 28.346289306232414 13.698764325093023 0 0 0 0 201.83804613939719 63.136699883498778 0 63.136699883498778 13.531160224825896 0 0 0 0 0.65901790218049427 1.4152718634012131 0 1.4152718634012131 -0.11396962134605468 0 0 0 0 110.13268234882707 74.12664154231453 0 74.12664154231453 24.979713095404207 0 0 0 0 145.40000630941358 68.476178518134589 0 68.476178518134589 17.552245627802677 0 0 0 0 133.42149812160642 71.020535323272512 0 71.020535323272512 17.533913043304977 0 0 0 0 107.04627007262388 27.975026915208961 0 27.975026915208961 23.849341343576256 0 0 0 0 37.952590003858859 -26.503902330828808 0 -26.503902330828808 44.411087903027578 0 0 0 0 33.608879857554712 23.892327845373568 0 23.892327845373568 48.299025076637825 0 0 0 0 209.98152993421536 7.1297806384482669 0 7.1297806384482669 24.842102504525688 0 0 0 0 93.196935433959879 -51.021590521717101 0 -51.021590521717101 125.71258858272847 0 0 0 0 2.7445469767824022 0.62526876294753997 0 0.62526876294753997 0.03175369912294887 0 0 0 0 104.79903259950515 117.10767589050887 0 117.10767589050887 -108.22820553611658 0 0 0 0 94.181683873161091 253.67692396500831 0 253.67692396500831 160.60274093448001 0 0 0 0 1.7728289479879891 -0.025425395624280256 0 -0.025425395624280256 -0.053000443778742856 0 0 0 0 32.236137396568665 -189.71727326715086 0 -189.71727326715086 -0.82231304865672428 0 0 0 0 2.4952805588537501 -0.25074703407824828 0 -0.25074703407824828 0.0068755277030597556 0 0 0 0 -3.8138211730401963 1.647467040923702 0 1.647467040923702 0.28864141537132332 0 0 0 0 31.438649011564848 -171.55222954882333 0 -171.55222954882333 -6.8337312024432606 0 0 0 0 14.130115366860991 -179.60841703534925 0 -179.60841703534925 36.046486512515074 0 0 0 0 23.415432360226987 -176.75018815839508 0 -176.75018815839508 5.3691068295232753 0 0 0 0 20.63903972729895 -166.38904024127677 0 -166.38904024127677 21.951376928785976 0 0 0 0 20.641833195928484 -191.19478105028099 0 -191.19478105028099 31.420392862105132 0 0 0 0 26.421163160151082 -204.1318095444424 0 -204.1318095444424 17.062841512182388 0 0 0 0 -6.4992239038838306 5.8345645386233951 0 5.8345645386233951 -1.1570041381480802 0 0 0 0 1.0438848459386634 0.46518885563568979 0 0.46518885563568979 0.15043616118327824 0 0 0 0 -37.586578651411401 38.1580220581181 0 38.1580220581181 94.393262131398529 0 0 0 0 23.671697960653546 0.93207247727623255 0 0.93207247727623255 -14.966887097188089 0 0 0 0 -22.079262059618486 -20.140994939138892 0 -20.140994939138892 13.819759834061733 0 0 0 0 -4.2112738847936271 29.205823749954902 0 29.205823749954902 59.614388223394052 0 0 0 0 -57.069036904642417 15.011838575714942 0 15.011838575714942 68.717839485500875 0 0 0 0 7.9322456714706675 -1.2530590769880519 0 -1.2530590769880519 -0.22435089664331354 0 0 0 0 27.056718323778114 -0.82791930013117199 0 -0.82791930013117199 -32.388271480969465 0 0 0 0 -0.94375929332363739 3.3876546838465345 0 3.3876546838465345 -45.675048864494073 0 0 0 0 8.8721412530503585 5.6908912719393783 0 5.6908912719393783 11.852729371430371 0 0 0 0 -3.578040172062174 -7.3981155694386445 0 -7.3981155694386445 -61.518479399023988 0 0 0 0 33.097036087376182 -12.782336305096976 0 -12.782336305096976 -154.2812666174658 0 0 0 0 6.4149312601040265 -0.93828161887951822 0 -0.93828161887951822 -0.28782477962959413 0 0 0 0 -14.687999510904774 20.236087354602034 0 20.236087354602034 17.904516514580742 0 0 0 0 13.867821805761196 10.381321380885836 0 10.381321380885836 -68.104792211349718 0 0 0 0 11.363929712144454 19.427655807100265 0 19.427655807100265 -52.173953603624511 0 0 0 0 37.392098066906328 4.4887676129597862 0 4.4887676129597862 0.26266164221132055 0 0 0 0 15.601049723769393 23.462048236374734 0 23.462048236374734 -39.091614992561325 0 0 0 0 12.67196707511539 17.657881039195679 0 17.657881039195679 -49.888199575657325 0 0 0 0 -222.38747486928969 -19.976196828479324 0 -19.976196828479324 -2.9369751474705481 0 0 0 0 35.898005080456642 28.124287465639071 0 28.124287465639071 -164.2117932992567 0 0 0 0 10.990155652589721 -0.34378976402198447 0 -0.34378976402198447 0.069701720693681857 0 0 0 0 8.7829279531324573 2.1300966169614881 0 2.1300966169614881 -51.771476759413318 0 0 0 0 9.2128650988088339 -3.6311412403326671 0 -3.6311412403326671 -23.073363209281027 0 0 0 0 56.905705563072843 32.898790594024362 0 32.898790594024362 15.600633536167809 0 0 0 0 -43.328886324530686 -57.257020593191513 0 -57.257020593191513 9.6047005802852503 0 0 0 0 171.62482043833006 99.151288650814038 0 99.151288650814038 4.0411699421881604 0 0 0 0 27.575504892040044 12.488957815587572 0 12.488957815587572 -11.729180330777133 0 0 0 0 8.12912420913446 -1.4640602021711082 0 -1.4640602021711082 -0.0077905116506899533 0 0 0 0 4.2823790474583632 -0.24999543802354651 0 -0.24999543802354651 -0.023694027728424369 0 0 0 0 1496.1141633849766 406.72283449455216 0 406.72283449455216 -4.9201093482137255 0 0 0 0 1469.2868273377655 -397.05721473068843 0 -397.05721473068843 1.7341457922664003 0 0 0 0 122.02746848615061 -107.41884087277363 0 -107.41884087277363 105.48526763544047 0 0 0 0 282.20381710805668 98.947794451899128 0 98.947794451899128 -69.801718853620656 0 0 0 0 1497.4640614255547 -140.43269718622631 0 -140.43269718622631 -171.3999935718694 0 0 0 0 219.17658421127271 -295.78457569497158 0 -295.78457569497158 -71.794884537642332 0 0 0 0 -26.044810818166297 79.071223383690366 0 79.071223383690366 15.070273976886421 0 0 0 0 -223.22707321881899 -34.509042495540783 0 -34.509042495540783 221.31161621384388 0 0 0 0 4.9777221973334207 -0.97186384985832319 0 -0.97186384985832319 -0.0014307822955973437 0 0 0 0 1497.8424069055109 668.75311849213369 0 668.75311849213369 867.86897288081025 0 0 0 0 1046.6435713103565 397.83008470778503 0 397.83008470778503 199.01451418034199 0 0 0 0 1683.5695073964889 146.75738934963618 0 146.75738934963618 -187.96795106467798 0 0 0 0 809.53193088541593 -37.79334637430955 0 -37.79334637430955 -28.950124382171296 0 0 0 0 1954.7983728269683 428.64927363294839 0 428.64927363294839 820.21790478766354 0 0 0 0 1500.9559908929186 898.08606589981127 0 898.08606589981127 339.98656397122681 0 0 0 0 7.720521181024111 3.580279973744247 0 3.580279973744247 1.3094001078307254 0 0 0 0 699.60262949325625 992.9191064360009 0 992.9191064360009 1381.5339581150686 0 0 0 0 52.369429757291073 160.35905590175793 0 160.35905590175793 389.93273982867072 0 0 0 0 19.80890133129914 2.7667460331326592 0 2.7667460331326592 -0.58950048257376919 0 0 0 0 246.1154164555046 199.19238420295437 0 199.19238420295437 107.12783226245088 0 0 0 0 116.62074877608029 -39.848855581949863 0 -39.848855581949863 -60.944256923980276 0 0 0 0 28.442961628402713 -1.1522150625895407 0 -1.1522150625895407 -2.2946649554307061 0 0 0 0 27.681105826777639 146.32796844483886 0 146.32796844483886 244.97123339244513 0 0 0 0 284.51068401189696 185.99726118611656 0 185.99726118611656 148.91916185927417 0 0 0 0 260.02882572317685 483.41731328632829 0 483.41731328632829 548.63202105101368 0 0 0 0 477.28520989020035 356.9464620963771 0 356.9464620963771 148.51120412690898 0 0 0 0 472.21318632385373 366.42508404503354 0 366.42508404503354 134.44794800205443 0 0 0 0 394.84528827184477 220.41909556535262 0 220.41909556535262 118.32644414574521 0 0 0 0 187.53711387909789 85.422131755631312 0 85.422131755631312 136.44068786488771 0 0 0 0 231.45983097075805 286.46370247405747 0 286.46370247405747 297.258340840644 0 0 0 0 1036.8330296438726 400.04425666386373 0 400.04425666386373 14.364299036191682 0 0 0 0 1037.0038234672211 358.6567359105843 0 358.6567359105843 -183.98587227558127 0 0 0 0 1499.3426356673647 596.64178070628327 0 596.64178070628327 -75.843617221847381 0 0 0 0 1032.8967521258819 577.32702445801135 0 577.32702445801135 120.1717416097261 0 0 0 0 1020.1578693011325 607.83099750620443 0 607.83099750620443 211.85984612911705 0 0 0 0 225.62720370748139 103.92225904474401 0 103.92225904474401 -0.54356205525516543 0 0 0 0 213.7501714721875 65.04892174686745 0 65.04892174686745 76.558273995728314 0 0 0 0 243.51118594069703 58.675971958902323 0 58.675971958902323 53.437505678001344 0 0 0 0 247.97175658622291 4.2650327238650334 0 4.2650327238650334 139.95834956986596 0 0 0 0 196.6369997990696 74.528555790301084 0 74.528555790301084 72.702959085023281 0 0 0 0 266.81072390012196 16.713062398409079 0 16.713062398409079 144.47377054080471 0 0 0 0 237.7538334081728 30.254833585467168 0 30.254833585467168 109.7721884374057 0 0 0 0 218.09255999736342 17.094786360830994 0 17.094786360830994 39.630089137127243 0 0 0 0 224.19303706583014 32.588617419107777 0 32.588617419107777 78.957859119813065 0 0 0 0 245.44342676821543 45.54383159408485 0 45.54383159408485 36.420914011366676 0 0 0 0 187.9293682636926 10.39287930030082 0 10.39287930030082 46.662226605469641 0 0 0 0 188.31165623433026 7.0131843779929142 0 7.0131843779929142 27.14708242917095 0 0 0 0 221.76621822651941 37.069744989251603 0 37.069744989251603 52.605817957827867 0 0 0 0 220.55573905423807 25.076213193084186 0 25.076213193084186 13.620532953908423 0 0 0 0 207.76219240897262 15.784940355191054 0 15.784940355191054 7.2823211887421166 0 0 0 0 245.72010925164795 30.690382146474349 0 30.690382146474349 4.8504599082048969 0 0 0 0 242.88326881529065 37.102537180874378 0 37.102537180874378 -9.4084857232362538 0 0 0 0 215.44295368836174 3.7622022364555505 0 3.7622022364555505 -0.017908398387135094 0 0 0 0 247.97372946440373 47.763857965532793 0 47.763857965532793 6.7011186631264081 0 0 0 0 248.14037421730609 59.107552460155148 0 59.107552460155148 53.997344621233879 0 0 0 0 301.3482299193256 103.86803722085082 0 103.86803722085082 -40.960079738873219 0 0 0 0 281.47817230208784 64.384096536210052 0 64.384096536210052 -38.248792463008613 0 0 0 0 342.33559936557867 64.15389282826402 0 64.15389282826402 -38.247927032369368 0 0 0 0 332.16989726904558 103.4565553987987 0 103.4565553987987 -41.001099446697935 0 0 0 0 373.04817641724367 -16.135182762803765 0 -16.135182762803765 -34.128847118365996 0 0 0 0 247.86878501817409 10.937871828089214 0 10.937871828089214 1.4629004905841612 0 0 0 0 256.19327624967264 10.825575943176204 0 10.825575943176204 -23.271763396679944 0 0 0 0 296.18550205756765 43.967043007532993 0 43.967043007532993 -10.86416600175491 0 0 0 0 295.21636245566333 -174.42046381284069 0 -174.42046381284069 0.24821482198734657 0 0 0 0 271.98418683831551 -80.780176370782044 0 -80.780176370782044 50.770857838166194 0 0 0 0 251.64796721617313 160.18105245958088 0 160.18105245958088 -78.249693838009421 0 0 0 0 355.45511136920868 35.883266046132206 0 35.883266046132206 -138.19885157942235 0 0 0 0 825.6782022464613 -40.02945393457685 0 -40.02945393457685 -244.48993117185887 0 0 0 0 591.14907500092522 10.060067355867432 0 10.060067355867432 -139.59572639313888 0 0 0 0 405.29952446328389 227.71595880241381 0 227.71595880241381 -198.23329014863862 0 0 0 0 239.7403460394853 185.6868659702468 0 185.6868659702468 -115.49267893930528 0 0 0 0 229.35198798784404 72.149061266079798 0 72.149061266079798 34.155338137903982 0 0 0 0 67.792739222997625 104.09501365834211 0 104.09501365834211 30.012996531507582 0 0 0 0 215.79631001975758 -20.484220458517512 0 -20.484220458517512 -108.91672715449511 0 0 0 0 474.91528400461539 -224.56050450631005 0 -224.56050450631005 -115.17707926205156 0 0 0 0 376.24654897258733 -237.97611080678337 0 -237.97611080678337 -74.012146690964983 0 0 0 0 266.75544436173732 79.775754396523212 0 79.775754396523212 27.309107022904186 0 0 0 0 470.67880275277275 -249.49679725473129 0 -249.49679725473129 -160.1549774820092 0 0 0 0 441.75464860949796 -184.20506241381622 0 -184.20506241381622 -31.817105014539493 0 0 0 0 553.0746915705713 -199.77830076995292 0 -199.77830076995292 -131.16782631950048 0 0 0 0 564.67920557975594 -170.57105524231397 0 -170.57105524231397 -76.589499177073094 0 0 0 0 441.43102272491888 -367.25311245811736 0 -367.25311245811736 207.1994593029408 0 0 0 0 969.88165088595815 -115.96355089338709 0 -115.96355089338709 -29.819610822410368 0 0 0 0 310.79668606657833 254.38412061095067 0 254.38412061095067 134.66207830120402 0 0 0 0 7.5736781150587547 -0.31131457598432011 0 -0.31131457598432011 -0.085815771067206281 0 0 0 0 340.10096291946684 -49.381074435882169 0 -49.381074435882169 119.18385956365887 0 0 0 0 221.53952577568043 -30.687023674150524 0 -30.687023674150524 150.34815557263664 0 0 0 0 336.66102629196394 3.1869817999971701 0 3.1869817999971701 374.81351997194406 0 0 0 0 385.29782176026492 -98.645294088215906 0 -98.645294088215906 68.160135752842962 0 0 0 0 381.77944765385655 -100.1445095293239 0 -100.1445095293239 103.67622350781858 0 0 0 0 510.92527157474615 -238.17423669220102 0 -238.17423669220102 219.60633141168876 0 0 0 0 420.63501909915431 -100.8156819289286 0 -100.8156819289286 64.771548109173409 0 0 0 0 743.80268484783664 -68.163413569430759 0 -68.163413569430759 -53.354744730715538 0 0 0 0 448.98113807246409 28.8613511704134 0 28.8613511704134 -52.088353894914817 0 0 0 0 355.31055355170747 4.5129555443071965 0 4.5129555443071965 -54.995242589281588 0 0 0 0 260.54087327727393 40.083760909501052 0 40.083760909501052 -8.3426211078883625 0 0 0 0 356.72035136570344 -11.502643825500648 0 -11.502643825500648 -28.86781908159287 0 0 0 0 462.66345483301848 13.0328066259857 0 13.0328066259857 -47.146557891074337 0 0 0 0 332.22124457065729 -50.78058510512767 0 -50.78058510512767 -3.2009978341714032 0 0 0 0 515.37097152191745 -45.553116937137588 0 -45.553116937137588 -29.444622190489326 0 0 0 0 428.94518236468139 5.0019131291735448 0 5.0019131291735448 -27.07401314751624 0 0 0 0 413.97900705826032 36.98203145657294 0 36.98203145657294 -27.042277868068709 0 0 0 0 456.95823864428894 24.265452582466878 0 24.265452582466878 -27.63984392669272 0 0 0 0 410.39071084293755 32.892928717807877 0 32.892928717807877 15.941890915346903 0 0 0 0 392.40209567263082 12.490711685709471 0 12.490711685709471 4.4243116607351567 0 0 0 0 345.91547717652429 -169.89415677724969 0 -169.89415677724969 115.93178769598285 0 0 0 0 497.19422203092108 -212.23178990704218 0 -212.23178990704218 100.31128032184347 0 0 0 0 734.06320957882417 -128.89490289766354 0 -128.89490289766354 -6.7139187209477313 0 0 0 0 430.7269071290757 22.673957757261007 0 22.673957757261007 22.724667320497247 0 0 0 0 395.28689896639116 -49.004190695746729 0 -49.004190695746729 12.524560356871234 0 0 0 0 498.68108519476664 -60.041508321546416 0 -60.041508321546416 -10.561372522158763 0 0 0 0 282.88205130212009 -49.340495031077239 0 -49.340495031077239 61.350735920721263 0 0 0 0 392.20739188197695 -75.317008685856194 0 -75.317008685856194 58.935014430462161 0 0 0 0 379.19459046759584 -81.888508478852827 0 -81.888508478852827 65.528560588513301 0 0 0 0 349.09845902499364 -61.345305473673534 0 -61.345305473673534 63.608998350226102 0 0 0 0 374.34532863721051 -53.414441391516334 0 -53.414441391516334 38.077748557523591 0 0 0 0 327.55819145242822 -13.018865837825047 0 -13.018865837825047 58.66201406123264 0 0 0 0 318.13829363134573 -36.639308728375454 0 -36.639308728375454 66.178490060256536 0 0 0 0 286.53042334804923 -8.5651733203987988 0 -8.5651733203987988 76.70078482407007 0 0 0 0 254.88523224986056 9.0435202054635511 0 9.0435202054635511 84.170600978839957 0 0 0 0 302.69115726194286 -70.878387606290289 0 -70.878387606290289 178.35561664149225 0 0 0 0 271.897465858332 -18.341462624579663 0 -18.341462624579663 112.02159531441112 0 0 0 0 346.7623196484019 -60.889292521562311 0 -60.889292521562311 83.961806620822244 0 0 0 0 174.18219415696512 10.172998325842173 0 10.172998325842173 77.797015110043503 0 0 0 0 165.07623063029314 10.776686700046071 0 10.776686700046071 79.395102329006932 0 0 0 0 210.06012481566722 27.695251706094837 0 27.695251706094837 56.950557113952982 0 0 0 0 258.98736104620184 16.837108401347223 0 16.837108401347223 58.11526197049875 0 0 0 0 214.08168756456325 21.817692364727975 0 21.817692364727975 74.863115710479633 0 0 0 0 293.38802241192752 28.579673658917045 0 28.579673658917045 64.871100941154054 0 0 0 0 289.75858774260996 15.607241835662307 0 15.607241835662307 41.019225511724017 0 0 0 0 230.59160433958823 68.68077209050864 0 68.68077209050864 81.805046733847121 0 0 0 0 188.26075594131908 28.701759238834597 0 28.701759238834597 88.658497136767892 0 0 0 0 149.34429773394368 60.334797179267412 0 60.334797179267412 96.822112189357085 0 0 0 0 205.38444447358052 42.305361294639567 0 42.305361294639567 87.855306813292827 0 0 0 0 142.48163221067443 23.83732515388931 0 23.83732515388931 115.43786694707478 0 0 0 0 122.07501069939462 25.025145493992397 0 25.025145493992397 115.5361937241878 0 0 0 0 189.35361249298876 56.539396961315106 0 56.539396961315106 90.563636832355428 0 0 0 0 104.79782216930107 90.251890118625965 0 90.251890118625965 95.282610537321489 0 0 0 0 189.33298317164213 61.231231178737481 0 61.231231178737481 85.07939476232923 0 0 0 0 297.14853695478087 85.63660747212225 0 85.63660747212225 55.649651231031839 0 0 0 0 309.53403658702882 117.49368961487971 0 117.49368961487971 59.199711908803692 0 0 0 0 625.15438683226785 263.60728934039787 0 263.60728934039787 66.419163926665078 0 0 0 0 292.46639245213737 80.148338297023201 0 80.148338297023201 52.178175321713354 0 0 0 0 158.21870722383755 109.62676276942307 0 109.62676276942307 65.721413175685029 0 0 0 0 292.95629426625027 118.6079152790504 0 118.6079152790504 38.730019185213678 0 0 0 0 -14.584667372131662 64.456310364358274 0 64.456310364358274 94.670950620206895 0 0 0 0 105.89273547811172 136.84045209697297 0 136.84045209697297 55.385305386223308 0 0 0 0 146.76044104912398 73.495256670234966 0 73.495256670234966 74.77925133126837 0 0 0 0 21.684910483229942 -38.618728974062265 0 -38.618728974062265 -27.346140250187318 0 0 0 0 44.649473858786223 27.388356489357648 0 27.388356489357648 58.653380415029687 0 0 0 0 60.2559833407322 34.87952811854359 0 34.87952811854359 121.77105411115053 0 0 0 0 75.80070552525649 36.910125049271869 0 36.910125049271869 51.133951185384831 0 0 0 0 56.437881367179216 10.960805909186092 0 10.960805909186092 174.03920547640837 0 0 0 0 51.292458536605409 58.870617126840671 0 58.870617126840671 149.35269380455111 0 0 0 0 4.7174773661317886 43.873637548585521 0 43.873637548585521 33.331280713806109 0 0 0 0 122.4347201064229 80.190998019626022 0 80.190998019626022 153.98260638553938 0 0 0 0 96.863903252396995 15.899699882280515 0 15.899699882280515 39.266830318612392 0 0 0 0 27.790948874597234 -36.478792799740091 0 -36.478792799740091 -43.25776095881406 0 0 0 0 105.38932795310393 47.104535967885795 0 47.104535967885795 -33.810084140801337 0 0 0 0 35.315971793470453 -92.21043839003795 0 -92.21043839003795 -39.831153802949984 0 0 0 0 -5.1479198029878717 -127.43549021984688 0 -127.43549021984688 316.93395569887207 0 0 0 0 3.0393232057831483 -83.606833390340626 0 -83.606833390340626 118.26046338885953 0 0 0 0 34.912209354130027 -60.861582424980611 0 -60.861582424980611 121.77226815075949 0 0 0 0 -0.87337461715586073 0.92808828395093457 0 0.92808828395093457 -0.8681851330730721 0 0 0 0 -143.62460741260293 -71.438607628377895 0 -71.438607628377895 124.30787432370585 0 0 0 0 159.42211757935002 -159.3540266495354 0 -159.3540266495354 93.646242912730941 0 0 0 0 -84.064915909048523 -10.840397346113726 0 -10.840397346113726 336.97957488595785 0 0 0 0 4.7603242723114079 0.52349785143912442 0 0.52349785143912442 2.7219372804992799 0 0 0 0 -87.733546958611214 -104.43987900245924 0 -104.43987900245924 197.53766039320453 0 0 0 0 21.258112123243336 -4.5852555274648239 0 -4.5852555274648239 241.20377434543761 0 0 0 0 -13.204103020452749 58.140728611575298 0 58.140728611575298 300.46518669787565 0 0 0 0 27.514179703823174 -43.457517951458243 0 -43.457517951458243 73.962491056742721 0 0 0 0 174.3349972760625 -177.70543718662043 0 -177.70543718662043 157.29967220126855 0 0 0 0 1.3480876069414549 1.0216778784084184 0 1.0216778784084184 0.70346462640686092 0 0 0 0 5.0461016830180867 1.4519778927238747 0 1.4519778927238747 3.2514978319450814 0 0 0 0 11.387532155953522 -4.3363856725887402 0 -4.3363856725887402 3.5287550117704285 0 0 0 0 12.857741492029163 -15.73401833478988 0 -15.73401833478988 3.971269395080526 0 0 0 0 10.509212828677377 -5.8651681812611933 0 -5.8651681812611933 4.2771417567358547 0 0 0 0 1.9486873343375919 6.1466894524515396 0 6.1466894524515396 11.700880682562683 0 0 0 0 34.032487021144334 -20.504923365089837 0 -20.504923365089837 45.008946583897796 0 0 0 0 98.440047262889493 86.461905390154186 0 86.461905390154186 88.489124889298637 0 0 0 0 120.36397050236701 -25.101169132380619 0 -25.101169132380619 -1.0250678017924884 0 0 0 0 110.58770866879786 -59.395226696279224 0 -59.395226696279224 42.938584742006469 0 0 0 0 123.06502429195098 48.508241838091521 0 48.508241838091521 14.69920302563014 0 0 0 0 2.1610289093734565 2.1757559693598161 0 2.1757559693598161 -0.73225196758628841 0 0 0 0 18.833551514604522 -1.4496320910103648 0 -1.4496320910103648 4.811648248606855 0 0 0 0 82.55868938643107 23.548116361352186 0 23.548116361352186 -12.347576328867831 0 0 0 0 78.037867444490985 -38.136840586980725 0 -38.136840586980725 104.49938364862237 0 0 0 0 106.9224455291187 -38.686262999998007 0 -38.686262999998007 57.16190845638414 0 0 0 0 67.938814913657552 -41.202235258850351 0 -41.202235258850351 60.365085278292327 0 0 0 0 147.21020727540599 -13.886151950101976 0 -13.886151950101976 42.770767697844349 0 0 0 0 148.06434644701949 -9.0314514051924561 0 -9.0314514051924561 70.344457977868615 0 0 0 0 106.56398373679258 -9.8246519433623689 0 -9.8246519433623689 93.628255091534697 0 0 0 0 162.13395351976033 3.6175041976695184 0 3.6175041976695184 80.926386362034464 0 0 0 0 103.3848073023255 -46.154279073384032 0 -46.154279073384032 95.987741646697032 0 0 0 0 63.95007828000962 -4.2988997533045676 0 -4.2988997533045676 139.14277710604324 0 0 0 0 106.87603144550303 -14.680289210183105 0 -14.680289210183105 141.59087228103408 0 0 0 0 92.91540398865618 45.223951946460375 0 45.223951946460375 123.6111131599236 0 0 0 0 64.735601470962138 6.4275729313580996 0 6.4275729313580996 151.63742707447909 0 0 0 0 46.928109118452994 5.8748542894742286 0 5.8748542894742286 335.83487479525365 0 0 0 0 53.860196628906124 -1.1642989699878399 0 -1.1642989699878399 159.07044380511638 0 0 0 0 111.1926600472267 -108.68412599757613 0 -108.68412599757613 147.74936768121734 0 0 0 0 -34.813641686974734 -34.744156255194184 0 -34.744156255194184 403.24787900312612 0 0 0 0 4.1666615897590447 -2.7137229237828215 0 -2.7137229237828215 1.795938783794059 0 0 0 0 133.13800170760078 14.924416867866384 0 14.924416867866384 -45.86086255683739 0 0 0 0 76.892114141388447 -230.91734524947032 0 -230.91734524947032 323.68115105513232 0 0 0 0 208.29313680731411 -39.192678819148625 0 -39.192678819148625 -52.689200083163996 0 0 0 0 125.32351940029912 -40.441482460257518 0 -40.441482460257518 -20.409576438142835 0 0 0 0 106.79702683487994 -7.5237178388455703 0 -7.5237178388455703 -62.482108705787482 0 0 0 0 88.818342499253049 -4.3874282833353604 0 -4.3874282833353604 -14.646504312009483 0 0 0 0 89.390412648008351 -17.733211115533077 0 -17.733211115533077 -27.162314091834745 0 0 0 0 89.982489006772994 2.606696721062252 0 2.606696721062252 -41.308929463579588 0 0 0 0 38.15238699240399 29.059204755607027 0 29.059204755607027 -32.287503252585736 0 0 0 0 -19.27165566133408 -29.838905900844324 0 -29.838905900844324 -29.411468455993834 0 0 0 0 -14.372728057414861 3.5464912187544684 0 3.5464912187544684 231.47581539561051 0 0 0 0 -14.333827448241209 -8.154369705585168 0 -8.154369705585168 127.22744195824427 0 0 0 0 -50.842629026101349 -81.322519973972703 0 -81.322519973972703 62.049695287273607 0 0 0 0 9.8612814839434577 -21.502013506727813 0 -21.502013506727813 -54.197409083095749 0 0 0 0 9.9201291142617265 -47.994773055414122 0 -47.994773055414122 -75.249309968233689 0 0 0 0 12.720556789636291 -7.186891325228288 0 -7.186891325228288 3.7386742381496609 0 0 0 0 20.1903861236257 -10.130989929007391 0 -10.130989929007391 4.9370792091190356 0 0 0 0 -76.935561988750123 -48.939463795943112 0 -48.939463795943112 223.83282212454765 0 0 0 0 199.09591588017065 55.048901596125688 0 55.048901596125688 42.754206909435879 0 0 0 0 -8.3336600151742459 72.113407043630403 0 72.113407043630403 203.62969053533919 0 0 0 0 87.933574819735441 60.031931328691869 0 60.031931328691869 20.415083417851207 0 0 0 0 0.82556319936702494 -3.5902606952900982 0 -3.5902606952900982 44.29365277263534 0 0 0 0 9.8891396769649873 -18.849264485892718 0 -18.849264485892718 23.582529672964029 0 0 0 0 10.32498897530968 -24.664681560923739 0 -24.664681560923739 92.613678466140556 0 0 0 0 23.361641655679705 10.05565869895895 0 10.05565869895895 18.027528715218295 0 0 0 0 -35.733361017957577 17.760037106287818 0 17.760037106287818 95.942692350907919 0 0 0 0 44.863578417008739 -64.235465256422387 0 -64.235465256422387 79.733784222301836 0 0 0 0 19.652998748548271 -18.559673027510684 0 -18.559673027510684 16.058101546105263 0 0 0 0 6.8104946069797734 -19.400413593117264 0 -19.400413593117264 16.095163675001118 0 0 0 0 36.42696526160762 -5.9055117049352361 0 -5.9055117049352361 -12.777800670109173 0 0 0 0 24.551438519163639 -44.426589383669352 0 -44.426589383669352 70.733372783449113 0 0 0 0 59.033405999507522 -11.161674201051483 0 -11.161674201051483 -40.915385493821304 0 0 0 0 287.79577443725429 159.42460455959736 0 159.42460455959736 -80.128001046487043 0 0 0 0 45.864821666684293 -27.380543906237733 0 -27.380543906237733 31.844151319276307 0 0 0 0 78.446384484574082 -15.66473329381347 0 -15.66473329381347 -24.288684477454353 0 0 0 0 47.570764211268397 -19.240835653061822 0 -19.240835653061822 -22.484099140190438 0 0 0 0 1.3517742473312353 -0.24998190360545181 0 -0.24998190360545181 -0.89811493557896327 0 0 0 0 18.657762502247351 29.016157838756726 0 29.016157838756726 -36.969272553751892 0 0 0 0 -384.70514870392799 -272.09561111248786 0 -272.09561111248786 109.28205397221245 0 0 0 0 36.934168063718971 7.2190840371091554 0 7.2190840371091554 -11.75455424185202 0 0 0 0 64.216734252564493 15.765202434102775 0 15.765202434102775 -15.391649658225106 0 0 0 0 100.92154321985436 75.64361400570067 0 75.64361400570067 -71.620946985261071 0 0 0 0 95.634709050355013 -30.966049415920054 0 -30.966049415920054 30.836470206753489 0 0 0 0 148.36717126852091 -31.051190108870287 0 -31.051190108870287 -11.244219235694572 0 0 0 0 101.30006704416883 -65.801847747675851 0 -65.801847747675851 31.38091763404373 0 0 0 0 46.794390102541001 -50.731276442371666 0 -50.731276442371666 116.65499940689762 0 0 0 0 53.606169389502611 -91.19581273797894 0 -91.19581273797894 229.40965976245263 0 0 0 0 252.3602640544359 -284.96232707927862 0 -284.96232707927862 17.493250968524421 0 0 0 0 146.91991351085744 -100.17800511136102 0 -100.17800511136102 93.067553995861431 0 0 0 0 159.16919686249457 -102.39913073629936 0 -102.39913073629936 44.868756581953562 0 0 0 0 25.270047670703207 -3.4777405564251183 0 -3.4777405564251183 0.5439733869433212 0 0 0 0 26.613942698393203 -9.1885463039911386 0 -9.1885463039911386 -5.2371831706131502 0 0 0 0 18.52215010715382 0.41988553591021116 0 0.41988553591021116 -7.0016784732040618 0 0 0 0 24.104163660944323 -2.8498549874207129 0 -2.8498549874207129 -6.6620812420010225 0 0 0 0 132.42858665372478 -68.968727819967171 0 -68.968727819967171 90.41465423194677 0 0 0 0 90.476462015503785 -96.46249917183377 0 -96.46249917183377 82.955631191223802 0 0 0 0 8.3501506316424923 -4.8887693878209859 0 -4.8887693878209859 1.1247008846239783 0 0 0 0 39.756437535974968 2.5037608975270622 0 2.5037608975270622 -14.40570969303166 0 0 0 0 27.298165925805463 -4.8436352419001061 0 -4.8436352419001061 -0.53440935169703918 0 0 0 0 40.327968786295969 -2.7754272341606452 0 -2.7754272341606452 -15.786068938654978 0 0 0 0 10.959835486564543 -0.88569285604105374 0 -0.88569285604105374 -0.70019350715091622 0 0 0 0 20.756945274908503 -8.5084503815340895 0 -8.5084503815340895 4.0874280730783994 0 0 0 0 31.634371286068927 -17.196840809116111 0 -17.196840809116111 17.030522699978064 0 0 0 0 40.865884149217891 -5.0026365849473819 0 -5.0026365849473819 -6.580915487907987 0 0 0 0 10.726492995752196 1.458511584087546 0 1.458511584087546 -3.9524667165524421 0 0 0 0 20.704410641251911 2.2894767296145346 0 2.2894767296145346 -1.3687781272931709 0 0 0 0 29.533730397481122 -19.264982707237806 0 -19.264982707237806 15.133671704602421 0 0 0 0 29.601397373936379 -19.384228018534543 0 -19.384228018534543 -1.7246473681616408 0 0 0 0 16.634429959755877 -8.0968835899724745 0 -8.0968835899724745 3.299569843925874 0 0 0 0 15.867679961687827 -11.844963764867884 0 -11.844963764867884 3.1224993927846185 0 0 0 0 11.296668018207129 -3.781644293795523 0 -3.781644293795523 9.0524772692029956 0 0 0 0 11.498798786391063 -8.1847184767162844 0 -8.1847184767162844 3.944856916704448 0 0 0 0 21.512046014784119 -1.0847230375930899 0 -1.0847230375930899 7.4339790664552083 0 0 0 0 24.555369203728333 -11.454305516931129 0 -11.454305516931129 5.6915370603571205 0 0 0 0 27.976494456961518 -1.0136916907750475 0 -1.0136916907750475 13.061781049423246 0 0 0 0 25.095477645991195 -10.568994718824634 0 -10.568994718824634 6.0068727288264956 0 0 0 0 2.374582740713663 -1.7364315949671649 0 -1.7364315949671649 0.58471542456954584 0 0 0 0 13.912726858059614 -11.513168117336983 0 -11.513168117336983 9.134583380850188 0 0 0 0 26.292196122696623 -19.254426359264471 0 -19.254426359264471 16.785606703994745 0 0 0 0 18.728142160324481 -2.8536474441458779 0 -2.8536474441458779 0.94935952830714498 0 0 0 0 3.8926244425098844 1.0041681407084297 0 1.0041681407084297 0.295780039802362 0 0 0 0 5.6022861477686092 -2.1261596232292312 0 -2.1261596232292312 -16.031037041044442 0 0 0 0 13.073370234611502 -0.53151671662803324 0 -0.53151671662803324 -48.021381974278846 0 0 0 0 7.2121223624926643 -4.6811834049121046 0 -4.6811834049121046 -39.620840191785419 0 0 0 0 15.084942699315434 22.357181077060556 0 22.357181077060556 -49.702419049473235 0 0 0 0 19.95686646899776 10.011336045854609 0 10.011336045854609 -31.883833672088301 0 0 0 0 7.5015054835480441 -7.0100822091667929 0 -7.0100822091667929 -42.269605127784232 0 0 0 0 1.7523586252030157 0.99039361307838192 0 0.99039361307838192 -1.3009073733892205 0 0 0 0 38.107805903659028 11.683747207926075 0 11.683747207926075 -2.9543285153138186 0 0 0 0 24.99046729690599 8.0949387836030553 0 8.0949387836030553 -0.95766504908516481 0 0 0 0 33.101745345113159 -0.052498907373205839 0 -0.052498907373205839 -8.9583025605757598 0 0 0 0 30.138652634093887 -7.0672316759995368 0 -7.0672316759995368 -4.338656265329746 0 0 0 0 42.217347324927687 2.2143682064303221 0 2.2143682064303221 -13.348863886333831 0 0 0 0 39.417695828738943 4.1818763306387439 0 4.1818763306387439 -7.0958824284487036 0 0 0 0 73.233783818028314 32.945169639035832 0 32.945169639035832 8.6685417456808764 0 0 0 0 37.375891950206096 6.81892719458979 0 6.81892719458979 -9.170478294391387 0 0 0 0 67.992053791505896 -2.7844583243463763 0 -2.7844583243463763 -18.211430370093275 0 0 0 0 34.530859897668051 11.477971991220357 0 11.477971991220357 -7.4505117971714299 0 0 0 0 26.937642536438943 62.372006064374659 0 62.372006064374659 24.178132987374511 0 0 0 0 15.22080695408475 12.933639093004942 0 12.933639093004942 3.1317287807915126 0 0 0 0 3.2966146052713157 -42.741605565453028 0 -42.741605565453028 177.03598369519659 0 0 0 0 137.87822949959082 -14.177819023271695 0 -14.177819023271695 22.612669006930787 0 0 0 0 211.29058186222392 -25.942154899779325 0 -25.942154899779325 24.487510541694974 0 0 0 0 201.00022389568767 11.955024180643704 0 11.955024180643704 8.7487516050368868 0 0 0 0 182.09551434429886 -9.6435154163505103 0 -9.6435154163505103 -1.5402397039608786 0 0 0 0 172.75697289415257 -22.834596105768696 0 -22.834596105768696 3.3221279565677833 0 0 0 0 142.69715968727542 11.304852113538345 0 11.304852113538345 -4.5621128149155084 0 0 0 0 96.085992069762142 15.464438972393964 0 15.464438972393964 17.299932769616134 0 0 0 0 134.51357250122965 -21.554412232774666 0 -21.554412232774666 -1.9160350495629785 0 0 0 0 152.87709375513077 3.9497273747997497 0 3.9497273747997497 21.688426800063098 0 0 0 0 205.38153266271911 17.456421815227714 0 17.456421815227714 18.038905336273274 0 0 0 0 171.75885791899054 -5.2474535299334093 0 -5.2474535299334093 19.478264617215473 0 0 0 0 171.82217175482219 -1.9555825058575067 0 -1.9555825058575067 12.57436612080528 0 0 0 0 127.23738332101493 -21.775082475130603 0 -21.775082475130603 41.146070268304811 0 0 0 0 126.73107131079996 -27.781037108806288 0 -27.781037108806288 -2.4639843356426354 0 0 0 0 96.128655981337943 -1.2341944676710455 0 -1.2341944676710455 21.032746184725056 0 0 0 0 87.977628156804712 -26.226570879293149 0 -26.226570879293149 -54.731209087043567 0 0 0 0 -23.578420741694572 37.15169942842374 0 37.15169942842374 22.808582511218447 0 0 0 0 37.765719518363767 -2.9556654227398553 0 -2.9556654227398553 7.0999727506030013 0 0 0 0 16.702718326758671 11.313900818867332 0 11.313900818867332 3.5470352028254633 0 0 0 0 34.631778815368307 -0.28211396294068436 0 -0.28211396294068436 8.5027286715746584 0 0 0 0 13.533123272979907 -6.9481769387111783 0 -6.9481769387111783 3.324670501515258 0 0 0 0 19.724500861004344 -3.2283118294368478 0 -3.2283118294368478 1.9570219918597616 0 0 0 0 37.598381306177089 -0.077113021944734683 0 -0.077113021944734683 4.6272655394454887 0 0 0 0 35.290048463837593 2.9873936345074981 0 2.9873936345074981 3.118202896891944 0 0 0 0 23.974843451433571 -6.3657770606838397 0 -6.3657770606838397 3.3648167575802859 0 0 0 0 34.215848245126836 2.2382263666469839 0 2.2382263666469839 2.7230774213257405 0 0 0 0 33.68222910537952 9.3185875135037719 0 9.3185875135037719 -5.9634775798685951 0 0 0 0 35.755822177270602 3.9383857935339961 0 3.9383857935339961 3.8064912378683573 0 0 0 0 36.352259281164152 0.43580663371309925 0 0.43580663371309925 -6.0453341405705601 0 0 0 0 41.968329898299999 4.8311999932932963 0 4.8311999932932963 -8.5349689301644958 0 0 0 0 45.275450271095906 -3.3300620934384142 0 -3.3300620934384142 -5.5993928742013281 0 0 0 0 47.126079511122953 -2.4751956272996836 0 -2.4751956272996836 -5.2638256519852575 0 0 0 0 48.987099024365307 -5.908994414791465 0 -5.908994414791465 -3.8246789398895373 0 0 0 0 57.320783062699775 2.0872548686826207 0 2.0872548686826207 -8.9334879173233617 0 0 0 0 37.8664605938975 -10.220183826400444 0 -10.220183826400444 4.3828311344474571 0 0 0 0 41.605178597652412 -12.376860373135038 0 -12.376860373135038 -0.86223431387395522 0 0 0 0 34.013976968388306 -25.299635063328878 0 -25.299635063328878 11.714351948638011 0 0 0 0 46.076130417786771 -14.485932682474328 0 -14.485932682474328 -1.8542451972272431 0 0 0 0 23.594256809476065 -13.125961796221972 0 -13.125961796221972 8.3450365145220644 0 0 0 0 60.476938858861104 -22.863300280496773 0 -22.863300280496773 2.3363876819172962 0 0 0 0 46.840148824005155 -30.196437332768497 0 -30.196437332768497 13.539291661561553 0 0 0 0 32.805518626315461 -50.012155190207693 0 -50.012155190207693 26.706716950375938 0 0 0 0 1.8187544832606051 0.9856777263697083 0 0.9856777263697083 0.072963508886700834 0 0 0 0 68.71024800457235 -29.837838626728995 0 -29.837838626728995 10.285494044843816 0 0 0 0 -11.454845764077618 21.899041545222204 0 21.899041545222204 -34.180408094240676 0 0 0 0 -10.66882926203607 46.425958822976249 0 46.425958822976249 -58.78414579221851 0 0 0 0 67.56982080101443 -19.67470292275155 0 -19.67470292275155 22.825532730206078 0 0 0 0 64.587248868449024 7.9279488181450093 0 7.9279488181450093 -16.114757769731739 0 0 0 0 69.759227061993442 -19.911013710014725 0 -19.911013710014725 5.6995150963120089 0 0 0 0 58.627175413726945 -7.9140319218117297 0 -7.9140319218117297 -5.5898498106398371 0 0 0 0 69.576461427728646 -12.587022494307348 0 -12.587022494307348 8.7378418769750823 0 0 0 0 97.430720771080814 -12.748424364518854 0 -12.748424364518854 -3.7997323770954807 0 0 0 0 62.54102642716316 44.983786762344266 0 44.983786762344266 -4.0993152734802436 0 0 0 0 14.784923345865536 38.056974340575536 0 38.056974340575536 -10.547224956069737 0 0 0 0 33.741527036956541 5.850488386825603 0 5.850488386825603 -5.3805292637048865 0 0 0 0 38.623751287930645 12.224854417765755 0 12.224854417765755 -9.0321157583123295 0 0 0 0 39.037640560040018 4.355058451016049 0 4.355058451016049 -4.5751153202100951 0 0 0 0 39.133001145270896 7.9288721489444738 0 7.9288721489444738 -10.983339593188248 0 0 0 0 219.74067931150785 -24.901743799200972 0 -24.901743799200972 22.106885740531879 0 0 0 0 14.763840124472708 12.524609542641642 0 12.524609542641642 2.8086538420737299 0 0 0 0 132.70545353585112 -19.060941489531018 0 -19.060941489531018 -77.900672422270645 0 0 0 0 6.1687105828574786 -0.06803578207293981 0 -0.06803578207293981 0.041885280838402927 0 0 0 0 -25.787281532298948 24.206294963717241 0 24.206294963717241 14.035205866754325 0 0 0 0 26.121470016329113 12.162802306632617 0 12.162802306632617 -13.447326784551962 0 0 0 0 6.9268443588762736 1.2407619686143505 0 1.2407619686143505 -0.76721453706558385 0 0 0 0 -32.416150829429171 45.759529709552424 0 45.759529709552424 2.22092148705201 0 0 0 0 32.151323911515647 30.266720126174093 0 30.266720126174093 -10.740267917211895 0 0 0 0 -9.8680634539705352 34.426926163577939 0 34.426926163577939 14.685030588829932 0 0 0 0 -15.95778321124817 13.862711191438819 0 13.862711191438819 -28.676152652805627 0 0 0 0 -12.779040191766398 25.212551210599756 0 25.212551210599756 -30.55059667970005 0 0 0 0 -54.953039453052043 4.1385811993760484 0 4.1385811993760484 -0.82572522759113554 0 0 0 0 8.1980102334200637 -3.158327866427868 0 -3.158327866427868 -10.689284861914928 0 0 0 0 -27.629544550574792 14.979176628043632 0 14.979176628043632 -24.679970164442651 0 0 0 0 58.690206414325075 -3.5574750380141964 0 -3.5574750380141964 16.678163272992265 0 0 0 0 39.671018545763218 29.800877300948457 0 29.800877300948457 -41.601254538534711 0 0 0 0 134.1146440328157 49.694511742648871 0 49.694511742648871 -14.31379635183923 0 0 0 0 32.590279252352502 15.660376659738246 0 15.660376659738246 11.936140738741017 0 0 0 0 -41.854165359240142 80.59305573145943 0 80.59305573145943 -50.274095598338306 0 0 0 0 185.34319042931202 -80.801209932444522 0 -80.801209932444522 21.96632310081327 0 0 0 0 0.81617399738928498 0.33310333113212209 0 0.33310333113212209 -0.075767838910845819 0 0 0 0 8.3854454560423619 14.722518752290924 0 14.722518752290924 -38.374087356583203 0 0 0 0 3.2053555396414595 18.107204274255054 0 18.107204274255054 -48.332427529294385 0 0 0 0 14.676241295965156 32.363481114498768 0 32.363481114498768 -71.830041281038447 0 0 0 0 13.290740362688666 15.399640092434524 0 15.399640092434524 -59.783162477560793 0 0 0 0 20.436147938835347 12.508126689857228 0 12.508126689857228 -8.4923475457267728 0 0 0 0 44.674456032873422 17.690483917632093 0 17.690483917632093 -39.242006826064859 0 0 0 0 76.774920499621658 55.93373415257355 0 55.93373415257355 -48.181612885397897 0 0 0 0 96.943382263381864 35.516139348079527 0 35.516139348079527 -60.015741212162368 0 0 0 0 38.067845887664589 25.860604328169359 0 25.860604328169359 -0.12176070411970841 0 0 0 0 74.284697336319368 -4.7688151267769996 0 -4.7688151267769996 11.914976674211971 0 0 0 0 106.35344002881538 -33.452099377331876 0 -33.452099377331876 16.970863969749175 0 0 0 0 0.24843179955870198 0.089812482792702042 0 0.089812482792702042 -0.10434866064168818 0 0 0 0 27.157029801412136 15.684341727629288 0 15.684341727629288 -51.428424002827029 0 0 0 0 11.170019157136267 38.149765805444062 0 38.149765805444062 -56.911503048239723 0 0 0 0 28.367717360226379 -22.197654415177652 0 -22.197654415177652 -18.518848851700128 0 0 0 0 16.385497832930923 11.664003615721093 0 11.664003615721093 -68.376910728239579 0 0 0 0 13.906295194803533 25.104649459464255 0 25.104649459464255 -62.374702056339686 0 0 0 0 8.3371809336349543 11.722665961617611 0 11.722665961617611 -51.511756929315339 0 0 0 0 3.0862354815117214 46.725162492358223 0 46.725162492358223 -99.373822646134499 0 0 0 0 25.155382411947357 5.9199388370780923 0 5.9199388370780923 -29.954480913614987 0 0 0 0 63.047636743322073 43.074843477899435 0 43.074843477899435 -57.613839936772962 0 0 0 0 27.535456283654639 -75.11211922734509 0 -75.11211922734509 -90.625368334507641 0 0 0 0 67.0377864945076 -56.300862220055734 0 -56.300862220055734 -35.084837859720871 0 0 0 0 45.958106293629498 -19.596656865020186 0 -19.596656865020186 -29.837449563204789 0 0 0 0 -0.37225762376499461 0.11241914962295141 0 0.11241914962295141 -0.19799162443208668 0 0 0 0 32.152922665411097 -26.32330330263839 0 -26.32330330263839 -16.218589186019145 0 0 0 0 36.704487363895623 8.97901602167574 0 8.97901602167574 -38.269464137242977 0 0 0 0 29.556949914593133 0.23663263583927119 0 0.23663263583927119 -48.384748167927761 0 0 0 0 27.598779232837842 22.806841886154942 0 22.806841886154942 -52.163015986356427 0 0 0 0 25.675275013578357 -0.94595238629892719 0 -0.94595238629892719 -12.252433928855112 0 0 0 0 58.842535973330087 -11.892771680786566 0 -11.892771680786566 -12.069364272039863 0 0 0 0 39.859291556022072 -12.667181956342205 0 -12.667181956342205 31.234602036616309 0 0 0 0 48.945223293994786 -33.445203615039247 0 -33.445203615039247 65.269794189320123 0 0 0 0 73.389093409539782 -44.704523802761457 0 -44.704523802761457 33.070352807533851 0 0 0 0 83.831898899719818 -72.060683308183457 0 -72.060683308183457 92.8348473711726 0 0 0 0 58.887025779622491 13.501522149769642 0 13.501522149769642 29.032375691368969 0 0 0 0 56.884791051417778 8.4533115742404874 0 8.4533115742404874 110.91936542776867 0 0 0 0 187.67358163271274 -22.560894736330368 0 -22.560894736330368 -17.75043577853415 0 0 0 0 1.3069615048096779 -1.0579707222654235 0 -1.0579707222654235 0.95128702421474054 0 0 0 0 -52.080770604966702 48.718742683870218 0 48.718742683870218 142.10861024809839 0 0 0 0 116.67197753390792 17.580274298245456 0 17.580274298245456 -19.902067141224066 0 0 0 0 72.86970859603025 -129.26001996666281 0 -129.26001996666281 46.18868226058612 0 0 0 0 76.442554786553956 -11.091971792722429 0 -11.091971792722429 -10.347408603998176 0 0 0 0 10.363298416323744 10.644958033875639 0 10.644958033875639 8.436203806321231 0 0 0 0 148.30606565836388 -54.932960013088191 0 -54.932960013088191 2.9809810316970129 0 0 0 0 74.985892233624327 -12.252068282439847 0 -12.252068282439847 -8.3892266958703203 0 0 0 0 82.152444641154943 -38.594047766290444 0 -38.594047766290444 12.657053829720283 0 0 0 0 90.244854185439181 -30.766202607344326 0 -30.766202607344326 -2.8786656191750666 0 0 0 0 67.333831609801564 -26.514940849297474 0 -26.514940849297474 33.191709958104717 0 0 0 0 65.069794245137018 -31.682476145587486 0 -31.682476145587486 22.668993269986885 0 0 0 0 76.234525556668814 -28.289962213196443 0 -28.289962213196443 6.8596612851078547 0 0 0 0 66.615011818514176 -15.77385802181824 0 -15.77385802181824 -2.9041657487609052 0 0 0 0 74.44500039428749 -24.726656567945454 0 -24.726656567945454 -0.013579218050111308 0 0 0 0 72.335685270823888 -22.595041930478367 0 -22.595041930478367 0.61131682481348548 0 0 0 0 73.390006168176114 -21.854167485648524 0 -21.854167485648524 -0.014352237333150292 0 0 0 0 82.766920408816077 -19.540495419623813 0 -19.540495419623813 -10.205300741957242 0 0 0 0 68.758165769072548 -10.832343948802414 0 -10.832343948802414 -11.023497997790734 0 0 0 0 42.814558666112134 -15.03710038033133 0 -15.03710038033133 0.0025002071044977537 0 0 0 0 35.743231095853844 -3.6867458140487122 0 -3.6867458140487122 -3.323156583623593 0 0 0 0 40.320209667392191 -0.36925737077675436 0 -0.36925737077675436 -6.3862695448302293 0 0 0 0 26.609571011433218 -11.282638671998143 0 -11.282638671998143 -1.0723574857275935 0 0 0 0 63.633132658469549 -29.665001484246915 0 -29.665001484246915 13.935228281454954 0 0 0 0 0.71375127215877399 0.40881130726172188 0 0.40881130726172188 0.093292822447767487 0 0 0 0 99.745773174097849 -6.0879170269922938 0 -6.0879170269922938 13.535405557279418 0 0 0 0 36.019810404435702 -21.260397249812577 0 -21.260397249812577 -18.622030705191776 0 0 0 0 23.466923834186673 -7.2195395490400784 0 -7.2195395490400784 25.149435698109173 0 0 0 0 64.685064416447858 -27.368538380990557 0 -27.368538380990557 15.108048118929659 0 0 0 0 0.57491511316008825 0.27612205257657507 0 0.27612205257657507 -0.10222337042266727 0 0 0 0 64.183584772632457 -28.12347900124216 0 -28.12347900124216 17.166076391792203 0 0 0 0 72.768787578719639 -24.929562339742855 0 -24.929562339742855 13.917020386267936 0 0 0 0 64.026693959909608 -23.484574836143196 0 -23.484574836143196 13.744019824601573 0 0 0 0 65.24046572589782 -25.484355792025649 0 -25.484355792025649 4.3625717817429859 0 0 0 0 65.354575392502738 -22.807555649411739 0 -22.807555649411739 3.6217187515114064 0 0 0 0 71.972423050123325 -27.705356995143436 0 -27.705356995143436 6.9303910313884494 0 0 0 0 71.613529347969234 -21.563686561254464 0 -21.563686561254464 0.0033346046543107945 0 0 0 0 54.112567297710484 -17.613450689226916 0 -17.613450689226916 -0.002525856452371876 0 0 0 0 50.025381979830854 -23.304196652209811 0 -23.304196652209811 10.967340063353234 0 0 0 0 49.233348041136196 -21.825430486588431 0 -21.825430486588431 9.1604217394848071 0 0 0 0 46.258760479422563 -23.888582319174152 0 -23.888582319174152 9.5740361484052414 0 0 0 0 0.55514071198032866 0.18656228887033421 0 0.18656228887033421 0.065485794933405242 0 0 0 0 35.734916956644156 -12.44827476291494 0 -12.44827476291494 0.02731492957358788 0 0 0 0 298.77856029693066 0.66577557695058376 0 0.66577557695058376 -4.4936812435257103 0 0 0 0 292.56746201212445 2.7854398657252748 0 2.7854398657252748 0.023425891989808177 0 0 0 0 277.38045225937822 -18.681396126461376 0 -18.681396126461376 -10.892988156736843 0 0 0 0 340.97002928648271 4.6026460984557662 0 4.6026460984557662 -0.01361534399980595 0 0 0 0 331.7321802240549 23.378333325251912 0 23.378333325251912 2.586598006791454 0 0 0 0 279.71520305055674 10.164597785170209 0 10.164597785170209 6.7911236178249847 0 0 0 0 353.8897853064318 -16.079799734852262 0 -16.079799734852262 9.1321536454060048 0 0 0 0 422.57721094957742 -30.248516904052281 0 -30.248516904052281 -14.325558527367861 0 0 0 0 340.52881535841971 24.729637372241154 0 24.729637372241154 -15.180047374748089 0 0 0 0 486.44539065492427 -194.61786373786759 0 -194.61786373786759 144.66976625520522 0 0 0 0 272.75000444068428 54.444474280095662 0 54.444474280095662 -18.268819384283177 0 0 0 0 587.42507549448055 -12.500802311161692 0 -12.500802311161692 -78.7863091238506 0 0 0 0 337.32491090233088 -50.367642670330582 0 -50.367642670330582 34.174120976517202 0 0 0 0 335.7865863765619 -47.487992568627639 0 -47.487992568627639 61.330774191956564 0 0 0 0 90.161245321211027 12.686539699655391 0 12.686539699655391 28.608914590856642 0 0 0 0 268.51992423362481 32.995115093970625 0 32.995115093970625 -14.022670803599269 0 0 0 0 53.939454407591256 4.7725962288176049 0 4.7725962288176049 24.672757637596121 0 0 0 0 31.467191603092942 -39.558117298333258 0 -39.558117298333258 -7.9753970387677953 0 0 0 0 75.060963623787757 16.859681892843653 0 16.859681892843653 -108.1711074602415 0 0 0 0 -5.1753793800626227 92.47024290162301 0 92.47024290162301 -144.1909284057491 0 0 0 0 13.693349152417795 8.9234495082576188 0 8.9234495082576188 -71.139958284308761 0 0 0 0 0.29291581996611171 0.14881719348046829 0 0.14881719348046829 -0.78196468127429108 0 0 0 0 -130.19611987568715 119.37549257095237 0 119.37549257095237 -71.310328688025947 0 0 0 0 -74.089992039502249 32.801907544759104 0 32.801907544759104 -42.826460503785654 0 0 0 0 -30.886732145252608 27.649574162790266 0 27.649574162790266 -44.640068953539469 0 0 0 0 130.76586089224293 -172.16798353411022 0 -172.16798353411022 -56.871694129380082 0 0 0 0 4.1152427021514768 2.3274862644776064 0 2.3274862644776064 0.72780974240849527 0 0 0 0 303.89170839217331 183.58389632629112 0 183.58389632629112 -106.70994672674152 0 0 0 0 4.083169353669291 184.16722165336088 0 184.16722165336088 -105.99225416143679 0 0 0 0 363.65484708490112 -44.913294223332372 0 -44.913294223332372 283.17100949808605 0 0 0 0 255.11092816301971 -163.46194011752189 0 -163.46194011752189 239.97754558040808 0 0 0 0 -17.422139119837084 -123.25949307710925 0 -123.25949307710925 189.89315033564822 0 0 0 0 465.56514215666539 -100.04297577292058 0 -100.04297577292058 137.52406386582334 0 0 0 0 1057.6945811981386 -708.61125951144072 0 -708.61125951144072 186.77978466016123 0 0 0 0 575.66411038476508 21.382082257207898 0 21.382082257207898 184.67666965659461 0 0 0 0 281.20326443453087 -308.5109996107696 0 -308.5109996107696 273.88343454533117 0 0 0 0 -61.142406811020919 -432.79492408369333 0 -432.79492408369333 342.07708903752496 0 0 0 0 149.78268597386341 -592.34726158079866 0 -592.34726158079866 120.83585359142648 0 0 0 0 184.51302300803218 195.48117034880022 0 195.48117034880022 -184.74519934489882 0 0 0 0 172.659060919068 -79.969233880910679 0 -79.969233880910679 -606.66879285633991 0 0 0 0 132.61079424376658 3.6765327693044298 0 3.6765327693044298 -513.80127240848219 0 0 0 0 19.18566828574771 -0.85265141803162692 0 -0.85265141803162692 -0.97975457665612797 0 0 0 0 -79.287012652675912 83.767391896005279 0 83.767391896005279 -17.758018397694514 0 0 0 0 8.9866528010170015 -1.0616086344972726 0 -1.0616086344972726 -0.19597037210962404 0 0 0 0 429.23413085306674 422.49519758750461 0 422.49519758750461 -103.38057775229618 0 0 0 0 1262.6985149234679 169.68980655558312 0 169.68980655558312 -320.49891151807287 0 0 0 0 642.77646857502987 149.07002674858495 0 149.07002674858495 -268.14328349282812 0 0 0 0 12.598907563947051 10.786969517970988 0 10.786969517970988 4.2986615095578209 0 0 0 0 83.533091926197812 53.09951973767653 0 53.09951973767653 -4.8906388599059483 0 0 0 0 381.96008182456717 -473.91298537541309 0 -473.91298537541309 -121.88475946756262 0 0 0 0 1397.1207324849183 -792.62425396382127 0 -792.62425396382127 -237.52244815751146 0 0 0 0 34.615483143359597 -111.91573460159071 0 -111.91573460159071 -20.300476162664609 0 0 0 0 10.952632310922766 8.1377290860231355 0 8.1377290860231355 2.7551556272179383 0 0 0 0 0.23463163848062862 0.74589215893537641 0 0.74589215893537641 -1.2039292227716032 0 0 0 0 -70.709825981371978 36.873475827917716 0 36.873475827917716 -14.840004756463088 0 0 0 0 84.289592009947228 126.43862807614263 0 126.43862807614263 -28.688060366682858 0 0 0 0 652.3951115719683 -643.81763867986456 0 -643.81763867986456 -31.840348712082047 0 0 0 0 1357.5440314907755 -47.742488605635458 0 -47.742488605635458 516.59647286964628 0 0 0 0 1043.8519521821108 -572.84583375997306 0 -572.84583375997306 -85.213664798743366 0 0 0 0 784.57863506158174 -358.58920476482297 0 -358.58920476482297 141.98486122973407 0 0 0 0 593.12482834955517 415.85051784283218 0 415.85051784283218 -46.48364296235971 0 0 0 0 540.07696582736753 -237.695565919979 0 -237.695565919979 258.43912587354606 0 0 0 0 1042.6843474773959 -16.938890859782084 0 -16.938890859782084 -120.59535280711106 0 0 0 0 686.22446908326492 162.84143936600773 0 162.84143936600773 229.66607669423882 0 0 0 0 989.92410867295985 -263.70643875747004 0 -263.70643875747004 -226.60013142344675 0 0 0 0 459.78124735138044 -474.19795100444651 0 -474.19795100444651 -50.185723484113822 0 0 0 0 7.7037441814456997 -0.45952099560823334 0 -0.45952099560823334 -0.16763323050135359 0 0 0 0 -46.608608339920465 -154.22239382277655 0 -154.22239382277655 -19.109942765931677 0 0 0 0 -42.915538641420426 41.778374521882512 0 41.778374521882512 -120.98363441472566 0 0 0 0 17.88877433268479 -0.60310101920478099 0 -0.60310101920478099 -0.88565741866926628 0 0 0 0 189.8293911736564 -52.277657309192698 0 -52.277657309192698 -498.57267805757976 0 0 0 0 140.30835836428014 105.94221981440361 0 105.94221981440361 -477.05683035139134 0 0 0 0 -85.827883694149932 102.87001429941319 0 102.87001429941319 -113.89053357892833 0 0 0 0 50.255753327503044 213.34405973491329 0 213.34405973491329 59.720426187962438 0 0 0 0 72.734824391896836 -15.775839697795409 0 -15.775839697795409 -175.0170193161695 0 0 0 0 -10.02006816847279 122.7351752275768 0 122.7351752275768 114.56950747151399 0 0 0 0 180.80118077659426 38.226569649136714 0 38.226569649136714 -105.7388957986341 0 0 0 0 153.45208696179725 15.188517730076876 0 15.188517730076876 147.56609455486932 0 0 0 0 250.89456820522537 51.060066344585891 0 51.060066344585891 133.94087884136559 0 0 0 0 239.28028525525951 131.89345821962624 0 131.89345821962624 42.88874698263885 0 0 0 0 575.15837079233097 161.15458216620993 0 161.15458216620993 -22.375879098946363 0 0 0 0 514.11017061503298 59.23256522501557 0 59.23256522501557 -97.232434032707005 0 0 0 0 317.41443785348383 64.791314770008853 0 64.791314770008853 95.941136290708258 0 0 0 0 426.24734009094391 8.1011718142023561 0 8.1011718142023561 125.06623918990938 0 0 0 0 406.57696306180151 67.760673809546034 0 67.760673809546034 67.409808100678248 0 0 0 0 409.56067404194982 53.386796962663496 0 53.386796962663496 14.629773969890628 0 0 0 0 430.76487224313132 95.657115618201658 0 95.657115618201658 98.889115445715262 0 0 0 0 301.44535899957555 3.4347079605689697 0 3.4347079605689697 80.172349374480547 0 0 0 0 308.33123520293884 -26.741795980565236 0 -26.741795980565236 152.12185335054318 0 0 0 0 349.61778886696266 -6.8300014606921939 0 -6.8300014606921939 35.851868022603441 0 0 0 0 348.58542814011389 1.9979499319041099 0 1.9979499319041099 47.694432968134493 0 0 0 0 368.68221936377449 21.950845664735912 0 21.950845664735912 21.802589403521708 0 0 0 0 379.56004756418224 14.533665578872476 0 14.533665578872476 0.047148329864396259 0 0 0 0 367.60716409451561 17.606118376607462 0 17.606118376607462 4.3227660940861279 0 0 0 0 388.76803731900145 25.664152415459629 0 25.664152415459629 9.6297311631021909 0 0 0 0 396.73162272607624 19.339665060800723 0 19.339665060800723 -0.12571140700136046 0 0 0 0 329.6280135831621 -41.183922922510078 0 -41.183922922510078 -19.706634547252129 0 0 0 0 338.23348665617596 -66.081110227246995 0 -66.081110227246995 -23.604623447643927 0 0 0 0 146.43527136982448 -0.71021999005372405 0 -0.71021999005372405 0.10431596312231896 0 0 0 0 141.7682274107101 -9.2034230960337062 0 -9.2034230960337062 63.451996741516375 0 0 0 0 105.15085514031671 46.473544357046052 0 46.473544357046052 -0.011070414765149677 0 0 0 0 35.583336852570937 -36.998162135764616 0 -36.998162135764616 56.177695344158245 0 0 0 0 40.929074865904113 42.986786962149637 0 42.986786962149637 -42.694592019429429 0 0 0 0 89.538090582882432 -5.6981639428640705 0 -5.6981639428640705 -176.58251755271479 0 0 0 0 7.5202663457726544 0.90658760380430259 0 0.90658760380430259 -0.16121747633194972 0 0 0 0 62.222130580077646 38.478953353136376 0 38.478953353136376 -123.126776799751 0 0 0 0 11.666574222719646 68.571051691885884 0 68.571051691885884 -1.5988031822348603 0 0 0 0 28.166470429685432 -30.152093997877969 0 -30.152093997877969 -39.40325592168999 0 0 0 0 301.17092077387497 200.86431242062616 0 200.86431242062616 30.062374137144033 0 0 0 0 3.614994467407513 0.37662949092017595 0 0.37662949092017595 0.0081490916736583208 0 0 0 0 550.33871017544152 30.267986039460265 0 30.267986039460265 -60.650023273277455 0 0 0 0 373.39347730862937 -187.47569923869858 0 -187.47569923869858 -33.732959943183388 0 0 0 0 39.847661713926556 -85.122816195157384 0 -85.122816195157384 37.692457729025001 0 0 0 0 139.69268020270101 8.4991624226283626 0 8.4991624226283626 -148.59448554916216 0 0 0 0 -4.1597583961993223 104.9575201973059 0 104.9575201973059 42.704359267344458 0 0 0 0 4.318270053511128 0.23175389246148015 0 0.23175389246148015 -0.1627874102985073 0 0 0 0 1.1889694870551466 1.2344484157969646 0 1.2344484157969646 -0.014375995640895856 0 0 0 0 -3.0305912631192768 9.2239157283254301 0 9.2239157283254301 -14.346332711168543 0 0 0 0 15.766545730672078 64.165657770487968 0 64.165657770487968 -34.254087637330031 0 0 0 0 3.070292429562727 0.6119719679488953 0 0.6119719679488953 -0.073794916095482263 0 0 0 0 20.967498983089172 38.702641079115622 0 38.702641079115622 7.0419461006060828 0 0 0 0 -8.3461519911616051 12.166841232675321 0 12.166841232675321 -0.0094651649815596667 0 0 0 0 61.894412855239352 -2.217715863714453 0 -2.217715863714453 -43.069672250110806 0 0 0 0 119.32392958369928 81.643421105442954 0 81.643421105442954 5.6730988268146021 0 0 0 0 1.0365314533337653 0.35888256940634422 0 0.35888256940634422 0.057409099678314764 0 0 0 0 -23.098252559415414 68.969367106713534 0 68.969367106713534 164.34362572458082 0 0 0 0 -51.222408395908133 25.276040001601565 0 25.276040001601565 -6.3486016486644985 0 0 0 0 51.265844599918637 -88.168061718109016 0 -88.168061718109016 -1.8271098311699632 0 0 0 0 38.1050184722626 -22.62707776214862 0 -22.62707776214862 -76.924613432677546 0 0 0 0 6.0864138702104071 0.84733918793630814 0 0.84733918793630814 -0.050447183057133985 0 0 0 0 -22.632324973747018 35.921649248421943 0 35.921649248421943 7.0024466664062501 0 0 0 0 49.415269849490869 79.511035034851616 0 79.511035034851616 -93.017207673055651 0 0 0 0 -21.761707837245922 50.605810309533091 0 50.605810309533091 103.57943217059889 0 0 0 0 2.1753011157143476 0.34183000678188158 0 0.34183000678188158 0.12638566581136401 0 0 0 0 -11.74982495835502 -17.420216282738821 0 -17.420216282738821 24.734362106034922 0 0 0 0 14.957041131201549 -33.503128388093359 0 -33.503128388093359 29.055124534450119 0 0 0 0 122.65364244246666 36.58534106416991 0 36.58534106416991 31.686359271861932 0 0 0 0 20.178093386159162 -65.955017900527224 0 -65.955017900527224 22.471077072753019 0 0 0 0 54.935453981044702 18.694809276231354 0 18.694809276231354 -60.522248053888774 0 0 0 0 -39.699526426287775 -15.204191327871513 0 -15.204191327871513 28.61469448880689 0 0 0 0 1.6705146786249543 -0.91789895126615662 0 -0.91789895126615662 0.23900662268342593 0 0 0 0 4.5619065036298707 -45.386393770695804 0 -45.386393770695804 -33.434493455742484 0 0 0 0 -10.905538414648618 -21.167239926622699 0 -21.167239926622699 24.957641132389785 0 0 0 0 -9.4825638925540261 5.812846347027488 0 5.812846347027488 -61.214876574227603 0 0 0 0 -19.753528550856572 35.607040175061172 0 35.607040175061172 -33.794973631168489 0 0 0 0 -47.132396371540381 11.318197194563425 0 11.318197194563425 -32.101173717594406 0 0 0 0 96.541620624653206 80.512227366874683 0 80.512227366874683 73.827292403033283 0 0 0 0 -44.629206685513054 2.1348872318411338 0 2.1348872318411338 -16.284184209077651 0 0 0 0 0.75865555370256743 -0.32078233221105279 0 -0.32078233221105279 0.18909674663326914 0 0 0 0 0.5943736079522921 -0.46024752907559474 0 -0.46024752907559474 0.1846883571193797 0 0 0 0 -20.784105793201888 -34.177750936155675 0 -34.177750936155675 88.253745648157064 0 0 0 0 128.69293572016613 -28.635834138274021 0 -28.635834138274021 -40.445705306649344 0 0 0 0 24.877621543178975 -9.8684303123155814 0 -9.8684303123155814 65.721463424355534 0 0 0 0 90.392135125429377 9.5569132468222477 0 9.5569132468222477 71.412549436312531 0 0 0 0 30.582867638870994 18.987376739093516 0 18.987376739093516 68.01312411349528 0 0 0 0 57.505337857919585 65.261343411405619 0 65.261343411405619 42.832469685780552 0 0 0 0 38.551044590276433 46.62960708566348 0 46.62960708566348 62.549864606741394 0 0 0 0 0.35769953348970773 0.26582370747780004 0 0.26582370747780004 -0.51883425239075498 0 0 0 0 47.409546885646705 25.196496768192898 0 25.196496768192898 26.581853602539262 0 0 0 0 54.755783776006865 55.896858340556378 0 55.896858340556378 75.435661635493091 0 0 0 0 75.387249621446244 59.257300530100622 0 59.257300530100622 46.061145256957275 0 0 0 0 386.85862507774436 93.919579401602789 0 93.919579401602789 -25.43485403768176 0 0 0 0 1.6923530970153706 -0.66250100078320173 0 -0.66250100078320173 0.51463074141519749 0 0 0 0 560.93416201003129 -15.235698096144915 0 -15.235698096144915 39.113849772170397 0 0 0 0 73.507443999099451 77.033348149359412 0 77.033348149359412 64.101310446778371 0 0 0 0 66.631939816223166 79.387778505417117 0 79.387778505417117 79.972333533414144 0 0 0 0 61.50142376581789 48.660723614877099 0 48.660723614877099 64.814440762076885 0 0 0 0 1.5874642180196048 -0.44544274257774674 0 -0.44544274257774674 -0.16412972706140327 0 0 0 0 -166.04227553179953 318.76434178570685 0 318.76434178570685 191.76141456427467 0 0 0 0 80.770848533167737 49.310401029434217 0 49.310401029434217 80.417162106291968 0 0 0 0 60.192372484147199 65.569596995511745 0 65.569596995511745 68.738557796343798 0 0 0 0 89.48790993799048 77.744250667576154 0 77.744250667576154 65.390188709352174 0 0 0 0 -80.764957564693759 -86.459095878092512 0 -86.459095878092512 -36.797744069763837 0 0 0 0 -23.92059158108168 -132.99887869883287 0 -132.99887869883287 -56.169302138714826 0 0 0 0 35.18822953668132 -120.88687488424108 0 -120.88687488424108 -58.678078776882792 0 0 0 0 11.327075932233129 -102.16858904341103 0 -102.16858904341103 6.8181642596593974 0 0 0 0 -3.8270420625631232 -82.456414216754865 0 -82.456414216754865 -8.8096362135237314 0 0 0 0 538.36581468070654 20.650882207688532 0 20.650882207688532 -36.031879694244367 0 0 0 0 570.48232211435243 -2.7449898005418589 0 -2.7449898005418589 -37.196584775482464 0 0 0 0 272.63937019932928 74.739543138975918 0 74.739543138975918 84.678506211047321 0 0 0 0 291.26804770642366 -66.019822957262335 0 -66.019822957262335 60.455214552371189 0 0 0 0 -12.072985971240996 7.1448622256607592 0 7.1448622256607592 85.270476387374956 0 0 0 0 32.614326544680807 7.8951058713792008 0 7.8951058713792008 106.05047211115127 0 0 0 0 -10.67788956649747 -16.717695876298876 0 -16.717695876298876 95.798736536940893 0 0 0 0 20.438720972182637 21.660082335242961 0 21.660082335242961 94.866867584531022 0 0 0 0 49.176025338700128 31.230752590698373 0 31.230752590698373 67.967468176886456 0 0 0 0 36.120385150697075 -13.259848568679988 0 -13.259848568679988 125.69509912240143 0 0 0 0 13.303615942860006 7.3266713091183115 0 7.3266713091183115 107.38896497582434 0 0 0 0 74.072570805205032 45.321690823660347 0 45.321690823660347 122.43798039163468 0 0 0 0 0.10347773912363323 0.19365000977376923 0 0.19365000977376923 -0.14494441065117991 0 0 0 0 20.406985079564038 90.368256498811689 0 90.368256498811689 82.036729785719672 0 0 0 0 -49.98032863302069 108.70245962556054 0 108.70245962556054 80.425181535626805 0 0 0 0 -76.664845137856901 23.357023953827479 0 23.357023953827479 109.22157398939261 0 0 0 0 242.746591295283 93.364910242039656 0 93.364910242039656 113.14195715479423 0 0 0 0 234.02061736401265 -110.52487145570124 0 -110.52487145570124 143.75763243161703 0 0 0 0 418.61962006906106 -30.034794689476872 0 -30.034794689476872 55.953095516563209 0 0 0 0 465.73287216551762 -105.0773056194277 0 -105.0773056194277 -57.774446791544847 0 0 0 0 223.43360118176133 -40.232097352457231 0 -40.232097352457231 -31.61542232764765 0 0 0 0 61.553151179119595 -47.800460854985772 0 -47.800460854985772 10.285689632245862 0 0 0 0 236.47705699901053 93.577787279733286 0 93.577787279733286 -120.52510250176346 0 0 0 0 -2.1922295160438807 5.4808830744162265 0 5.4808830744162265 -60.211764079465979 0 0 0 0 -2.2513552029267885 -61.672095051311544 0 -61.672095051311544 34.341748910623551 0 0 0 0 147.27686439039462 27.621001027566763 0 27.621001027566763 -126.45134323253956 0 0 0 0 -53.80900671361087 115.97895657989039 0 115.97895657989039 -51.782643377441673 0 0 0 0 14.527006195745642 13.856309611532467 0 13.856309611532467 15.498811311637699 0 0 0 0 18.548135775297254 3.0263717897897728 0 3.0263717897897728 1.4889501821154869 0 0 0 0 21.821852153603686 10.280815316946132 0 10.280815316946132 18.623142657553927 0 0 0 0 33.522905375484697 73.871964170869433 0 73.871964170869433 -48.347306142211892 0 0 0 0 24.786935571708455 62.508591560180321 0 62.508591560180321 -36.126729775585432 0 0 0 0 86.920421421731589 4.4965072574278295 0 4.4965072574278295 -50.917743882642839 0 0 0 0 9.4566701164131075 -0.19121852530500405 0 -0.19121852530500405 -8.1755184736666582 0 0 0 0 48.407900999124749 18.939800280571188 0 18.939800280571188 4.0543876473882836 0 0 0 0 124.52610572049889 -28.034139997040388 0 -28.034139997040388 -36.235528865882728 0 0 0 0 42.614595861523412 9.1825916848052245 0 9.1825916848052245 -16.868953221790321 0 0 0 0 -1.0422037731262961 -0.58362388617140937 0 -0.58362388617140937 -1.3687289091799275 0 0 0 0 -246.90660359628237 231.26283319995517 0 231.26283319995517 -55.403038459663776 0 0 0 0 75.2535210816568 69.639759186614697 0 69.639759186614697 -176.81709016012348 0 0 0 0 72.239337312465068 31.760311957292714 0 31.760311957292714 -92.100198035228814 0 0 0 0 75.578519403479731 56.814388289254879 0 56.814388289254879 7.3109650194038522 0 0 0 0 45.766428852832178 -4.3974490638816981 0 -4.3974490638816981 -47.973001148964492 0 0 0 0 48.763013593008509 28.741645975175857 0 28.741645975175857 -64.989708551630628 0 0 0 0 58.524692232596863 68.081532465246283 0 68.081532465246283 68.253871725585782 0 0 0 0 49.871351395253441 71.433295821606123 0 71.433295821606123 87.208054943593368 0 0 0 0 65.078103686588292 44.054710502986119 0 44.054710502986119 62.320742411986771 0 0 0 0 53.473881738565979 16.923603115631465 0 16.923603115631465 32.227679105039883 0 0 0 0 57.794457944015448 52.153807080658382 0 52.153807080658382 54.036089084224429 0 0 0 0 52.699119371962297 59.649035506669108 0 59.649035506669108 51.325525297933382 0 0 0 0 60.602165032621997 39.150305110839554 0 39.150305110839554 34.755375915523373 0 0 0 0 0.37450042692054808 0.11228405822024001 0 0.11228405822024001 -0.42283446433403804 0 0 0 0 42.57644846488256 8.4602192733957224 0 8.4602192733957224 -83.436971322411566 0 0 0 0 43.90673059438177 5.5273780550274845 0 5.5273780550274845 -83.054728882578928 0 0 0 0 63.361596979011665 44.847400993139374 0 44.847400993139374 31.293850958829054 0 0 0 0 88.724919354448502 -14.260578431081655 0 -14.260578431081655 -129.30382152812703 0 0 0 0 61.773242135618602 57.848537622922294 0 57.848537622922294 -25.924928110123574 0 0 0 0 48.079515231028381 49.830673489767463 0 49.830673489767463 9.5990760675220344 0 0 0 0 72.961417280714159 38.147011945405573 0 38.147011945405573 -160.42717742993992 0 0 0 0 55.882481674650819 17.636932130177417 0 17.636932130177417 2.8289160463376524 0 0 0 0 141.04886047124091 73.522078932738168 0 73.522078932738168 -356.33951431761488 0 0 0 0 9.7042489731475143 -10.715032501068436 0 -10.715032501068436 -134.90419918179396 0 0 0 0 98.323232420079876 102.47559204652271 0 102.47559204652271 -288.65712482992967 0 0 0 0 55.085119023407799 18.255816113204006 0 18.255816113204006 3.09246052199989 0 0 0 0 -13.295049069543893 94.053237029796946 0 94.053237029796946 -140.43777885806776 0 0 0 0 67.168072103253508 22.494707529836887 0 22.494707529836887 -26.904682514100386 0 0 0 0 96.817294325319381 79.324366167588778 0 79.324366167588778 -143.93373431856776 0 0 0 0 92.023325119560013 15.046332153912061 0 15.046332153912061 -17.77130254417898 0 0 0 0 113.17454096756046 -26.148464290748052 0 -26.148464290748052 -138.02114990112477 0 0 0 0 52.362333625055172 18.12070461984521 0 18.12070461984521 3.212119019949343 0 0 0 0 68.056099805422491 17.779537704696299 0 17.779537704696299 -76.088353425813096 0 0 0 0 54.596056104855961 17.031022045372076 0 17.031022045372076 -103.6314593385728 0 0 0 0 35.668010200068238 37.160444371400899 0 37.160444371400899 -150.78441828878113 0 0 0 0 55.656389325733471 107.56009384117851 0 107.56009384117851 -36.586891186329012 0 0 0 0 54.734386706662917 76.790609180001866 0 76.790609180001866 -152.80298008733382 0 0 0 0 36.872071307876467 104.62128075214378 0 104.62128075214378 -65.784778906952852 0 0 0 0 55.79728201448961 69.418009069130221 0 69.418009069130221 -48.509485383975061 0 0 0 0 45.604107131584897 84.972772219747185 0 84.972772219747185 43.932682733687216 0 0 0 0 120.45772447226773 61.78743630223471 0 61.78743630223471 -26.505620922467642 0 0 0 0 137.2546829006933 23.91295577496976 0 23.91295577496976 36.296112173706717 0 0 0 0 154.05347917601466 -102.30787791847752 0 -102.30787791847752 81.060318439285766 0 0 0 0 189.64948846663901 -104.54482954504601 0 -104.54482954504601 56.467069600024843 0 0 0 0 102.47312927872554 20.858014885516241 0 20.858014885516241 67.474072531577804 0 0 0 0 154.79196743942612 59.808710608276215 0 59.808710608276215 -12.424299232739941 0 0 0 0 127.91220196125505 4.6344579642986901 0 4.6344579642986901 152.16786325650719 0 0 0 0 286.5441589378861 39.414474615723066 0 39.414474615723066 61.572689576231369 0 0 0 0 371.31459598465244 -209.65562496136204 0 -209.65562496136204 117.28003173014804 0 0 0 0 0.74128371643938351 0.75517170828448243 0 0.75517170828448243 1.228655343448251 0 0 0 0 263.58106683655024 -5.4795702125882144 0 -5.4795702125882144 38.803608385244843 0 0 0 0 181.84748806775133 78.749092887637062 0 78.749092887637062 33.544996141474257 0 0 0 0 220.11951130881334 -65.710950664131929 0 -65.710950664131929 73.316500937090495 0 0 0 0 185.07715011486107 -39.58147761266423 0 -39.58147761266423 60.136906351298421 0 0 0 0 186.41515858408638 -39.7569850776365 0 -39.7569850776365 57.754503903017394 0 0 0 0 130.88852827556912 15.710283321121551 0 15.710283321121551 46.119617214559298 0 0 0 0 140.69633733336377 34.962251498238174 0 34.962251498238174 74.641954995858214 0 0 0 0 67.556056312557303 51.027287073886612 0 51.027287073886612 55.504275873173356 0 0 0 0 74.355818189338152 71.1137215828536 0 71.1137215828536 3.4483714576708735 0 0 0 0 177.90153535691388 -34.95683881937407 0 -34.95683881937407 79.09755598153788 0 0 0 0 209.37014217840988 -0.8982392141776927 0 -0.8982392141776927 27.379186133268263 0 0 0 0 65.537586121252389 91.239737266539237 0 91.239737266539237 75.239697636648998 0 0 0 0 15.665737357539911 15.850849102241 0 15.850849102241 26.783456132200968 0 0 0 0 12.029338224820094 76.309732965999501 0 76.309732965999501 60.047189624453722 0 0 0 0 -34.627158183786378 66.173753881762877 0 66.173753881762877 12.832009761238169 0 0 0 0 -9.1397267030642979 40.472041029471256 0 40.472041029471256 10.391280292225019 0 0 0 0 -7.6415795623288432 16.562341549448547 0 16.562341549448547 -14.226909952485016 0 0 0 0 6.997079089559314 10.416630180739674 0 10.416630180739674 10.615996086520791 0 0 0 0 -120.72515492777893 90.464215597923157 0 90.464215597923157 -10.317397572286495 0 0 0 0 -49.870709686125338 41.056496156919366 0 41.056496156919366 -20.537784645738157 0 0 0 0 -76.003273975773482 84.577728648250968 0 84.577728648250968 3.1794339703246806 0 0 0 0 6.8772800276830708 12.344041186920109 0 12.344041186920109 14.792316324679843 0 0 0 0 55.878895259344063 70.028433559462655 0 70.028433559462655 86.956210495875212 0 0 0 0 85.430705941684209 -35.714502045927475 0 -35.714502045927475 30.923147611543527 0 0 0 0 -23.16283368013319 58.424485251789974 0 58.424485251789974 -17.086677589842623 0 0 0 0 8.8102130735278479 66.411308484191863 0 66.411308484191863 -15.903524005650979 0 0 0 0 33.470134023677019 99.521328261410645 0 99.521328261410645 -19.09024582467282 0 0 0 0 21.714433692828607 68.566438768848002 0 68.566438768848002 18.479223641153567 0 0 0 0 9.5720107046317935 92.383861354708301 0 92.383861354708301 2.2146198927466685 0 0 0 0 107.0340981429963 54.006881624064818 0 54.006881624064818 10.723763262338252 0 0 0 0 58.192893433282734 17.993650940814405 0 17.993650940814405 12.605607265764363 0 0 0 0 65.801786105417705 34.743815233502573 0 34.743815233502573 13.053566072465117 0 0 0 0 29.180654527350271 17.879892374921383 0 17.879892374921383 11.228032398985306 0 0 0 0 57.562669540318893 20.757969330207288 0 20.757969330207288 1.018159010058298 0 0 0 0 20.672771596822713 9.5909865488019932 0 9.5909865488019932 7.2714914181915447 0 0 0 0 24.77399512365082 -0.20281954363417753 0 -0.20281954363417753 -1.0366202960994997 0 0 0 0 22.306737225204415 3.1540210493203631 0 3.1540210493203631 -5.5768359047960985 0 0 0 0 11.196838266791019 -0.40182711822853889 0 -0.40182711822853889 0.049865339089592453 0 0 0 0 13.598054013622459 -3.2456571625839388 0 -3.2456571625839388 -12.478108364399304 0 0 0 0 23.664991822646698 5.5972497162692889 0 5.5972497162692889 -5.7336363357662776 0 0 0 0 13.840930883925466 -0.090715583711244108 0 -0.090715583711244108 -1.6089141733209544 0 0 0 0 17.318845382833388 7.2801703524237382 0 7.2801703524237382 0.40925874829872555 0 0 0 0 40.256934614953934 11.224109758523809 0 11.224109758523809 -1.2682047959397096 0 0 0 0 40.045094884335413 21.831519404411665 0 21.831519404411665 10.552368339528584 0 0 0 0 49.532137599097041 15.545457913754035 0 15.545457913754035 -0.026609853262471006 0 0 0 0 50.197898709655419 14.759127660873673 0 14.759127660873673 -1.5293352962271456 0 0 0 0 28.552673192236398 11.471194386128445 0 11.471194386128445 4.2891660903051161 0 0 0 0 27.567777767796542 4.025936825386907 0 4.025936825386907 -1.3445554486352194 0 0 0 0 21.109221948470804 6.4982497017654168 0 6.4982497017654168 4.0395565412927681 0 0 0 0 34.41018652711864 6.7324373450655912 0 6.7324373450655912 1.908777703436499 0 0 0 0 33.912642394876457 7.8026657848149625 0 7.8026657848149625 0.95845712792743143 0 0 0 0 22.18022100750386 2.4471148743259619 0 2.4471148743259619 3.1731880640145391 0 0 0 0 35.956198827496337 2.9492456463640337 0 2.9492456463640337 1.5437740730994847 0 0 0 0 38.573387266926147 10.885663759333511 0 10.885663759333511 2.8921810718074994 0 0 0 0 22.888825975518557 2.5485233087802044 0 2.5485233087802044 7.4269675676059705 0 0 0 0 70.716572246434225 19.316790839992791 0 19.316790839992791 -3.8715346423446135 0 0 0 0 57.289170708354504 3.9035030471168284 0 3.9035030471168284 -1.3244423985033791 0 0 0 0 56.516628002216748 11.092899992253479 0 11.092899992253479 -3.4001300049640122 0 0 0 0 68.749181192288233 25.145085532459234 0 25.145085532459234 -4.460559101616127 0 0 0 0 72.342552542839258 25.873629364108638 0 25.873629364108638 -5.149280640561301 0 0 0 0 59.88070162229269 20.167122180304432 0 20.167122180304432 -0.17365130986036093 0 0 0 0 60.309218255664746 26.602565449472422 0 26.602565449472422 3.5558413975577423 0 0 0 0 87.06363550993774 29.351898448214797 0 29.351898448214797 -1.671807748091851 0 0 0 0 71.888240560459963 33.373743160443155 0 33.373743160443155 -2.9879180562375041 0 0 0 0 72.657008384599976 29.098765178620738 0 29.098765178620738 1.508523540216629 0 0 0 0 76.879896445614577 18.423294872673068 0 18.423294872673068 -2.2966723578874735 0 0 0 0 78.939491645103772 -22.688475221207 0 -22.688475221207 11.646975387187922 0 0 0 0 85.224442521571291 21.567378846903125 0 21.567378846903125 6.160017988175241 0 0 0 0 95.835995514276874 21.456063644538062 0 21.456063644538062 -3.9860977012372132 0 0 0 0 7.6102801082233782 87.271742202098267 0 87.271742202098267 -70.243822471366002 0 0 0 0 1.6661734462815545 0.52295880025310026 0 0.52295880025310026 -1.1170647310742492 0 0 0 0 -32.701844110626553 59.988571620824132 0 59.988571620824132 -88.705384466800751 0 0 0 0 45.139852457024972 -7.1744044235929323 0 -7.1744044235929323 9.5328651745276147 0 0 0 0 -13.418203232771702 -28.346282862720841 0 -28.346282862720841 32.361364794835026 0 0 0 0 -95.631485350002549 118.8920222099714 0 118.8920222099714 9.2232263371279259 0 0 0 0 159.79190453016054 23.19734699738774 0 23.19734699738774 -10.686196325433684 0 0 0 0 0.2132146038161693 0.2823553847687883 0 0.2823553847687883 -0.018376122153174634 0 0 0 0 165.23098844572814 -36.418368598106554 0 -36.418368598106554 0.59281527807161183 0 0 0 0 59.809815378781423 28.876643151123062 0 28.876643151123062 8.5354084889977457 0 0 0 0 45.150292564598203 41.19844145206207 0 41.19844145206207 21.444280733173855 0 0 0 0 57.057088100667897 35.114922965283085 0 35.114922965283085 -4.5920084347872034 0 0 0 0 65.068233709422202 18.366442817198958 0 18.366442817198958 29.486436603430775 0 0 0 0 2.7397364686185028 21.901324919927902 0 21.901324919927902 36.083276857457804 0 0 0 0 41.659360059871688 20.287739956782616 0 20.287739956782616 11.043215040574069 0 0 0 0 50.019664048315462 31.595694285842683 0 31.595694285842683 26.219362878940046 0 0 0 0 10.28464907408965 -3.1570358777937635 0 -3.1570358777937635 -0.65812379316792846 0 0 0 0 41.099196488397865 -7.7522320737639347 0 -7.7522320737639347 -4.1963774462644885 0 0 0 0 13.827174828138595 -11.219410918271365 0 -11.219410918271365 -12.206537672758714 0 0 0 0 0.10563038024486104 -2.4112400253008062 0 -2.4112400253008062 -0.58850261738863185 0 0 0 0 36.350174453611544 26.157829063161898 0 26.157829063161898 4.5641975239720267 0 0 0 0 16.825311929649615 14.700796887978413 0 14.700796887978413 -0.89562183774432924 0 0 0 0 35.95766232060123 34.652479070537993 0 34.652479070537993 29.291743260191652 0 0 0 0 55.925789553641152 6.9981975037983375 0 6.9981975037983375 -5.2064225704807541 0 0 0 0 7.5242837486948702 -22.111983692346712 0 -22.111983692346712 -20.118923527611514 0 0 0 0 10.113512749888969 -5.2437955276699597 0 -5.2437955276699597 1.7421282684517791 0 0 0 0 10.412078246719375 -15.050054540215228 0 -15.050054540215228 -17.432716335544683 0 0 0 0 -0.75899018714699196 -18.279172739528804 0 -18.279172739528804 -4.2115194828502354 0 0 0 0 21.046459140510706 -4.2193800330164777 0 -4.2193800330164777 -26.008905025600143 0 0 0 0 -12.904361191078351 -13.154876462575885 0 -13.154876462575885 4.0266277597938824 0 0 0 0 2.4420771310639324 -1.6168162269010224 0 -1.6168162269010224 -0.66618324472486734 0 0 0 0 121.54490902985708 -65.242521708369168 0 -65.242521708369168 -340.44750897242619 0 0 0 0 8.8181207118380485 -1.2728163929070817 0 -1.2728163929070817 -2.7148412476274917 0 0 0 0 2.2838424321036968 1.0894032482912959 0 1.0894032482912959 -0.12866267837425432 0 0 0 0 1.8772119987843325 3.8036114261049079 0 3.8036114261049079 4.0462776516797021 0 0 0 0 -6.1432847174801282 -10.298047492618934 0 -10.298047492618934 24.208425917850988 0 0 0 0 70.625337394099915 105.53897518351278 0 105.53897518351278 -196.92256050458911 0 0 0 0 0.85652447515933261 0.87219941439691517 0 0.87219941439691517 0.03981986093817335 0 0 0 0 16.724339186373982 115.09621774999641 0 115.09621774999641 76.939146464417732 0 0 0 0 -10.461010470553447 -28.370635669959483 0 -28.370635669959483 11.115471659834498 0 0 0 0 6.246532730013314 -4.7861613431748538 0 -4.7861613431748538 -2.2790776094443572 0 0 0 0 -6.8419629743730184 2.5139906591102772 0 2.5139906591102772 -3.3709313986532834 0 0 0 0 2.7818842429792312 11.026164335493604 0 11.026164335493604 6.0360454691472114 0 0 0 0 -0.17632582135014729 -0.65474541681410869 0 -0.65474541681410869 -0.88215796648211864 0 0 0 0 7.1959765212175952 -0.21605255046983629 0 -0.21605255046983629 -2.9607659882337636 0 0 0 0 -55.212810414042906 -28.206244754353975 0 -28.206244754353975 12.157090219210659 0 0 0 0 2.8282842199332663 -24.390819680843379 0 -24.390819680843379 -21.928158383429036 0 0 0 0 9.7093994332099101 -8.066360579125103 0 -8.066360579125103 -28.251900685254441 0 0 0 0 -0.0087342791957780719 3.5269238424880314 0 3.5269238424880314 -25.400142066546778 0 0 0 0 -19.195789273198898 -17.650355355018291 0 -17.650355355018291 4.5622196598233131 0 0 0 0 40.721825041960983 48.215035644417185 0 48.215035644417185 102.38396080869668 0 0 0 0 41.820181135419261 52.57941932206495 0 52.57941932206495 101.96100430715416 0 0 0 0 31.536154866902507 -13.96769178499062 0 -13.96769178499062 23.821724901731283 0 0 0 0 79.689276527919901 49.049779090183165 0 49.049779090183165 24.41939452994211 0 0 0 0 18.62542493352521 -8.2704809441547695 0 -8.2704809441547695 25.521547050792876 0 0 0 0 54.812566913784394 76.156957726178462 0 76.156957726178462 72.745512378476633 0 0 0 0 56.240555116688483 3.9133612230082235 0 3.9133612230082235 -34.624132751951038 0 0 0 0 -12.195185794727877 83.333210841949494 0 83.333210841949494 53.647021472137112 0 0 0 0 16.635116977982989 -15.205703866039187 0 -15.205703866039187 -40.360879195645794 0 0 0 0 19.920295217980311 8.9592355058780413 0 8.9592355058780413 -27.581314161880982 0 0 0 0 3.8626960637730079 3.1742172930877928 0 3.1742172930877928 -6.1250240675151773 0 0 0 0 -4.790076213714201 0.097863850641715544 0 0.097863850641715544 -14.120927013342225 0 0 0 0 183.44884842827014 -130.30411832548998 0 -130.30411832548998 61.652142580880536 0 0 0 0 9.8215955676678277 25.470928802798426 0 25.470928802798426 -44.182628495516383 0 0 0 0 226.27888730568156 -78.351151932091852 0 -78.351151932091852 24.506092565647123 0 0 0 0 3.6525400398456682 2.6751821666558548 0 2.6751821666558548 0.018502411716291078 0 0 0 0 2.8217001904356493 -0.030338256214989201 0 -0.030338256214989201 -2.2760062633053231 0 0 0 0 -0.63189449329365743 -2.955609523512976 0 -2.955609523512976 -0.38750651816735626 0 0 0 0 1.9236755919264397 -5.8032500130193512 0 -5.8032500130193512 -6.9805916029690707 0 0 0 0 10.401036848983495 -1.5256620562431635 0 -1.5256620562431635 -1.2351059492611967 0 0 0 0 2.8317677204322536 1.2430119103519246 0 1.2430119103519246 -1.0605043453597318 0 0 0 0 -1.4974216261471156 0.25781619827739632 0 0.25781619827739632 -8.3425733068361296 0 0 0 0 3.7919559806832694 -4.1189729017623904 0 -4.1189729017623904 -5.9686844365487559 0 0 0 0 7.8102251231757691 4.7311814406284611 0 4.7311814406284611 -4.5866240842151456 0 0 0 0 5.7900731856789207 -1.3476290331946075 0 -1.3476290331946075 -11.939813007441899 0 0 0 0 -5.2861835054354742 -2.9843833072045527 0 -2.9843833072045527 -8.2610924051623442 0 0 0 0 6.937976091321616 -2.0336619018689817 0 -2.0336619018689817 -21.164690900804999 0 0 0 0 -10.038581775850616 3.1509143355160631 0 3.1509143355160631 -15.705938017934386 0 0 0 0 -15.039943599163962 -5.8314268872427419 0 -5.8314268872427419 -6.7340336164197652 0 0 0 0 -5.4348680713155773 -10.012302846935199 0 -10.012302846935199 -6.719918460160784 0 0 0 0 4.7978935336695301 0.66895203605914944 0 0.66895203605914944 -4.3109577948273792 0 0 0 0 -4.6288729219468223 -31.788509864015396 0 -31.788509864015396 -28.552139866219477 0 0 0 0 33.539543012420836 -26.834799238532241 0 -26.834799238532241 -77.148339305299032 0 0 0 0 -7.7170894832433987 -15.49992212292409 0 -15.49992212292409 -11.148122890113882 0 0 0 0 -0.40125853910285514 -8.8098236379237278 0 -8.8098236379237278 -14.927544038350788 0 0 0 0 -4.7245278812761171 -0.71851176447421494 0 -0.71851176447421494 -4.6704629753185145 0 0 0 0 -3.5918197643331951 0.31015586319563226 0 0.31015586319563226 -4.7726228015835659 0 0 0 0 -2.4121685744430579 -0.76450453431107235 0 -0.76450453431107235 -6.1618734038056573 0 0 0 0 -0.67451090267422842 0.61480937298756544 0 0.61480937298756544 -5.8345095607155599 0 0 0 0 -0.75926295371755259 0.094669066395908885 0 0.094669066395908885 4.2128367270433955 0 0 0 0 8.1724441147871403 -1.3203574732051493 0 -1.3203574732051493 -0.59229829837931902 0 0 0 0 8.6035805202554911 3.0607727729293401 0 3.0607727729293401 -0.60902527279540664 0 0 0 0 4.6746986044745427 -4.7000319493436109 0 -4.7000319493436109 -1.1252080583471979 0 0 0 0 19.030684885648952 0.51856638422123069 0 0.51856638422123069 0.02214518765322282 0 0 0 0 11.513840707761119 3.3010494825393835 0 3.3010494825393835 1.4965215655374777 0 0 0 0 19.57433380765724 5.8428490266223889 0 5.8428490266223889 3.2239545599368284 0 0 0 0 13.035566419865063 -1.4906605851729182 0 -1.4906605851729182 2.9038368684778106 0 0 0 0 11.397107290336862 5.1313257675556088 0 5.1313257675556088 4.7866539353958615 0 0 0 0 21.534690656917519 -0.2983572125003775 0 -0.2983572125003775 5.0898011457138637 0 0 0 0 21.314713502186351 5.9662531520880293 0 5.9662531520880293 4.7390821666522243 0 0 0 0 10.621677346112847 4.7639086875315115 0 4.7639086875315115 9.290810839705955 0 0 0 0 11.257743735084659 11.0139172275085 0 11.0139172275085 5.9673401592972368 0 0 0 0 7.987941367966414 14.354032676042152 0 14.354032676042152 14.873571887543221 0 0 0 0 18.540053188626189 1.3167597758615557 0 1.3167597758615557 14.229858135644463 0 0 0 0 4.8228239211020991 12.176756745611783 0 12.176756745611783 8.7321448508373578 0 0 0 0 8.3062863179802662 18.025477550991127 0 18.025477550991127 -1.0255981766495097 0 0 0 0 8.8843118797958596 20.746244679115989 0 20.746244679115989 0.66975836760411767 0 0 0 0 5.3807449448795523 25.061781892442013 0 25.061781892442013 6.9154780611622755 0 0 0 0 10.080163531012658 13.210979000072257 0 13.210979000072257 8.2607079400077055 0 0 0 0 4.1755429731783806 11.882309905979582 0 11.882309905979582 2.0532327675509805 0 0 0 0 6.1027450173260149 11.969067933273664 0 11.969067933273664 -5.6806382997983746 0 0 0 0 9.9047397887479747 20.974719868777584 0 20.974719868777584 -15.973405097387513 0 0 0 0 7.4553567381299217 10.985475695576497 0 10.985475695576497 -2.4032831243093824 0 0 0 0 -7.2705804817742319 7.7068532625544321 0 7.7068532625544321 -3.4031309702007775 0 0 0 0 3.2149814356089337 6.1747913276767576 0 6.1747913276767576 -22.887130756336774 0 0 0 0 32.252180355599194 -24.426480935959262 0 -24.426480935959262 66.503820615333098 0 0 0 0 66.610348003140643 -47.539586731921872 0 -47.539586731921872 -75.120891289257088 0 0 0 0 10.254202711035155 -0.0083789606180530996 0 -0.0083789606180530996 -7.1213546702886426 0 0 0 0 11.816772429825505 13.246714404139311 0 13.246714404139311 -33.146144894308236 0 0 0 0 10.150197263239534 17.291129073111279 0 17.291129073111279 -18.011353666184277 0 0 0 0 25.385734524810687 -29.917497748374444 0 -29.917497748374444 7.176939333035989 0 0 0 0 8.3517105876017013 1.8412837502810362 0 1.8412837502810362 -66.608516081319976 0 0 0 0 12.641062606959167 -11.924346484040598 0 -11.924346484040598 -85.646637130528688 0 0 0 0 10.864523284559255 14.003761611113077 0 14.003761611113077 -38.023847176544223 0 0 0 0 14.663229407171457 4.6115380244032167 0 4.6115380244032167 -78.129888455201581 0 0 0 0 9.1572666383581236 22.676193094776863 0 22.676193094776863 -19.85839189312901 0 0 0 0 13.362269481440308 24.841775920260261 0 24.841775920260261 -34.871646565838091 0 0 0 0 10.798682064909372 26.592974627808871 0 26.592974627808871 -23.05145010610795 0 0 0 0 8.1865529473579954 27.760584860165181 0 27.760584860165181 -9.1086231223453069 0 0 0 0 9.1140553118893877 30.293558763125475 0 30.293558763125475 -5.6189294881951355 0 0 0 0 10.688018113047292 25.066801404173475 0 25.066801404173475 -22.865954012904695 0 0 0 0 7.9993353532190667 26.177821696001956 0 26.177821696001956 -5.5485289292555535 0 0 0 0 9.4149028420360992 23.499813675619407 0 23.499813675619407 -8.7127374735646299 0 0 0 0 10.299677328530379 25.455883504346957 0 25.455883504346957 -14.858075465173897 0 0 0 0 100.06699881521536 -72.467739735976238 0 -72.467739735976238 135.91456968408056 0 0 0 0 198.86518525977226 8.8272043569359084 0 8.8272043569359084 -101.91448470519936 0 0 0 0 187.7522041364864 -183.42661703602698 0 -183.42661703602698 99.111461687302835 0 0 0 0 46.847515264895264 -71.814568198215284 0 -71.814568198215284 287.69491073288009 0 0 0 0 -6.1908918323642865 7.8927473426920187 0 7.8927473426920187 -10.329759893989376 0 0 0 0 5.5658044137746145 -0.89798033192536764 0 -0.89798033192536764 -5.7700860748164065 0 0 0 0 29.690154488707776 -87.453840321511962 0 -87.453840321511962 37.692482437123545 0 0 0 0 167.44786388016655 -126.89814996278574 0 -126.89814996278574 -35.9573777557016 0 0 0 0 42.706543320653509 -48.142260339706581 0 -48.142260339706581 154.7061721257287 0 0 0 0 93.184877771358515 -22.892750649574737 0 -22.892750649574737 -212.36096403089141 0 0 0 0 52.949790240760578 16.853048368610789 0 16.853048368610789 2.8459035660790963 0 0 0 0 64.785021980784222 -73.433185726330521 0 -73.433185726330521 -60.751515083922641 0 0 0 0 1.3373971328619518 80.132231307467919 0 80.132231307467919 -87.530768192599908 0 0 0 0 41.72768302433542 -36.860412908882303 0 -36.860412908882303 -25.268450641422628 0 0 0 0 2.7945685985996533 69.233289388986449 0 69.233289388986449 -21.313888484529343 0 0 0 0 185.2913204421202 1.2990439631390132 0 1.2990439631390132 2.8093488616545699 0 0 0 0 55.480148084388929 3.3216363102086817 0 3.3216363102086817 -62.571744508301869 0 0 0 0 131.19300004834076 83.082222154030816 0 83.082222154030816 -169.81605926943095 0 0 0 0 113.43140932708775 132.68155198090957 0 132.68155198090957 55.507991118411894 0 0 0 0 27.64668881117359 110.31107985951142 0 110.31107985951142 118.03528756867613 0 0 0 0 -2.5918285886355079 -1.1939255011589154 0 -1.1939255011589154 4.534624329974414 0 0 0 0 55.99618283207019 60.743164941865189 0 60.743164941865189 153.9567106131617 0 0 0 0 1.2169768745067842 -0.28710412480096181 0 -0.28710412480096181 0.12933087599678084 0 0 0 0 65.356768029650993 95.111652511355402 0 95.111652511355402 108.17817018762958 0 0 0 0 175.47623222662514 116.07605505453557 0 116.07605505453557 88.873704948413021 0 0 0 0 191.48239238592214 77.09443776338901 0 77.09443776338901 166.87239670027839 0 0 0 0 97.830882963593467 146.01308356062225 0 146.01308356062225 265.71186154422116 0 0 0 0 0.1557814310492347 0.28424625557345085 0 0.28424625557345085 1.7599881452796438 0 0 0 0 43.614453452915768 10.456283866959353 0 10.456283866959353 77.369679329978084 0 0 0 0 39.311288977449294 61.185954695017585 0 61.185954695017585 141.31303650171458 0 0 0 0 38.241024177375948 19.871144228186068 0 19.871144228186068 139.83503244737389 0 0 0 0 0.36864368957274962 5.2046850895354773 0 5.2046850895354773 6.1743948024911486 0 0 0 0 17.776287967717508 49.23789305433047 0 49.23789305433047 45.416096504182406 0 0 0 0 48.106918932768167 39.328153857732104 0 39.328153857732104 10.305730403951372 0 0 0 0 48.682148667357978 24.981266350235501 0 24.981266350235501 73.9310999018453 0 0 0 0 17.631106634042226 11.144797755809122 0 11.144797755809122 -30.700603893968946 0 0 0 0 22.400333576069983 10.439046854452247 0 10.439046854452247 -2.6657303005774162 0 0 0 0 41.742633819286404 1.6717756904624324 0 1.6717756904624324 -9.8779335579478662 0 0 0 0 41.229404079122205 33.028504845100599 0 33.028504845100599 3.9352296643389373 0 0 0 0 59.103357417254301 84.289457461062028 0 84.289457461062028 -9.673317181157568 0 0 0 0 46.0775886846086 16.535394235186853 0 16.535394235186853 2.9399739369921529 0 0 0 0 -17.105981507636898 34.354391256532701 0 34.354391256532701 101.99276115142283 0 0 0 0 25.925881473638583 24.105269072558258 0 24.105269072558258 10.334499107058491 0 0 0 0 -5.7932747295708396 23.264780825562411 0 23.264780825562411 -83.753837443630701 0 0 0 0 15.498929949001408 4.8538642080514656 0 4.8538642080514656 -0.45112017990479963 0 0 0 0 -9.6993131861381698 17.769903948586034 0 17.769903948586034 51.935412833057285 0 0 0 0 24.096034040244888 4.3953186459961291 0 4.3953186459961291 -1.4325193029992147 0 0 0 0 55.152539889939362 8.6469977045233009 0 8.6469977045233009 -42.892143683201084 0 0 0 0 30.748420082341909 -25.452480082626529 0 -25.452480082626529 -116.01950134507308 0 0 0 0 26.227447298813786 -14.760375783382443 0 -14.760375783382443 -75.702414699776455 0 0 0 0 6.3888958166862722 2.5064289668566744 0 2.5064289668566744 15.599711925929512 0 0 0 0 31.130362464235461 3.0238928413628647 0 3.0238928413628647 -1.0551100479089446 0 0 0 0 48.085812238976359 7.7824405281884026 0 7.7824405281884026 -89.778276839733451 0 0 0 0 268.10767521998787 -26.163914715473766 0 -26.163914715473766 13.990906030147926 0 0 0 0 14.046648895564431 42.880067662353326 0 42.880067662353326 11.717171506707473 0 0 0 0 -130.83925879747403 -99.68129388433681 0 -99.68129388433681 102.1193498007915 0 0 0 0 6.2561335060655949 -2.0083837275331646 0 -2.0083837275331646 -0.73462140185764824 0 0 0 0 99.951410548463173 32.126867932913683 0 32.126867932913683 -31.182337665770206 0 0 0 0 118.79007157498199 -10.037924942995573 0 -10.037924942995573 -38.898811354177496 0 0 0 0 38.841945560992585 7.305020876059432 0 7.305020876059432 1.0984803186137793 0 0 0 0 56.65208847957183 37.369466265132701 0 37.369466265132701 -11.931224508719424 0 0 0 0 4.228305577986248 39.933145140833403 0 39.933145140833403 33.053957039861871 0 0 0 0 35.07367921617697 -5.8309189428873651 0 -5.8309189428873651 -124.62181047825106 0 0 0 0 46.962424550834839 26.60801860485185 0 26.60801860485185 -152.7162668906476 0 0 0 0 4.1166944377366477 5.39152556138054 0 5.39152556138054 -0.43628889235088764 0 0 0 0 38.165868231313652 29.053727967115265 0 29.053727967115265 -76.8362124254636 0 0 0 0 34.790143404621631 9.8845709200031706 0 9.8845709200031706 -88.882684342182074 0 0 0 0 22.181385867515928 20.247849606288582 0 20.247849606288582 -47.853576090943534 0 0 0 0 20.526231956086121 20.817465792231815 0 20.817465792231815 -43.325500128736167 0 0 0 0 15.58697658636811 24.905917991644856 0 24.905917991644856 -44.447220161717269 0 0 0 0 16.059516341825656 32.538460253538688 0 32.538460253538688 -23.441250613308512 0 0 0 0 18.237564305833075 39.737399127792742 0 39.737399127792742 -56.341932153060043 0 0 0 0 13.434241127819405 28.98551453188702 0 28.98551453188702 -39.936277723450985 0 0 0 0 -2.6909718451843219 55.498917176448913 0 55.498917176448913 -20.538406769770518 0 0 0 0 0.46448610389779788 22.449162551545669 0 22.449162551545669 51.11947955873984 0 0 0 0 2.8974599270586623 35.831422066741652 0 35.831422066741652 -2.4952732148867653 0 0 0 0 11.419626992355916 28.382875919904109 0 28.382875919904109 -21.876899061738186 0 0 0 0 51.766011775733205 125.65200564471888 0 125.65200564471888 -144.10634340823162 0 0 0 0 337.56005706713768 -176.47438005484219 0 -176.47438005484219 117.89172655122275 0 0 0 0 -99.74319699316402 -30.997399113413849 0 -30.997399113413849 394.55512252788685 0 0 0 0 -44.313990457652835 71.969437155787091 0 71.969437155787091 41.165648136997333 0 0 0 0 -11.42529031648337 18.366436630627277 0 18.366436630627277 114.01377020368091 0 0 0 0 -57.345455115661025 267.18501960465801 0 267.18501960465801 -24.886990221757515 0 0 0 0 -177.21511052599817 210.50710492215148 0 210.50710492215148 310.63470301090274 0 0 0 0 2.38811705421395 1.4377514782215908 0 1.4377514782215908 0.76105362220833861 0 0 0 0 25.391939786331932 -65.708349528593317 0 -65.708349528593317 73.951315400250678 0 0 0 0 41.444125161906413 77.325190415493125 0 77.325190415493125 -40.771465731107526 0 0 0 0 264.68967543466715 60.024150039395863 0 60.024150039395863 -185.21626156786078 0 0 0 0 41.695223781851382 33.594653903475091 0 33.594653903475091 -5.0149940817937022 0 0 0 0 31.747198152443161 49.215891486274813 0 49.215891486274813 0.25247306370511069 0 0 0 0 122.5973675869609 61.062305913847013 0 61.062305913847013 -42.540088168100056 0 0 0 0 199.49589891663345 19.789550006909849 0 19.789550006909849 -20.457368598341418 0 0 0 0 197.28308172448305 -1.7409923732311654 0 -1.7409923732311654 -8.7057217599940486 0 0 0 0 99.69617586764798 65.400489073675089 0 65.400489073675089 -9.6211787585452839 0 0 0 0 108.30739387160429 21.856434576073298 0 21.856434576073298 -14.765055788011523 0 0 0 0 56.75689683049859 47.263675767213499 0 47.263675767213499 3.839028177295404 0 0 0 0 92.154432697438097 46.839374013766928 0 46.839374013766928 -3.3138888924986531 0 0 0 0 77.6035197689489 35.118797177745364 0 35.118797177745364 -5.7821556361886906 0 0 0 0 93.81387704363442 37.678976422614141 0 37.678976422614141 -5.4988482673579711 0 0 0 0 92.372227249748903 22.210569801173108 0 22.210569801173108 -8.8807830959758576 0 0 0 0 83.795625220340298 24.229573091866769 0 24.229573091866769 -6.8459005222885025 0 0 0 0 81.518610228682519 23.582619709289247 0 23.582619709289247 -6.8526830498731215 0 0 0 0 83.619511574539501 11.855099898581557 0 11.855099898581557 -3.9135292050304997 0 0 0 0 85.938193893991411 0.063345796586872893 0 0.063345796586872893 -3.1973816134277513 0 0 0 0 63.913195142959012 0.80098682395691867 0 0.80098682395691867 -2.8361682875549832 0 0 0 0 61.568380213429919 7.0367458096770861 0 7.0367458096770861 0.087333693645632593 0 0 0 0 41.690233816581895 -6.0165547222204623 0 -6.0165547222204623 8.9475260464569146 0 0 0 0 36.9745725455723 5.2805823043836426 0 5.2805823043836426 6.4510342413495891 0 0 0 0 23.41690171270784 -2.1156930693555296 0 -2.1156930693555296 11.403438153611205 0 0 0 0 22.997466357279336 5.2944977790903067 0 5.2944977790903067 12.818483701707919 0 0 0 0 44.38927303753735 -0.89033071918493079 0 -0.89033071918493079 10.437021358601214 0 0 0 0 31.363109036945389 -9.4798691112855522 0 -9.4798691112855522 21.900167946278088 0 0 0 0 15.933502475105342 3.8783097972336691 0 3.8783097972336691 25.849884682962056 0 0 0 0 17.72379303022899 5.4003572368819732 0 5.4003572368819732 19.706515278729057 0 0 0 0 2.120529541563883 24.693758112417527 0 24.693758112417527 24.41001823760962 0 0 0 0 30.516065491747213 -2.475812337424486 0 -2.475812337424486 23.207338798110868 0 0 0 0 71.020404105714988 -41.738756982060295 0 -41.738756982060295 54.473810779283667 0 0 0 0 28.394025491543289 -13.973178829103063 0 -13.973178829103063 40.28557695816562 0 0 0 0 93.009626974293496 -26.253130164966933 0 -26.253130164966933 39.568647951131425 0 0 0 0 87.539828362270782 -17.411612606870221 0 -17.411612606870221 25.943626007137937 0 0 0 0 118.47421538530034 -15.628839953618353 0 -15.628839953618353 1.353569143335335 0 0 0 0 57.074059296959604 -17.271688666869522 0 -17.271688666869522 20.469777541944495 0 0 0 0 72.645235011004843 -14.039823229963076 0 -14.039823229963076 16.840981189741797 0 0 0 0 76.106891331874067 -22.217527709142814 0 -22.217527709142814 28.751044160499987 0 0 0 0 45.727215080971973 -11.963455065711429 0 -11.963455065711429 3.5532604133986752 0 0 0 0 27.455340479231381 -9.6369637000616422 0 -9.6369637000616422 -2.2025287358505921 0 0 0 0 45.412257373207467 -7.3113342613978602 0 -7.3113342613978602 -2.1368295467700591 0 0 0 0 36.564134119822484 -16.059891001198594 0 -16.059891001198594 1.7221049980526004 0 0 0 0 49.259583649458364 -11.785607194959539 0 -11.785607194959539 2.1833621115711139 0 0 0 0 53.675130002186052 19.437633414071115 0 19.437633414071115 2.6462780203246439 0 0 0 0 2.1591132023968385 17.265538594786449 0 17.265538594786449 6.5878207635296349 0 0 0 0 53.430307532847792 19.265478653238461 0 19.265478653238461 2.5325516987359151 0 0 0 0 37.552498611399642 -7.2360191134457637 0 -7.2360191134457637 -16.26014711361222 0 0 0 0 -32.738955479646393 33.758267547287687 0 33.758267547287687 -4.2848667672044485 0 0 0 0 -9.2530888874080119 -24.196810821226904 0 -24.196810821226904 -43.908646859011242 0 0 0 0 22.266863179989741 5.2534487174152673 0 5.2534487174152673 -16.834709522503545 0 0 0 0 41.068558367733203 -9.5250731822279704 0 -9.5250731822279704 -4.1983558006004387 0 0 0 0 30.635052115371764 -12.049492442808287 0 -12.049492442808287 -11.980173406031099 0 0 0 0 42.80400213534449 -10.727844442978039 0 -10.727844442978039 -12.734163295504914 0 0 0 0 11.176078645817579 0.72895458032294158 0 0.72895458032294158 -6.3814036494992799 0 0 0 0 41.091208692731016 4.9306342668262459 0 4.9306342668262459 -24.478851430011446 0 0 0 0 31.799523784016856 15.55817794031941 0 15.55817794031941 -22.949181242579471 0 0 0 0 51.19502036805352 0.72602453077752216 0 0.72602453077752216 -19.506409625109427 0 0 0 0 18.3011885738064 -6.2843640364367808 0 -6.2843640364367808 -8.1192121825492443 0 0 0 0 25.881814585655633 2.540550786963959 0 2.540550786963959 -5.1509453728074561 0 0 0 0 21.14314173272578 -0.41232706899518234 0 -0.41232706899518234 -15.131591177834707 0 0 0 0 29.357637423367123 13.685170125074364 0 13.685170125074364 -7.7341839103571601 0 0 0 0 29.590870880912448 23.756353650522101 0 23.756353650522101 -3.6970364905839865 0 0 0 0 55.892700804242295 14.239468521712695 0 14.239468521712695 -9.1387152538932757 0 0 0 0 -15.689535510544374 12.17777494716438 0 12.17777494716438 -17.330347049246143 0 0 0 0 11.118207885013639 1.3897816569406469 0 1.3897816569406469 -0.37077829829836872 0 0 0 0 26.787825196012918 5.6421290753112823 0 5.6421290753112823 1.6639692403384112 0 0 0 0 46.435845789983432 -17.933291560176258 0 -17.933291560176258 -40.48598660993548 0 0 0 0 34.740779197563825 11.241033600092578 0 11.241033600092578 -48.216315934198121 0 0 0 0 45.665771069150651 40.983429891586624 0 40.983429891586624 -16.306493919151315 0 0 0 0 81.209399965375269 14.611511704625769 0 14.611511704625769 -23.641254231032235 0 0 0 0 37.243401116242538 3.8516850629387633 0 3.8516850629387633 -2.3193765339037853 0 0 0 0 15.137275977556822 2.8534518525289485 0 2.8534518525289485 -3.8629290973317212 0 0 0 0 51.850000369078771 25.886138940762123 0 25.886138940762123 -37.574572301913278 0 0 0 0 81.786845087143774 1.2382483452965118 0 1.2382483452965118 -0.39718270825255786 0 0 0 0 -0.32168788264818104 -0.18138222855343145 0 -0.18138222855343145 -1.5235288968857057 0 0 0 0 -86.294474814833848 96.934186267824785 0 96.934186267824785 -38.670158296524924 0 0 0 0 31.454091138955846 12.427191669864811 0 12.427191669864811 -20.810300209102152 0 0 0 0 114.24097022373462 159.23153178936832 0 159.23153178936832 -98.06092867071898 0 0 0 0 82.577221857762197 -9.6981372273856419 0 -9.6981372273856419 -64.767805030376906 0 0 0 0 207.60995944991009 -82.854322881091207 0 -82.854322881091207 -41.281480649616938 0 0 0 0 48.119098091483465 29.608948272096168 0 29.608948272096168 -75.381652972647373 0 0 0 0 157.2317420415784 16.538921896671706 0 16.538921896671706 -76.43492505406644 0 0 0 0 65.056776805082336 3.9620273041971465 0 3.9620273041971465 -62.666162801929673 0 0 0 0 57.217392563263274 -6.233672445991032 0 -6.233672445991032 -71.10037068570287 0 0 0 0 48.039962349426787 -21.906559333415 0 -21.906559333415 -43.551229049750418 0 0 0 0 25.188287598961324 -6.0964510516358601 0 -6.0964510516358601 -54.45006994951008 0 0 0 0 28.129301705019316 -9.6590452560354159 0 -9.6590452560354159 -85.91892902804608 0 0 0 0 4.2328813450621965 -3.0504544973294272 0 -3.0504544973294272 -1.3061249341689956 0 0 0 0 251.9861813296011 134.54618408448087 0 134.54618408448087 2.2882386899790035 0 0 0 0 36.978938335545536 -43.419101623905988 0 -43.419101623905988 49.128932556425241 0 0 0 0 2.4023415623386768 -0.18161459672136182 0 -0.18161459672136182 0.09991905600758097 0 0 0 0 -1.3293866197163879 3.9024562753052416 0 3.9024562753052416 -5.2613685260523981 0 0 0 0 0.92401243209405948 -64.283747923847031 0 -64.283747923847031 -41.241815713356402 0 0 0 0 -49.164002327233902 29.681427051082366 0 29.681427051082366 160.79911767952319 0 0 0 0 137.5083360253484 146.49577751904434 0 146.49577751904434 32.174670258110666 0 0 0 0 144.91961081803311 -17.125964110472466 0 -17.125964110472466 142.54828309343168 0 0 0 0 409.05441002945008 100.49944003950338 0 100.49944003950338 27.060262352245445 0 0 0 0 289.41568824724163 290.01859844075716 0 290.01859844075716 188.52723282685383 0 0 0 0 2.6593354608978075 1.1171718907473895 0 1.1171718907473895 2.4684338588196271 0 0 0 0 175.35223209274409 -79.674940948198923 0 -79.674940948198923 56.900514676198526 0 0 0 0 98.053431782958796 139.50853556475985 0 139.50853556475985 85.408552443863982 0 0 0 0 -4.131606793709409 1.2443763554096421 0 1.2443763554096421 6.4393505617920441 0 0 0 0 23.505015969385568 20.146681389997639 0 20.146681389997639 18.743460182566196 0 0 0 0 136.1890638579498 31.124439483220357 0 31.124439483220357 102.75261149920334 0 0 0 0 37.155377197203052 -12.618582273842385 0 -12.618582273842385 -102.42813635918515 0 0 0 0 18.161990257685218 6.5380842691021925 0 6.5380842691021925 -2.6327550020750587 0 0 0 0 196.89148655346071 15.758362790419824 0 15.758362790419824 105.59148962645935 0 0 0 0 147.13206690952211 167.80754391363021 0 167.80754391363021 184.31082106362129 0 0 0 0 222.94485439588607 117.6295260698663 0 117.6295260698663 88.556503873633119 0 0 0 0 20.013613340488519 -51.770024539570102 0 -51.770024539570102 -11.159154905897708 0 0 0 0 14.390943901948049 -68.133239942929492 0 -68.133239942929492 -19.624503833000631 0 0 0 0 0.88409657777810935 -46.209293734129176 0 -46.209293734129176 -55.087821267666868 0 0 0 0 -20.122216407093219 -105.9027501941689 0 -105.9027501941689 -30.622692509140848 0 0 0 0 249.19267055948148 15.74614771198344 0 15.74614771198344 225.16231489683196 0 0 0 0 5.9294726530361714 -0.2433643268687149 0 -0.2433643268687149 0.70298339493078732 0 0 0 0 -71.279387450980721 -31.74849163414649 0 -31.74849163414649 -57.569843858913174 0 0 0 0 19.601624250906752 -59.504496767504349 0 -59.504496767504349 -134.33836465466044 0 0 0 0 19.72657656269439 -12.335491332779497 0 -12.335491332779497 -127.03421475602511 0 0 0 0 19.011707995465258 -36.53712937332304 0 -36.53712937332304 -79.47963098763006 0 0 0 0 55.415021966400673 -17.046455785781347 0 -17.046455785781347 -98.146786418211846 0 0 0 0 33.663130848926812 -2.5633216638771259 0 -2.5633216638771259 -103.18885306781641 0 0 0 0 -1.1537137281738978 -37.445716397931037 0 -37.445716397931037 -93.266943424897249 0 0 0 0 33.300452852927265 -4.3064312064572903 0 -4.3064312064572903 -44.364607861052377 0 0 0 0 47.023659744168981 5.602615551217184 0 5.602615551217184 -46.99445885548419 0 0 0 0 97.173824506244273 -12.706983447286802 0 -12.706983447286802 -74.310153192101581 0 0 0 0 40.541793231906922 7.0697302456529201 0 7.0697302456529201 -22.265200094005081 0 0 0 0 37.122646810857987 24.546608116013459 0 24.546608116013459 2.6891197012330395 0 0 0 0 37.237305521048256 -16.618242363356558 0 -16.618242363356558 -48.401908057961549 0 0 0 0 -0.070412395814750894 0.068848980689196537 0 0.068848980689196537 -0.60714397408441423 0 0 0 0 51.198021572210564 -12.317349380404309 0 -12.317349380404309 -98.280043173155178 0 0 0 0 -3.1859350675877067 17.469802061318319 0 17.469802061318319 -25.055674939531499 0 0 0 0 -13.741861895277907 42.61932097002007 0 42.61932097002007 -84.455010772454841 0 0 0 0 3.000564874149859 0.099968648304947116 0 0.099968648304947116 -9.1418369897877199 0 0 0 0 4.8402783766359789 1.3993378674522674 0 1.3993378674522674 -8.2245362772105537 0 0 0 0 1.1913756347642259 -0.20514322315285938 0 -0.20514322315285938 -1.5365674756043526 0 0 0 0 4.9868893020450855 -1.1128472685610955 0 -1.1128472685610955 -0.21115952163008081 0 0 0 0 5.1476762359743589 1.4243995029561418 0 1.4243995029561418 -8.6124611141558027 0 0 0 0 0.90307247073234365 -0.65100338283377823 0 -0.65100338283377823 -0.88308971572893435 0 0 0 0 -43.780010137314093 2.1256948553012336 0 2.1256948553012336 40.5071669422111 0 0 0 0 15.138166884666134 -3.6207674063236652 0 -3.6207674063236652 -4.7944593325129006 0 0 0 0 3.2506465572954539 -0.95613794625894677 0 -0.95613794625894677 -0.25620741917443635 0 0 0 0 9.5935803764186858 -13.545290719248939 0 -13.545290719248939 35.40282952357785 0 0 0 0 8.6067442167113768 12.713979886518597 0 12.713979886518597 24.43048798207974 0 0 0 0 5.6488039027826744 -4.4711629929604157 0 -4.4711629929604157 -1.9599052382964146 0 0 0 0 -0.82843838529515779 38.505998036541257 0 38.505998036541257 91.188399532486926 0 0 0 0 185.55927786252869 51.923213801077509 0 51.923213801077509 -8.463744670659878 0 0 0 0 1.3188500774679142 -0.31151670028132017 0 -0.31151670028132017 0.12500460057335389 0 0 0 0 142.02000999603479 48.042118923116732 0 48.042118923116732 -0.57617372546144452 0 0 0 0 36.208027526812657 -56.725967452145767 0 -56.725967452145767 72.751171386112674 0 0 0 0 -4.1252462253833073 -21.321063419966094 0 -21.321063419966094 64.859477478308179 0 0 0 0 70.291649692400824 109.05664056011241 0 109.05664056011241 49.191562832325587 0 0 0 0 244.13114401431812 -18.345274372225134 0 -18.345274372225134 20.665366756808879 0 0 0 0 258.27220195596601 -31.579607568938115 0 -31.579607568938115 -102.46780347269296 0 0 0 0 1.0642442591885413 -0.47877072065103476 0 -0.47877072065103476 0.093348590225633798 0 0 0 0 16.584650754564791 -78.623865526915438 0 -78.623865526915438 55.23009678094337 0 0 0 0 115.98579034977956 -101.41848842452302 0 -101.41848842452302 14.48765984690408 0 0 0 0 12.168684791671694 15.478467156720797 0 15.478467156720797 92.553039141807616 0 0 0 0 62.297046122512256 6.9043712461204052 0 6.9043712461204052 19.96982139678731 0 0 0 0 112.15062009851317 52.096898911399165 0 52.096898911399165 55.544651641968841 0 0 0 0 30.637487501386204 -38.496415872245194 0 -38.496415872245194 56.277765686308385 0 0 0 0 76.754362271886748 -47.983737775821744 0 -47.983737775821744 41.525013395370593 0 0 0 0 -1.2597154678333027 -61.20102696169036 0 -61.20102696169036 41.543317820520002 0 0 0 0 32.468027105885994 -33.943084871219284 0 -33.943084871219284 14.242947492313533 0 0 0 0 -38.761589602471759 -3.5409583325567571 0 -3.5409583325567571 17.700345635984661 0 0 0 0 -0.075969843302907236 -0.027564993610624811 0 -0.027564993610624811 -0.12662629452872998 0 0 0 0 119.65909045392618 -74.880981872315672 0 -74.880981872315672 8.9754226493093938 0 0 0 0 100.00325910101674 39.37730714137043 0 39.37730714137043 -6.1625466620797695 0 0 0 0 65.953655111195985 -87.415126769598075 0 -87.415126769598075 50.61658173817672 0 0 0 0 1.6166272000540403 -0.25850982188911908 0 -0.25850982188911908 0.025896957836452499 0 0 0 0 222.93103909237107 -66.586525833189484 0 -66.586525833189484 -16.565336519824037 0 0 0 0 204.93567044343217 15.809944468776486 0 15.809944468776486 -29.973592203919555 0 0 0 0 92.489776961818279 2.3141421330825147 0 2.3141421330825147 0.00022416077062931659 0 0 0 0 -15.690244688055827 16.95963288182914 0 16.95963288182914 23.314785459734289 0 0 0 0 -0.23857281415257603 -85.3284256262356 0 -85.3284256262356 65.727478440192115 0 0 0 0 -0.78194002981035737 -10.138682825970832 0 -10.138682825970832 -10.539046161117902 0 0 0 0 45.092854988703039 -54.142945872181706 0 -54.142945872181706 -116.32353267951294 0 0 0 0 3.9036947491005378 -0.23837584476255036 0 -0.23837584476255036 -0.10837449405764234 0 0 0 0 -0.40257015523093287 -3.3692747546386039 0 -3.3692747546386039 0.0080253400551502357 0 0 0 0 -4.5882673244805119 -15.199719524302399 0 -15.199719524302399 -16.053150995309899 0 0 0 0 0.019879465649864869 -2.6118941016732276 0 -2.6118941016732276 -6.1969160950104252 0 0 0 0 -26.357493518567935 -63.718929550869717 0 -63.718929550869717 40.935652536308623 0 0 0 0 52.260561856113782 -12.755778907462215 0 -12.755778907462215 -33.663854311113425 0 0 0 0 97.732234418712324 15.318158457894285 0 15.318158457894285 -16.668298701348448 0 0 0 0 47.984423379682994 18.168729510023653 0 18.168729510023653 -20.037482212848175 0 0 0 0 37.708801259206666 3.6344962186040277 0 3.6344962186040277 -7.4682799002909839 0 0 0 0 27.923554352801148 7.6240528254811153 0 7.6240528254811153 -52.605586974560367 0 0 0 0 40.40265759950853 -1.7541002003430748 0 -1.7541002003430748 -48.331691372540462 0 0 0 0 24.699496070315945 -22.311577682980712 0 -22.311577682980712 -77.818295446420009 0 0 0 0 47.358140756135981 -9.4125029140270726 0 -9.4125029140270726 -84.990564171059759 0 0 0 0 -1.0719974757375894 -5.3206136657202023 0 -5.3206136657202023 -82.996869655308757 0 0 0 0 89.001594158733496 -5.6837531219253492 0 -5.6837531219253492 -51.787932130884315 0 0 0 0 9.3023339540959569 -17.580413164165293 0 -17.580413164165293 -53.562016605085375 0 0 0 0 98.541641912055638 -25.880427634983832 0 -25.880427634983832 -77.957881551196067 0 0 0 0 177.51800717872538 -5.7132436171092138 0 -5.7132436171092138 -87.829412741019155 0 0 0 0 1.4896924942641476 2.3314262143342361 0 2.3314262143342361 1.7525785493731418 0 0 0 0 112.34372758432437 -53.401827523672353 0 -53.401827523672353 -112.76800387329615 0 0 0 0 -27.003408516016862 -100.36616808294293 0 -100.36616808294293 -116.12084089188966 0 0 0 0 162.76060900124139 189.42846440893743 0 189.42846440893743 186.4637857564644 0 0 0 0 485.74526134829648 136.99833092191295 0 136.99833092191295 -151.44348922456328 0 0 0 0 196.71713867873768 12.031821202287546 0 12.031821202287546 -95.551176760245227 0 0 0 0 210.22876980727597 91.90637073139348 0 91.90637073139348 -18.384161161718708 0 0 0 0 175.81454016517091 -0.58231551011704141 0 -0.58231551011704141 -102.33301512084415 0 0 0 0 67.407344546772947 70.117173850542315 0 70.117173850542315 43.069180799776404 0 0 0 0 65.879350510273071 16.006068873554597 0 16.006068873554597 -19.677735598236211 0 0 0 0 96.02389437333477 55.524184435690103 0 55.524184435690103 -10.579799181361686 0 0 0 0 150.00743736993172 27.807176211874882 0 27.807176211874882 -36.179957340946856 0 0 0 0 112.3814372914203 41.1165820308468 0 41.1165820308468 -40.887874494032985 0 0 0 0 142.61438158930832 33.798298396722942 0 33.798298396722942 -13.226781779107796 0 0 0 0 154.22518628027319 16.318884310303588 0 16.318884310303588 -49.060725300788732 0 0 0 0 107.90371667509316 -1.3611617905260118 0 -1.3611617905260118 -48.233746291449606 0 0 0 0 104.48610126734275 3.2205445029899806 0 3.2205445029899806 8.2171600836216072 0 0 0 0 130.02431929545855 14.200292897419635 0 14.200292897419635 11.444272848236459 0 0 0 0 157.83928616069898 65.25604211489393 0 65.25604211489393 30.923009060412966 0 0 0 0 133.84240444616444 -6.3280895246669999 0 -6.3280895246669999 85.2573274620989 0 0 0 0 153.84242140888455 -6.8936585991121415 0 -6.8936585991121415 -0.0067564093145787638 0 0 0 0 196.37704623862555 -38.950235141356345 0 -38.950235141356345 22.646198531791242 0 0 0 0 99.721821432780416 -1.2021849504177338 0 -1.2021849504177338 28.182984591666457 0 0 0 0 72.469077876961819 14.744473815343975 0 14.744473815343975 0.010016362085026351 0 0 0 0 98.859026925854778 -5.8008266698089512 0 -5.8008266698089512 5.5752183628989016 0 0 0 0 94.95373822615511 17.009097823700536 0 17.009097823700536 3.6291064072153372 0 0 0 0 68.09560726998825 -1.7977119037866398 0 -1.7977119037866398 -6.1788711964404683 0 0 0 0 59.32438127921705 17.216077221329318 0 17.216077221329318 0.99740967025437044 0 0 0 0 49.656775245279277 7.8216328421498975 0 7.8216328421498975 8.4175965617207424 0 0 0 0 46.902218970659305 20.781255567458892 0 20.781255567458892 7.498153831718362 0 0 0 0 51.018247499247082 23.749965699835972 0 23.749965699835972 0.075140379584294592 0 0 0 0 63.358976141094217 48.346144151879308 0 48.346144151879308 17.088101959063977 0 0 0 0 63.72637083488371 34.95902213665471 0 34.95902213665471 9.5269763646253125 0 0 0 0 52.084707199734112 41.418987820350878 0 41.418987820350878 24.552244756811781 0 0 0 0 35.012657358878641 25.718448012868635 0 25.718448012868635 15.150614597437752 0 0 0 0 35.136811291260528 13.183081255060401 0 13.183081255060401 4.8413294247036012 0 0 0 0 43.125134876012453 17.554082221799817 0 17.554082221799817 4.8026791734211898 0 0 0 0 43.361585277229096 16.846975511028671 0 16.846975511028671 -15.392146853770043 0 0 0 0 26.923908429431322 11.718576455899516 0 11.718576455899516 -15.295755608267893 0 0 0 0 28.086656557276001 14.849528357557546 0 14.849528357557546 -8.5672119786779746 0 0 0 0 44.531162503166343 26.029750648857462 0 26.029750648857462 -7.6036630066797102 0 0 0 0 40.593655595363089 15.910771817264926 0 15.910771817264926 -35.290995890845096 0 0 0 0 25.996618449556991 -5.9941405714499254 0 -5.9941405714499254 -41.817686338075276 0 0 0 0 25.31102692719287 -1.0576487626659894 0 -1.0576487626659894 -15.549747415641301 0 0 0 0 31.289520313977846 0.23121305460839459 0 0.23121305460839459 -30.45621747994435 0 0 0 0 46.175819752803363 16.846361147085354 0 16.846361147085354 -33.363832340237948 0 0 0 0 29.43403004701031 18.838447878203375 0 18.838447878203375 3.1665792400375068 0 0 0 0 49.413258538552327 27.110313873086852 0 27.110313873086852 -0.93867777166648736 0 0 0 0 0.39579517388358454 -0.053558209737722962 0 -0.053558209737722962 -0.18575498139705907 0 0 0 0 38.265382533816592 13.433312091712747 0 13.433312091712747 5.6356493907112029 0 0 0 0 29.882139142533561 17.906929579633484 0 17.906929579633484 20.464334885780765 0 0 0 0 18.007174039310485 2.9612495262756533 0 2.9612495262756533 -0.012462062630969776 0 0 0 0 0.16569581834943392 0.019750192448960036 0 0.019750192448960036 -0.078782643190253493 0 0 0 0 18.086322403214581 2.8900081562714091 0 2.8900081562714091 0.023222016781480545 0 0 0 0 39.981215809184505 20.558223562753032 0 20.558223562753032 5.6831277574340611 0 0 0 0 62.864861281188496 6.9264078929256145 0 6.9264078929256145 -0.023057448626053779 0 0 0 0 62.51968992246475 4.4791363482068567 0 4.4791363482068567 -6.8039849608613228 0 0 0 0 65.331267720735923 2.6433076719164217 0 2.6433076719164217 -8.2101315194373523 0 0 0 0 0.10813883552694392 -0.0090977383445931537 0 -0.0090977383445931537 0.0031431312863197973 0 0 0 0 62.184971762326313 6.1535345603399705 0 6.1535345603399705 1.120923127826551 0 0 0 0 63.135942657532723 1.7965690839745212 0 1.7965690839745212 -5.995525500769026 0 0 0 0 57.313548546691891 1.718357546280751 0 1.718357546280751 0.011804965723544732 0 0 0 0 50.613154611406571 -9.2384379381384143 0 -9.2384379381384143 5.6329070774440098 0 0 0 0 68.275489970124909 -1.351481095693182 0 -1.351481095693182 -5.337825017923528 0 0 0 0 44.125421654462116 5.7957414279028274 0 5.7957414279028274 -3.4655228664729787 0 0 0 0 30.693962795819971 8.2993108475893074 0 8.2993108475893074 1.1006093268496615 0 0 0 0 34.082828129990958 4.3061002823764341 0 4.3061002823764341 -2.4414870136383939 0 0 0 0 35.332814427245467 3.2341478855821642 0 3.2341478855821642 -3.1896935238398889 0 0 0 0 35.844772172582452 -2.3037671813405911 0 -2.3037671813405911 -10.034342223397161 0 0 0 0 14.372092579964374 7.4207675947545262 0 7.4207675947545262 -9.3200730140282886 0 0 0 0 34.323020167237701 4.6023924139638801 0 4.6023924139638801 -2.8990928052086105 0 0 0 0 68.240606536706764 42.813200346673931 0 42.813200346673931 18.330582153564116 0 0 0 0 120.69660558623582 -3.202405808858952 0 -3.202405808858952 -14.651626131293527 0 0 0 0 47.584604304527602 -35.247586225313803 0 -35.247586225313803 -4.3500737773918345 0 0 0 0 184.11832294318447 83.808621257426353 0 83.808621257426353 36.401138022647316 0 0 0 0 0.65182455154082675 -0.34264366865127016 0 -0.34264366865127016 -0.071997246893729869 0 0 0 0 -8.3390306050660001 -33.985976543977479 0 -33.985976543977479 -1.9648188490785472 0 0 0 0 0.32991654798604486 -0.049497308297219433 0 -0.049497308297219433 -0.1378216751420468 0 0 0 0 147.12320881912456 8.2725076780189646 0 8.2725076780189646 20.116191577374913 0 0 0 0 25.067145532324503 -2.1524208554828537 0 -2.1524208554828537 -14.635415086042823 0 0 0 0 33.976139645819785 -0.37363608703822138 0 -0.37363608703822138 -38.399126420241274 0 0 0 0 71.415251993799757 -32.457451467278318 0 -32.457451467278318 -11.022842986237919 0 0 0 0 91.175988478949876 17.43370902368811 0 17.43370902368811 10.068042055555473 0 0 0 0 110.96794425318149 22.094264808544899 0 22.094264808544899 -22.262442968293811 0 0 0 0 49.317939600798127 -36.318311241241844 0 -36.318311241241844 -37.173663769856688 0 0 0 0 1201.9094410520847 -6.7701188915103785 0 -6.7701188915103785 -697.82103244705536 0 0 0 0 57.564856694046853 -3.3270431593739715 0 -3.3270431593739715 -1.8558019141107036 0 0 0 0 93.348662533899187 -34.031175534770604 0 -34.031175534770604 -87.246247684623114 0 0 0 0 31.676977057421027 6.6143519532463273 0 6.6143519532463273 -2.2994139765108201 0 0 0 0 39.14816821770728 -3.8532143908088781 0 -3.8532143908088781 -3.1353303253895533 0 0 0 0 0.16845375573048216 -0.81482523225837866 0 -0.81482523225837866 0.80820702208149631 0 0 0 0 22.013724316027947 -5.5964822753799766 0 -5.5964822753799766 -9.6327255578091311 0 0 0 0 139.40521509362952 66.555660905494335 0 66.555660905494335 -1.9875881764045573 0 0 0 0 90.578882504691137 12.417035312269718 0 12.417035312269718 -39.979531974089298 0 0 0 0 54.290491986520863 -5.7264542568980445 0 -5.7264542568980445 -0.47959372165945846 0 0 0 0 54.033607401894415 40.383923931617538 0 40.383923931617538 13.309070738784669 0 0 0 0 45.680308338976829 -6.9625732275509451 0 -6.9625732275509451 4.9302734935843944 0 0 0 0 50.328320231979887 2.4323454281550418 0 2.4323454281550418 -2.1674256395712397 0 0 0 0 13.171638278169588 1.6719293549234067 0 1.6719293549234067 0.7659542793844859 0 0 0 0 -58.068296915200335 -99.479346213853461 0 -99.479346213853461 -78.592018254072173 0 0 0 0 12.341224380374634 3.7044442920432559 0 3.7044442920432559 -0.0074879415579345299 0 0 0 0 -126.13082623473747 -295.99275938162941 0 -295.99275938162941 -315.20174250649609 0 0 0 0 -43.099972544208867 -67.895364405914734 0 -67.895364405914734 -94.492998244892419 0 0 0 0 -12.407847359019797 -92.663269617941296 0 -92.663269617941296 -74.811036077920335 0 0 0 0 -78.626131651719334 51.143451890997198 0 51.143451890997198 132.98000911837175 0 0 0 0 -62.758054719259235 -100.30828265756486 0 -100.30828265756486 21.02832317904722 0 0 0 0 -85.207261212082813 -52.648176983586154 0 -52.648176983586154 -63.479230903950452 0 0 0 0 603.66358135812334 80.462336582345699 0 80.462336582345699 -56.03935752871871 0 0 0 0 465.32122501528647 -50.928610937399071 0 -50.928610937399071 -20.744727971394923 0 0 0 0 -188.67364708257446 -180.30452423104134 0 -180.30452423104134 153.91261458671318 0 0 0 0 7.8255288510020051 4.330279747172721 0 4.330279747172721 3.2526838498769064 0 0 0 0 -505.96182207899255 427.69448119059928 0 427.69448119059928 322.91502032937456 0 0 0 0 -13.125988338935713 -33.674079597105447 0 -33.674079597105447 35.044134037192862 0 0 0 0 405.7176735940775 405.35832499763274 0 405.35832499763274 22.733544972480331 0 0 0 0 -520.40331945672369 -226.54496378426768 0 -226.54496378426768 158.62600448856051 0 0 0 0 -0.2287146390743402 -0.879392714229418 0 -0.879392714229418 1.456455047866462 0 0 0 0 144.42193487387522 49.595273437033939 0 49.595273437033939 81.507242818329814 0 0 0 0 263.77421211312321 -83.09042068614383 0 -83.09042068614383 -28.727288553592643 0 0 0 0 399.82276795363578 5.7730905506118688 0 5.7730905506118688 -78.629309035576057 0 0 0 0 -100.85363642908851 -60.250285451785885 0 -60.250285451785885 111.39087454948867 0 0 0 0 76.629844048020459 -64.205390261041657 0 -64.205390261041657 73.193111156200985 0 0 0 0 -18.482525605111732 135.25706359474418 0 135.25706359474418 -18.857559463822099 0 0 0 0 -16.537150030980229 85.908855131066531 0 85.908855131066531 5.2041932652030027 0 0 0 0 7.0889462837476458 23.154601588000105 0 23.154601588000105 89.213321909817068 0 0 0 0 20.361634091295002 15.454465140094282 0 15.454465140094282 7.4262731693293222 0 0 0 0 107.49679792145616 83.726070390786532 0 83.726070390786532 5.4358439635879892 0 0 0 0 -6.7092768897454107 16.1717338431611 0 16.1717338431611 -4.5761842414392691 0 0 0 0 98.595430056389887 -3.5296776949524808 0 -3.5296776949524808 -9.1369024920699999 0 0 0 0 73.509264307882404 5.8599568568855602 0 5.8599568568855602 4.2347255876397867 0 0 0 0 44.072890384632046 18.425904880839539 0 18.425904880839539 -4.1282257588107925 0 0 0 0 129.76607539327961 31.558446934362564 0 31.558446934362564 -4.8051241125362196 0 0 0 0 -11.257913279172982 5.5141553383764617 0 5.5141553383764617 -1.1064761924259605 0 0 0 0 69.21194043521291 219.9318347161207 0 219.9318347161207 34.774643182066676 0 0 0 0 19.45651180483037 62.11433697531497 0 62.11433697531497 26.75142685285914 0 0 0 0 34.070920149541053 33.314133444307686 0 33.314133444307686 11.520601739594952 0 0 0 0 45.238281198424374 44.45901585371098 0 44.45901585371098 -6.7562975817218103 0 0 0 0 45.304365112211599 19.270041866771749 0 19.270041866771749 -35.372973321757399 0 0 0 0 39.28384988162361 46.745795341784856 0 46.745795341784856 12.15544206816071 0 0 0 0 20.308122813978116 18.255461411324177 0 18.255461411324177 19.195160131535772 0 0 0 0 18.843391831993358 7.2150680515066172 0 7.2150680515066172 -58.096649154454312 0 0 0 0 33.074861257202897 3.3679250069999966 0 3.3679250069999966 -3.1568829917862233 0 0 0 0 39.259295109677623 -2.5196366419120375 0 -2.5196366419120375 -70.427862478424785 0 0 0 0 38.895210245744238 3.615539948123188 0 3.615539948123188 -80.679318675348682 0 0 0 0 36.984103520149802 7.7654866699180518 0 7.7654866699180518 -32.380528985842403 0 0 0 0 36.713201608199597 -15.858293409160359 0 -15.858293409160359 -58.860181662297258 0 0 0 0 47.508661169186382 0.25271001708878948 0 0.25271001708878948 -2.4726656065295876 0 0 0 0 46.787669879409805 30.82192925110553 0 30.82192925110553 -155.41288798071696 0 0 0 0 1500.2106905729343 4.7931935800577827 0 4.7931935800577827 -81.408235349067567 0 0 0 0 1095.3712421016971 130.64923558219144 0 130.64923558219144 -118.92939880017263 0 0 0 0 1096.5470698791796 59.160245337466307 0 59.160245337466307 -112.66759531738325 0 0 0 0 1297.0927941600039 -167.70853268262476 0 -167.70853268262476 98.926266364943686 0 0 0 0 1806.1185920648459 -19.45786924464538 0 -19.45786924464538 -0.69865049523930234 0 0 0 0 3.2024622979071111 2.1457814428769524 0 2.1457814428769524 -0.14866790104541752 0 0 0 0 25.037321912546759 3.3573763112872097 0 3.3573763112872097 0.0047942845731190646 0 0 0 0 30.782971293312585 -1.4500680002033086 0 -1.4500680002033086 0.99640131813498378 0 0 0 0 35.567643226673681 -0.072144023009351521 0 -0.072144023009351521 -0.019263990510354656 0 0 0 0 5.3581573215132892 6.2772077432950653 0 6.2772077432950653 0.12002221849529729 0 0 0 0 1206.249570779677 -64.564105846126068 0 -64.564105846126068 -1.8420553869238461 0 0 0 0 33.179150305324583 0.64163564088914349 0 0.64163564088914349 2.2791855267620562 0 0 0 0 797.83332624919422 -140.30254282916223 0 -140.30254282916223 10.317087679431268 0 0 0 0 36.900579011195077 0.030433951324161157 0 0.030433951324161157 3.4535913764025636 0 0 0 0 37.538120316166896 -1.5382974718354774 0 -1.5382974718354774 3.284915758244999 0 0 0 0 37.989715618117771 1.2815831972552267 0 1.2815831972552267 1.8949489179051184 0 0 0 0 40.63446376297361 1.1983860654206193 0 1.1983860654206193 1.336741089588223 0 0 0 0 40.360711316829111 2.238237882498705 0 2.238237882498705 0.27802933292525012 0 0 0 0 38.499345619988162 2.1037327901789933 0 2.1037327901789933 0.99764899378127492 0 0 0 0 35.256897384456806 1.8297511421279156 0 1.8297511421279156 1.4004021046939172 0 0 0 0 38.521822570284712 0.8250011905321939 0 0.8250011905321939 1.4150810423925941 0 0 0 0 38.284470026985218 2.0092890665111947 0 2.0092890665111947 -0.27445954398493644 0 0 0 0 34.517907025699969 2.8501931643800513 0 2.8501931643800513 -0.0011884053287586291 0 0 0 0 37.797343470199849 0.94637456768846007 0 0.94637456768846007 -0.020176115708247983 0 0 0 0 40.054691729295882 2.4725701190199487 0 2.4725701190199487 -0.0063035780660245918 0 0 0 0 37.760083154818403 1.4020879969068429 0 1.4020879969068429 0.90634853318665698 0 0 0 0 38.235028684623103 2.5015882373874851 0 2.5015882373874851 1.1116407162023743 0 0 0 0 51.693371086192201 7.9536107362959552 0 7.9536107362959552 0.10971343805755218 0 0 0 0 35.431036695175862 7.0583141278628956 0 7.0583141278628956 0.32456508204213197 0 0 0 0 27.436295501960558 2.2751456532361356 0 2.2751456532361356 0.0087024264537529615 0 0 0 0 25.042127395525313 -3.3849174962787458 0 -3.3849174962787458 -0.36606691807378766 0 0 0 0 0.077964412831605046 -0.015029516580511881 0 -0.015029516580511881 0.0059696209186510252 0 0 0 0 36.172718700603582 -0.99552987619215649 0 -0.99552987619215649 -2.9019968680557344 0 0 0 0 40.307101357960164 2.3883228527880114 0 2.3883228527880114 1.2344930410730424 0 0 0 0 42.952404414019838 3.1288705853133756 0 3.1288705853133756 0.26443744274604342 0 0 0 0 40.704631450113084 1.2623225015061816 0 1.2623225015061816 -1.2111499425903283 0 0 0 0 44.221396191056556 2.3073624412643365 0 2.3073624412643365 -5.9311011372909341 0 0 0 0 41.998798349901335 -1.1555823284771112 0 -1.1555823284771112 -2.7429040250449575 0 0 0 0 40.584647800180392 2.4356682102363507 0 2.4356682102363507 -9.969534520386393 0 0 0 0 41.948218441004428 -1.063655182558203 0 -1.063655182558203 0.91011491292349689 0 0 0 0 42.535032766449149 -3.8995678242341256 0 -3.8995678242341256 -0.71147666633128459 0 0 0 0 41.941456523534725 -0.74413556472850928 0 -0.74413556472850928 -1.6600242036567145 0 0 0 0 39.81729482224182 -3.0383807671650773 0 -3.0383807671650773 3.7307552718045258 0 0 0 0 40.305367138975271 -3.8865582444573974 0 -3.8865582444573974 4.1093371202560363 0 0 0 0 42.562293533264892 -5.2706469436922525 0 -5.2706469436922525 4.9107052347425935 0 0 0 0 43.271855561615666 -2.4579330356742553 0 -2.4579330356742553 4.5234902452478813 0 0 0 0 43.439292253984604 -1.6770331206732507 0 -1.6770331206732507 -2.0348240971586193 0 0 0 0 41.860002663561318 -4.802291446765782 0 -4.802291446765782 3.4431977231922346 0 0 0 0 45.842642884265871 -5.9579309652864776 0 -5.9579309652864776 0.29130335974175325 0 0 0 0 41.365004990104353 -3.3705188229892293 0 -3.3705188229892293 10.855984296086429 0 0 0 0 41.919790469619329 27.850669430166477 0 27.850669430166477 10.596411341125304 0 0 0 0 92.538701930039679 7.7369988435167443 0 7.7369988435167443 -40.725224244686046 0 0 0 0 186.29078232913162 63.283470795669928 0 63.283470795669928 -11.247387248905056 0 0 0 0 -142.78021021185486 -160.70676526319085 0 -160.70676526319085 -69.545074603609464 0 0 0 0 -1.9257323552540484 0.83116209223197046 0 0.83116209223197046 1.7374818026501968 0 0 0 0 98.479742657058523 -25.77397281876847 0 -25.77397281876847 -37.934749093051551 0 0 0 0 33.101826921640168 -28.644402337296867 0 -28.644402337296867 -14.039347878553599 0 0 0 0 37.284521138386481 -5.0650069790982108 0 -5.0650069790982108 8.5608782018940133 0 0 0 0 50.079038293373287 -47.014161216039902 0 -47.014161216039902 -29.527767828166589 0 0 0 0 37.571020767673929 -4.3885759788227059 0 -4.3885759788227059 0.12140191504475972 0 0 0 0 34.021998078889737 -1.9704823534970721 0 -1.9704823534970721 7.0682519312526892 0 0 0 0 34.93942561645963 0.38967232418706033 0 0.38967232418706033 7.2594566328682646 0 0 0 0 46.210473117949732 -28.366596186062452 0 -28.366596186062452 -35.742361205534962 0 0 0 0 55.054462414573209 4.4022241952907279 0 4.4022241952907279 -119.8366914387916 0 0 0 0 46.390412897431816 -69.751374330494627 0 -69.751374330494627 -74.424538672115432 0 0 0 0 -78.589264418700623 -11.326126609766334 0 -11.326126609766334 76.262193660270555 0 0 0 0 39.731514626982971 1.0806232035997425 0 1.0806232035997425 6.0688120660793672 0 0 0 0 29.884594198298529 -1.4110321464972486 0 -1.4110321464972486 -0.27995245695487858 0 0 0 0 37.436257577006472 1.4782935597811537 0 1.4782935597811537 7.5725880578893054 0 0 0 0 39.170849041243855 0.099839583660012998 0 0.099839583660012998 5.096773182235026 0 0 0 0 38.377435542075546 -0.0092478608599719792 0 -0.0092478608599719792 5.0831813521482108 0 0 0 0 38.826730974979 -0.40358670709980515 0 -0.40358670709980515 4.6261258675044985 0 0 0 0 38.266333546336682 -0.34327200952566983 0 -0.34327200952566983 4.3541185394903223 0 0 0 0 37.741679260425371 0.13370073595783105 0 0.13370073595783105 6.2772519652113061 0 0 0 0 37.748942553858797 0.22252047354762183 0 0.22252047354762183 5.7444289000747304 0 0 0 0 36.74780955544702 -0.80421538590693586 0 -0.80421538590693586 5.4665716064850329 0 0 0 0 37.458533374432591 -2.4015478386049232 0 -2.4015478386049232 7.1022696379615731 0 0 0 0 38.307302935914777 -0.49697952253881894 0 -0.49697952253881894 4.8046420424224756 0 0 0 0 39.406578619709762 -0.89199661696748223 0 -0.89199661696748223 3.4025576121814751 0 0 0 0 38.973390050996386 0.54030107716011777 0 0.54030107716011777 1.9401906584394162 0 0 0 0 39.495154366515635 -1.0387342156578327 0 -1.0387342156578327 1.9898188373302723 0 0 0 0 39.00728898041416 0.18961140622250738 0 0.18961140622250738 3.042803145251515 0 0 0 0 38.395160674912404 -0.019879574771805686 0 -0.019879574771805686 4.2042034301275919 0 0 0 0 38.50335941279809 0.38641115005749294 0 0.38641115005749294 3.6441843443217792 0 0 0 0 1498.1826430343363 429.61597051616752 0 429.61597051616752 -221.26268695365738 0 0 0 0 428.82579927875486 -53.418752345945904 0 -53.418752345945904 -118.48810436849453 0 0 0 0 39.031224941503751 0.061216889962450338 0 0.061216889962450338 4.2620944081414649 0 0 0 0 39.345213508437155 -0.90782600455034057 0 -0.90782600455034057 3.2492858097720436 0 0 0 0 5.7119715294445754 8.8188133677818712 0 8.8188133677818712 0.88035070332358512 0 0 0 0 38.866926687827799 0.042547858809072636 0 0.042547858809072636 4.2015674647939107 0 0 0 0 38.944504122417129 -0.20597550519844887 0 -0.20597550519844887 3.4540425798225343 0 0 0 0 479.74764601804418 80.212330967742261 0 80.212330967742261 52.150979488411167 0 0 0 0 678.83650847258559 118.68570382477409 0 118.68570382477409 -47.808703997657972 0 0 0 0 195.2758535456087 -79.168065464552257 0 -79.168065464552257 99.53699001581839 0 0 0 0 116.63144307929542 26.356850450151413 0 26.356850450151413 -24.657473289836389 0 0 0 0 -0.31325899398905221 0.90255263019643905 0 0.90255263019643905 -0.98277163181890448 0 0 0 0 396.99306321842596 -34.869267444703226 0 -34.869267444703226 -14.237214764673322 0 0 0 0 38.75954060148797 -0.038259157712907665 0 -0.038259157712907665 5.0297456757162422 0 0 0 0 38.606170461251168 -0.34169858344600357 0 -0.34169858344600357 5.3369401784201216 0 0 0 0 38.90862863700022 -0.60766774689001668 0 -0.60766774689001668 5.2870989168266931 0 0 0 0 104.92173087772244 45.007231962679953 0 45.007231962679953 34.479264482204826 0 0 0 0 9.0770861058116807 9.7170035960059948 0 9.7170035960059948 2.2567633191762759 0 0 0 0 40.2882920423217 -0.16576411812415515 0 -0.16576411812415515 5.1815883980183628 0 0 0 0 111.62974068756193 33.40341983882405 0 33.40341983882405 6.8255474407214933 0 0 0 0 -18.801312000228791 -48.353459644852023 0 -48.353459644852023 141.39067123163295 0 0 0 0 3.1110259737985473 0.29697516796998258 0 0.29697516796998258 1.0838211000180291 0 0 0 0 63.485476099405787 71.789305307305312 0 71.789305307305312 53.392805085546172 0 0 0 0 45.651109338970855 0.38979112180163611 0 0.38979112180163611 -15.977312129633901 0 0 0 0 21.381721214616846 7.7843596522943699 0 7.7843596522943699 31.845144191626787 0 0 0 0 217.90356040995539 -60.646811681739109 0 -60.646811681739109 28.626124824246062 0 0 0 0 43.050059012057318 180.01464429416217 0 180.01464429416217 131.30479621585641 0 0 0 0 263.18770670585218 134.62535961214303 0 134.62535961214303 -75.382289810353996 0 0 0 0 186.95874047663528 -96.999890623983902 0 -96.999890623983902 -32.523006382811673 0 0 0 0 -4.3766370070261473 -20.549348630492318 0 -20.549348630492318 34.935235960909267 0 0 0 0 116.18701830878126 54.219951381748388 0 54.219951381748388 -11.138220198581735 0 0 0 0 705.42460163882788 287.60239106591087 0 287.60239106591087 44.404588110778974 0 0 0 0 938.85911874124213 790.85982051525036 0 790.85982051525036 295.26489095843738 0 0 0 0 -2.7429492045686885 3.5549702310769717 0 3.5549702310769717 -2.8844931415996427 0 0 0 0 -2.0122737504678554 8.8450116117037254 0 8.8450116117037254 -7.3965968957169448 0 0 0 0 -51.777616980827588 40.127973412411166 0 40.127973412411166 -14.077898445880237 0 0 0 0 -57.027445698993688 71.117811657888979 0 71.117811657888979 19.606466251803795 0 0 0 0 182.50999064019925 394.73980341477181 0 394.73980341477181 825.91976650502988 0 0 0 0 1126.9158472232411 104.35508237126022 0 104.35508237126022 -169.38760939955441 0 0 0 0 1093.4989828689504 257.98049121064139 0 257.98049121064139 -132.18305004995489 0 0 0 0 551.5418406390163 298.14718596412314 0 298.14718596412314 72.652332883548979 0 0 0 0 695.01370717017016 67.402763243831672 0 67.402763243831672 -104.18341560883971 0 0 0 0 1499.4825159155625 497.66818280518453 0 497.66818280518453 -23.762892215014169 0 0 0 0 508.86466137361276 200.44514602235984 0 200.44514602235984 -65.848214910059298 0 0 0 0 36.50249930726568 -19.502829715458518 0 -19.502829715458518 -74.094450597913237 0 0 0 0 11.27187353734849 3.8734328818374237 0 3.8734328818374237 -9.2930825640739663 0 0 0 0 172.10587755541201 35.28215006066705 0 35.28215006066705 -63.822022372108478 0 0 0 0 6.0918445682909805 5.8286508975962761 0 5.8286508975962761 -18.681206281192431 0 0 0 0 1.1285835764608834 1.1318026815385487 0 1.1318026815385487 -1.2541726399459645 0 0 0 0 10.099905248846568 -7.8668587329419353 0 -7.8668587329419353 7.3133405075307802 0 0 0 0 1497.3990431362399 -235.30638576345177 0 -235.30638576345177 -149.88052569673783 0 0 0 0 463.45249999310909 -248.01267223663214 0 -248.01267223663214 65.614134458549472 0 0 0 0 713.58486362345866 -89.436202058595825 0 -89.436202058595825 32.543184521450151 0 0 0 0 748.30249693416408 -327.47827671427393 0 -327.47827671427393 31.171750374003036 0 0 0 0 928.15423242741963 129.12704979621083 0 129.12704979621083 -79.579363956734881 0 0 0 0 -141.68756198763731 -744.1794537226823 0 -744.1794537226823 772.15693637237018 0 0 0 0 6.2402274113577931 0.13597574913448085 0 0.13597574913448085 0.21549423365998277 0 0 0 0 433.2548024585376 377.46271841928467 0 377.46271841928467 324.52380605238437 0 0 0 0 39.005860329067218 -5.1944890027909594 0 -5.1944890027909594 -11.693647848820717 0 0 0 0 1495.922317263452 -0.31328830354786941 0 -0.31328830354786941 -0.4041857624924457 0 0 0 0 2.0981728890970004 0.065928114291295969 0 0.065928114291295969 0.55415381666056263 0 0 0 0 1.908339041033301 -1.081055881797937 0 -1.081055881797937 0.46360592611178331 0 0 0 0 5.8309005177713118 0.99891483810317538 0 0.99891483810317538 -2.0348377985490869 0 0 0 0 1493.8755923912031 -62.310366380737882 0 -62.310366380737882 -66.436475015169805 0 0 0 0 26.064696764224209 -19.171342617299729 0 -19.171342617299729 20.380340177394146 0 0 0 0 2.4964547799100814 3.4785069777589577 0 3.4785069777589577 -0.37765475033956702 0 0 0 0 9.2371716505804216 68.231047127997044 0 68.231047127997044 -59.352106127222214 0 0 0 0 38.877253959988593 -0.76009239625636837 0 -0.76009239625636837 -59.04082968355101 0 0 0 0 9.5408221556635908 14.045997767569993 0 14.045997767569993 -1.8780315551025524 0 0 0 0 22.394311127958559 0.83092215276245796 0 0.83092215276245796 -3.1329838653467323 0 0 0 0 93.816463097216911 117.17626091183502 0 117.17626091183502 -31.421078920188393 0 0 0 0 3.9577085796687186 -1.3681615384967145 0 -1.3681615384967145 0.60072153471622325 0 0 0 0 10.313211788758053 -2.5697422213320777 0 -2.5697422213320777 -1.761128474899972 0 0 0 0 14.495095393152951 0.21381024581921793 0 0.21381024581921793 -0.91919794105922392 0 0 0 0 24.236790248487523 -7.0693781980012034 0 -7.0693781980012034 -4.8104320961158464 0 0 0 0 27.307626394584076 -4.3896120257006146 0 -4.3896120257006146 -3.5555977306591728 0 0 0 0 24.243212871944706 -6.0713518625653933 0 -6.0713518625653933 -2.2792820841000321 0 0 0 0 9.9693132439606416 -2.7343419018660597 0 -2.7343419018660597 -3.0572570785934658 0 0 0 0 13.642260001061203 -1.651802300419476 0 -1.651802300419476 -3.3839940930439356 0 0 0 0 17.092457079269295 0.041397180712873904 0 0.041397180712873904 -4.354585027492921 0 0 0 0 21.530566264875233 -21.260421069803897 0 -21.260421069803897 5.9085571840460034 0 0 0 0 3.795127965903319 -1.6262110836083323 0 -1.6262110836083323 -1.5484312124247603 0 0 0 0 19.963395959097539 -4.545999143928654 0 -4.545999143928654 -1.2283081953404622 0 0 0 0 -22.425066550233169 62.221222081663427 0 62.221222081663427 -26.245966648255489 0 0 0 0 3.1340927874972806 0.42814085501860433 0 0.42814085501860433 -1.652527251602125 0 0 0 0 147.58818308904301 8.8616119460452865 0 8.8616119460452865 -264.71371742212796 0 0 0 0 8.3302764946274692 -32.427362316103881 0 -32.427362316103881 -252.92141251164594 0 0 0 0 -51.894750231174839 17.548766155520298 0 17.548766155520298 -80.861470678677506 0 0 0 0 46.396654550655512 35.314453336524821 0 35.314453336524821 -113.52350236554344 0 0 0 0 46.340544884144037 -19.193308664770711 0 -19.193308664770711 -117.0569381066889 0 0 0 0 14.596980568843719 -105.29115098409329 0 -105.29115098409329 -146.14426080134581 0 0 0 0 21.393506831547711 -42.209366302574836 0 -42.209366302574836 23.685778372997447 0 0 0 0 61.697998682531761 29.803890411650627 0 29.803890411650627 -192.61645518867704 0 0 0 0 62.06774162138754 20.884817358099099 0 20.884817358099099 -81.932124148690946 0 0 0 0 37.358200337097514 -7.2217015977303163 0 -7.2217015977303163 -30.690058412101934 0 0 0 0 49.576758595459978 8.4755432042725261 0 8.4755432042725261 -64.870479918070032 0 0 0 0 12.79330843827907 -1.3191655254255146 0 -1.3191655254255146 -5.451045406002196 0 0 0 0 24.356324061802297 2.4077145290303719 0 2.4077145290303719 -12.470802905696303 0 0 0 0 -1.9814169511228101 -23.309168984930693 0 -23.309168984930693 10.91211470478288 0 0 0 0 42.479032299946994 30.591290886863135 0 30.591290886863135 -39.420839403770515 0 0 0 0 11.243671987948446 -0.66308937669393231 0 -0.66308937669393231 -2.2582180761248418 0 0 0 0 35.228788569304015 -3.7646768347003814 0 -3.7646768347003814 -14.038334647973045 0 0 0 0 16.271176330265007 -5.6423071039379806 0 -5.6423071039379806 -4.5500994426325292 0 0 0 0 20.636804635134467 -10.370853587261877 0 -10.370853587261877 2.6541232690302081 0 0 0 0 20.970457856379653 -5.0541881590948492 0 -5.0541881590948492 -2.5882593152894628 0 0 0 0 30.920212718043331 -11.605945850470519 0 -11.605945850470519 -3.413455986979443 0 0 0 0 48.67193199297617 -33.684940097266463 0 -33.684940097266463 19.965888020099726 0 0 0 0 0.34471325196187763 0.19170390114328129 0 0.19170390114328129 0.24970848430671944 0 0 0 0 -11.858115993229148 12.895093786578627 0 12.895093786578627 -2.3318732651572418 0 0 0 0 -4.4131694351526676 20.028780453460456 0 20.028780453460456 -5.9429551642009528 0 0 0 0 57.217165253416169 -47.299462211468381 0 -47.299462211468381 2.1949916168914569 0 0 0 0 181.73906629861449 53.541896918997566 0 53.541896918997566 3.4834824654956265 0 0 0 0 51.462086854946392 -4.1433196095028961 0 -4.1433196095028961 -5.6734623204096692 0 0 0 0 23.282273954508128 10.08547256203147 0 10.08547256203147 1.3630349774662704 0 0 0 0 -16.910001321928576 -7.9907892067849957 0 -7.9907892067849957 3.3563852698255232 0 0 0 0 0.032287379594379217 -0.21496892292404368 0 -0.21496892292404368 -0.83135989551858691 0 0 0 0 4.31237474658883 -10.166424393423 0 -10.166424393423 -13.027834936615932 0 0 0 0 10.393310977635934 -3.4143685980782514 0 -3.4143685980782514 -1.6877775242182946 0 0 0 0 -4.296741941710934 5.4334053636812882 0 5.4334053636812882 7.4558878919467588 0 0 0 0 13.635643415684171 -5.4004721309920569 0 -5.4004721309920569 -4.2637927874038724 0 0 0 0 13.675619373652808 -13.278350477139298 0 -13.278350477139298 -8.3033858406754462 0 0 0 0 14.017055436310329 -11.806844374226898 0 -11.806844374226898 -2.7066442576740428 0 0 0 0 6.6647848451477643 -1.7435709701774513 0 -1.7435709701774513 -2.635783972157399 0 0 0 0 12.114628323128272 -8.7491937624727143 0 -8.7491937624727143 -2.8013855774904641 0 0 0 0 7.4019165392091963 -7.2465711978065883 0 -7.2465711978065883 0.23652401890467445 0 0 0 0 14.040216019089144 -5.822919251778842 0 -5.822919251778842 -3.0778687174743484 0 0 0 0 3.4270254730035958 -5.0960537899793508 0 -5.0960537899793508 -10.530255990171327 0 0 0 0 6.1848830094542393 -4.3012666985456427 0 -4.3012666985456427 -1.289091632830667 0 0 0 0 8.6944068224629518 -8.8232593223078553 0 -8.8232593223078553 -4.0961855447462288 0 0 0 0 7.222710762931996 -0.78502547944703949 0 -0.78502547944703949 -2.8340608408803867 0 0 0 0 3.7303629649541108 13.682453305674585 0 13.682453305674585 2.04451019029473 0 0 0 0 15.333862165141909 -2.9429763598889167 0 -2.9429763598889167 0.71200742256633021 0 0 0 0 6.9545971710398646 -1.4303418704200759 0 -1.4303418704200759 -4.70767608354336 0 0 0 0 9.9818506625815644 -5.8438680455458325 0 -5.8438680455458325 3.8528582311432729 0 0 0 0 15.524504028766387 16.097213014715862 0 16.097213014715862 0.30416755541091334 0 0 0 0 -18.335777868334844 -54.570336303903332 0 -54.570336303903332 -34.204690828196362 0 0 0 0 45.28763319159043 4.5171839902230886 0 4.5171839902230886 -55.309237476559247 0 0 0 0 46.443438106241956 -74.314573744833183 0 -74.314573744833183 -6.9955380325081933 0 0 0 0 4.627688351276916 0.73845673696304459 0 0.73845673696304459 -1.8695949957462901 0 0 0 0 45.510523429627938 2.8665366391483076 0 2.8665366391483076 -57.449007222977343 0 0 0 0 -7.1841239885179675 56.923780329002057 0 56.923780329002057 -63.622395899215007 0 0 0 0 1.2364271428416203 0.1312515873192055 0 0.1312515873192055 -2.425591965211197 0 0 0 0 -4.4245213472040632 16.970198086929102 0 16.970198086929102 -42.640705187865024 0 0 0 0 49.422859871192486 -6.3229311968852926 0 -6.3229311968852926 10.291009055387804 0 0 0 0 4.0680127487179263 -2.5393209216302353 0 -2.5393209216302353 -2.5958986102044044 0 0 0 0 30.023436287869117 -27.767928663971361 0 -27.767928663971361 18.179322410858731 0 0 0 0 11.069076568644959 -1.7213947337795616 0 -1.7213947337795616 4.3771775954064651 0 0 0 0 8.0492509156088516 -6.7465820050685537 0 -6.7465820050685537 0.22788479797026717 0 0 0 0 2.6536009786155006 0.57860852215347336 0 0.57860852215347336 0.012104053133793258 0 0 0 0 -4.1806911764942924 -23.034472391487043 0 -23.034472391487043 -23.581145072391337 0 0 0 0 13.81786138129246 -12.996066865225202 0 -12.996066865225202 -23.524056440032837 0 0 0 0 18.187012386602873 -6.6234278784741036 0 -6.6234278784741036 -20.704123877295842 0 0 0 0 15.95258080487838 -11.896347954979547 0 -11.896347954979547 -41.035710665147235 0 0 0 0 36.131366986780449 -26.730029268674059 0 -26.730029268674059 -33.208439006948993 0 0 0 0 17.575629878861946 -16.110559651017866 0 -16.110559651017866 -45.611074353204003 0 0 0 0 48.382167505384132 5.4146268632630381 0 5.4146268632630381 -71.60065632738997 0 0 0 0 37.686268668768662 -53.355494625860786 0 -53.355494625860786 -96.168096444172534 0 0 0 0 41.054112369740324 -32.20027341668856 0 -32.20027341668856 -33.632976254179084 0 0 0 0 -6.5288503465199028 -65.740661032421258 0 -65.740661032421258 -39.893693369226867 0 0 0 0 5.8146290948625818 -4.6407022676244658 0 -4.6407022676244658 3.6275789064509079 0 0 0 0 16.57720563402836 -9.440820502160193 0 -9.440820502160193 -3.8842409402514022 0 0 0 0 21.168025814382418 -9.2390858115365972 0 -9.2390858115365972 -38.870885460984937 0 0 0 0 25.497390283562709 17.839540732824389 0 17.839540732824389 -6.3969252281035551 0 0 0 0 15.599649821771891 -16.493142604661898 0 -16.493142604661898 -9.543452643008095 0 0 0 0 61.770479709484789 -37.80000569941194 0 -37.80000569941194 30.202090025484381 0 0 0 0 52.057373776937311 -31.415444480326187 0 -31.415444480326187 -16.738772367354841 0 0 0 0 51.521379538862675 -37.295183541876213 0 -37.295183541876213 -9.6104910510404693 0 0 0 0 1.3238758606883607 -1.1899270452200987 0 -1.1899270452200987 1.1285102283812347 0 0 0 0 18.56757614683616 -6.9496739653644966 0 -6.9496739653644966 1.3904718495252171 0 0 0 0 48.704974275431596 -8.8735245412690347 0 -8.8735245412690347 20.164731206245051 0 0 0 0 172.0739422254228 4.8666933980398426 0 4.8666933980398426 9.6855164821818107 0 0 0 0 15.30105019522307 -25.81124154077952 0 -25.81124154077952 29.63248885872008 0 0 0 0 65.72347185536637 -48.692370871856838 0 -48.692370871856838 4.7713375508519675 0 0 0 0 38.375569591764361 -19.717158252302397 0 -19.717158252302397 -17.907679370695405 0 0 0 0 96.246263000881299 -25.790799442365824 0 -25.790799442365824 -8.473170835779456 0 0 0 0 8.6469660676084459 -7.595724179116587 0 -7.595724179116587 -22.811701990084657 0 0 0 0 11.385546360814025 -1.2921807360497723 0 -1.2921807360497723 -0.93560070361462166 0 0 0 0 -42.527941495616687 12.031521175529633 0 12.031521175529633 -20.318537873568857 0 0 0 0 -48.752748186569079 26.684226293314168 0 26.684226293314168 -12.180336649140827 0 0 0 0 27.740471738099586 -20.041392720017029 0 -20.041392720017029 -7.4022611582531681 0 0 0 0 13.828492624656064 -5.0116622288087456 0 -5.0116622288087456 -1.9017160883877295 0 0 0 0 9.2567761453069721 -11.855359537084581 0 -11.855359537084581 5.9761703017497219 0 0 0 0 31.173713912896346 -30.409313072608711 0 -30.409313072608711 9.3628016366710654 0 0 0 0 13.675162883628744 -14.946094690072321 0 -14.946094690072321 0.63043577567947562 0 0 0 0 5.2180379607016221 -11.548169335868806 0 -11.548169335868806 -5.2147869318805533 0 0 0 0 13.847557097337074 -3.8750281669772946 0 -3.8750281669772946 -1.5389901705938485 0 0 0 0 15.9432815744658 -7.8460093094663534 0 -7.8460093094663534 -4.7359491801844342 0 0 0 0 11.937957468412705 -1.5560277800059943 0 -1.5560277800059943 -4.116407270700746 0 0 0 0 10.902423069436992 -13.268178697036625 0 -13.268178697036625 0.7984873135209023 0 0 0 0 15.518693829548283 -12.655541543312211 0 -12.655541543312211 4.1578735295363458 0 0 0 0 -42.294049252726836 4.1407185724528972 0 4.1407185724528972 14.06452956413932 0 0 0 0 18.721118262100809 -6.2299511300449524 0 -6.2299511300449524 -5.0272810905293914 0 0 0 0 18.003600905780331 -9.8590854789713376 0 -9.8590854789713376 -1.560479889245471 0 0 0 0 10.056364069441223 -10.760004245725007 0 -10.760004245725007 1.0591020358856182 0 0 0 0 14.199223382911441 -3.2147907109081189 0 -3.2147907109081189 -4.5633963314479082 0 0 0 0 15.063806358235524 -15.912345329767163 0 -15.912345329767163 -15.450411218020236 0 0 0 0 6.6856325747550613 -8.6331302265436776 0 -8.6331302265436776 -1.3818550856548475 0 0 0 0 14.475841563904396 -20.726024620011231 0 -20.726024620011231 -6.0861187920945667 0 0 0 0 -37.245257966103964 -60.551751845338003 0 -60.551751845338003 -6.439548557598755 0 0 0 0 3.3283696623046097 -0.85586249235347012 0 -0.85586249235347012 -2.287708977216389 0 0 0 0 20.367343182282639 -27.056047538275379 0 -27.056047538275379 -20.350424278273749 0 0 0 0 1.7715060414486459 -1.3706530213099271 0 -1.3706530213099271 0.66699240704072782 0 0 0 0 10.628838715113034 10.455354922316801 0 10.455354922316801 -23.391570823900565 0 0 0 0 133.49869926545944 25.672752300463799 0 25.672752300463799 10.648596448019362 0 0 0 0 54.283380782231688 15.426095102479394 0 15.426095102479394 -35.77617013177678 0 0 0 0 147.78477215406565 40.59914981929154 0 40.59914981929154 -27.60802958132308 0 0 0 0 168.94096433356572 8.7857867469087978 0 8.7857867469087978 -36.778301357109285 0 0 0 0 66.450057397607452 -21.961916701182645 0 -21.961916701182645 21.126747610699113 0 0 0 0 -25.620770492329029 -22.009201888122107 0 -22.009201888122107 -9.3909596870087171 0 0 0 0 68.361277749820147 -21.888013938693575 0 -21.888013938693575 -11.609236122917991 0 0 0 0 -28.052101231356573 -26.214693498878205 0 -26.214693498878205 29.241759325617522 0 0 0 0 22.367939486408432 -11.940951408799265 0 -11.940951408799265 -8.4036372821926761 0 0 0 0 22.805830663564848 -11.779741048576398 0 -11.779741048576398 -46.386681145590046 0 0 0 0 -7.1998253754209145 -40.130814902163365 0 -40.130814902163365 34.179633072111528 0 0 0 0 0.34820908071964141 -0.2561962151512347 0 -0.2561962151512347 -0.20787555472247288 0 0 0 0 73.312259600244943 -36.086212103085188 0 -36.086212103085188 11.604626886555479 0 0 0 0 4.4338694754987955 8.1953359693851553 0 8.1953359693851553 -3.8588304509739828 0 0 0 0 75.186777882761817 62.173507996010926 0 62.173507996010926 20.936141578159919 0 0 0 0 313.95995820734242 102.30060047083612 0 102.30060047083612 19.453630989581825 0 0 0 0 123.53997579255702 26.203143553654058 0 26.203143553654058 121.46906309871474 0 0 0 0 130.04709589806953 30.969531632619237 0 30.969531632619237 33.167208275703018 0 0 0 0 173.84993168660003 55.262659273401596 0 55.262659273401596 24.630231888665548 0 0 0 0 164.11707399006218 8.4599770700361887 0 8.4599770700361887 -11.64425461682049 0 0 0 0 247.25531082119414 35.406734754464651 0 35.406734754464651 -37.595781775326941 0 0 0 0 223.84032161908908 43.093826842827639 0 43.093826842827639 -32.170355567231127 0 0 0 0 173.72707108025497 -41.629335692969022 0 -41.629335692969022 -2.4947118772558952 0 0 0 0 4.2034322174855987 4.6514338380789866 0 4.6514338380789866 6.5453892437535863 0 0 0 0 94.631025107730238 18.036412258963196 0 18.036412258963196 6.8883854902736701 0 0 0 0 94.531702988111647 30.207929551532686 0 30.207929551532686 19.363243770540919 0 0 0 0 0.32507711775241432 0.68337495429363315 0 0.68337495429363315 0.65142649061597346 0 0 0 0 5.777568608722504 -28.627044025864222 0 -28.627044025864222 12.745149474326581 0 0 0 0 1.8111180944979424 -7.231360362583132 0 -7.231360362583132 -10.003305390203622 0 0 0 0 -0.14542968241585186 -0.075896083483485199 0 -0.075896083483485199 -5.4610633381337266 0 0 0 0 -0.87004971149557875 -0.13076688093662625 0 -0.13076688093662625 -0.012682207854743055 0 0 0 0 -5.0971612052089768 -4.5018014070801087 0 -4.5018014070801087 -9.8039191479774672 0 0 0 0 4.8366541199002953 -6.0513975671420077 0 -6.0513975671420077 -2.7864145120021417 0 0 0 0 -1.930913683201652 -2.9389357279023898 0 -2.9389357279023898 -9.2992950232342082 0 0 0 0 0.808607010578271 0.0031777065760252299 0 0.0031777065760252299 -0.22586465627006191 0 0 0 0 0.88299386221478926 -5.7087791080377883 0 -5.7087791080377883 -7.5007039078034268 0 0 0 0 15.70480377842614 24.378947083660137 0 24.378947083660137 -12.561260562917369 0 0 0 0 8.8205379555078771 -6.8737910174280046 0 -6.8737910174280046 -9.5686107975251922 0 0 0 0 -16.459885771204426 -13.467702728205211 0 -13.467702728205211 -2.0822002242509825 0 0 0 0 -9.9298513448156882 -2.5812734146642242 0 -2.5812734146642242 -1.3336777174563395 0 0 0 0 -4.6010783652236569 -9.1651052887100377 0 -9.1651052887100377 3.097410689409017 0 0 0 0 -2.9213169285285403 -8.7934946686970932 0 -8.7934946686970932 -16.085081414283195 0 0 0 0 -4.8415140701144992 -5.599730651586583 0 -5.599730651586583 -1.5843367918448621 0 0 0 0 2.0225540410865506 5.7421027521863266 0 5.7421027521863266 9.2656193346238069 0 0 0 0 5.4847049941963633 2.8713783277476068 0 2.8713783277476068 0.14610110594398407 0 0 0 0 5.6710293124724558 2.4615917733731294 0 2.4615917733731294 0.10923164951441322 0 0 0 0 -1.9877388960849203 -6.7247399500942606 0 -6.7247399500942606 -2.7753340396600379 0 0 0 0 0.58454802726191701 -1.4592183858933723 0 -1.4592183858933723 2.8557800197640972 0 0 0 0 2.5389266226266045 -7.6794844007429219 0 -7.6794844007429219 -2.9666501944993797 0 0 0 0 0.60454400855178392 -1.5282263335319612 0 -1.5282263335319612 -0.4195594585080471 0 0 0 0 3.5450960602756822 2.8428488585302603 0 2.8428488585302603 2.8252620280491509 0 0 0 0 3.0383612833202136 -0.89655317953443614 0 -0.89655317953443614 -0.52189652386889884 0 0 0 0 3.6644348961333222 0.67161964748530067 0 0.67161964748530067 0.41635426140772935 0 0 0 0 -19.21758618270178 -4.003091827651815 0 -4.003091827651815 8.8868658330773087 0 0 0 0 16.447189139182228 1.8958936081775732 0 1.8958936081775732 3.6873889694272748 0 0 0 0 2.2354819051833665 -6.4985455508719596 0 -6.4985455508719596 -1.3349908676419266 0 0 0 0 4.3889789487075177 -1.3603151142499428 0 -1.3603151142499428 -0.36344144728148819 0 0 0 0 2.1466431342678334 -2.3795122652476834 0 -2.3795122652476834 -1.6918139665981471 0 0 0 0 4.8066577800875052 -6.0554676265731118 0 -6.0554676265731118 -2.5867652370806429 0 0 0 0 0.50566602083666368 0.15540312217124352 0 0.15540312217124352 0.012636822609395804 0 0 0 0 -0.10609747680518922 5.0000407988498807 0 5.0000407988498807 -7.1646535638783462 0 0 0 0 23.494528062903555 -8.5466649171212339 0 -8.5466649171212339 13.354338836985335 0 0 0 0 28.025737528194441 15.276082849734394 0 15.276082849734394 -11.148772343282644 0 0 0 0 26.320183579933655 -7.7082608025340846 0 -7.7082608025340846 -7.2529607144665533 0 0 0 0 10.373005701292641 -2.4528539699657586 0 -2.4528539699657586 -15.21101568682343 0 0 0 0 15.624866444333747 -13.00985962243567 0 -13.00985962243567 -3.0087926945258801 0 0 0 0 17.556842694688385 -11.509619948811974 0 -11.509619948811974 -14.805825895861972 0 0 0 0 -4.87468662109859 -8.6739428448427986 0 -8.6739428448427986 -2.9917114853267321 0 0 0 0 -7.1322966712759808 -3.7778958722866491 0 -3.7778958722866491 -1.0604201928656494 0 0 0 0 0.68345704590017675 -0.11348759454178037 0 -0.11348759454178037 -0.27099916588781747 0 0 0 0 15.759881402798783 2.1174865707325807 0 2.1174865707325807 -5.1174661890331663 0 0 0 0 83.797533494242089 -28.077914152632331 0 -28.077914152632331 -42.106629003031514 0 0 0 0 11.968823179687661 -2.1319670669263893 0 -2.1319670669263893 -2.0890512388767335 0 0 0 0 4.0149096364075376 9.2366403241693718 0 9.2366403241693718 -3.1107915048990478 0 0 0 0 2.9709773862814473 16.941062834247134 0 16.941062834247134 -6.5303833230257595 0 0 0 0 9.2825628494806551 7.9481159341831358 0 7.9481159341831358 -5.2506384965534805 0 0 0 0 5.029298607680964 1.5985305232095186 0 1.5985305232095186 -3.8543574318879337 0 0 0 0 12.149433588276224 -2.7751979418303279 0 -2.7751979418303279 10.563325815995114 0 0 0 0 1.8545954863344321 2.0695142077187541 0 2.0695142077187541 -1.1295607459011665 0 0 0 0 8.2940682404623658 -1.8940156046603533 0 -1.8940156046603533 -1.9375470657375331 0 0 0 0 11.23111791719748 -1.6254909613494419 0 -1.6254909613494419 -6.0130575331586442 0 0 0 0 4.4737588542107005 -2.0659237883494761 0 -2.0659237883494761 -0.51849519528539556 0 0 0 0 9.2246904954445199 -3.4731137878982281 0 -3.4731137878982281 -2.4287970569864683 0 0 0 0 -31.550979150413696 59.883048887428657 0 59.883048887428657 25.145968557597143 0 0 0 0 3.1674609507459976 1.5919930534058579 0 1.5919930534058579 -2.7979306293669115 0 0 0 0 17.068764438241487 1.3211496880103368 0 1.3211496880103368 -0.26314360718853891 0 0 0 0 1.7357326001339786 0.3952992083809157 0 0.3952992083809157 -1.4728632256153684 0 0 0 0 4.8399470091089825 2.4788897763640279 0 2.4788897763640279 2.3558386630940618 0 0 0 0 4.6597519546157855 5.6099686646740565 0 5.6099686646740565 -0.59818078202282265 0 0 0 0 8.1481591655683587 1.5360497892975928 0 1.5360497892975928 -12.772187430610074 0 0 0 0 1.054818511557869 0.046260896587071443 0 0.046260896587071443 -0.25184201040661369 0 0 0 0 109.43177292998371 -76.627951885798822 0 -76.627951885798822 18.674772345009387 0 0 0 0 147.3181793180263 132.59311236310356 0 132.59311236310356 29.132915691545207 0 0 0 0 204.74658780624304 -77.808709003187104 0 -77.808709003187104 -23.986591718129915 0 0 0 0 322.35469195981204 14.310796337135983 0 14.310796337135983 -35.807234655576288 0 0 0 0 717.23171896308486 -84.365546750737622 0 -84.365546750737622 -48.467109725907051 0 0 0 0 829.41543897647989 122.75049282927063 0 122.75049282927063 -201.0461199722341 0 0 0 0 1500.589816363432 -133.52002270958926 0 -133.52002270958926 -329.65967098946197 0 0 0 0 862.79328041974441 -239.93529762577731 0 -239.93529762577731 -291.31432677696853 0 0 0 0 1497.1008804023186 -542.57730130273126 0 -542.57730130273126 -225.08308550239403 0 0 0 0 763.55147813909116 -392.35820225333759 0 -392.35820225333759 -70.581831488915469 0 0 0 0 188.62329506180686 -158.98749918180789 0 -158.98749918180789 20.62976654334642 0 0 0 0 282.62590765787536 -90.782478617954666 0 -90.782478617954666 -35.816480063604843 0 0 0 0 -32.732476180028243 51.453827231598964 0 51.453827231598964 115.81982535954614 0 0 0 0 -90.324607939308407 -186.26610164456412 0 -186.26610164456412 440.21239437127059 0 0 0 0 685.94094537894307 -725.02589075906826 0 -725.02589075906826 460.23131841122802 0 0 0 0 3.4179138468122545 -2.6263966875291445 0 -2.6263966875291445 3.8170601786058129 0 0 0 0 151.14841072089257 -12.798016917893165 0 -12.798016917893165 -0.98252865034919523 0 0 0 0 166.32173115216574 -34.01724022360122 0 -34.01724022360122 28.356130633616885 0 0 0 0 -111.17777866481265 -5.978321038290801 0 -5.978321038290801 4.0703972143896863 0 0 0 0 157.50026838355552 -54.236565175608575 0 -54.236565175608575 15.113052231991787 0 0 0 0 -4.2163551757221285 -33.223223782593095 0 -33.223223782593095 10.20477586891775 0 0 0 0 -25.228363166936106 -3.9424016386360563 0 -3.9424016386360563 -7.3677945021495361 0 0 0 0 1.1125791140551016 -2.5748305953994119 0 -2.5748305953994119 -5.2315465480815329 0 0 0 0 6.1131651425494056 -15.427437691422483 0 -15.427437691422483 -8.7520061425477707 0 0 0 0 7.1372402463289291 -17.044933653922186 0 -17.044933653922186 -6.5963536685926556 0 0 0 0 2.9375423338153492 -5.2385808386594945 0 -5.2385808386594945 -11.303293269654208 0 0 0 0 6.7302191220642271 -20.44617407129715 0 -20.44617407129715 -13.299477637615382 0 0 0 0 305.0116455437128 -108.54568883928096 0 -108.54568883928096 -18.580795949698768 0 0 0 0 4.3277736173479724 3.8572113181931584 0 3.8572113181931584 1.7193991717736807 0 0 0 0 210.46102873345444 -92.362536239935707 0 -92.362536239935707 39.664490109227927 0 0 0 0 182.03245149724535 -62.988924266937374 0 -62.988924266937374 2.690199358716427 0 0 0 0 199.38085237739506 -32.157248360820631 0 -32.157248360820631 -65.206931479214632 0 0 0 0 159.77393996257524 6.2463709149842543 0 6.2463709149842543 -42.065232053648288 0 0 0 0 241.89919643890244 -8.3078390947000571 0 -8.3078390947000571 -43.072234554896568 0 0 0 0 152.32031077801003 -14.783336794791467 0 -14.783336794791467 -0.52057976338710432 0 0 0 0 1.7434645074681026 0.17098204110673265 0 0.17098204110673265 -0.61098078797459365 0 0 0 0 -114.13091689634894 35.278002627061142 0 35.278002627061142 6.3547997093583035 0 0 0 0 64.112450305277889 57.015444552970621 0 57.015444552970621 -41.782916826641667 0 0 0 0 33.140062596930875 13.847263460132808 0 13.847263460132808 -22.908625113543167 0 0 0 0 2.6361831988518176 -2.8904229930006196 0 -2.8904229930006196 -3.7706902418633526 0 0 0 0 19.141679167849361 7.9620743578229849 0 7.9620743578229849 -2.9670929465919471 0 0 0 0 24.189996514105587 39.163484789258291 0 39.163484789258291 -6.8476257664697187 0 0 0 0 6.0517537904673731 4.4784963757343554 0 4.4784963757343554 -1.1604570181572242 0 0 0 0 15.909663384227315 -0.47174937046384002 0 -0.47174937046384002 -4.8863973095994879 0 0 0 0 190.43575577181582 -3.0295314848542603 0 -3.0295314848542603 -37.93928601695643 0 0 0 0 37.523969248351023 -7.6737003149154361 0 -7.6737003149154361 -0.75289087069450034 0 0 0 0 150.62771109750247 -24.819606203930789 0 -24.819606203930789 -20.865614591909434 0 0 0 0 167.44620540474352 8.7676030354441536 0 8.7676030354441536 -22.851191187500717 0 0 0 0 5.93208023022747 5.2638870516927057 0 5.2638870516927057 -0.89096718397238206 0 0 0 0 98.373783090133657 -12.725810244963668 0 -12.725810244963668 1.480270454921083 0 0 0 0 211.62061448358509 -141.54489794670235 0 -141.54489794670235 52.443338039409355 0 0 0 0 -0.1165769906957479 2.5368514175363814 0 2.5368514175363814 1.7018547218556801 0 0 0 0 -33.021698787750211 46.230347430350093 0 46.230347430350093 31.130264962756968 0 0 0 0 0.026043043977551861 9.7525259534299948 0 9.7525259534299948 2.3746371416536931 0 0 0 0 30.104752626751178 7.4803719835647939 0 7.4803719835647939 -7.2222682242372684 0 0 0 0 11.190213987647439 10.863209335911961 0 10.863209335911961 -1.0673675937827056 0 0 0 0 7.4894630684486145 8.862412868520126 0 8.862412868520126 1.2055410712816912 0 0 0 0 21.242460468776699 4.0084966256734482 0 4.0084966256734482 13.143932234001753 0 0 0 0 2.0042238158008843 8.5655109388784432 0 8.5655109388784432 -1.0090874964351499 0 0 0 0 49.387369500094792 -11.177077963391184 0 -11.177077963391184 9.9048063994646327 0 0 0 0 43.753164579789711 14.800641616990724 0 14.800641616990724 3.4905637591239911 0 0 0 0 77.501703557645669 24.996712027331569 0 24.996712027331569 -34.44261188526184 0 0 0 0 -58.91596879845747 83.252418291943059 0 83.252418291943059 0.45529084696266864 0 0 0 0 76.503817669676209 6.439324398386475 0 6.439324398386475 -32.299273295152716 0 0 0 0 0.90749230161368644 3.0590912317702781 0 3.0590912317702781 4.7650463646270866 0 0 0 0 -811.86557741003344 841.36144370940474 0 841.36144370940474 673.83462096658695 0 0 0 0 26.947652252349144 -9.19943006979031 0 -9.19943006979031 -96.50477742466046 0 0 0 0 309.43960453216278 -115.14802860989016 0 -115.14802860989016 -35.538034218375287 0 0 0 0 409.72224638824991 -6.6885200253927906 0 -6.6885200253927906 58.155514896862769 0 0 0 0 -61.741951744530525 27.738762651547177 0 27.738762651547177 33.690145448207204 0 0 0 0 54.159989821564523 77.607921057638691 0 77.607921057638691 11.306731922239862 0 0 0 0 44.259797457393788 22.677991174677814 0 22.677991174677814 6.1734363543524733 0 0 0 0 204.54756510818333 -657.8886643689525 0 -657.8886643689525 960.24545988674708 0 0 0 0 9.516242667065157 6.7756745449025431 0 6.7756745449025431 1.6406254329624232 0 0 0 0 26.713762440311257 -10.196071874672953 0 -10.196071874672953 10.456461522414443 0 0 0 0 309.50466778974078 -108.19770622828264 0 -108.19770622828264 -145.43162125063463 0 0 0 0 156.99479599035112 15.819222232482389 0 15.819222232482389 -144.32429862250609 0 0 0 0 247.54367418951733 -118.98822470779896 0 -118.98822470779896 50.470416558608122 0 0 0 0 279.4475479895782 45.539210537265546 0 45.539210537265546 -21.343294779893768 0 0 0 0 89.007046169499517 9.2577609814688913 0 9.2577609814688913 81.962266060319052 0 0 0 0 45.938587754550099 74.784549316511402 0 74.784549316511402 1.9452236355882633 0 0 0 0 -54.610660377591557 -80.355203064548732 0 -80.355203064548732 -14.152511994740053 0 0 0 0 115.65042491247004 0.50801145524133062 0 0.50801145524133062 -3.1296095403931758 0 0 0 0 135.38363138170098 -17.049851164730626 0 -17.049851164730626 -1.0907890165158278 0 0 0 0 155.90533296119611 15.561446350053529 0 15.561446350053529 -25.026505605423154 0 0 0 0 -0.54387419540429249 -0.98092901627491358 0 -0.98092901627491358 -1.3583014290942543 0 0 0 0 90.741154695995647 -41.206990676724217 0 -41.206990676724217 -106.06773138398512 0 0 0 0 77.48170461006157 -29.784456101482647 0 -29.784456101482647 10.33302254726641 0 0 0 0 0.41901695758133428 -214.88058810746543 0 -214.88058810746543 -87.001397731013441 0 0 0 0 3.0115483782283263 -160.92876574682043 0 -160.92876574682043 92.950810580999587 0 0 0 0 -25.420261659703101 -9.5251861017165993 0 -9.5251861017165993 146.56242939450203 0 0 0 0 300.03485029282456 194.9497406066605 0 194.9497406066605 328.71446054440457 0 0 0 0 -29.316459604638112 -177.61609309968236 0 -177.61609309968236 191.87468336962957 0 0 0 0 4.5667157584206137 -1.3446153971133761 0 -1.3446153971133761 0.6578658860288833 0 0 0 0 123.52636989068196 -118.64085000739146 0 -118.64085000739146 -37.070993976432646 0 0 0 0 237.75679036969814 304.72458625298219 0 304.72458625298219 291.46717711965221 0 0 0 0 116.93824707671956 67.96422092720104 0 67.96422092720104 61.967495589122564 0 0 0 0 6.9367959535193222 -124.84422847727728 0 -124.84422847727728 -65.951971236392978 0 0 0 0 457.59223700975235 81.997955501158685 0 81.997955501158685 -156.31927547849091 0 0 0 0 -47.417698724286311 10.050557940774979 0 10.050557940774979 27.918757452192494 0 0 0 0 4.0998570317970007 63.841884121919975 0 63.841884121919975 28.784206423576368 0 0 0 0 1.9915853177014355 -2.4239002626037909 0 -2.4239002626037909 2.4065910190719224 0 0 0 0 23.772200381969014 69.611134153459943 0 69.611134153459943 -46.952750685915817 0 0 0 0 -64.552416878756048 2.8941570889633113 0 2.8941570889633113 73.584216120198107 0 0 0 0 96.084382714105232 95.634162782342628 0 95.634162782342628 66.769437861391452 0 0 0 0 123.6000722240351 84.099026632870391 0 84.099026632870391 45.176135984397206 0 0 0 0 13.395971156906526 -3.2198640630273196 0 -3.2198640630273196 0.72446460886539477 0 0 0 0 68.769489293074002 81.831653066318722 0 81.831653066318722 64.056907509154371 0 0 0 0 31.633782325610809 -9.1166355061391187 0 -9.1166355061391187 -68.550231022281082 0 0 0 0 2.9720512334388332 -36.817552384622559 0 -36.817552384622559 29.840518801597241 0 0 0 0 103.42873700162636 73.53423120683658 0 73.53423120683658 33.417997590691812 0 0 0 0 21.064326216299378 -20.929747096046867 0 -20.929747096046867 14.909090197051228 0 0 0 0 54.812359753386772 71.335042539016968 0 71.335042539016968 56.341684400417762 0 0 0 0 87.026044934405945 74.111439891749114 0 74.111439891749114 25.941360687048473 0 0 0 0 111.5924806822004 77.964807297339121 0 77.964807297339121 26.1373894891574 0 0 0 0 101.7497245503946 91.20452507200207 0 91.20452507200207 33.002312432899771 0 0 0 0 108.72302019123526 85.591938122759302 0 85.591938122759302 7.35443272844077 0 0 0 0 104.91556077913265 90.861079246183635 0 90.861079246183635 41.623679840314253 0 0 0 0 105.10334777185608 80.185479788953472 0 80.185479788953472 44.761292648316157 0 0 0 0 97.225364066194743 61.436289788542922 0 61.436289788542922 -16.101004086662442 0 0 0 0 90.520091692549613 60.100488546304177 0 60.100488546304177 19.235829159179389 0 0 0 0 166.75783042425974 38.54119406032396 0 38.54119406032396 18.201681043945825 0 0 0 0 150.5983808571018 5.7416608282625816 0 5.7416608282625816 -42.383626930617993 0 0 0 0 131.29747136447804 83.852898385511821 0 83.852898385511821 -11.031224126048528 0 0 0 0 185.81947691048845 -26.858757023663657 0 -26.858757023663657 -57.977814029291494 0 0 0 0 119.73417199973937 61.23624244369995 0 61.23624244369995 -7.3253755104701668 0 0 0 0 144.04236933339416 94.392959788900271 0 94.392959788900271 37.174437231178558 0 0 0 0 52.141305953759002 38.168611118142508 0 38.168611118142508 0.67164125549015807 0 0 0 0 69.127609085771837 26.116467207270261 0 26.116467207270261 -5.6737277140555307 0 0 0 0 44.769073054234468 -28.911318059047062 0 -28.911318059047062 -19.936346111249577 0 0 0 0 20.846936995236319 -26.320406091658697 0 -26.320406091658697 -13.373362880201512 0 0 0 0 20.906697669230198 -30.338021633300059 0 -30.338021633300059 -9.1336896410559802 0 0 0 0 22.718378608729836 -19.126450051614597 0 -19.126450051614597 -14.890168252139006 0 0 0 0 22.707757504118575 -17.95155700099679 0 -17.95155700099679 -25.379712288330211 0 0 0 0 21.745607359054702 -30.627181198624157 0 -30.627181198624157 -53.703129467819281 0 0 0 0 25.976502820017231 61.399154294292543 0 61.399154294292543 -11.488703822463322 0 0 0 0 -15.922329403514595 -4.2647006495549249 0 -4.2647006495549249 -16.118841963341197 0 0 0 0 0.12160683780892612 0.090085582977920353 0 0.090085582977920353 -0.99044388455148002 0 0 0 0 -8.2946633763276623 5.1447365392676261 0 5.1447365392676261 0.29986309584933224 0 0 0 0 7.8350563007261371 27.003626320658555 0 27.003626320658555 -52.155961757454882 0 0 0 0 23.102722584950243 -2.3430830835040979 0 -2.3430830835040979 -6.1276488805369809 0 0 0 0 77.322778402442054 64.662420814174993 0 64.662420814174993 -1.0660984714917277 0 0 0 0 202.16638809663709 137.92476001011937 0 137.92476001011937 22.43701685296719 0 0 0 0 260.62288420314144 -18.597846590170775 0 -18.597846590170775 3.3423812743744747 0 0 0 0 77.780269350845629 43.849370675115324 0 43.849370675115324 -50.910108471081003 0 0 0 0 36.353741367216571 7.1629637523084284 0 7.1629637523084284 -17.59626018962615 0 0 0 0 -9.853675289246894 -27.231539901240012 0 -27.231539901240012 -20.054087606554532 0 0 0 0 -21.809777049584227 42.129310837041317 0 42.129310837041317 46.039427197842485 0 0 0 0 426.17003564999141 -46.584204170334317 0 -46.584204170334317 -15.497218767285176 0 0 0 0 0.41439657477999248 0.50052680577206132 0 0.50052680577206132 1.1969345546532 0 0 0 0 211.04070887358102 -21.173675863836024 0 -21.173675863836024 -15.245548277963859 0 0 0 0 151.73995263107099 22.075266157039607 0 22.075266157039607 4.3423399643822904 0 0 0 0 1.3304823995539152 2.1135457327187481 0 2.1135457327187481 2.59361409995123 0 0 0 0 1.0596962533591636 1.5421080866733092 0 1.5421080866733092 -1.7377787820510555 0 0 0 0 4.7962827561095764 2.4099042846986265 0 2.4099042846986265 4.636336776527628 0 0 0 0 4.6266723082480894 5.7769163378631561 0 5.7769163378631561 -16.387846671988029 0 0 0 0 8.5481189584970707 10.790619115102174 0 10.790619115102174 5.8562206306670319 0 0 0 0 7.260320419767595 6.9013196946982589 0 6.9013196946982589 -1.5034163322861787 0 0 0 0 3.2766983341461327 4.5388761910233484 0 4.5388761910233484 2.4170133660261288 0 0 0 0 164.70672395050497 21.609339348115554 0 21.609339348115554 4.2587123845931245 0 0 0 0 179.04395513732561 60.903293706115619 0 60.903293706115619 6.6902276410755803 0 0 0 0 2.3230113181569507 0.49941844088739629 0 0.49941844088739629 -1.0524282979937665 0 0 0 0 -2.4256113360715972 -5.0509364213958179 0 -5.0509364213958179 -4.0979194366877891 0 0 0 0 11.971386623965373 27.007439161959724 0 27.007439161959724 4.8615007692173151 0 0 0 0 4.141410892904311 -0.28442989539074404 0 -0.28442989539074404 -5.1324067199321188 0 0 0 0 12.621718052865617 5.5501191239978311 0 5.5501191239978311 -0.4299255535569273 0 0 0 0 4.1701201269863688 0.62630070608948074 0 0.62630070608948074 -5.8364550806600946 0 0 0 0 8.4619006169305067 -1.4660353347749151 0 -1.4660353347749151 -9.096748391599931 0 0 0 0 -7.7056187134894571 -16.554886000737952 0 -16.554886000737952 5.4611673150754996 0 0 0 0 0.8966795414990365 -2.33689981276396 0 -2.33689981276396 -5.3187852573264411 0 0 0 0 114.32706956006905 -50.746930988552265 0 -50.746930988552265 -23.629313654150792 0 0 0 0 74.063308593416878 -27.146096874053455 0 -27.146096874053455 -14.191552421086726 0 0 0 0 102.01203832664396 64.705129774650004 0 64.705129774650004 -28.277281350464364 0 0 0 0 37.508290718735225 -5.4405731119388747 0 -5.4405731119388747 -26.200228194015835 0 0 0 0 26.064047746046072 10.747831678349328 0 10.747831678349328 -21.854010629127288 0 0 0 0 7.5176279347069794 -4.3901144946065642 0 -4.3901144946065642 -9.326474941699189 0 0 0 0 2.0411561098612676 -1.5324667986070679 0 -1.5324667986070679 -6.2742926890244277 0 0 0 0 3.5324170309773635 -2.3895869977234057 0 -2.3895869977234057 -5.675984949035989 0 0 0 0 21.514030716738489 -17.819744323648592 0 -17.819744323648592 -12.949243778228265 0 0 0 0 25.669810964714998 -9.2055822524876021 0 -9.2055822524876021 -12.817273892367666 0 0 0 0 32.548058251108159 -13.904824720857505 0 -13.904824720857505 -22.48449139395143 0 0 0 0 78.730473822390195 23.077794774662834 0 23.077794774662834 5.039373346224238 0 0 0 0 18.382341237906076 28.711431426413583 0 28.711431426413583 -21.633415703759056 0 0 0 0 13.749236622741591 -11.706049444302039 0 -11.706049444302039 -17.105613580311456 0 0 0 0 25.636778552296164 -2.8405653835643534 0 -2.8405653835643534 -12.404605562049255 0 0 0 0 -0.70981393632803957 -1.2300276848867 0 -1.2300276848867 -1.4744002939658412 0 0 0 0 25.720909753406886 -57.926086803443923 0 -57.926086803443923 26.442492445477455 0 0 0 0 101.68971062934361 81.289485505664743 0 81.289485505664743 -120.96326962072089 0 0 0 0 247.41482879410614 -12.264511516904008 0 -12.264511516904008 38.989430272540631 0 0 0 0 1.093010514153292 0.86186414631409036 0 0.86186414631409036 0.888376995451166 0 0 0 0 402.40829613626738 -231.73454776672679 0 -231.73454776672679 40.999530607882619 0 0 0 0 -33.651558906620266 64.648550425195708 0 64.648550425195708 -21.445441818103973 0 0 0 0 333.59667479685913 11.315095786269012 0 11.315095786269012 -38.325906820276941 0 0 0 0 74.48059802860007 47.155687795076574 0 47.155687795076574 59.977930236629504 0 0 0 0 109.64354573315359 -40.319693111970082 0 -40.319693111970082 47.619307578147072 0 0 0 0 221.99104922934328 -21.281641553960114 0 -21.281641553960114 -20.575320919749174 0 0 0 0 223.7495471668808 20.192487588193671 0 20.192487588193671 -55.81771286093317 0 0 0 0 193.28803827332194 17.322499814225012 0 17.322499814225012 -33.327857157498329 0 0 0 0 164.12083310186063 38.32053605608462 0 38.32053605608462 -36.459387384375077 0 0 0 0 121.00356793253741 47.003098658626868 0 47.003098658626868 17.529319331804345 0 0 0 0 181.82228765152468 9.7740545356996336 0 9.7740545356996336 -27.816420124277442 0 0 0 0 86.63709955554441 38.017649257790254 0 38.017649257790254 23.86855040217165 0 0 0 0 352.81570418265073 54.74780702313069 0 54.74780702313069 -35.140096629095112 0 0 0 0 -89.994223709687503 -246.02648394803191 0 -246.02648394803191 -36.29984834388506 0 0 0 0 224.86457256413087 179.29022636686477 0 179.29022636686477 124.49597035440001 0 0 0 0 2.9998375961311794 -1.2586078281476532 0 -1.2586078281476532 0.41334182509861073 0 0 0 0 90.719715363537944 -233.15106442890044 0 -233.15106442890044 -36.71882800523872 0 0 0 0 77.389486510455754 -240.97275209086092 0 -240.97275209086092 -12.770248346732842 0 0 0 0 259.48998573900917 -95.125226893765785 0 -95.125226893765785 -83.701826560647078 0 0 0 0 -48.895790987055079 -4.6329052900414354 0 -4.6329052900414354 -96.705472729313442 0 0 0 0 16.885868243912228 -241.87563164683797 0 -241.87563164683797 -8.8928844576630581 0 0 0 0 0.95133304153659992 -0.57015199072200318 0 -0.57015199072200318 0.26603922581128536 0 0 0 0 53.645613921718905 3.2211452042347446 0 3.2211452042347446 -32.067534993592517 0 0 0 0 45.994625085206735 46.344070482796553 0 46.344070482796553 -23.869002440517306 0 0 0 0 52.347403025833046 26.883337574594634 0 26.883337574594634 -69.295841135878277 0 0 0 0 7.3283794508533902 7.8614134222816574 0 7.8614134222816574 -57.572068533993843 0 0 0 0 95.455942190847964 102.45429845571755 0 102.45429845571755 52.914584018069945 0 0 0 0 -30.459628452406832 43.43962998076745 0 43.43962998076745 23.905950115282167 0 0 0 0 -85.579006149775523 -34.222013202334892 0 -34.222013202334892 68.499862598883283 0 0 0 0 39.831018019760222 19.772624788403363 0 19.772624788403363 -11.560277248887814 0 0 0 0 253.21095901801073 -111.57436182089282 0 -111.57436182089282 29.516550595461013 0 0 0 0 45.965153993092827 -18.925136495845436 0 -18.925136495845436 159.91288187928399 0 0 0 0 94.422081796416023 15.642487230991037 0 15.642487230991037 -25.985649663882214 0 0 0 0 -0.090598716957174474 -0.88669491583596027 0 -0.88669491583596027 -2.7754123196802993 0 0 0 0 -0.89942702298048971 -4.051197916252363 0 -4.051197916252363 -7.8635269846927258 0 0 0 0 0.44378689513064984 -0.83099546645490463 0 -0.83099546645490463 -4.1919918295644276 0 0 0 0 -2.09953864104682 1.1832792753898502 0 1.1832792753898502 -4.6109331762605734 0 0 0 0 0.92178126410597905 -1.883334845084498 0 -1.883334845084498 -4.795417070609755 0 0 0 0 9.0115090415420127 1.1541302175276087 0 1.1541302175276087 -7.0640966167218266 0 0 0 0 1.2499930753674562 -4.2677279631831198 0 -4.2677279631831198 -4.6776392856841085 0 0 0 0 19.811705704543328 -36.982413728528627 0 -36.982413728528627 -22.029916869426415 0 0 0 0 9.177202218947059 24.958240751939684 0 24.958240751939684 -8.6642976032717343 0 0 0 0 -8.687245859993709 10.479729724713138 0 10.479729724713138 -0.58326765954734583 0 0 0 0 1.0003292255214973 0.63424793458553452 0 0.63424793458553452 -1.1375250501402263 0 0 0 0 4.7426651422174473 -4.0335386980627277 0 -4.0335386980627277 7.9267683650354002 0 0 0 0 0.13247915288044965 0.028557180370597735 0 0.028557180370597735 -0.33319729719819469 0 0 0 0 59.068597133038566 -70.731391297792925 0 -70.731391297792925 73.011520124774165 0 0 0 0 64.050665928800299 34.737734888456089 0 34.737734888456089 -7.8714729885605266 0 0 0 0 44.19434717749391 -47.020276198738316 0 -47.020276198738316 42.53387859594244 0 0 0 0 -0.75949089635469136 8.5807978093783959 0 8.5807978093783959 56.165870957735592 0 0 0 0 109.62085565253437 -16.561750197564606 0 -16.561750197564606 -6.905508529937606 0 0 0 0 -1.8934558616974755 -0.61534225848788537 0 -0.61534225848788537 11.741142069262878 0 0 0 0 -18.802674548373375 -6.9885925985686761 0 -6.9885925985686761 17.799128386988514 0 0 0 0 6.8048474211864232 16.239314626012458 0 16.239314626012458 -95.993968289896387 0 0 0 0 -20.098398600022165 -46.430688569167792 0 -46.430688569167792 -28.057273464067066 0 0 0 0 61.209757649263338 -15.323848898170979 0 -15.323848898170979 -18.999594663808267 0 0 0 0 61.601773413320188 -22.114974496231213 0 -22.114974496231213 -72.557470644191852 0 0 0 0 108.02123053698233 -36.347106462617035 0 -36.347106462617035 -16.09272452457401 0 0 0 0 0.13064191662088831 -1.1377482897745459 0 -1.1377482897745459 -7.3807656458250737 0 0 0 0 4.462335764827003 2.7910187180756338 0 2.7910187180756338 -5.7700482703881733 0 0 0 0 0.29970572145239416 -2.0681950268118641 0 -2.0681950268118641 -5.8587569962289034 0 0 0 0 2.1442319335292268 -11.041514762775023 0 -11.041514762775023 19.259911549505205 0 0 0 0 6.1913060971783125 1.936379012987814 0 1.936379012987814 -7.1935113744814956 0 0 0 0 21.150991158425313 -33.498016882677874 0 -33.498016882677874 -29.781437037894534 0 0 0 0 73.716389072586026 -3.6833121349491194 0 -3.6833121349491194 -51.450553371097158 0 0 0 0 4.5984833929650595 -1.6908416352447375 0 -1.6908416352447375 -17.318855967539182 0 0 0 0 17.479647752017627 14.890764684428859 0 14.890764684428859 -34.383716406489839 0 0 0 0 2.1975442221687018 1.3182559176703208 0 1.3182559176703208 -1.566182967746812 0 0 0 0 18.036613109266455 18.218766260973098 0 18.218766260973098 -44.392458852174968 0 0 0 0 33.53480312146894 4.4617823701762163 0 4.4617823701762163 -28.406051064481147 0 0 0 0 35.889739500733413 -32.774292833151662 0 -32.774292833151662 -23.793930666446727 0 0 0 0 4.4622823736870743 -1.7493233309667673 0 -1.7493233309667673 -3.7465490331701119 0 0 0 0 29.227636200314919 -5.9714532978267698 0 -5.9714532978267698 -37.354211809765502 0 0 0 0 24.014211317283397 -3.329303136818254 0 -3.329303136818254 -4.5226968987508975 0 0 0 0 75.105337094373681 -12.603573081030845 0 -12.603573081030845 -12.038165947004018 0 0 0 0 31.653873771583676 -0.067388657111223438 0 -0.067388657111223438 -40.669245279194911 0 0 0 0 28.692838869283804 -4.5581057187277505 0 -4.5581057187277505 -2.8854323447273602 0 0 0 0 30.78314434998665 -2.9300774445949109 0 -2.9300774445949109 -11.168101946912154 0 0 0 0 15.347638524523063 -3.1971373053252137 0 -3.1971373053252137 -11.098700942377036 0 0 0 0 20.018893763731512 -10.23629854566193 0 -10.23629854566193 -17.087023884455686 0 0 0 0 31.576076092390359 -6.5046486557479888 0 -6.5046486557479888 -17.809439054883303 0 0 0 0 21.425970734861039 -12.963253924566288 0 -12.963253924566288 3.6958913421894977 0 0 0 0 35.095593413096367 -26.513221229965339 0 -26.513221229965339 -35.980064166304714 0 0 0 0 41.686731814952509 -23.707479948437982 0 -23.707479948437982 -35.7930806975629 0 0 0 0 96.201884046367923 -12.193426239503307 0 -12.193426239503307 -50.834968702370496 0 0 0 0 33.773128354074288 -36.046057959003207 0 -36.046057959003207 -26.202693185481394 0 0 0 0 10.379730169719551 -46.585418442286965 0 -46.585418442286965 32.265989800761474 0 0 0 0 9.8231693812158483 -53.535341027387744 0 -53.535341027387744 -34.409025621879152 0 0 0 0 -1.6687822700733506 -0.38367232844358767 0 -0.38367232844358767 0.94043609423902397 0 0 0 0 21.502003791101743 -3.389218951060073 0 -3.389218951060073 -17.034819449744873 0 0 0 0 24.193425554860369 -14.478563093837181 0 -14.478563093837181 -61.07290140015391 0 0 0 0 12.829324456844915 -17.682274350814282 0 -17.682274350814282 -23.562700219129653 0 0 0 0 18.199512381012028 -1.7977601232373672 0 -1.7977601232373672 -49.227957849335951 0 0 0 0 36.657874971584079 -13.319074125893067 0 -13.319074125893067 -97.797019920868252 0 0 0 0 21.268163647395838 -3.021101169980918 0 -3.021101169980918 -0.63437073747978068 0 0 0 0 31.664581180972164 -39.474563903474291 0 -39.474563903474291 -57.144041856382159 0 0 0 0 18.648865904147897 5.8713871035596412 0 5.8713871035596412 -21.216353258234903 0 0 0 0 1.915713717047808 -3.6905344306807422 0 -3.6905344306807422 -0.53736526298912524 0 0 0 0 21.780708712914929 -0.15904331465026189 0 -0.15904331465026189 -11.71747686895992 0 0 0 0 13.977248639253759 -7.8585050984002818 0 -7.8585050984002818 -4.1428763630266516 0 0 0 0 17.529411946971095 -12.931178218886515 0 -12.931178218886515 -15.465053479696508 0 0 0 0 16.849042551013554 -7.0712358643984317 0 -7.0712358643984317 -22.346225612222213 0 0 0 0 15.346479533919897 1.3819996779534893 0 1.3819996779534893 -1.8443652540301405 0 0 0 0 18.492337424824655 -8.2968151136175265 0 -8.2968151136175265 -14.079497725947249 0 0 0 0 5.5543053343753854 -14.576333173550211 0 -14.576333173550211 -14.171560494037521 0 0 0 0 7.1711598975925881 -14.016092870891725 0 -14.016092870891725 6.6467956890459163 0 0 0 0 4.2822437725444615 -29.271777246454661 0 -29.271777246454661 -18.55516142263528 0 0 0 0 9.8666844994659186 -5.2519318385946008 0 -5.2519318385946008 -13.54364325214749 0 0 0 0 9.0401174248681855 -4.0879860043899043 0 -4.0879860043899043 11.787345051327065 0 0 0 0 19.728814772515214 2.6079134144735039 0 2.6079134144735039 -2.6376248718978514 0 0 0 0 60.317065800760247 -15.714089772799525 0 -15.714089772799525 -12.412502490574752 0 0 0 0 12.175363919174821 -1.2394794259563771 0 -1.2394794259563771 -3.3346824428673223 0 0 0 0 26.401040134068808 -1.29874285268113 0 -1.29874285268113 -4.7226787075992434 0 0 0 0 21.448932554584495 1.208561914031506 0 1.208561914031506 -7.61733196926712 0 0 0 0 27.160993375813632 -3.0155854491390528 0 -3.0155854491390528 -1.4635241370760923 0 0 0 0 30.755063997647085 -2.812300084413323 0 -2.812300084413323 -25.94801952176104 0 0 0 0 48.937499327749265 16.21375584313023 0 16.21375584313023 -0.11124690647375246 0 0 0 0 30.496324383684623 -5.7762645674681039 0 -5.7762645674681039 -12.829900291157173 0 0 0 0 37.470198841625603 3.749616136610971 0 3.749616136610971 -19.233920030001684 0 0 0 0 35.228217538503941 6.2473084416681104 0 6.2473084416681104 1.2879452349022813 0 0 0 0 8.6238969512518651 1.8018966002506938 0 1.8018966002506938 -3.3165614270094821 0 0 0 0 24.3361288545665 -2.111808882484608 0 -2.111808882484608 -10.29212266214526 0 0 0 0 48.462422906893153 4.4340532870915013 0 4.4340532870915013 -0.015836764399864478 0 0 0 0 -6.9607472399202379 -31.924650694416414 0 -31.924650694416414 -13.664724271706973 0 0 0 0 33.884356621661027 -2.3946098847021631 0 -2.3946098847021631 -44.917192762354716 0 0 0 0 17.767837895144567 -15.17180583396339 0 -15.17180583396339 -47.094990553450771 0 0 0 0 22.332422282037442 -18.834180834449853 0 -18.834180834449853 -44.611572102712671 0 0 0 0 11.722441081990382 -46.967215605539423 0 -46.967215605539423 -105.04019834929932 0 0 0 0 19.393527715067421 -5.4782087837983227 0 -5.4782087837983227 -88.357252273579434 0 0 0 0 58.1775122000181 -18.179772221430085 0 -18.179772221430085 -12.8203978367319 0 0 0 0 -15.67932348359227 -14.489449680239773 0 -14.489449680239773 63.042396125205414 0 0 0 0 -15.839557096576755 -32.926735132721888 0 -32.926735132721888 22.759852755874014 0 0 0 0 -15.555433674046071 -25.72948647188241 0 -25.72948647188241 23.00075769165403 0 0 0 0 45.967427777436569 -32.816490465944526 0 -32.816490465944526 -33.486566323007196 0 0 0 0 0.94420418053214661 -2.0901306575339231 0 -2.0901306575339231 -0.62067690945612952 0 0 0 0 20.800189660724506 7.3752294272811874 0 7.3752294272811874 2.2942715865292653 0 0 0 0 15.509778483469702 5.3276380094457725 0 5.3276380094457725 1.6717137945666307 0 0 0 0 -22.789619319533813 15.219928939452075 0 15.219928939452075 56.969508884999414 0 0 0 0 66.034351506974417 60.337911744522444 0 60.337911744522444 -63.40726339884759 0 0 0 0 9.0412833378977666 101.7417248855063 0 101.7417248855063 -10.891723364248037 0 0 0 0 -54.005987129152345 116.75794017545354 0 116.75794017545354 140.92310495296806 0 0 0 0 6.1340698356311805 -167.88468132009814 0 -167.88468132009814 292.92123294149769 0 0 0 0 10.551885103046516 -44.819999753804495 0 -44.819999753804495 212.79765853870299 0 0 0 0 65.176315183485713 -75.815741679330586 0 -75.815741679330586 -5.1026829657712369 0 0 0 0 284.67288441732126 0.89314525854388194 0 0.89314525854388194 90.44043804735702 0 0 0 0 57.574692444881407 -11.517988295235625 0 -11.517988295235625 126.3151086974367 0 0 0 0 -4.4948054246174252 4.2223585717811716 0 4.2223585717811716 52.96492028182729 0 0 0 0 -21.936563870683131 30.461462753137084 0 30.461462753137084 78.350238593215181 0 0 0 0 -39.09814206307783 -5.8009417989983376 0 -5.8009417989983376 108.43071849007219 0 0 0 0 -42.662569216598058 -33.963027420757953 0 -33.963027420757953 25.062063015584044 0 0 0 0 -41.378248418979638 -26.201203835792512 0 -26.201203835792512 17.267459840952142 0 0 0 0 -73.929121832198689 -60.066650740075829 0 -60.066650740075829 -3.4653067585622921 0 0 0 0 -39.649039101003382 14.16228444652063 0 14.16228444652063 -55.664767386964741 0 0 0 0 119.23825875490184 -178.1827811096698 0 -178.1827811096698 -27.4170434476232 0 0 0 0 143.57249103474896 -93.404234824527975 0 -93.404234824527975 -227.94498805771946 0 0 0 0 17.445977550619055 -2.1571875118728592 0 -2.1571875118728592 -0.026492177532826844 0 0 0 0 66.625366822583601 84.639030710113275 0 84.639030710113275 60.787894017374583 0 0 0 0 75.881910240787874 2.6111515854629488 0 2.6111515854629488 -92.589768532195194 0 0 0 0 19.473714931300492 -95.812328809768132 0 -95.812328809768132 -174.44571108734067 0 0 0 0 -21.696748795839085 55.096798716184139 0 55.096798716184139 70.167288135809031 0 0 0 0 2.3987572004644022 -1.442917966300957 0 -1.442917966300957 0.47375161596140103 0 0 0 0 24.925490700705268 -36.275588923057057 0 -36.275588923057057 -102.60933467984864 0 0 0 0 2.4103173241142031 13.455937057840686 0 13.455937057840686 -63.926722234484259 0 0 0 0 18.262639965716517 16.868802643693925 0 16.868802643693925 -87.887217683303788 0 0 0 0 34.966974111510353 1.3065102080272482 0 1.3065102080272482 -73.646088548343869 0 0 0 0 35.477789320215379 19.635830788556632 0 19.635830788556632 -46.896546550589846 0 0 0 0 67.427358103414008 8.5627043583085651 0 8.5627043583085651 -67.283206911436082 0 0 0 0 7.4459794064241578 -9.4731291771631732 0 -9.4731291771631732 -29.535430807959528 0 0 0 0 56.865031818440912 4.4784902835899629 0 4.4784902835899629 -39.856289129954348 0 0 0 0 4.5149626056918351 -27.173089652927047 0 -27.173089652927047 -13.200746775305561 0 0 0 0 6.4438554553987117 3.8615422283616851 0 3.8615422283616851 -3.4424248750076023 0 0 0 0 20.720154797870457 -3.6733232618601335 0 -3.6733232618601335 0.62828967800088398 0 0 0 0 56.409315513061301 21.831058430878556 0 21.831058430878556 -50.954456514829872 0 0 0 0 13.419549656704476 -55.184191504225055 0 -55.184191504225055 -87.427796849737888 0 0 0 0 7.8402597751919458 1.026121409077394 0 1.026121409077394 -0.95939732401075872 0 0 0 0 25.861528485832423 -11.894022141264259 0 -11.894022141264259 -57.614089391336165 0 0 0 0 -44.093828946184658 -75.882986809479007 0 -75.882986809479007 -34.570614081987515 0 0 0 0 -22.793851954964339 -49.403985942160944 0 -49.403985942160944 -32.620398109445887 0 0 0 0 1498.6351568555838 -113.30474789213939 0 -113.30474789213939 -17.153616829030025 0 0 0 0 -28.20988497356484 55.71248672200727 0 55.71248672200727 -54.354206117930516 0 0 0 0 4.054421122302756 7.0645062281417452 0 7.0645062281417452 7.6716845376086464 0 0 0 0 13.642497821942015 67.502947384498782 0 67.502947384498782 -121.34047399742212 0 0 0 0 -2.6857692350968136 24.261805189380993 0 24.261805189380993 -156.91632412384729 0 0 0 0 -29.997082900206806 31.796584307252942 0 31.796584307252942 -78.400105879163675 0 0 0 0 -58.915851612284314 -38.51670099033754 0 -38.51670099033754 -184.70000198920411 0 0 0 0 19.793100864771986 51.948202862622566 0 51.948202862622566 -64.766984780239113 0 0 0 0 76.031371425786347 5.5320152615920506 0 5.5320152615920506 -53.233762381314591 0 0 0 0 41.992456368559942 21.758586774766627 0 21.758586774766627 -54.786748224929909 0 0 0 0 36.151317349344026 29.849890462313624 0 29.849890462313624 -70.176174214652463 0 0 0 0 49.874153638458665 39.193056138981547 0 39.193056138981547 -85.859150243950353 0 0 0 0 57.98027089588868 -8.2475627695380354 0 -8.2475627695380354 -36.815087401467508 0 0 0 0 114.71984772180713 18.444035533700145 0 18.444035533700145 -104.50841517185563 0 0 0 0 95.838073207518391 -30.53970360217869 0 -30.53970360217869 -57.491441452442587 0 0 0 0 155.9242670306603 -25.809926871850394 0 -25.809926871850394 -60.308274382351783 0 0 0 0 120.09730737309656 55.536654358177202 0 55.536654358177202 26.207627502978198 0 0 0 0 0.97937697880707653 2.1010628449078723 0 2.1010628449078723 3.0796012607601528 0 0 0 0 -389.63354569994408 237.29363491491941 0 237.29363491491941 279.60380856477479 0 0 0 0 -23.644346052591573 152.80611849062296 0 152.80611849062296 82.376370680974247 0 0 0 0 1509.9789825589287 -110.12207708183777 0 -110.12207708183777 -16.699463954547795 0 0 0 0 -152.30007497301995 123.71936931731159 0 123.71936931731159 98.275508484391594 0 0 0 0 62.346724773364258 56.969271052868976 0 56.969271052868976 -67.714442367910124 0 0 0 0 -91.249790816075802 -33.06919071929471 0 -33.06919071929471 -94.933571056347319 0 0 0 0 -246.28501331461302 -49.612541555852999 0 -49.612541555852999 10.417505784164405 0 0 0 0 -83.565047253170633 -79.047378358861806 0 -79.047378358861806 -153.39291621863231 0 0 0 0 -352.75356606688547 92.400948884025865 0 92.400948884025865 112.92972050507251 0 0 0 0 -28.413276673039945 269.90192516069948 0 269.90192516069948 205.82389869660301 0 0 0 0 -251.75362765452519 463.55186942040024 0 463.55186942040024 438.04935634191111 0 0 0 0 357.81237637533923 372.97241284129996 0 372.97241284129996 176.87769744518238 0 0 0 0 465.16060299224409 197.79936761350993 0 197.79936761350993 108.40717892452 0 0 0 0 -69.120187721524417 526.15943223657871 0 526.15943223657871 439.15832934202399 0 0 0 0 836.73604051204165 793.34948189569559 0 793.34948189569559 350.51259286948977 0 0 0 0 1546.9158537809624 597.64736560619599 0 597.64736560619599 -139.55162882022722 0 0 0 0 1030.6154024948119 164.83698048244491 0 164.83698048244491 -202.26600181245979 0 0 0 0 569.15393825486171 83.431597468063458 0 83.431597468063458 10.94312341808376 0 0 0 0 601.26025047146322 313.29119022460611 0 313.29119022460611 160.57151278084243 0 0 0 0 1.1706603611962976 -0.09986707938241679 0 -0.09986707938241679 -0.59375874855467647 0 0 0 0 192.56165222085656 -62.930279329948121 0 -62.930279329948121 12.719211868228513 0 0 0 0 298.86963106173062 156.4453927689554 0 156.4453927689554 181.59749716565778 0 0 0 0 212.79311652479555 15.523211266622525 0 15.523211266622525 42.889940854758834 0 0 0 0 6.4497833994555549 -24.807032460530948 0 -24.807032460530948 57.164627347208409 0 0 0 0 17.225169582111448 -0.80309205934801753 0 -0.80309205934801753 -9.7031563850994189 0 0 0 0 -3.2283066487834731 10.701567852418179 0 10.701567852418179 1.1095197475045211 0 0 0 0 -29.364601438539466 -53.856588051969155 0 -53.856588051969155 7.9529821170843888 0 0 0 0 10.536279262758903 -8.3231015106418269 0 -8.3231015106418269 -8.1370714557115917 0 0 0 0 30.770199954598866 -16.194931266009064 0 -16.194931266009064 -29.315324423497259 0 0 0 0 57.253833496586594 -66.790110147240512 0 -66.790110147240512 32.921442790448452 0 0 0 0 27.593868870495498 -43.455419487108088 0 -43.455419487108088 -26.642495494705912 0 0 0 0 57.423058467604278 -10.412187604844576 0 -10.412187604844576 -42.393373319267539 0 0 0 0 61.539092215753044 -10.166596877469829 0 -10.166596877469829 -69.165120430084244 0 0 0 0 10.600459177856969 -8.6974077891974275 0 -8.6974077891974275 -8.0693910732172309 0 0 0 0 16.009625639482692 -20.150820392595989 0 -20.150820392595989 -16.962337031896791 0 0 0 0 67.775488562554528 15.950796093534905 0 15.950796093534905 -22.325730494031731 0 0 0 0 62.186655156976485 17.093005243360835 0 17.093005243360835 -9.6528251397905933 0 0 0 0 112.93974206479834 30.30530139940112 0 30.30530139940112 -24.463128270609161 0 0 0 0 80.00248125305734 46.440939436790416 0 46.440939436790416 0.12485188954951809 0 0 0 0 107.50245265998819 59.92620320577538 0 59.92620320577538 -18.91287979486474 0 0 0 0 99.749345981817896 66.722509068431918 0 66.722509068431918 4.7657648909425916 0 0 0 0 88.234619071961788 50.048862552446167 0 50.048862552446167 -18.942714110227616 0 0 0 0 78.436937342734382 48.683545413350032 0 48.683545413350032 3.9004164774848959 0 0 0 0 38.542730945293442 17.715152812138058 0 17.715152812138058 17.26613364518488 0 0 0 0 74.95387510459841 53.228356670318533 0 53.228356670318533 2.869299741121722 0 0 0 0 30.346123379134951 -3.5597555813881172 0 -3.5597555813881172 -5.6794188900321103 0 0 0 0 45.923780999197334 16.433535144595226 0 16.433535144595226 0.12534265959402546 0 0 0 0 -27.834740229991439 -3.3398567792814902 0 -3.3398567792814902 2.3745251565959506 0 0 0 0 10.268996565234421 -7.7903605508934959 0 -7.7903605508934959 -8.9736426855394971 0 0 0 0 -33.748767711222172 -29.029065583840875 0 -29.029065583840875 -11.718394806578658 0 0 0 0 34.114942457713369 -3.2931451672733374 0 -3.2931451672733374 -1.8980355982409947 0 0 0 0 31.877455551671119 -10.566049987055749 0 -10.566049987055749 -24.912254170951655 0 0 0 0 49.065833201088026 44.58060199322864 0 44.58060199322864 47.567408825601888 0 0 0 0 -17.83709694378922 -2.1366876231368224 0 -2.1366876231368224 26.709609478111219 0 0 0 0 -27.726295914536649 81.23407127374665 0 81.23407127374665 65.266438271866946 0 0 0 0 45.2448915013847 32.038876493003727 0 32.038876493003727 30.277646045076381 0 0 0 0 12.574738662871823 47.91596108506883 0 47.91596108506883 74.607715223280593 0 0 0 0 86.014959589570935 130.60507778032252 0 130.60507778032252 86.6595456176276 0 0 0 0 462.67517155409587 120.58013440690922 0 120.58013440690922 22.131778207066475 0 0 0 0 0.72906146519916604 -0.19538160466853327 0 -0.19538160466853327 -0.68480179259618001 0 0 0 0 445.07703386949652 -26.108689416160018 0 -26.108689416160018 4.5624314139575404 0 0 0 0 288.19215671983329 117.8398623709295 0 117.8398623709295 35.116227280642079 0 0 0 0 315.40265989093314 -66.79792060081445 0 -66.79792060081445 -7.9698824954839438 0 0 0 0 517.84595650316624 10.559448107390381 0 10.559448107390381 -16.063626115688294 0 0 0 0 0.90695197317428011 1.4956372923269079 0 1.4956372923269079 2.8722294238295696 0 0 0 0 149.08802151080818 -57.060597510798402 0 -57.060597510798402 -25.582527225305967 0 0 0 0 199.95264917906752 -111.63970374778842 0 -111.63970374778842 236.8910773330025 0 0 0 0 382.24727989931125 142.25242521223163 0 142.25242521223163 142.15594541071823 0 0 0 0 97.6788844468756 16.804457755429382 0 16.804457755429382 84.87759829035258 0 0 0 0 231.89726599339065 37.248052266410866 0 37.248052266410866 -23.672071340300135 0 0 0 0 193.89153192834056 -82.744645902031266 0 -82.744645902031266 25.650479856059349 0 0 0 0 201.72766214153307 23.841996875159907 0 23.841996875159907 -27.749037124301594 0 0 0 0 433.06176247775147 -16.123045214661033 0 -16.123045214661033 -12.385910940983649 0 0 0 0 268.46408865551348 182.10202043096672 0 182.10202043096672 61.846857124649432 0 0 0 0 123.27815947533236 88.995335116796468 0 88.995335116796468 37.195484683802306 0 0 0 0 95.490411792903615 98.81676048899044 0 98.81676048899044 85.643880596110193 0 0 0 0 47.097773537410831 49.485683615216431 0 49.485683615216431 38.505455278820136 0 0 0 0 87.270633731226553 71.249191566639524 0 71.249191566639524 21.455826962152855 0 0 0 0 107.30958427605947 80.982193315333006 0 80.982193315333006 26.163286995933163 0 0 0 0 107.85409205326141 91.376483838587319 0 91.376483838587319 39.137479737647936 0 0 0 0 187.38311448378226 98.617564277679321 0 98.617564277679321 0.82802275337439823 0 0 0 0 121.85850741550666 67.332354157344128 0 67.332354157344128 -14.07880422744438 0 0 0 0 123.65608801798589 79.038592806485724 0 79.038592806485724 -5.9286556715169354 0 0 0 0 106.18367933347508 65.298328445872272 0 65.298328445872272 -16.702850886642636 0 0 0 0 107.01593500543822 68.190778637762463 0 68.190778637762463 -17.320751933078178 0 0 0 0 106.97543528678216 49.393460321751249 0 49.393460321751249 -30.218831444560379 0 0 0 0 138.48185595033283 64.25613756165626 0 64.25613756165626 -23.364422017818242 0 0 0 0 114.10350896197997 31.002737457583645 0 31.002737457583645 -32.628775246848406 0 0 0 0 90.451005656614143 -5.4415905284595567 0 -5.4415905284595567 -36.706259882417612 0 0 0 0 154.79204550958821 12.030667476773488 0 12.030667476773488 -32.614147014767696 0 0 0 0 138.27397341660253 28.30696488201886 0 28.30696488201886 -24.157391083411085 0 0 0 0 138.91487528338621 21.429493555897125 0 21.429493555897125 -36.852424165898356 0 0 0 0 75.730283143049746 19.226081768299309 0 19.226081768299309 -32.309433736403548 0 0 0 0 56.332654019624897 8.8918407201372602 0 8.8918407201372602 -34.226899445311922 0 0 0 0 59.414383496230585 6.3668374095324793 0 6.3668374095324793 -33.034277573715286 0 0 0 0 99.678430383276009 51.461111016212072 0 51.461111016212072 -26.719039774412806 0 0 0 0 98.456284806601275 19.327032275310177 0 19.327032275310177 -41.336631251209752 0 0 0 0 114.32664585972998 64.224675831723772 0 64.224675831723772 -25.594832862915325 0 0 0 0 89.211626018557581 57.155581420503836 0 57.155581420503836 -24.965700287102926 0 0 0 0 81.375269928717898 61.688231643858217 0 61.688231643858217 -20.223358037157311 0 0 0 0 103.99803437790069 72.056509845589162 0 72.056509845589162 -21.060762961236946 0 0 0 0 69.217970980673272 42.215729364044989 0 42.215729364044989 -23.136364543440891 0 0 0 0 98.061851836278947 47.033638294848544 0 47.033638294848544 -33.619490141679478 0 0 0 0 76.580496894990574 62.789342573217539 0 62.789342573217539 -10.777956976320638 0 0 0 0 66.869883404924622 36.916502159430451 0 36.916502159430451 -28.533768425452763 0 0 0 0 44.543815192897455 35.24917568181877 0 35.24917568181877 -16.675868087369736 0 0 0 0 45.117933029658161 42.27651799018804 0 42.27651799018804 -8.5027396622000992 0 0 0 0 52.649729535216693 42.486281459963095 0 42.486281459963095 -14.978364791163131 0 0 0 0 50.9962602539415 71.614893783192571 0 71.614893783192571 12.572502166404774 0 0 0 0 52.992931166239941 31.145429712338569 0 31.145429712338569 -29.38494431559343 0 0 0 0 37.435802341882663 35.995289471713477 0 35.995289471713477 1.4697900594787825 0 0 0 0 20.820348714514694 8.5633666186392929 0 8.5633666186392929 -26.889743409700912 0 0 0 0 -2.3368389778697747 0.77570290771814143 0 0.77570290771814143 -40.480736336252676 0 0 0 0 34.726153929725115 15.430920166216652 0 15.430920166216652 -35.477673268843091 0 0 0 0 43.360881558517576 11.893747327957954 0 11.893747327957954 -35.940979498111801 0 0 0 0 46.443904649362139 21.135456898325153 0 21.135456898325153 -25.342296663442539 0 0 0 0 22.153229624389496 -10.384495586362846 0 -10.384495586362846 -38.182209250286434 0 0 0 0 48.043858300261491 -2.1560612924988618 0 -2.1560612924988618 -39.387978627286884 0 0 0 0 35.626641504428335 -10.073173623858082 0 -10.073173623858082 -50.456455826050842 0 0 0 0 5.5132862359459978 -28.987819646843718 0 -28.987819646843718 -57.991287640410519 0 0 0 0 28.88343808371792 19.307507610739776 0 19.307507610739776 -57.787498929635149 0 0 0 0 2.487078873664359 -19.496700828576948 0 -19.496700828576948 24.963614102892734 0 0 0 0 4.3923054951483209 17.272313602992654 0 17.272313602992654 -2.7939460512341157 0 0 0 0 28.23976703003791 -15.25659445697346 0 -15.25659445697346 -1.8042403936599953 0 0 0 0 26.57008141346023 -20.552988205968859 0 -20.552988205968859 25.505759415240163 0 0 0 0 90.514982516626333 -31.477498099224249 0 -31.477498099224249 11.527670317298089 0 0 0 0 92.024458441224851 -24.836976687556529 0 -24.836976687556529 -12.619334710215412 0 0 0 0 90.839306461351953 -21.473230710720372 0 -21.473230710720372 22.580683576956574 0 0 0 0 90.024746088165557 -42.971100098791567 0 -42.971100098791567 4.6731584097356063 0 0 0 0 184.5769715290844 -15.780691516697289 0 -15.780691516697289 -9.4279931970572761 0 0 0 0 201.16444755645352 -67.952549013771772 0 -67.952549013771772 -20.479932316527538 0 0 0 0 39.040494746572222 -13.353951289582938 0 -13.353951289582938 -81.646832055114942 0 0 0 0 12.752836402306023 -2.5275155656012838 0 -2.5275155656012838 0.52244451685863824 0 0 0 0 150.74144627302303 -72.380988519694711 0 -72.380988519694711 -15.332788124080253 0 0 0 0 82.253667530945677 -52.263538743142817 0 -52.263538743142817 22.403916389072606 0 0 0 0 159.88586914057851 -58.965812987619302 0 -58.965812987619302 2.2193549774870007 0 0 0 0 -6.5549940752230214 -27.052839466563384 0 -27.052839466563384 -21.378281897545548 0 0 0 0 -65.752969631677843 -154.128735487207 0 -154.128735487207 230.95201356359007 0 0 0 0 4.2927184818361894 -0.54011461362162017 0 -0.54011461362162017 0.24459625937612239 0 0 0 0 -18.853261298724192 46.449851581021335 0 46.449851581021335 70.064329064178764 0 0 0 0 135.46310714903666 126.93430718243644 0 126.93430718243644 109.42967314331713 0 0 0 0 317.92786802589762 107.25148461508684 0 107.25148461508684 20.272180106803035 0 0 0 0 -177.98578722507227 194.24220053547742 0 194.24220053547742 -134.13362820811199 0 0 0 0 -0.38474056085009423 -0.071195035536948836 0 -0.071195035536948836 -2.2280939230679033 0 0 0 0 297.97336318939597 26.72621648777843 0 26.72621648777843 -40.543458738533076 0 0 0 0 -28.135017873937613 -375.91852398699484 0 -375.91852398699484 138.2896243072704 0 0 0 0 -299.2761415760142 -204.73089956946012 0 -204.73089956946012 144.5043647845846 0 0 0 0 -10.35720566786631 -119.82729879728433 0 -119.82729879728433 42.565588060977461 0 0 0 0 439.99901285990563 -249.50186351619459 0 -249.50186351619459 17.855809570783322 0 0 0 0 32.644393791411858 -153.85393479596723 0 -153.85393479596723 14.176575065926954 0 0 0 0 158.41326143383048 69.557384998992688 0 69.557384998992688 -22.856574419941808 0 0 0 0 190.66872205869367 27.405481993642525 0 27.405481993642525 -70.462741006291253 0 0 0 0 398.29111023373116 201.4217232962767 0 201.4217232962767 102.27910031826309 0 0 0 0 132.65162090163358 52.751913754201382 0 52.751913754201382 31.327876628592549 0 0 0 0 99.168371232859499 53.545376782864309 0 53.545376782864309 342.81710917189912 0 0 0 0 366.19036486969708 -123.19024062280118 0 -123.19024062280118 125.34971236296337 0 0 0 0 164.84007352611343 17.538571844952163 0 17.538571844952163 29.675638170507909 0 0 0 0 128.36235271899568 21.012196352557481 0 21.012196352557481 -21.267500896687977 0 0 0 0 213.76295927242245 -21.903863260257936 0 -21.903863260257936 -0.75048259453524224 0 0 0 0 198.91098901397777 92.791160626232212 0 92.791160626232212 -15.276512647107211 0 0 0 0 137.67423580607283 74.234771353401356 0 74.234771353401356 17.662384731733766 0 0 0 0 126.42170094054018 105.19918336868557 0 105.19918336868557 22.029792828382995 0 0 0 0 116.72248571780074 90.90036178474503 0 90.90036178474503 -10.411988429468721 0 0 0 0 131.55020272918409 63.750751972690722 0 63.750751972690722 -24.788354190226187 0 0 0 0 143.4125703093996 69.852379711905343 0 69.852379711905343 -30.050946919253438 0 0 0 0 105.66768733850404 63.819763051237409 0 63.819763051237409 -27.124609560573646 0 0 0 0 112.7765237067506 60.645948361157352 0 60.645948361157352 -31.300505423363013 0 0 0 0 115.63432371999079 65.577675887322656 0 65.577675887322656 -26.862677534550073 0 0 0 0 105.73840046245459 54.578028329052074 0 54.578028329052074 -26.973055218165243 0 0 0 0 74.248033656605912 12.60113568574593 0 12.60113568574593 -26.478829956777162 0 0 0 0 144.63283892232337 8.7346649271959205 0 8.7346649271959205 -33.979606004960203 0 0 0 0 84.306294739532859 -10.306216640335599 0 -10.306216640335599 -31.267745316203381 0 0 0 0 2.4279302183058462 -8.3256588785812369 0 -8.3256588785812369 -10.559422385113123 0 0 0 0 37.271941817978586 12.459027520011659 0 12.459027520011659 -19.132551944619991 0 0 0 0 12.256772548696272 -7.3537148517541873 0 -7.3537148517541873 -7.5033852957188243 0 0 0 0 46.320427167429443 8.4634327065589332 0 8.4634327065589332 -17.721197335875559 0 0 0 0 -88.225391889380262 -13.737575594931855 0 -13.737575594931855 -7.3899107162496875 0 0 0 0 -17.876032631205817 -46.570852031357163 0 -46.570852031357163 4.2200597944001856 0 0 0 0 2.5610806143471621 -2.5718563759967594 0 -2.5718563759967594 -1.9414766431918227 0 0 0 0 40.760250219911541 -46.496271493718268 0 -46.496271493718268 -48.005457186700141 0 0 0 0 120.87047182764331 -49.027582717456234 0 -49.027582717456234 -15.537401821564572 0 0 0 0 53.545042765115795 -7.4430760764361139 0 -7.4430760764361139 21.460076166367799 0 0 0 0 28.600181627574784 32.30292332591398 0 32.30292332591398 135.59368739100864 0 0 0 0 159.15108451367576 -64.277477185811506 0 -64.277477185811506 50.711002580579134 0 0 0 0 28.000978483323706 23.969187027292946 0 23.969187027292946 47.497715190767849 0 0 0 0 -21.442445582644723 42.021321057240925 0 42.021321057240925 46.41177381267471 0 0 0 0 99.006594433194664 44.353816618105171 0 44.353816618105171 91.823407779801528 0 0 0 0 66.242527964266628 106.77688115825822 0 106.77688115825822 139.33024605651849 0 0 0 0 37.874612862449794 50.221165782059927 0 50.221165782059927 26.658750820063688 0 0 0 0 18.500513444234457 68.853560071603397 0 68.853560071603397 88.778425950974906 0 0 0 0 50.957162952588988 76.33902265246752 0 76.33902265246752 37.446714951834451 0 0 0 0 -0.35443124433254525 19.381427309307782 0 19.381427309307782 13.089001103462351 0 0 0 0 14.41291827258101 41.43990511503921 0 41.43990511503921 7.207553924807371 0 0 0 0 22.007699188863626 65.27800862027425 0 65.27800862027425 32.327322400272806 0 0 0 0 -3.4182559167493309 36.131143892643536 0 36.131143892643536 40.02499174322196 0 0 0 0 -19.695313812950189 -5.4861177163361958 0 -5.4861177163361958 33.307365319509699 0 0 0 0 -38.393556987753982 -42.828808403016865 0 -42.828808403016865 -25.059902222647906 0 0 0 0 -12.402550565635465 8.5886613032176911 0 8.5886613032176911 69.562946105346782 0 0 0 0 -51.649732919264352 23.575012278490817 0 23.575012278490817 71.255162378391105 0 0 0 0 20.489783612589235 7.6086189171475667 0 7.6086189171475667 2.778655132329277 0 0 0 0 19.864633431785478 3.4914568364230831 0 3.4914568364230831 6.5932279894691419 0 0 0 0 2.0743890535106075 0.0029046410883886153 0 0.0029046410883886153 0.33415924521569762 0 0 0 0 18.420916854225652 23.828712732329564 0 23.828712732329564 0.07312094990334117 0 0 0 0 16.551617191878904 26.666985615245721 0 26.666985615245721 16.225953618077483 0 0 0 0 41.391533847283426 4.479552244925344 0 4.479552244925344 4.0716833405767829 0 0 0 0 1497.5533203628311 -32.796822824554908 0 -32.796822824554908 -109.1207759861357 0 0 0 0 5.1906871656900648 0.69090301519925035 0 0.69090301519925035 0.84356162640427979 0 0 0 0 1453.84709408657 -20.95057634739041 0 -20.95057634739041 -102.17447899097381 0 0 0 0 1500.7954373307948 -108.36410449532751 0 -108.36410449532751 -4.794256464961439 0 0 0 0 1.8029171052283974 5.1769630850579702 0 5.1769630850579702 4.003285417389562 0 0 0 0 35.3182307087136 10.081423940562672 0 10.081423940562672 1.6848851414559078 0 0 0 0 1367.41099242977 -123.38388073943294 0 -123.38388073943294 -1.1396448832131103 0 0 0 0 4.4436162979124978 2.9711334085913883 0 2.9711334085913883 2.8369142935245568 0 0 0 0 1498.6384814961075 -388.35881729626573 0 -388.35881729626573 44.915382287015845 0 0 0 0 23.681218994082883 7.4961694093144047 0 7.4961694093144047 -1.7636852329677595 0 0 0 0 16.023556187381473 7.8107684052397417 0 7.8107684052397417 6.1134323475053591 0 0 0 0 31.331298864344717 6.9939451781381194 0 6.9939451781381194 4.3079695239721332 0 0 0 0 16.753308877854579 12.52561573164968 0 12.52561573164968 -0.82403631788378107 0 0 0 0 19.083021899468108 6.9283246788252875 0 6.9283246788252875 1.8388365026177034 0 0 0 0 17.345723305148567 24.960095862637445 0 24.960095862637445 -18.683630486726543 0 0 0 0 33.094853125614463 25.896155661605235 0 25.896155661605235 -18.785418107128862 0 0 0 0 -21.288255708092038 36.209409120787541 0 36.209409120787541 0.22290340372728679 0 0 0 0 1422.3973378884784 186.91458668655653 0 186.91458668655653 31.115055796433737 0 0 0 0 -3.3146717283782934 2.6228149772832303 0 2.6228149772832303 6.2655426860771026 0 0 0 0 14.490611624550155 8.7046378398988633 0 8.7046378398988633 5.1366737941216911 0 0 0 0 10.097781674341604 4.8317843501744164 0 4.8317843501744164 21.414670609729455 0 0 0 0 1499.1999172119376 257.17669399082661 0 257.17669399082661 55.167680828474708 0 0 0 0 3.4258747352780361 -2.1580477891147236 0 -2.1580477891147236 2.9295160893714862 0 0 0 0 42.774086247048444 -8.035121705162112 0 -8.035121705162112 -5.2407155692139895 0 0 0 0 45.127021498348654 -11.869184336440924 0 -11.869184336440924 -5.5452483040651259 0 0 0 0 47.88820697269 4.3202536587538134 0 4.3202536587538134 1.0406259352819234 0 0 0 0 32.761812465836783 -9.8972702940267823 0 -9.8972702940267823 -3.2311202748549022 0 0 0 0 11.435044747769211 -8.9864319128739929 0 -8.9864319128739929 -0.35812587325597356 0 0 0 0 4.7148520830571927 1.5849810026296502 0 1.5849810026296502 5.1280783446013238 0 0 0 0 32.95618684303372 0.24591800991106538 0 0.24591800991106538 4.2422282413751873 0 0 0 0 1497.6073966606473 -423.14247757818134 0 -423.14247757818134 -155.22378966231989 0 0 0 0 732.88118161508555 146.3146255288051 0 146.3146255288051 39.168893918565459 0 0 0 0 6.8543324120965643 0.17105081663546073 0 0.17105081663546073 2.7351253703022889 0 0 0 0 6.8922794728994408 1.211507845951326 0 1.211507845951326 3.4685872044937813 0 0 0 0 1495.9786151151318 7.1975854275470708 0 7.1975854275470708 6.3127550012056899 0 0 0 0 42.065403624495048 -16.625354694724592 0 -16.625354694724592 74.004331775316757 0 0 0 0 27.01080472972717 0.86706685199351341 0 0.86706685199351341 4.9484352603602133 0 0 0 0 4.1749350624696149 7.3684721658605596 0 7.3684721658605596 4.8507009522322928 0 0 0 0 -0.53636550837931196 2.5995569024374734 0 2.5995569024374734 4.3015286129712313 0 0 0 0 1070.9979110551158 439.19405429689323 0 439.19405429689323 183.57783677423035 0 0 0 0 29.483569261319644 17.804956747042752 0 17.804956747042752 -4.7596044494716807 0 0 0 0 25.500838161424831 2.3621812518525296 0 2.3621812518525296 1.4812782305349437 0 0 0 0 28.365980783768464 24.998698803949992 0 24.998698803949992 -7.1990260917773412 0 0 0 0 24.500818126596641 31.466901115622818 0 31.466901115622818 -16.947863568459979 0 0 0 0 39.361226428751252 15.193580041873474 0 15.193580041873474 -14.233951149374207 0 0 0 0 25.409341548196153 -0.86479708513002151 0 -0.86479708513002151 3.4901352521976605 0 0 0 0 57.037014883443135 5.4406137481537371 0 5.4406137481537371 -1.4026183266158796 0 0 0 0 20.725954810116818 -6.4526676821139244 0 -6.4526676821139244 -0.19636728259087199 0 0 0 0 52.231344370442002 2.9380797874667905 0 2.9380797874667905 1.7025849180006389 0 0 0 0 9.4809596551203867 54.665916272798825 0 54.665916272798825 -55.723311052041026 0 0 0 0 8.7491344277789764 -2.4327617626126425 0 -2.4327617626126425 -5.9299916680284559 0 0 0 0 30.986172663448087 108.44802679926852 0 108.44802679926852 -78.636403270716983 0 0 0 0 50.527047255563957 53.041096500643562 0 53.041096500643562 -73.978133860797243 0 0 0 0 55.641430578272093 -2.8769910983567115 0 -2.8769910983567115 11.364593082077135 0 0 0 0 49.436540041956697 7.048745081031031 0 7.048745081031031 -3.7470087838887807 0 0 0 0 19.962506225681864 47.772151864659008 0 47.772151864659008 -34.202403782530951 0 0 0 0 11.650722339212365 0.51202818712463127 0 0.51202818712463127 -4.611412945371729 0 0 0 0 68.181731480639428 18.597014032493007 0 18.597014032493007 -38.970793803740889 0 0 0 0 45.778377961523802 23.850142991382313 0 23.850142991382313 -76.083697279456828 0 0 0 0 28.399026851817325 33.11992126130508 0 33.11992126130508 -26.589992785905451 0 0 0 0 29.645605563455319 38.048390806624411 0 38.048390806624411 -42.765062707207562 0 0 0 0 33.921063465815678 38.57014807909809 0 38.57014807909809 -77.309598104609563 0 0 0 0 35.396250724821584 49.527315505421711 0 49.527315505421711 -37.185824077701341 0 0 0 0 21.579448908189079 47.507632569319412 0 47.507632569319412 -2.1445279747981658 0 0 0 0 12.24582112859207 46.797647908752651 0 46.797647908752651 -2.1159552466269815 0 0 0 0 25.544909214419022 35.493731674764376 0 35.493731674764376 -3.3000609999271546 0 0 0 0 22.449424522688787 44.988040231893137 0 44.988040231893137 -23.222122522882387 0 0 0 0 102.19079165265612 58.864136204499459 0 58.864136204499459 -46.05483997226338 0 0 0 0 43.798128650772924 57.38192350314705 0 57.38192350314705 -12.711452403253588 0 0 0 0 33.807555390552807 49.533813242913652 0 49.533813242913652 -15.543889672678688 0 0 0 0 65.9524183986141 56.164825684455082 0 56.164825684455082 -59.116069539486489 0 0 0 0 61.23243852187079 32.328127354081744 0 32.328127354081744 -60.186018157240596 0 0 0 0 25.796743222555531 6.0473998418549009 0 6.0473998418549009 -1.8778439611573479 0 0 0 0 45.791676879400256 45.62057706162841 0 45.62057706162841 -71.155299433688924 0 0 0 0 59.42003264975574 45.279589494938364 0 45.279589494938364 -93.431754812998292 0 0 0 0 21.647456373902969 7.449813578214787 0 7.449813578214787 -11.002491837578305 0 0 0 0 22.169188546867794 7.5758447330388119 0 7.5758447330388119 1.5832514148110024 0 0 0 0 39.222579056688119 29.996332632414124 0 29.996332632414124 -76.190444767284589 0 0 0 0 52.251596980891804 2.847024362763193 0 2.847024362763193 -10.455828504329816 0 0 0 0 47.37182169181267 -2.4217219870341751 0 -2.4217219870341751 -9.5155561934256383 0 0 0 0 53.02293725958134 -1.2009956716212287 0 -1.2009956716212287 -11.869759415590579 0 0 0 0 58.697849875720067 -4.630120488730654 0 -4.630120488730654 -9.8031144141854156 0 0 0 0 55.813562433836296 2.6069598490863655 0 2.6069598490863655 -11.886018223797237 0 0 0 0 78.793392395996534 0.91160819809977056 0 0.91160819809977056 -12.055823103442634 0 0 0 0 33.480773432491105 9.0422086020614074 0 9.0422086020614074 3.8800690060170027 0 0 0 0 22.969053904407247 16.1345654136897 0 16.1345654136897 3.4567483392763734 0 0 0 0 25.339657303021781 22.64783987306366 0 22.64783987306366 -2.0271232145059912 0 0 0 0 32.187588661777454 16.56251742183133 0 16.56251742183133 -2.391441320296007 0 0 0 0 5.6348756862759375 0.5908181140254678 0 0.5908181140254678 0.37769269907373149 0 0 0 0 4.4003124263601876 -6.016578126078457 0 -6.016578126078457 -19.891913684478162 0 0 0 0 -18.428258218925748 -65.168386912216079 0 -65.168386912216079 -6.0045790990093337 0 0 0 0 8.9203567422287318 -0.65643466275142759 0 -0.65643466275142759 -0.18313846373115972 0 0 0 0 -1.7549531623137682 -33.836525855425862 0 -33.836525855425862 -28.271660621531396 0 0 0 0 39.396013764661703 -12.424348919601687 0 -12.424348919601687 -4.2083965568321373 0 0 0 0 138.93641766607834 -35.345981352005879 0 -35.345981352005879 -225.85559304610388 0 0 0 0 37.827759828121998 6.3563976278710754 0 6.3563976278710754 -4.4946797186299818 0 0 0 0 51.746676256392675 -14.623262165446135 0 -14.623262165446135 -56.651113030083252 0 0 0 0 11.89475593916834 9.0484354066551624 0 9.0484354066551624 -1.968887653529003 0 0 0 0 2.8266910294454064 2.8796215982073514 0 2.8796215982073514 -0.91434881922460121 0 0 0 0 -65.905708800775756 177.92133538492749 0 177.92133538492749 444.16252688870941 0 0 0 0 65.794275667631155 41.832338708053271 0 41.832338708053271 139.01552339948239 0 0 0 0 247.12930351977775 141.40536383404719 0 141.40536383404719 -338.9999225355964 0 0 0 0 21.336102180212897 8.0141923220991593 0 8.0141923220991593 -1.6439660077135905 0 0 0 0 33.206875676984964 11.05036258032186 0 11.05036258032186 -9.2620440993664488 0 0 0 0 34.365136325301137 3.3668190313653099 0 3.3668190313653099 -1.1711864561724497 0 0 0 0 21.271415648208858 7.354684589687281 0 7.354684589687281 2.3645683304224008 0 0 0 0 49.83203914862122 -8.9892246039134704 0 -8.9892246039134704 -93.415842317909664 0 0 0 0 25.672825157138071 6.395222061944871 0 6.395222061944871 -1.6968224392736622 0 0 0 0 20.527664778135659 -12.111968475143954 0 -12.111968475143954 -53.579519341995081 0 0 0 0 64.435538093533978 -43.742237493049345 0 -43.742237493049345 -98.687930720737313 0 0 0 0 107.77325532509894 27.290135219942954 0 27.290135219942954 -72.145489754003847 0 0 0 0 84.200799243451911 34.473253928260874 0 34.473253928260874 -38.514216746096622 0 0 0 0 -130.18591996009491 22.496939669804874 0 22.496939669804874 -32.290154385093047 0 0 0 0 38.349377744798403 -7.2400525750545057 0 -7.2400525750545057 -122.63383876123862 0 0 0 0 3.9418192887524111 0.50921175871797431 0 0.50921175871797431 -6.7701269774452131 0 0 0 0 174.0016416736762 -19.221546991910955 0 -19.221546991910955 -41.039670657026591 0 0 0 0 -7.6512457948156225 -43.35332161378426 0 -43.35332161378426 -74.232154024700321 0 0 0 0 129.34772840352525 -79.914367880279883 0 -79.914367880279883 86.110740548370813 0 0 0 0 27.263526094757253 -150.26948697775015 0 -150.26948697775015 0.37861687281719014 0 0 0 0 160.75533970734978 -51.062436817921139 0 -51.062436817921139 -47.328331083339492 0 0 0 0 5.9723151015290838 -8.2094220387313541 0 -8.2094220387313541 -3.3702280806710254 0 0 0 0 112.05349975948593 1.2145857506858135 0 1.2145857506858135 -87.052434426374475 0 0 0 0 34.645189024144493 -15.86292805236504 0 -15.86292805236504 -1.9629550695903062 0 0 0 0 92.500365365278412 5.2830007033077493 0 5.2830007033077493 -14.999632534607031 0 0 0 0 83.255460268250317 2.0434114712023757 0 2.0434114712023757 -85.589090528301085 0 0 0 0 162.783493615927 -47.924726076245562 0 -47.924726076245562 -112.86127208359278 0 0 0 0 95.533739424339728 8.1009446676590073 0 8.1009446676590073 58.814022907398055 0 0 0 0 96.470004238708498 -41.885641680847613 0 -41.885641680847613 6.6143079232234641 0 0 0 0 153.14737048314419 62.295887957888226 0 62.295887957888226 46.181232352752545 0 0 0 0 164.85319044342396 14.400737115821471 0 14.400737115821471 -7.1064146324347348 0 0 0 0 28.218274957915128 -25.22284537693713 0 -25.22284537693713 1.0106890586092163 0 0 0 0 30.711527763750755 -10.12530464375099 0 -10.12530464375099 -4.7427750470167211 0 0 0 0 32.269931121574245 -38.092604288546283 0 -38.092604288546283 -34.266154770647745 0 0 0 0 25.738824425682992 4.9274501829186477 0 4.9274501829186477 -64.732573250987571 0 0 0 0 122.66167572485435 -14.306672617761564 0 -14.306672617761564 -64.300414113362422 0 0 0 0 108.92317846602623 -103.10958875812616 0 -103.10958875812616 7.4535929138669417 0 0 0 0 57.101311976960517 -59.364468304460019 0 -59.364468304460019 -68.002321414578546 0 0 0 0 -169.8913323011875 -111.71092536692072 0 -111.71092536692072 877.01990604731054 0 0 0 0 209.3780841609987 842.05444706584672 0 842.05444706584672 -133.53594745972168 0 0 0 0 -30.461929964956767 -54.628833976714475 0 -54.628833976714475 31.616352712139133 0 0 0 0 41.370330000446302 -32.218039101327577 0 -32.218039101327577 -62.268854037093803 0 0 0 0 13.105812557571653 8.2152229985110523 0 8.2152229985110523 2.5827354062610155 0 0 0 0 14.501922664479594 19.30997393627591 0 19.30997393627591 50.992933240890672 0 0 0 0 -3.323911870776783 -49.595492969714883 0 -49.595492969714883 92.484263783647862 0 0 0 0 -16.395623042396892 -45.900070171736161 0 -45.900070171736161 12.995979078488404 0 0 0 0 -0.15185109549747722 -38.273997107592777 0 -38.273997107592777 14.850078722881335 0 0 0 0 105.7816854625836 -63.50472793250799 0 -63.50472793250799 17.1306691437008 0 0 0 0 76.522265694412511 -78.796885476406203 0 -78.796885476406203 -110.79551568234325 0 0 0 0 137.72092677386968 102.78092416307422 0 102.78092416307422 -192.13727006465587 0 0 0 0 21.765755206179847 -38.284985070025641 0 -38.284985070025641 11.369021925758119 0 0 0 0 2.2466313079896736 -14.178671926233427 0 -14.178671926233427 19.271406602626715 0 0 0 0 6.3780305726504407 2.9078363866029284 0 2.9078363866029284 -0.83023158274123454 0 0 0 0 -128.69440707022454 65.37086478905033 0 65.37086478905033 53.104818888936791 0 0 0 0 114.16472289021817 -115.95605129084419 0 -115.95605129084419 -105.43559573385403 0 0 0 0 -65.918642421534514 -95.959109036524524 0 -95.959109036524524 -6.0454582713759919 0 0 0 0 -81.183375056334171 -60.739701251449446 0 -60.739701251449446 -8.7282878115209073 0 0 0 0 165.22572667607915 165.37460465570103 0 165.37460465570103 131.2580007016752 0 0 0 0 302.97762232166315 71.189632234637031 0 71.189632234637031 -29.734191481667551 0 0 0 0 243.85293328600073 81.030425916897059 0 81.030425916897059 -29.399272854396827 0 0 0 0 151.85171866699375 -20.91671633879406 0 -20.91671633879406 -81.977497518022062 0 0 0 0 76.444602455047061 77.8723020783018 0 77.8723020783018 99.071371237035521 0 0 0 0 2.1561836449013607 -0.881424193417641 0 -0.881424193417641 0.35680097486565876 0 0 0 0 -10.122879612214092 -114.84953827042557 0 -114.84953827042557 -125.12598522640639 0 0 0 0 -17.599588462667839 -48.351985699748639 0 -48.351985699748639 -141.64251913899602 0 0 0 0 -36.043629383606856 -48.448153213825805 0 -48.448153213825805 -95.60804036052474 0 0 0 0 -30.131732304420041 -70.433233849417576 0 -70.433233849417576 -75.045608420967667 0 0 0 0 -6.5930147897524307 -61.387143582155261 0 -61.387143582155261 -204.10179773425318 0 0 0 0 -25.789161213725265 -80.960267918904435 0 -80.960267918904435 -143.82139651771598 0 0 0 0 -4.7552392924816331 -86.753935543689295 0 -86.753935543689295 -212.56724916968994 0 0 0 0 31.217906609638703 24.383831356279671 0 24.383831356279671 8.7542052953129996 0 0 0 0 7.7184928131979706 -0.91840606590862517 0 -0.91840606590862517 -0.58454253523175381 0 0 0 0 33.618244352784359 2.2180822580438075 0 2.2180822580438075 -17.395858483311144 0 0 0 0 46.030183874199338 19.019593559216958 0 19.019593559216958 -14.130157822675983 0 0 0 0 2.7018816799474967 -0.54608865863057066 0 -0.54608865863057066 -0.064250439708114726 0 0 0 0 27.01232527146442 11.803125749514223 0 11.803125749514223 7.1429385836132724 0 0 0 0 11.285460686335909 -63.521399037871333 0 -63.521399037871333 -286.06799624800396 0 0 0 0 -78.702210964465593 -116.79598801953966 0 -116.79598801953966 -163.80136377821285 0 0 0 0 -78.981010336997826 -39.885172439312527 0 -39.885172439312527 -151.34903635111993 0 0 0 0 -102.83067541838869 -80.29702355961706 0 -80.29702355961706 -156.03856309488094 0 0 0 0 -107.46327085142612 -168.88729544316595 0 -168.88729544316595 -248.55103381244749 0 0 0 0 -36.700071816480943 -36.941076243349727 0 -36.941076243349727 -158.29117811577453 0 0 0 0 -21.901959767579257 -76.390339292347392 0 -76.390339292347392 -159.91254040473916 0 0 0 0 -26.01737842871637 -61.804651499703681 0 -61.804651499703681 -107.97388702510864 0 0 0 0 -43.705515756678352 -108.08398626438333 0 -108.08398626438333 -164.13496570333413 0 0 0 0 -11.754654074853647 -56.615758171823956 0 -56.615758171823956 -112.99923051949743 0 0 0 0 -45.074560704610491 -35.441052332620266 0 -35.441052332620266 -40.617297314965782 0 0 0 0 -22.295976714006997 -12.725558842159103 0 -12.725558842159103 -53.519348276791362 0 0 0 0 -0.70957766524887234 -6.6353513134667423 0 -6.6353513134667423 -17.192033698935461 0 0 0 0 -3.0533915899279265 -3.8989912000637759 0 -3.8989912000637759 -19.911269864802136 0 0 0 0 -16.309616866792339 -38.83091172225798 0 -38.83091172225798 -43.037102070610501 0 0 0 0 -16.354959452064492 -36.248958935798726 0 -36.248958935798726 -35.086244923802155 0 0 0 0 11.940426234914923 -43.762706751180218 0 -43.762706751180218 -40.810788449809138 0 0 0 0 18.052719777432799 -42.456844644988792 0 -42.456844644988792 -65.480783112082435 0 0 0 0 24.099107489997948 -47.26228287379422 0 -47.26228287379422 -40.133823933410667 0 0 0 0 26.779638804295189 0.33245610553149163 0 0.33245610553149163 -17.901149673082728 0 0 0 0 7.716406319895154 -2.3418691170476613 0 -2.3418691170476613 -3.9888547701622756 0 0 0 0 5.6439813124106877 6.2223331454865161 0 6.2223331454865161 4.1096651984869368 0 0 0 0 30.693553443020242 -9.9613454592070383 0 -9.9613454592070383 9.1594443251200346 0 0 0 0 42.679332887565181 -12.963258298737401 0 -12.963258298737401 -30.134358009430173 0 0 0 0 48.960885639702497 24.431823779766887 0 24.431823779766887 14.638560789299163 0 0 0 0 107.93416375725758 52.76996111288085 0 52.76996111288085 22.597067252084322 0 0 0 0 67.574784258455338 -8.5534190198044371 0 -8.5534190198044371 -10.935791962783554 0 0 0 0 113.91659113449032 -4.2226465824600155 0 -4.2226465824600155 -6.7940924948713644 0 0 0 0 62.959905706226323 -3.7513984233055169 0 -3.7513984233055169 3.9850392602966167 0 0 0 0 68.34709679753712 -5.1961592800361416 0 -5.1961592800361416 40.569547981140005 0 0 0 0 109.82044418341178 38.609445257453515 0 38.609445257453515 1.6063208316675741 0 0 0 0 15.415836650343863 -39.394005125610121 0 -39.394005125610121 1.0641870599254553 0 0 0 0 -0.5538535020151456 -0.70390405055086758 0 -0.70390405055086758 1.2184976347319574 0 0 0 0 -3.3162576264593895 3.1381921698615827 0 3.1381921698615827 6.8570555291580035 0 0 0 0 6.6516621465765979 -17.005791070617708 0 -17.005791070617708 -56.077647821473349 0 0 0 0 119.36774327923274 4.7070911269537898 0 4.7070911269537898 -46.638348165571159 0 0 0 0 18.75214212234232 -46.82439638696917 0 -46.82439638696917 -49.74317696556772 0 0 0 0 6.1979371137129533 -19.438327243657284 0 -19.438327243657284 -99.903609584608034 0 0 0 0 -28.552310232591026 -70.601158520991987 0 -70.601158520991987 -90.085759530629304 0 0 0 0 5.4585940776819371 -115.07664772697916 0 -115.07664772697916 -232.32655104431842 0 0 0 0 18.718261232985132 -6.9894938094311518 0 -6.9894938094311518 1.4977186969599117 0 0 0 0 0.95968442951902944 -144.76001578888693 0 -144.76001578888693 -160.73559889419664 0 0 0 0 -13.597702908946985 -84.389885822022819 0 -84.389885822022819 -46.491879124075922 0 0 0 0 144.41636059319359 29.111434380949326 0 29.111434380949326 -115.48635498525323 0 0 0 0 145.75554282053429 16.330154262178439 0 16.330154262178439 -42.28989246356511 0 0 0 0 92.012386146925337 37.33517785993832 0 37.33517785993832 -26.357975593463198 0 0 0 0 109.11183040881087 -71.282102969809017 0 -71.282102969809017 43.983251668674086 0 0 0 0 534.32446479799535 -184.28922348011773 0 -184.28922348011773 -66.479653933547468 0 0 0 0 810.97705831996871 207.83751042686694 0 207.83751042686694 -161.82586937443196 0 0 0 0 1500.9230423379158 -197.37993603773381 0 -197.37993603773381 -142.2766673759804 0 0 0 0 1202.5105519777437 -276.8174454815566 0 -276.8174454815566 -153.25817696877002 0 0 0 0 1497.5339759272219 -456.03078942319547 0 -456.03078942319547 -185.98376261065752 0 0 0 0 0.17300491454512745 -1.2493625256898411 0 -1.2493625256898411 1.0606057057610894 0 0 0 0 -20.103396391002775 -12.112218278008555 0 -12.112218278008555 34.950270269575924 0 0 0 0 68.512640400411215 -3.1891158754045215 0 -3.1891158754045215 -13.465321215420772 0 0 0 0 37.763280016064527 -30.958841157772355 0 -30.958841157772355 0.75261014694905271 0 0 0 0 8.5893871673613376 -11.938523494328848 0 -11.938523494328848 7.2977802641960636 0 0 0 0 126.42667213876871 -223.54730978262904 0 -223.54730978262904 414.08318739648092 0 0 0 0 3.629646784020899 -3.1627533424317158 0 -3.1627533424317158 -0.039230508074901582 0 0 0 0 186.86173422999127 288.05931953733489 0 288.05931953733489 391.39396653141404 0 0 0 0 259.61274967374447 106.49775697620157 0 106.49775697620157 78.044981763102442 0 0 0 0 424.07041913484591 54.035986124195119 0 54.035986124195119 36.315316016436299 0 0 0 0 351.28987323690217 272.83090305458268 0 272.83090305458268 316.58010434963228 0 0 0 0 244.34255494996842 -79.361757143670275 0 -79.361757143670275 47.692523831783774 0 0 0 0 149.25944028435606 -17.592700021985365 0 -17.592700021985365 72.689146653396051 0 0 0 0 509.62238256953788 221.98169333468047 0 221.98169333468047 27.081818881844583 0 0 0 0 465.96870422100346 271.17732162490898 0 271.17732162490898 75.332132504830298 0 0 0 0 473.05058962447856 236.71413764736528 0 236.71413764736528 87.463710862608551 0 0 0 0 470.09295788218424 241.58639104486298 0 241.58639104486298 239.17349915074527 0 0 0 0 372.76300602117681 268.03951364857818 0 268.03951364857818 312.91029988810084 0 0 0 0 426.62023608911795 436.49329766612414 0 436.49329766612414 371.6695095090098 0 0 0 0 1.0919793954724355 -0.59782641431165473 0 -0.59782641431165473 0.68608615492390834 0 0 0 0 -32.029625989919623 130.38196166795345 0 130.38196166795345 238.65536770465087 0 0 0 0 -101.6935097829828 8.1213176025607368 0 8.1213176025607368 24.673020265694301 0 0 0 0 40.546143871632012 105.35622626302498 0 105.35622626302498 -26.152002910064311 0 0 0 0 82.034355413965386 190.19900808533262 0 190.19900808533262 113.06735473449885 0 0 0 0 50.489973302695034 274.13386570331261 0 274.13386570331261 226.50507600523548 0 0 0 0 121.78989221369102 236.03150340988282 0 236.03150340988282 129.62842422073163 0 0 0 0 100.89408004210566 131.71276549713031 0 131.71276549713031 143.0408846409814 0 0 0 0 43.744410377081294 155.07928307068914 0 155.07928307068914 73.286268468340722 0 0 0 0 29.979855862980003 243.36185043513615 0 243.36185043513615 192.7398714486344 0 0 0 0 15.846055136938958 199.11623806883836 0 199.11623806883836 169.1481260434241 0 0 0 0 48.293779009152786 268.61639884354804 0 268.61639884354804 295.33853949435479 0 0 0 0 -17.337283295245925 75.538089231675201 0 75.538089231675201 173.29385068648162 0 0 0 0 54.8873082381524 180.6085786152762 0 180.6085786152762 106.8416086844345 0 0 0 0 27.603112230440274 23.695875888559158 0 23.695875888559158 -9.6741824856517269 0 0 0 0 82.190487647389091 175.53695524066347 0 175.53695524066347 -93.790394315029062 0 0 0 0 19.603990907099615 15.474683833335348 0 15.474683833335348 -91.200928460898467 0 0 0 0 149.18748689933636 14.834265529187178 0 14.834265529187178 -152.67637057477305 0 0 0 0 82.884586047673906 2.9771078226532381 0 2.9771078226532381 -24.226861925663343 0 0 0 0 43.688057452298381 197.76676499952032 0 197.76676499952032 69.740195697628678 0 0 0 0 189.27070610237206 121.18575400005307 0 121.18575400005307 83.752991257893655 0 0 0 0 147.67861127767014 -41.837572684994598 0 -41.837572684994598 -103.75448887617586 0 0 0 0 170.12083149555838 -41.360170230932908 0 -41.360170230932908 3.5698958370858236 0 0 0 0 223.62430290755492 -19.582228918847477 0 -19.582228918847477 -26.031309096651057 0 0 0 0 110.89960488665838 -13.204543618088792 0 -13.204543618088792 -16.735960294332926 0 0 0 0 62.001149646757767 -8.2813861077631827 0 -8.2813861077631827 -116.7660991507114 0 0 0 0 55.383183595670744 96.920080980998591 0 96.920080980998591 -184.97330476585648 0 0 0 0 86.082967388744692 -50.21163242732996 0 -50.21163242732996 -113.59037398041369 0 0 0 0 21.642244977005248 -109.46805910161879 0 -109.46805910161879 -138.99195386324573 0 0 0 0 49.462987839430411 37.268341408039987 0 37.268341408039987 -47.030791823121035 0 0 0 0 0.18018725163848215 -0.65839238799275002 0 -0.65839238799275002 -1.58922456958061 0 0 0 0 -90.33206782227262 -106.69544171448933 0 -106.69544171448933 -72.421538630430859 0 0 0 0 -66.910595438276459 -39.775107510248972 0 -39.775107510248972 56.370498144984595 0 0 0 0 -34.077314713874785 -109.47774347579957 0 -109.47774347579957 -37.956716508224872 0 0 0 0 38.832172421315136 -7.2754202871204825 0 -7.2754202871204825 -116.35406586089221 0 0 0 0 61.606725080760953 -72.769870320735436 0 -72.769870320735436 10.665145984590822 0 0 0 0 60.482796646918359 -32.201846177864581 0 -32.201846177864581 18.135651196680101 0 0 0 0 73.477633047082236 -14.304687977709818 0 -14.304687977709818 -3.093075387661429 0 0 0 0 25.392298183389421 -7.4510270520396631 0 -7.4510270520396631 -7.4062105610333768 0 0 0 0 33.77745955983255 -1.3503794090806878 0 -1.3503794090806878 -37.209199242281102 0 0 0 0 62.213154717968337 -21.975855529498176 0 -21.975855529498176 -33.591916472717571 0 0 0 0 60.955986976349323 -10.765373138745872 0 -10.765373138745872 -124.15500054428912 0 0 0 0 4.0818138296187954 -21.933409319642067 0 -21.933409319642067 145.77471213465128 0 0 0 0 56.005341251435311 -31.333219883050901 0 -31.333219883050901 -42.725748000113981 0 0 0 0 3.7517537118777362 -3.870420747817044 0 -3.870420747817044 -1.0877684372909542 0 0 0 0 22.622445654478724 -57.270918667228841 0 -57.270918667228841 18.290852664062868 0 0 0 0 -6.6773252732009496 10.713789942813548 0 10.713789942813548 -53.381041384695266 0 0 0 0 31.794391043145652 11.698447830277928 0 11.698447830277928 -58.96563052616807 0 0 0 0 -6.8632455979461611 16.111326553461311 0 16.111326553461311 -112.17614259159643 0 0 0 0 44.351869174393187 9.1391337846160354 0 9.1391337846160354 -118.10345956752269 0 0 0 0 71.622653970162446 -91.220277682893538 0 -91.220277682893538 -206.88583096998346 0 0 0 0 4.0743894745744953 0.31463867090039388 0 0.31463867090039388 -0.24322740033115534 0 0 0 0 -15.641015516199332 13.248586818937952 0 13.248586818937952 -107.88535626374113 0 0 0 0 -21.621068882911914 -108.14402142669854 0 -108.14402142669854 -21.972521242640795 0 0 0 0 45.896894668257119 20.608272721862534 0 20.608272721862534 -68.58410422853035 0 0 0 0 1.6002873965691951 0.2100242487541274 0 0.2100242487541274 -0.046342343933756774 0 0 0 0 9.0279282904273259 -70.834038865661967 0 -70.834038865661967 61.187241642274273 0 0 0 0 -53.315835999114142 -27.230739856925993 0 -27.230739856925993 30.935986394912959 0 0 0 0 -37.781179032894215 -28.829628118592154 0 -28.829628118592154 80.480359978939163 0 0 0 0 59.544352492368489 -80.239791800755938 0 -80.239791800755938 83.760220707549124 0 0 0 0 86.965745442862499 -74.155566707495836 0 -74.155566707495836 84.283083131289459 0 0 0 0 104.22826830966005 -31.514346627397799 0 -31.514346627397799 87.705753804281358 0 0 0 0 42.336120813528396 -70.823985048503118 0 -70.823985048503118 92.432172840392923 0 0 0 0 -8.1641980540889563 -67.317296661983846 0 -67.317296661983846 94.081533874026718 0 0 0 0 -36.395660385078372 3.6435771036701681 0 3.6435771036701681 -112.32873316740429 0 0 0 0 6.8485445464459644 -99.981701896863342 0 -99.981701896863342 97.935989024010269 0 0 0 0 30.619929658451838 -103.81753715234657 0 -103.81753715234657 95.903494256904196 0 0 0 0 -13.87749924139689 12.40539925585847 0 12.40539925585847 -112.92440207684604 0 0 0 0 -42.077114677083955 -107.67975691581569 0 -107.67975691581569 146.05880066337841 0 0 0 0 -0.92010769875921916 1.0152075700568157 0 1.0152075700568157 0.5815321714938797 0 0 0 0 53.486359314427318 -5.2791688611026188 0 -5.2791688611026188 42.548241686649561 0 0 0 0 -134.8185999220149 155.00308568896003 0 155.00308568896003 139.94282863491435 0 0 0 0 -157.85034121284389 -171.21967316553116 0 -171.21967316553116 -28.634356552225881 0 0 0 0 2.4776400533990959 0.86867244162878166 0 0.86867244162878166 0.043616413275421977 0 0 0 0 90.450744964772639 136.93468625396923 0 136.93468625396923 95.944208969188082 0 0 0 0 321.72602698937953 231.68013384071628 0 231.68013384071628 44.208158758109285 0 0 0 0 62.956226277447968 226.08753626158619 0 226.08753626158619 72.45107629422273 0 0 0 0 118.27951308877255 -74.120009483038075 0 -74.120009483038075 75.489418697809242 0 0 0 0 387.60426724769832 164.0943809398442 0 164.0943809398442 85.365046363484069 0 0 0 0 319.06509013611594 247.88133834732611 0 247.88133834732611 47.036765521272827 0 0 0 0 238.29304311878423 181.4185705182546 0 181.4185705182546 157.18393780056309 0 0 0 0 454.5868747798977 223.4600491205039 0 223.4600491205039 141.25434702370964 0 0 0 0 251.33379404095604 115.64810767359675 0 115.64810767359675 146.12189095936114 0 0 0 0 373.63678988980246 268.00688416183988 0 268.00688416183988 219.23967594587384 0 0 0 0 237.16396366486697 185.78022289155558 0 185.78022289155558 237.20347993841636 0 0 0 0 238.6713220216925 198.40169005717311 0 198.40169005717311 112.94225579499931 0 0 0 0 75.985271851815924 122.84066584108608 0 122.84066584108608 179.70917853639907 0 0 0 0 7.0505488157423315 67.347994437533032 0 67.347994437533032 157.85126701672084 0 0 0 0 61.224748026237762 -21.820100311768371 0 -21.820100311768371 55.643238220400917 0 0 0 0 131.3974548582346 35.090035869810706 0 35.090035869810706 80.886253677931137 0 0 0 0 25.273758084030078 -29.277400343990458 0 -29.277400343990458 111.92458542284589 0 0 0 0 146.06398884925034 39.239964990888325 0 39.239964990888325 108.02981153157076 0 0 0 0 228.58547116272075 169.51085245243996 0 169.51085245243996 186.20597080849873 0 0 0 0 315.0091030157555 124.95094396437295 0 124.95094396437295 124.58382550369095 0 0 0 0 123.56469342994797 46.413363875331655 0 46.413363875331655 145.34004963529929 0 0 0 0 184.43020516414072 49.265499356144019 0 49.265499356144019 112.09437053912259 0 0 0 0 190.69628641379904 45.079675040327373 0 45.079675040327373 96.733399021437606 0 0 0 0 389.70711559606616 118.13508668927611 0 118.13508668927611 77.498419127588477 0 0 0 0 444.94290857573606 204.36330602928177 0 204.36330602928177 101.45590968070445 0 0 0 0 530.66803855947364 331.45834650717762 0 331.45834650717762 169.01332850751214 0 0 0 0 498.04475952630264 348.17675958833684 0 348.17675958833684 202.9779864975925 0 0 0 0 457.91897834261204 327.30477422267347 0 327.30477422267347 388.70901421289511 0 0 0 0 433.09029773269583 242.35452066017206 0 242.35452066017206 187.42687178096344 0 0 0 0 291.26161547882896 208.68218451382438 0 208.68218451382438 192.68596545153605 0 0 0 0 303.56378937492764 151.48792145751403 0 151.48792145751403 155.83841746650046 0 0 0 0 18.20813995845424 -80.627722711890272 0 -80.627722711890272 31.197015563185509 0 0 0 0 31.071137034808601 -66.275359412145846 0 -66.275359412145846 47.203400564585536 0 0 0 0 -11.591400143892542 -61.767084398305222 0 -61.767084398305222 82.527276431469204 0 0 0 0 62.770136772615842 -40.624512912123414 0 -40.624512912123414 68.529898920400228 0 0 0 0 48.98771803362888 -2.1807078317363562 0 -2.1807078317363562 27.217975779165826 0 0 0 0 53.293195231673508 2.7332792933555439 0 2.7332792933555439 124.05562155628557 0 0 0 0 86.59357306502443 -33.767786685238285 0 -33.767786685238285 85.452148407959982 0 0 0 0 50.268719766258528 -8.9895417208177264 0 -8.9895417208177264 109.61143644315301 0 0 0 0 25.113163374590044 -51.033390046205525 0 -51.033390046205525 52.017789280598166 0 0 0 0 11.280343662818268 -31.992997180969979 0 -31.992997180969979 47.38110449008542 0 0 0 0 6.6670485043650842 -40.487909928268422 0 -40.487909928268422 34.260836331938521 0 0 0 0 -57.520252094592934 195.45565475700857 0 195.45565475700857 -360.61874390150092 0 0 0 0 8.1767139819150998 40.089376279051038 0 40.089376279051038 5.8340324820847727 0 0 0 0 8.223988249876836 4.6646056188439005 0 4.6646056188439005 1.2915889271979264 0 0 0 0 18.766868429012902 -46.608551742531688 0 -46.608551742531688 98.405141487063077 0 0 0 0 225.01961372229744 -63.585991718490206 0 -63.585991718490206 -29.061620554056162 0 0 0 0 -7.1807235046303504 38.619729019802108 0 38.619729019802108 92.494856141340648 0 0 0 0 139.27977849344552 34.792645951476345 0 34.792645951476345 84.318515683664586 0 0 0 0 -277.60022660242635 191.00431754938717 0 191.00431754938717 351.41613654220578 0 0 0 0 35.617320520365638 529.03136167171397 0 529.03136167171397 86.428854901635532 0 0 0 0 3.6157792014350587 2.6903739398198958 0 2.6903739398198958 1.6454406144681544 0 0 0 0 -74.905558132610167 -77.607873367880643 0 -77.607873367880643 -41.275984668654701 0 0 0 0 -28.132552905162356 -220.11215776166682 0 -220.11215776166682 -262.42353783304134 0 0 0 0 -79.577909874961733 -50.692135009235869 0 -50.692135009235869 -48.365031946479064 0 0 0 0 567.44532194738917 218.88273359961192 0 218.88273359961192 -50.143316578591566 0 0 0 0 262.72065939485651 55.005999821217955 0 55.005999821217955 -177.58605797570249 0 0 0 0 706.16581754327194 454.27055630771491 0 454.27055630771491 129.79025719366189 0 0 0 0 1.5229508176758708 -0.19040796855042874 0 -0.19040796855042874 -1.2611789569870433 0 0 0 0 464.95726565943369 262.4928919255625 0 262.4928919255625 133.96294766259268 0 0 0 0 650.72978271716534 274.29216244097177 0 274.29216244097177 -13.494454023616299 0 0 0 0 392.85428029027867 132.51084873049615 0 132.51084873049615 16.682948588890554 0 0 0 0 196.35333935488597 -33.610629393443091 0 -33.610629393443091 28.798308183711072 0 0 0 0 481.24231917966199 38.203247778537587 0 38.203247778537587 1.0637219789783074 0 0 0 0 581.81579634235914 188.57537934647883 0 188.57537934647883 11.534201895511103 0 0 0 0 648.71178250686751 -44.309887264036945 0 -44.309887264036945 -30.929600615601345 0 0 0 0 603.39279507044807 297.85753633446006 0 297.85753633446006 60.218123668342585 0 0 0 0 310.80757589770792 157.64298809999499 0 157.64298809999499 -6.9761116243460748 0 0 0 0 16.582067734611428 35.522253239460312 0 35.522253239460312 93.106729546738222 0 0 0 0 15.611348707885611 42.891168147935062 0 42.891168147935062 44.620152619557075 0 0 0 0 47.40266870882715 97.879632490502203 0 97.879632490502203 66.872129945243586 0 0 0 0 -3.4977026192382255 26.686370465134701 0 26.686370465134701 40.217576206249419 0 0 0 0 12.115876756523903 17.386029562616159 0 17.386029562616159 37.048646017084252 0 0 0 0 0.19339703534024011 37.29993592220211 0 37.29993592220211 69.24803248013832 0 0 0 0 11.757918005344891 43.08248218156875 0 43.08248218156875 45.290102235856224 0 0 0 0 12.326860529347414 43.358461585793222 0 43.358461585793222 15.593719670278496 0 0 0 0 12.090302556076495 28.406082289642711 0 28.406082289642711 40.402279942877641 0 0 0 0 12.054838067027248 29.74422514503124 0 29.74422514503124 25.787363187898336 0 0 0 0 22.069228727379596 16.115332839335579 0 16.115332839335579 -9.2502045797235297 0 0 0 0 31.409020597328549 24.384390172845166 0 24.384390172845166 -26.57731675770151 0 0 0 0 19.739367375364054 -4.2841830172883988 0 -4.2841830172883988 -50.164534146168307 0 0 0 0 25.074627094941263 3.7554360531138791 0 3.7554360531138791 -60.8501128103252 0 0 0 0 39.851899085551167 65.249898026938666 0 65.249898026938666 -35.085220206283864 0 0 0 0 33.434350247731118 -0.79880320752585021 0 -0.79880320752585021 -60.965425472045808 0 0 0 0 -57.904051075574216 -138.34686361480135 0 -138.34686361480135 -162.070495054388 0 0 0 0 -0.99178353763545601 -30.086814903972709 0 -30.086814903972709 -70.203272131045992 0 0 0 0 666.31076267549474 85.942416193747931 0 85.942416193747931 13.505197129035651 0 0 0 0 586.93334267981891 386.98907634734178 0 386.98907634734178 213.85798461833264 0 0 0 0 4.3024919515534359 1.1216147315140792 0 1.1216147315140792 -1.495664255335879 0 0 0 0 22.373562158077675 -7.9664613755837195 0 -7.9664613755837195 -60.422069617250031 0 0 0 0 15.033393494713437 -2.8922930608313777 0 -2.8922930608313777 -50.247610766642708 0 0 0 0 12.274917490994056 7.1110814070777035 0 7.1110814070777035 -0.38186089475802809 0 0 0 0 389.21013698722254 275.05957990602468 0 275.05957990602468 225.37545291824506 0 0 0 0 -8.2561701304075541 19.17870334170334 0 19.17870334170334 5.3803844281264901 0 0 0 0 1.798892427215435 -0.30350261588728067 0 -0.30350261588728067 4.6391646784898315 0 0 0 0 550.43091011965043 341.29868284927056 0 341.29868284927056 197.41792228734934 0 0 0 0 511.29821107935004 229.8355124683801 0 229.8355124683801 98.884154626981115 0 0 0 0 517.48426045510359 129.64567656760241 0 129.64567656760241 263.88026175128255 0 0 0 0 718.39750263382939 336.3493193710899 0 336.3493193710899 146.65576819170758 0 0 0 0 1.3594589634341769 0.66293020376446155 0 0.66293020376446155 0.98954008439888985 0 0 0 0 575.48129037995204 574.71147760512122 0 574.71147760512122 487.09081969633519 0 0 0 0 384.88194330825172 356.10586799626981 0 356.10586799626981 271.77950031805045 0 0 0 0 24.79155458956393 42.144728929518351 0 42.144728929518351 -67.92316943105493 0 0 0 0 18.287305090178553 7.1165513898120629 0 7.1165513898120629 -0.62728009055766187 0 0 0 0 26.819455530052437 65.477396139058783 0 65.477396139058783 -16.080998271287854 0 0 0 0 5.1828258130017275 35.200736272577615 0 35.200736272577615 23.662855038105157 0 0 0 0 5.3015629670026101 -4.6475708040998853 0 -4.6475708040998853 -37.120876580942479 0 0 0 0 30.370602678829982 16.625117473314219 0 16.625117473314219 -66.169881100176781 0 0 0 0 27.351311239660504 17.129283169063335 0 17.129283169063335 -25.771211956558545 0 0 0 0 15.176153919875105 14.545254793101549 0 14.545254793101549 -25.068478170807907 0 0 0 0 34.528268975939682 0.048298053425696708 0 0.048298053425696708 -84.503883896873091 0 0 0 0 9.9792523807655016 -11.565535485263865 0 -11.565535485263865 -55.101099088840556 0 0 0 0 42.376404599502621 -0.95643543549375742 0 -0.95643543549375742 -18.898524951947319 0 0 0 0 14.864405938571508 22.99104710369631 0 22.99104710369631 43.518683906029132 0 0 0 0 24.075426238059663 10.616319714407751 0 10.616319714407751 -18.381832105835848 0 0 0 0 20.675762205425031 27.498557924034781 0 27.498557924034781 16.035655836903061 0 0 0 0 29.804055658837569 -9.9161721281955693 0 -9.9161721281955693 55.68477083695791 0 0 0 0 2.5823000095456452 -2.1897769048800706 0 -2.1897769048800706 0.68301273051338685 0 0 0 0 36.125601230386565 50.945161716288453 0 50.945161716288453 26.376831510454224 0 0 0 0 36.590299550751297 32.819975260614854 0 32.819975260614854 12.222436905515679 0 0 0 0 45.416717156817867 26.643253354751494 0 26.643253354751494 14.831264957287431 0 0 0 0 32.618348420875009 17.230928218981489 0 17.230928218981489 32.883114568422343 0 0 0 0 78.278218157860465 80.285418376815528 0 80.285418376815528 14.77307843077665 0 0 0 0 23.017684105737946 5.7057464956230781 0 5.7057464956230781 -13.535480237394431 0 0 0 0 142.09235911037695 15.280968963490523 0 15.280968963490523 -68.840011863066422 0 0 0 0 11.042477560820544 -25.104941327499574 0 -25.104941327499574 61.808044016429562 0 0 0 0 -2.4191909806011154 43.689107249633707 0 43.689107249633707 118.76045611470363 0 0 0 0 46.66675157075224 13.071534360362421 0 13.071534360362421 39.294464140632044 0 0 0 0 -105.05350673035719 -17.022657244189759 0 -17.022657244189759 8.196869362624966 0 0 0 0 70.088346639902738 305.5563030845442 0 305.5563030845442 -13.673983489105012 0 0 0 0 1.4098042464756215 0.88559075788172148 0 0.88559075788172148 -3.6423267557775425 0 0 0 0 131.30062416131807 139.48388811307063 0 139.48388811307063 122.26665922327174 0 0 0 0 35.133816064160783 -16.041755578671996 0 -16.041755578671996 -1.1199602576310781 0 0 0 0 13.627896998486046 11.71844675007196 0 11.71844675007196 -13.203257121289033 0 0 0 0 -128.06527020531666 -0.98682351096431375 0 -0.98682351096431375 -1.9597891675512074 0 0 0 0 -111.13733898619762 -41.873868279961243 0 -41.873868279961243 12.299327348660881 0 0 0 0 52.41390172981005 -77.744669028964609 0 -77.744669028964609 -63.961562561917162 0 0 0 0 0.23294859696216008 19.946002030412899 0 19.946002030412899 6.340518828877066 0 0 0 0 6.418352823304609 14.197516744582648 0 14.197516744582648 13.74040043434778 0 0 0 0 -65.36798665398328 -29.695411739136944 0 -29.695411739136944 4.059625368558045 0 0 0 0 -60.179068567575996 -42.805991711358729 0 -42.805991711358729 9.728598289842239 0 0 0 0 -33.811800448568192 -1.6999726450012531 0 -1.6999726450012531 4.0954033556117793 0 0 0 0 -33.747224579725298 -14.048979656814936 0 -14.048979656814936 27.292027260969917 0 0 0 0 9.1571185765833434 20.166627627123034 0 20.166627627123034 28.910153196335159 0 0 0 0 -105.16883823088028 -17.282294953256496 0 -17.282294953256496 10.563618240808864 0 0 0 0 170.53696530513844 226.01338109424978 0 226.01338109424978 -700.28759904720937 0 0 0 0 -6.810898277672095 16.579847810191794 0 16.579847810191794 -19.935680325972285 0 0 0 0 2.939967863540236 0.87672322077213671 0 0.87672322077213671 -4.8873752446354963 0 0 0 0 -2.6692352299416946 12.212425757111367 0 12.212425757111367 2.0438870065290011 0 0 0 0 0.4029848266090994 20.307033709498228 0 20.307033709498228 6.5682025390954095 0 0 0 0 2.9890851756408665 1.0249005319141844 0 1.0249005319141844 4.6573190723657376 0 0 0 0 -4.0131589984339371 4.2142994872340012 0 4.2142994872340012 -4.3095798845332638 0 0 0 0 58.514011406045029 113.95353678476494 0 113.95353678476494 58.275631707849954 0 0 0 0 86.313259046723942 75.47058193163042 0 75.47058193163042 -4.3659553056818936 0 0 0 0 1.6485098261954096 -0.27518727572019053 0 -0.27518727572019053 -0.46767032347103898 0 0 0 0 16.554661378689843 78.387256354625052 0 78.387256354625052 12.085527758412098 0 0 0 0 21.155198473719793 37.117355475208342 0 37.117355475208342 102.94077980314003 0 0 0 0 13.713611049657629 40.682069804903449 0 40.682069804903449 -18.317405253821391 0 0 0 0 -48.693310201189888 30.567187419934385 0 30.567187419934385 -19.87003868708905 0 0 0 0 41.512715069144178 43.203990401607342 0 43.203990401607342 -29.328371482205739 0 0 0 0 30.104233312926226 35.71258276403023 0 35.71258276403023 -27.083346929065897 0 0 0 0 -7.3464915140648372 -0.8560274875678715 0 -0.8560274875678715 7.4142298345000199 0 0 0 0 6.518334486267122 22.63571049529537 0 22.63571049529537 22.242718567525117 0 0 0 0 37.10369032460585 7.9859977433618496 0 7.9859977433618496 14.369970501679575 0 0 0 0 18.976605420177293 35.879372986265253 0 35.879372986265253 1.9096295460631154 0 0 0 0 15.317544534726039 28.092168908684357 0 28.092168908684357 -13.817744542213404 0 0 0 0 2.5527571198326768 10.086335913482117 0 10.086335913482117 -13.048647497155798 0 0 0 0 -5.930676284526271 4.4059299069583631 0 4.4059299069583631 19.065601776669212 0 0 0 0 -1.3804530695433641 17.344102196175243 0 17.344102196175243 4.5491437959891527 0 0 0 0 6.0413797152331448 10.712920710917546 0 10.712920710917546 10.47077884440569 0 0 0 0 -24.241669579128938 24.141214860332752 0 24.141214860332752 18.757213661790502 0 0 0 0 1.0824147032253677 18.974996543067391 0 18.974996543067391 5.6239558812551422 0 0 0 0 -4.911265834047299 3.2512292307749249 0 3.2512292307749249 3.201916796352748 0 0 0 0 26.439048931499201 21.959202561605935 0 21.959202561605935 13.301623665837269 0 0 0 0 -6.0413849983324326 0.55598479014940949 0 0.55598479014940949 41.999787254377111 0 0 0 0 -32.814603419796185 60.876110388427378 0 60.876110388427378 92.984031721654674 0 0 0 0 1.9171107627223236 5.4842994721148699 0 5.4842994721148699 -0.40700954009652701 0 0 0 0 15.678509561574174 13.67937728227605 0 13.67937728227605 -3.3799591315795396 0 0 0 0 -57.90182329056006 6.4303116401167699 0 6.4303116401167699 -198.56750741130645 0 0 0 0 73.572577375405672 -22.033408923786396 0 -22.033408923786396 -199.02090786249985 0 0 0 0 46.681175140032337 -56.965109320141067 0 -56.965109320141067 -141.48583734269459 0 0 0 0 0.39239184900944224 0.74575961743861097 0 0.74575961743861097 -0.20679535197742463 0 0 0 0 92.679577352326305 -6.9854117137556386 0 -6.9854117137556386 -303.90703210366502 0 0 0 0 31.603884345109691 45.129318943874011 0 45.129318943874011 -195.69158414509047 0 0 0 0 30.537776420751356 39.317918939262889 0 39.317918939262889 -19.936474648541207 0 0 0 0 -1.8033161144850283 26.946890423606938 0 26.946890423606938 -13.898899161370309 0 0 0 0 82.43382356427901 11.545826075736045 0 11.545826075736045 -71.402696545027425 0 0 0 0 8.7726096417841291 22.963566334726949 0 22.963566334726949 16.808929775982278 0 0 0 0 -12.697454342579931 10.922149927397982 0 10.922149927397982 54.00984914264302 0 0 0 0 10.794447274232201 13.760350510845601 0 13.760350510845601 8.6390482463632878 0 0 0 0 -7.5357311150996793 37.928168857172921 0 37.928168857172921 2.4471097540194542 0 0 0 0 63.499768941425828 26.717898038737303 0 26.717898038737303 1.0108919327305443 0 0 0 0 31.139603514367991 -89.037130596799898 0 -89.037130596799898 -263.87340676748272 0 0 0 0 55.67509579464604 35.873299021186767 0 35.873299021186767 -233.36347463203992 0 0 0 0 -26.736867687115591 101.99469400272028 0 101.99469400272028 -285.2690027205831 0 0 0 0 1.0342046128452509 4.988819157804798 0 4.988819157804798 1.5988510755657079 0 0 0 0 5.8937871837403932 1.0671754612332869 0 1.0671754612332869 -3.3024771885359634 0 0 0 0 20.634382274292875 -18.82676669692728 0 -18.82676669692728 -260.61268018638265 0 0 0 0 -84.896445106305691 37.174969806973877 0 37.174969806973877 -123.67705476948208 0 0 0 0 52.681208006755696 26.58762383521298 0 26.58762383521298 -167.2826681130291 0 0 0 0 35.887972447191714 90.05993533239257 0 90.05993533239257 -218.658647914374 0 0 0 0 32.802486863096419 6.2991790781384225 0 6.2991790781384225 -130.41399987476427 0 0 0 0 23.523074943202435 8.0483412264704146 0 8.0483412264704146 -0.4233498344616814 0 0 0 0 80.014447890790507 105.1250995301706 0 105.1250995301706 -28.543617144892551 0 0 0 0 10.662646139720891 119.34366257206722 0 119.34366257206722 -29.970976617281849 0 0 0 0 43.209696928424819 56.639669498038074 0 56.639669498038074 -75.835040976626715 0 0 0 0 33.946473060453172 154.37749626349665 0 154.37749626349665 132.41871547204198 0 0 0 0 220.45363177359286 154.73825809414927 0 154.73825809414927 82.423979594744765 0 0 0 0 29.324993883703428 93.497565309822278 0 93.497565309822278 65.568425151811851 0 0 0 0 194.1534452698379 -44.607585435260262 0 -44.607585435260262 78.076675220181528 0 0 0 0 127.10865232039305 56.494562163374638 0 56.494562163374638 -70.679976509146968 0 0 0 0 -11.818019078715224 2.9836404337997351 0 2.9836404337997351 -89.28167129544056 0 0 0 0 83.00795058368567 78.533987494985467 0 78.533987494985467 -121.56306960669599 0 0 0 0 28.85408851822649 58.629402015140329 0 58.629402015140329 -144.91966319693267 0 0 0 0 -0.58726165481857606 17.848371219433773 0 17.848371219433773 -87.623639707860207 0 0 0 0 46.708004835691099 23.017250143151216 0 23.017250143151216 -87.328263102545165 0 0 0 0 31.894454181645415 17.541851076473336 0 17.541851076473336 -85.858200951447429 0 0 0 0 52.771523239616727 -36.62889930620014 0 -36.62889930620014 -146.86987297893052 0 0 0 0 42.861210013843959 -52.285933422808952 0 -52.285933422808952 10.069591178192564 0 0 0 0 50.303540541154689 -9.8975593814032905 0 -9.8975593814032905 28.550395871064168 0 0 0 0 11.581868169489098 11.981150832928051 0 11.981150832928051 119.86453039807361 0 0 0 0 80.499047300698294 -57.167138437377616 0 -57.167138437377616 7.6191917114257421 0 0 0 0 40.341813913039005 19.039785499451028 0 19.039785499451028 52.268574393894596 0 0 0 0 75.86455251010284 -4.2183844835063837 0 -4.2183844835063837 201.39933710701325 0 0 0 0 95.263096960758048 -41.329766930440883 0 -41.329766930440883 142.66463188962405 0 0 0 0 5.421426651713773 -31.608341554851904 0 -31.608341554851904 292.17048607737183 0 0 0 0 -10.644774580892772 19.835391249451959 0 19.835391249451959 289.32616684726923 0 0 0 0 34.75971488865116 43.522783984348081 0 43.522783984348081 202.86870383346604 0 0 0 0 30.481182472643923 37.889873221419293 0 37.889873221419293 513.26711058087506 0 0 0 0 476.75463893866072 267.16498741171455 0 267.16498741171455 179.41688992889692 0 0 0 0 354.65862717493656 -166.23110082882351 0 -166.23110082882351 294.84025921183627 0 0 0 0 57.974800066376702 217.58798887175089 0 217.58798887175089 440.96005363474774 0 0 0 0 6.1485349147116821 2.5312136866065957 0 2.5312136866065957 1.2075999516321789 0 0 0 0 121.80589169768973 157.77343129163975 0 157.77343129163975 153.65223012130514 0 0 0 0 151.79869061009413 231.41650626674436 0 231.41650626674436 133.60676691899971 0 0 0 0 234.20308863463652 101.66800410983961 0 101.66800410983961 120.57631472540312 0 0 0 0 239.19771849097759 -59.231198910979501 0 -59.231198910979501 14.688392578401647 0 0 0 0 4.7142130387101489 0.71185696436861523 0 0.71185696436861523 -0.11358342541096711 0 0 0 0 47.474972914336831 254.76764473173716 0 254.76764473173716 474.06632386545596 0 0 0 0 26.961389081059679 -68.794345759529051 0 -68.794345759529051 64.180105818951859 0 0 0 0 43.721599005608368 -43.274885528641562 0 -43.274885528641562 303.35717745988507 0 0 0 0 -12.621726030334685 8.8874825693997082 0 8.8874825693997082 248.33254461275936 0 0 0 0 23.295352546330832 30.709986674202582 0 30.709986674202582 240.16473765669048 0 0 0 0 15.223334960484408 -23.839442917987697 0 -23.839442917987697 162.15680862906942 0 0 0 0 24.229279435667195 39.964219343047716 0 39.964219343047716 317.21304384741256 0 0 0 0 96.183648230063909 -39.575558201260151 0 -39.575558201260151 12.610137128188995 0 0 0 0 81.339672803807844 33.428388547631087 0 33.428388547631087 12.438937730957832 0 0 0 0 14.403188585356475 -13.632108637362029 0 -13.632108637362029 161.07640883013872 0 0 0 0 55.013645408153025 -60.95562349040064 0 -60.95562349040064 -51.434262711425845 0 0 0 0 169.78468432935915 20.748441887450511 0 20.748441887450511 -61.918613821199472 0 0 0 0 189.21682298584437 -5.0627738174727028 0 -5.0627738174727028 -37.420091734216669 0 0 0 0 154.25659404563521 -24.732436469182996 0 -24.732436469182996 6.8078705288558048 0 0 0 0 155.20375062124276 17.768115062353303 0 17.768115062353303 -6.7593345078076936 0 0 0 0 174.01221546292436 14.940440376630136 0 14.940440376630136 -40.196480591489973 0 0 0 0 208.93383050240118 38.699664558144093 0 38.699664558144093 -30.508326599039492 0 0 0 0 160.27654648878706 43.624267576476313 0 43.624267576476313 -9.8459273629861173 0 0 0 0 141.73084975299298 20.704229601589901 0 20.704229601589901 -7.0625693666294183 0 0 0 0 -30.33317075191917 -2.1310312991763567 0 -2.1310312991763567 -89.803919093524428 0 0 0 0 53.416341855838255 10.277122865166689 0 10.277122865166689 -143.31090903503809 0 0 0 0 203.59631342049715 109.73959521871674 0 109.73959521871674 43.290080571356043 0 0 0 0 60.704689311238326 -128.61628170050778 0 -128.61628170050778 -216.16688498395342 0 0 0 0 1.2048349077326748 0.62150931357567352 0 0.62150931357567352 -1.0817300751487129 0 0 0 0 76.923139857502974 50.950794925909236 0 50.950794925909236 17.299883555919223 0 0 0 0 79.288465920795716 -5.2062704259965358 0 -5.2062704259965358 12.821293091197958 0 0 0 0 48.839911682067395 24.469800518384289 0 24.469800518384289 1.0027474160935981 0 0 0 0 0.87647291564633178 0.96987487427302632 0 0.96987487427302632 -2.0771404573397754 0 0 0 0 24.365429546096038 28.797753288799811 0 28.797753288799811 49.910319466710462 0 0 0 0 158.16421691972937 37.132319363309762 0 37.132319363309762 -0.25759340870035885 0 0 0 0 169.89053957524266 27.408756961077074 0 27.408756961077074 -3.5780633825695531 0 0 0 0 65.734776537906328 -0.099012875105046305 0 -0.099012875105046305 70.147479717309125 0 0 0 0 -0.083645464286576043 -0.69193704909208975 0 -0.69193704909208975 -0.14270467622830019 0 0 0 0 87.687774109707789 29.760112482838281 0 29.760112482838281 -2.968813426644374 0 0 0 0 130.08369440221213 58.220800876998396 0 58.220800876998396 8.6604546454277624 0 0 0 0 126.32666600516018 41.155395636270811 0 41.155395636270811 18.131038028612238 0 0 0 0 179.67497275109781 49.545184235853185 0 49.545184235853185 -8.2590494696177075 0 0 0 0 212.08400149262343 4.0444532146091206 0 4.0444532146091206 18.852713705570295 0 0 0 0 236.76659311824233 93.45212649920316 0 93.45212649920316 17.71179795615717 0 0 0 0 45.801026524728513 5.2799441013605701 0 5.2799441013605701 21.624857137164781 0 0 0 0 60.706557494515437 97.356308445068407 0 97.356308445068407 84.741974950029999 0 0 0 0 71.628726598832145 36.006193916637017 0 36.006193916637017 50.144645176676704 0 0 0 0 55.99216198236536 18.295725112862442 0 18.295725112862442 30.263386509636462 0 0 0 0 67.610366144954241 14.877022788430239 0 14.877022788430239 19.883608257914375 0 0 0 0 58.245587803092803 22.898853523581096 0 22.898853523581096 30.997104583263763 0 0 0 0 -0.46174253447992086 -0.42514957107155738 0 -0.42514957107155738 0.47311942420906128 0 0 0 0 65.70535318419752 31.274704802034194 0 31.274704802034194 22.120741550597472 0 0 0 0 42.25518327632517 40.71688357425441 0 40.71688357425441 32.136083419578654 0 0 0 0 25.688975880304497 10.460962203708334 0 10.460962203708334 27.582888590603659 0 0 0 0 0.55417464270538375 0.32623315556868349 0 0.32623315556868349 -0.46282187938783803 0 0 0 0 64.490708445577184 26.661726295038306 0 26.661726295038306 16.405178030557408 0 0 0 0 15.441121718133218 -0.49542901284587515 0 -0.49542901284587515 14.658088122397942 0 0 0 0 7.4012281582436117 12.126707722108023 0 12.126707722108023 21.226401264407286 0 0 0 0 0.49941375713052594 0.45603744524986034 0 0.45603744524986034 -0.54549057160978753 0 0 0 0 40.685897097690031 28.083627282180089 0 28.083627282180089 19.585831332671717 0 0 0 0 52.078043263492873 9.8525862951418901 0 9.8525862951418901 17.219647475885616 0 0 0 0 97.584971599459095 30.311276274805209 0 30.311276274805209 15.101586107648018 0 0 0 0 98.879192177379082 22.753891477719549 0 22.753891477719549 15.3265673236819 0 0 0 0 73.046794754107395 6.2302856256895041 0 6.2302856256895041 15.417242094009907 0 0 0 0 106.72082277137088 21.424124437640899 0 21.424124437640899 9.4094898706512708 0 0 0 0 66.239550168667847 67.416079177620873 0 67.416079177620873 33.712010150362858 0 0 0 0 73.281021860144392 66.388891069912461 0 66.388891069912461 -57.669252826377146 0 0 0 0 35.72747182876401 57.811952381650769 0 57.811952381650769 -0.10376117708233323 0 0 0 0 38.666744477966859 59.473994125993158 0 59.473994125993158 1.8545743797394607 0 0 0 0 67.695881429113797 57.822488216809234 0 57.822488216809234 1.9455172129012226 0 0 0 0 51.50700285754283 60.372767262811465 0 60.372767262811465 34.355764523963444 0 0 0 0 94.015161033315053 46.595488514383135 0 46.595488514383135 -15.526372805320079 0 0 0 0 43.200483101201826 40.340478887443282 0 40.340478887443282 -1.2720373379187322 0 0 0 0 79.113404123338114 76.764543082573709 0 76.764543082573709 -20.04127902099026 0 0 0 0 40.581116702243889 46.139750204536426 0 46.139750204536426 24.570318510263178 0 0 0 0 -15.947651938154195 17.428295372141861 0 17.428295372141861 11.929914306393584 0 0 0 0 26.859901207533767 36.074018372961007 0 36.074018372961007 31.493797425419586 0 0 0 0 28.180645308104431 40.184330715297733 0 40.184330715297733 53.91801426710974 0 0 0 0 -0.0805370841513664 0.43118346249008432 0 0.43118346249008432 -0.43740100753282662 0 0 0 0 31.771850087473922 50.124315922708519 0 50.124315922708519 59.370208777269909 0 0 0 0 47.522179875661095 51.5311571772815 0 51.5311571772815 34.104764247519306 0 0 0 0 58.739127755618028 70.577156265041708 0 70.577156265041708 62.508258911839448 0 0 0 0 62.722769412994239 53.121273282481241 0 53.121273282481241 62.494774659792093 0 0 0 0 31.410273154880997 62.501104470586995 0 62.501104470586995 79.882508729341225 0 0 0 0 155.60222660937166 90.724369445864454 0 90.724369445864454 68.867487236618217 0 0 0 0 99.799007488094503 65.90953073612468 0 65.90953073612468 67.740694434077227 0 0 0 0 79.341277704226741 84.65034364192482 0 84.65034364192482 85.439005116870248 0 0 0 0 88.230394340977 46.601373621512096 0 46.601373621512096 41.957056224127427 0 0 0 0 119.65012832914726 80.479229516435453 0 80.479229516435453 53.893114684491024 0 0 0 0 98.31941620951693 104.86739405883522 0 104.86739405883522 123.80657732303567 0 0 0 0 8.3346945155913374 -1.1162528085459158 0 -1.1162528085459158 -0.59677898215315417 0 0 0 0 21.410655720104842 -14.275841087920341 0 -14.275841087920341 -75.52488384068829 0 0 0 0 1.6322659616507735 2.4546216310733087 0 2.4546216310733087 -33.493837447027687 0 0 0 0 18.685910499734746 19.283229568420268 0 19.283229568420268 -34.500493317106276 0 0 0 0 79.621397717215586 97.342684799517528 0 97.342684799517528 117.54243255263202 0 0 0 0 72.061279011283659 59.957043671367593 0 59.957043671367593 82.755107154832103 0 0 0 0 15.825555395102128 75.145278807503075 0 75.145278807503075 130.15393840769053 0 0 0 0 1.1873606987774323 -0.87134110778066898 0 -0.87134110778066898 -0.60587372537248996 0 0 0 0 6.7201960980728472 13.613427469284773 0 13.613427469284773 1.3072944971431184 0 0 0 0 0.52933651380568136 1.4493247602003105 0 1.4493247602003105 -0.48362930605124216 0 0 0 0 48.117474680437226 42.276954756111692 0 42.276954756111692 71.886949896813292 0 0 0 0 10.304082898148536 3.2367910282242747 0 3.2367910282242747 0.78821894124169001 0 0 0 0 11.081301911464834 14.774597489012185 0 14.774597489012185 -26.877659133377939 0 0 0 0 15.981001431748155 15.723008849373713 0 15.723008849373713 -27.128575326087109 0 0 0 0 9.8321495408326882 12.840327716590309 0 12.840327716590309 -8.5658383110940122 0 0 0 0 7.7510692387124891 5.7360637678262227 0 5.7360637678262227 0.25698381761225875 0 0 0 0 5.0890098196705367 8.8381483697965404 0 8.8381483697965404 17.081972230135932 0 0 0 0 3.2858651464011928 17.120706737271561 0 17.120706737271561 16.486038124253842 0 0 0 0 10.114691168771799 5.5357579115941977 0 5.5357579115941977 -26.031366199929607 0 0 0 0 16.55445344968939 43.663755605358368 0 43.663755605358368 43.317435170716038 0 0 0 0 -5.3005535839656659 21.534242314705381 0 21.534242314705381 66.635275894842266 0 0 0 0 19.286897734495142 36.288259807043801 0 36.288259807043801 75.384742947654217 0 0 0 0 25.275916351882188 21.234133120665206 0 21.234133120665206 66.016308188701032 0 0 0 0 21.130368455178541 8.0580780734440864 0 8.0580780734440864 -27.720940194455522 0 0 0 0 -27.30773340113592 33.803244397477386 0 33.803244397477386 76.67583776549543 0 0 0 0 -2.4960501674517133 4.618582189661284 0 4.618582189661284 -1.3361143144811007 0 0 0 0 10.102066537093933 4.6963577037222493 0 4.6963577037222493 0.82721674900383668 0 0 0 0 6.5267646509637416 24.353352480197429 0 24.353352480197429 -1.2722446276851542 0 0 0 0 4.9230913276201136 9.3641880760320753 0 9.3641880760320753 -0.54354350634832826 0 0 0 0 10.77717220820341 19.378462837814936 0 19.378462837814936 -7.5790650248463294 0 0 0 0 8.2827130185432907 19.769165499594678 0 19.769165499594678 -7.595091614367675 0 0 0 0 1.6014560312505637 19.237781274994404 0 19.237781274994404 28.15773727163446 0 0 0 0 -1.4660176246130163 1.3213643881975905 0 1.3213643881975905 -1.1122514406158932 0 0 0 0 42.671106493822663 -43.784739722903339 0 -43.784739722903339 -40.146392011152898 0 0 0 0 2.1190107451875519 28.81817480228159 0 28.81817480228159 32.600613672251001 0 0 0 0 8.8953461050768965 22.298619499576716 0 22.298619499576716 23.866670719223066 0 0 0 0 1.7726975853656768 17.208309810251023 0 17.208309810251023 49.109592405525689 0 0 0 0 0.049591570006469965 0.47036499611300897 0 0.47036499611300897 -0.42001569289791107 0 0 0 0 14.078320409287699 12.264261974272717 0 12.264261974272717 39.339558722468496 0 0 0 0 10.62127415658324 48.489771457587125 0 48.489771457587125 35.499749482381063 0 0 0 0 36.693661362995044 16.723329827048843 0 16.723329827048843 -76.159810592975433 0 0 0 0 7.1988183685243712 30.393591765406683 0 30.393591765406683 23.033403951574194 0 0 0 0 14.065842282423546 29.549868271181566 0 29.549868271181566 -15.781683235658249 0 0 0 0 15.326863169582793 25.382625339575668 0 25.382625339575668 -15.325089048417055 0 0 0 0 73.761951863711147 21.905476251531411 0 21.905476251531411 -2.1992198048566252 0 0 0 0 90.229040732225258 -9.549812733328281 0 -9.549812733328281 16.030296177735465 0 0 0 0 92.319622874150809 -3.9190301440288238 0 -3.9190301440288238 30.27567256753548 0 0 0 0 92.597442141846841 0.70173847506881781 0 0.70173847506881781 2.9794628246423631 0 0 0 0 91.93638704602472 7.3838254356539608 0 7.3838254356539608 4.5806810484544087 0 0 0 0 41.401383652628283 2.1168422039727801 0 2.1168422039727801 10.434906933428977 0 0 0 0 43.733950092529994 17.598802507851886 0 17.598802507851886 14.70809204029344 0 0 0 0 -6.0224675408576331 -9.8701736433708493 0 -9.8701736433708493 4.2734748119640074 0 0 0 0 4.9699402828227903 23.524861545622244 0 23.524861545622244 -2.3191222050135991 0 0 0 0 56.026404256994283 22.211135437428027 0 22.211135437428027 -24.743363818706143 0 0 0 0 55.556867412088422 25.052487025926659 0 25.052487025926659 18.68716953113767 0 0 0 0 -9.0171066882594459 7.0723808684281835 0 7.0723808684281835 6.0952852664838701 0 0 0 0 3.2574133926798936 4.0915855583722784 0 4.0915855583722784 2.3923104124732668 0 0 0 0 -9.1985266561969183 11.385255105187184 0 11.385255105187184 3.2006312200842331 0 0 0 0 1.3848255824690483 1.8295518787356109 0 1.8295518787356109 0.022788932086106994 0 0 0 0 52.342255473497971 9.5698743258272145 0 9.5698743258272145 76.305561707406014 0 0 0 0 45.184164042766497 22.932219191267677 0 22.932219191267677 56.854640931364202 0 0 0 0 -358.09728795187402 -109.20986645404491 0 -109.20986645404491 332.91235453125728 0 0 0 0 101.63053135023074 3.4933706682173238 0 3.4933706682173238 -14.081593182936615 0 0 0 0 0.84542151944582145 1.3281894048381382 0 1.3281894048381382 1.5776606932765982 0 0 0 0 419.04975870175986 0.95379665238851885 0 0.95379665238851885 73.863756226956184 0 0 0 0 135.81491829258812 80.014630116375301 0 80.014630116375301 -2.8948957647037332 0 0 0 0 11.875320631921639 0.042568590834479281 0 0.042568590834479281 -0.41582943154128027 0 0 0 0 61.691490766541392 109.57015490659347 0 109.57015490659347 47.816350608490325 0 0 0 0 56.177036714581739 39.090315133424987 0 39.090315133424987 55.31254132516915 0 0 0 0 56.246800437522325 52.157895900939195 0 52.157895900939195 -12.619805100467261 0 0 0 0 -47.974718215580651 66.770699620776327 0 66.770699620776327 56.571593797229525 0 0 0 0 24.58750249136142 137.77190099215747 0 137.77190099215747 299.65601481235353 0 0 0 0 23.064456477282988 186.27271940846927 0 186.27271940846927 237.48558119967765 0 0 0 0 24.402359684627299 218.76984713477418 0 218.76984713477418 246.64150893025612 0 0 0 0 42.134107395000683 106.62477735729453 0 106.62477735729453 81.842902031980884 0 0 0 0 -18.469987636097358 161.44286599339739 0 161.44286599339739 204.76664824388627 0 0 0 0 4.7924657436105917 175.1642772767857 0 175.1642772767857 162.99740334083253 0 0 0 0 19.988366067715106 118.17789024171725 0 118.17789024171725 -16.000542979034435 0 0 0 0 -79.833532283435488 88.872907846326484 0 88.872907846326484 128.31017136067567 0 0 0 0 21.653047095459669 82.376606659340098 0 82.376606659340098 -36.200272263615261 0 0 0 0 -181.40820365433319 146.9619071423981 0 146.9619071423981 154.53402435162934 0 0 0 0 1.3261041671206542 2.1079419284219014 0 2.1079419284219014 3.2689756385800699 0 0 0 0 742.5434135369685 25.019379044208478 0 25.019379044208478 -19.135663685579857 0 0 0 0 732.8431054291359 258.22789976501872 0 258.22789976501872 102.33877333602231 0 0 0 0 437.13406039506663 114.75337584615772 0 114.75337584615772 44.400744413381375 0 0 0 0 540.89924094320304 99.794276717394041 0 99.794276717394041 43.791677497750243 0 0 0 0 -55.773616854970896 130.15582677415614 0 130.15582677415614 106.50206392619839 0 0 0 0 -112.15449038938823 137.48732492565296 0 137.48732492565296 202.2524429273617 0 0 0 0 -103.45143331730878 253.50944389450092 0 253.50944389450092 295.60769847977099 0 0 0 0 32.541893234578311 261.15891887675798 0 261.15891887675798 259.08479820290813 0 0 0 0 17.813124858745141 370.54543938274264 0 370.54543938274264 354.56351051243382 0 0 0 0 366.89538517656183 181.54226157834819 0 181.54226157834819 555.77916809061071 0 0 0 0 550.90778927547217 369.38687421920804 0 369.38687421920804 310.29549321745799 0 0 0 0 104.05753581077806 145.38159142630172 0 145.38159142630172 87.400136683453184 0 0 0 0 371.79049553729055 297.47613962144374 0 297.47613962144374 172.65752942713425 0 0 0 0 266.51835199498419 -82.581589854264962 0 -82.581589854264962 271.9948120037925 0 0 0 0 230.8568563294466 97.296895139542244 0 97.296895139542244 88.356372647834405 0 0 0 0 -25.102833712237043 196.83287196709227 0 196.83287196709227 235.57342547490953 0 0 0 0 -0.61333163058247919 1.4174166147975114 0 1.4174166147975114 0.024215737609428911 0 0 0 0 293.78076259867885 -2.2038059118342517 0 -2.2038059118342517 65.779484431549918 0 0 0 0 -150.18951529722835 -7.9094552279038908 0 -7.9094552279038908 79.930096845790786 0 0 0 0 2.1980633604180184 82.347325560011313 0 82.347325560011313 193.53734632439114 0 0 0 0 -155.94117119526345 31.805346372003442 0 31.805346372003442 282.79133827281839 0 0 0 0 58.328614737514727 -26.336959052282282 0 -26.336959052282282 54.664817393482281 0 0 0 0 14.518655780964806 -0.44003825736604085 0 -0.44003825736604085 -0.41227944334136346 0 0 0 0 32.485674240542721 25.039941224020367 0 25.039941224020367 84.913666985689758 0 0 0 0 55.757903361365607 -17.556541425592513 0 -17.556541425592513 -21.335320372640581 0 0 0 0 -3.0849784727100484 -0.25123724443306461 0 -0.25123724443306461 0.16198822166749813 0 0 0 0 -159.42521314861085 -76.06227799918878 0 -76.06227799918878 228.7505584749124 0 0 0 0 -78.444980151994969 -15.03215798857309 0 -15.03215798857309 251.02344829967888 0 0 0 0 121.40477517842373 5.5015860141957091 0 5.5015860141957091 140.3038190539005 0 0 0 0 -0.14611035218679547 1.0144466140340302 0 1.0144466140340302 2.054696348200272 0 0 0 0 -69.686129774636356 0.33604649593507929 0 0.33604649593507929 329.38849743721494 0 0 0 0 86.985500690767367 99.983269643329095 0 99.983269643329095 82.16540530861289 0 0 0 0 25.863171018943831 10.516456173639654 0 10.516456173639654 311.96110053546818 0 0 0 0 122.61926147560007 -103.62457065355375 0 -103.62457065355375 446.54165182364341 0 0 0 0 1.2270860968568549 1.4737260785439688 0 1.4737260785439688 -0.31968664798088575 0 0 0 0 82.125094483868452 75.177528245215854 0 75.177528245215854 327.00408833941492 0 0 0 0 -53.193065336457948 27.528495372093175 0 27.528495372093175 319.77375691329598 0 0 0 0 15.454410021033254 -19.392925997111888 0 -19.392925997111888 218.85367358801159 0 0 0 0 -128.77312886606524 0.43973131499660667 0 0.43973131499660667 329.41240160985126 0 0 0 0 166.95813720541628 80.884303393212576 0 80.884303393212576 63.540702392796788 0 0 0 0 -38.21080953143246 1.7138307916638951 0 1.7138307916638951 327.06694058686332 0 0 0 0 336.90255045647791 21.967584894824085 0 21.967584894824085 204.36386049478324 0 0 0 0 61.545044763930491 -18.769086495291958 0 -18.769086495291958 312.95901965262965 0 0 0 0 -56.692542832272011 52.378457655878265 0 52.378457655878265 286.08088918154795 0 0 0 0 283.70358937246056 114.15192388118612 0 114.15192388118612 82.471708399406793 0 0 0 0 261.09943256322731 34.582525782155699 0 34.582525782155699 80.506404833253328 0 0 0 0 266.6570691519737 214.38080045118068 0 214.38080045118068 247.71990924928923 0 0 0 0 379.34140330195078 51.894160147918228 0 51.894160147918228 44.995605492287723 0 0 0 0 362.7047455821521 105.21449584620996 0 105.21449584620996 28.478555462114855 0 0 0 0 199.34241234829096 39.831106898546977 0 39.831106898546977 32.576427406372204 0 0 0 0 244.33119015450211 104.32210984018093 0 104.32210984018093 32.822809397279947 0 0 0 0 269.98956221142362 44.338196497474314 0 44.338196497474314 -1.4448845003971655 0 0 0 0 318.0905166086668 58.464510562131181 0 58.464510562131181 -42.565210257038416 0 0 0 0 1.6090118986535646 4.6375488118191157 0 4.6375488118191157 10.913577564775009 0 0 0 0 -17.101692650721816 64.249353581469904 0 64.249353581469904 98.435385207610125 0 0 0 0 153.11966533089071 14.391230853933166 0 14.391230853933166 -28.835288363091877 0 0 0 0 1.1384158779361506 3.4306335402038357 0 3.4306335402038357 7.5962603112757492 0 0 0 0 225.64510975793382 50.663649103006492 0 50.663649103006492 -29.790488425179774 0 0 0 0 237.80696006209473 56.485374618972855 0 56.485374618972855 -30.443679443866657 0 0 0 0 226.44339533733728 37.250121733372907 0 37.250121733372907 -46.925180064220513 0 0 0 0 240.7912476700094 52.73691393073284 0 52.73691393073284 -34.662257338516611 0 0 0 0 0.76201770211211439 -1.1559583270546412 0 -1.1559583270546412 -5.6057249517402781 0 0 0 0 126.08015343056468 11.671137157366957 0 11.671137157366957 -4.6770761766749729 0 0 0 0 216.33359272189864 50.027212732235967 0 50.027212732235967 -45.839698825063806 0 0 0 0 34.225900218199058 15.743041174053417 0 15.743041174053417 -25.605866439022975 0 0 0 0 20.031515781247435 79.02618992012367 0 79.02618992012367 -165.85202089921404 0 0 0 0 8.283951661001602 9.8786426662900979 0 9.8786426662900979 7.3958470128951017 0 0 0 0 8.8406533639135887 88.925287619675146 0 88.925287619675146 -136.5733218097356 0 0 0 0 40.251624282573175 86.519795107062237 0 86.519795107062237 -137.37377415977335 0 0 0 0 7.6134728875149449 76.880307423402428 0 76.880307423402428 -36.139685020042634 0 0 0 0 13.943572489384678 66.038889251552973 0 66.038889251552973 -115.9402969837256 0 0 0 0 -10.473346128961566 73.325225354483791 0 73.325225354483791 -22.611654677932165 0 0 0 0 -71.125998520357825 -9.9919395553124559 0 -9.9919395553124559 -147.10273154835977 0 0 0 0 -22.106028636197152 40.304140893857948 0 40.304140893857948 -105.83915087615969 0 0 0 0 -185.34858223112315 9.1628345421836457 0 9.1628345421836457 -9.8133314855058416 0 0 0 0 -152.82242151038372 58.709731532453588 0 58.709731532453588 65.580462702018849 0 0 0 0 606.66537981501824 9.3077380118143083 0 9.3077380118143083 -12.57226689232175 0 0 0 0 517.43455715052914 -145.07872980203888 0 -145.07872980203888 63.786491073344223 0 0 0 0 390.36655978495401 -23.921162065630142 0 -23.921162065630142 27.545363131594058 0 0 0 0 338.33637581544826 22.173394365504691 0 22.173394365504691 -4.3914748905572196 0 0 0 0 284.70339208931182 -85.354628454762178 0 -85.354628454762178 -30.926097592549922 0 0 0 0 249.88160630046514 7.4125191622425746 0 7.4125191622425746 -6.7825382552109659 0 0 0 0 427.69666069832238 -100.1158743661947 0 -100.1158743661947 -40.73084621272028 0 0 0 0 -0.79261329877871844 0.73164863285644621 0 0.73164863285644621 0.42113794873709676 0 0 0 0 21.860151650747866 0.10431628630780665 0 0.10431628630780665 -8.6508826364055302 0 0 0 0 15.998955334984188 5.2004547826072258 0 5.2004547826072258 -0.19572216091687342 0 0 0 0 59.700768854647322 14.413504499139094 0 14.413504499139094 85.430825579614748 0 0 0 0 95.517062730588805 68.732724327975802 0 68.732724327975802 126.26774207596986 0 0 0 0 -46.934594248770736 6.521056335575679 0 6.521056335575679 172.57936857053528 0 0 0 0 -16.575559842443909 14.763548755305692 0 14.763548755305692 160.71231254825364 0 0 0 0 36.992513347046042 -126.66956154324748 0 -126.66956154324748 183.06433895277462 0 0 0 0 -36.790394126839601 24.730755826704524 0 24.730755826704524 273.16593271391685 0 0 0 0 13.697593308945216 67.299073157030875 0 67.299073157030875 242.02619562102552 0 0 0 0 2.0896588302212109 0.756629810375538 0 0.756629810375538 0.32506319031510233 0 0 0 0 -38.714724848268816 33.132269969711501 0 33.132269969711501 281.08394447406954 0 0 0 0 9.1676252375955301 -50.749468816948848 0 -50.749468816948848 253.16475107014116 0 0 0 0 42.627975021070597 136.75613061307956 0 136.75613061307956 68.87205151341908 0 0 0 0 17.392431000291253 9.8203987449127226 0 9.8203987449127226 -4.9770509287176843 0 0 0 0 12.993141236354248 4.5989241628054369 0 4.5989241628054369 -0.30597224254111882 0 0 0 0 16.687286085227242 -12.394516247614206 0 -12.394516247614206 167.20438584799223 0 0 0 0 16.909722608408629 -3.4176676744734209 0 -3.4176676744734209 215.75074040026539 0 0 0 0 6.6440056973023616 -0.15792781770745279 0 -0.15792781770745279 0.32563612740570735 0 0 0 0 -9.8651310522345739 44.582116185804182 0 44.582116185804182 148.73115166329376 0 0 0 0 44.843378052355547 21.476071069113459 0 21.476071069113459 78.736361450084814 0 0 0 0 -8.2262052181904437 -43.665529303280891 0 -43.665529303280891 179.02231648095517 0 0 0 0 50.481027465313673 68.844913487335361 0 68.844913487335361 128.7689548278895 0 0 0 0 -57.119542098258535 -16.50251054883438 0 -16.50251054883438 246.4770918554882 0 0 0 0 9.524944840669022 5.7156969942647846 0 5.7156969942647846 1.0610557200235147 0 0 0 0 26.734679870223772 -52.453741275943003 0 -52.453741275943003 261.88528872174493 0 0 0 0 -17.929773504809418 -7.533281219581113 0 -7.533281219581113 235.31901369594905 0 0 0 0 7.4021053915394077 89.312775607640503 0 89.312775607640503 330.15929299796289 0 0 0 0 8.3981317095349368 9.4720706447998104 0 9.4720706447998104 7.9578705555150222 0 0 0 0 152.32542804568948 65.656570237123105 0 65.656570237123105 188.3780747856058 0 0 0 0 3.0046245102867033 13.857322829525339 0 13.857322829525339 4.9988149341216541 0 0 0 0 -18.270016552114612 19.902989364639893 0 19.902989364639893 7.639231844891583 0 0 0 0 7.7151404361065943 11.910252172816683 0 11.910252172816683 3.4893466738687948 0 0 0 0 8.2675266908336198 16.635240739560288 0 16.635240739560288 3.4670463588001894 0 0 0 0 10.196490633865324 11.718435020943247 0 11.718435020943247 -0.59061358848180134 0 0 0 0 19.188870071735437 15.352819764180367 0 15.352819764180367 0.87561215781028068 0 0 0 0 12.994735483094701 8.5611799224858203 0 8.5611799224858203 -2.54301201807192 0 0 0 0 23.074991853901338 7.0999989673470978 0 7.0999989673470978 -2.3403249615143977 0 0 0 0 20.667912208504276 6.3226112039351108 0 6.3226112039351108 0.14161454611242164 0 0 0 0 48.235429984088114 1.4227201402320588 0 1.4227201402320588 -1.9253621290559977 0 0 0 0 -293.16250146273524 -32.04277609422644 0 -32.04277609422644 110.08010305048566 0 0 0 0 28.590098951251093 4.0836421428558225 0 4.0836421428558225 -6.5592962808252651 0 0 0 0 3.6311756518104303 1.1921074779564691 0 1.1921074779564691 -1.6065474323832816 0 0 0 0 -145.3724458506822 47.874930021864543 0 47.874930021864543 -8.5907838929333593 0 0 0 0 -0.2381080749229838 -0.49296926480815273 0 -0.49296926480815273 0.75360150467192533 0 0 0 0 -0.5572125626205704 0.20713315425214773 0 0.20713315425214773 1.0140041975731071 0 0 0 0 30.937392430227192 11.284920251074709 0 11.284920251074709 0.1200517272700381 0 0 0 0 92.225221678101661 -2.3274579854889907 0 -2.3274579854889907 -1.6157111638432866 0 0 0 0 50.462107612518594 30.775490376032963 0 30.775490376032963 2.9012784340957296 0 0 0 0 2.3598358762028511 17.421970719490844 0 17.421970719490844 13.483746065198375 0 0 0 0 31.841582934746157 17.560846846056208 0 17.560846846056208 -0.59427235149166791 0 0 0 0 3.7451223242646847 12.68396171474474 0 12.68396171474474 -0.67913539583969396 0 0 0 0 8.3556228042516523 4.420886728011908 0 4.420886728011908 -2.4617592057063575 0 0 0 0 -0.00099984848384337965 32.673665391602981 0 32.673665391602981 16.899537868302104 0 0 0 0 -9.8207610389363253 28.734576757373532 0 28.734576757373532 11.799108419324966 0 0 0 0 6.1882512995744037 6.1125531769025656 0 6.1125531769025656 12.474484093245337 0 0 0 0 -45.294560040585566 27.029737979649667 0 27.029737979649667 19.729936375163106 0 0 0 0 -35.972671109389921 34.297831716136329 0 34.297831716136329 -34.587379955195843 0 0 0 0 -16.314411387922519 73.296950716874164 0 73.296950716874164 -9.3296905697898183 0 0 0 0 239.87213551094101 26.433589380646254 0 26.433589380646254 -126.52548672419039 0 0 0 0 -0.57214198893295887 -1.0260961833245759 0 -1.0260961833245759 -1.3285963563849155 0 0 0 0 76.047312653892732 -15.698374629409841 0 -15.698374629409841 -36.131575395836535 0 0 0 0 227.69746480711547 28.967659342984007 0 28.967659342984007 -60.363063285648309 0 0 0 0 225.50037972008431 37.571942163377798 0 37.571942163377798 4.8703060873481263 0 0 0 0 227.7336893637912 25.881593308160063 0 25.881593308160063 -34.289211394288202 0 0 0 0 -31.045037708539894 18.96956266361974 0 18.96956266361974 5.8280668826389501 0 0 0 0 0.93257584619206213 1.9285133750281105 0 1.9285133750281105 4.0381820435171045 0 0 0 0 387.76597869166289 -29.667177837595318 0 -29.667177837595318 -59.895855824963292 0 0 0 0 221.27072178669187 6.289946146164084 0 6.289946146164084 42.323666478345785 0 0 0 0 494.86173120245621 -22.335150590183503 0 -22.335150590183503 -25.290150056177481 0 0 0 0 -59.736763864499153 12.164742081165741 0 12.164742081165741 38.417292870253732 0 0 0 0 186.50895206463974 17.238152705441735 0 17.238152705441735 118.49124596664001 0 0 0 0 0.33432884745660729 0.12210562831224081 0 0.12210562831224081 1.3949058879720582 0 0 0 0 64.282487144963397 -60.9038738038264 0 -60.9038738038264 54.645561852956689 0 0 0 0 188.15823714381258 7.4776479243951144 0 7.4776479243951144 40.563101522002057 0 0 0 0 23.168096771434648 72.173995867769065 0 72.173995867769065 30.816244992389329 0 0 0 0 58.790569298544142 19.387192080049772 0 19.387192080049772 77.955705401921705 0 0 0 0 99.914426330173228 71.499447928405743 0 71.499447928405743 18.575013301346189 0 0 0 0 26.772209120030311 62.927573265248611 0 62.927573265248611 19.624912494659384 0 0 0 0 50.657549356390518 82.194461888066598 0 82.194461888066598 -5.9196310320160137 0 0 0 0 22.445553950298745 56.114656289715469 0 56.114656289715469 -23.535688068063791 0 0 0 0 19.602238068029692 45.110870721982337 0 45.110870721982337 -40.885822086858525 0 0 0 0 61.948090144676826 58.71911503143474 0 58.71911503143474 -69.747902071395401 0 0 0 0 44.514518990959914 19.351141453243599 0 19.351141453243599 -75.078832703926366 0 0 0 0 48.602115176363441 32.369567096096375 0 32.369567096096375 -38.697654391759897 0 0 0 0 2.2990259717080335 32.028607197634301 0 32.028607197634301 -26.841076972719861 0 0 0 0 13.601752369631868 34.076539596774751 0 34.076539596774751 -31.990286607817438 0 0 0 0 3.3708420857874444 9.7478621389844875 0 9.7478621389844875 1.0207143590432679 0 0 0 0 18.402083197943284 30.233752988523975 0 30.233752988523975 -46.861090086621516 0 0 0 0 18.614132945192978 5.8028170847446745 0 5.8028170847446745 3.6225977641943246 0 0 0 0 -25.315897288615815 23.950029548956081 0 23.950029548956081 47.587882903806531 0 0 0 0 24.604252332999749 38.507197000790256 0 38.507197000790256 -80.479283446189129 0 0 0 0 -10.132101585464625 56.091658321779164 0 56.091658321779164 -34.654932036998616 0 0 0 0 -9.061962046300323 57.699271187937939 0 57.699271187937939 -40.349939058576638 0 0 0 0 -1.569398422130412 1.5193766827134709 0 1.5193766827134709 2.3013324913017215 0 0 0 0 8.6671664942914362 9.3496646964259416 0 9.3496646964259416 9.5418419935347103 0 0 0 0 -8.8067367418043432 44.330965845211722 0 44.330965845211722 -25.580171141790743 0 0 0 0 -7.9837009812254109 45.481402996831548 0 45.481402996831548 -44.456443532924936 0 0 0 0 -49.95368270893232 44.629662883425681 0 44.629662883425681 -7.598983045733803 0 0 0 0 7.5636662715125098 9.0806948952631217 0 9.0806948952631217 10.078089275112715 0 0 0 0 19.203502534292056 27.179863671033672 0 27.179863671033672 -18.441936357882696 0 0 0 0 45.366733062041021 9.4467631515008179 0 9.4467631515008179 -21.41152336036248 0 0 0 0 35.376771870163793 19.20835409422034 0 19.20835409422034 -25.698527334698156 0 0 0 0 18.656923004062264 10.279129383313375 0 10.279129383313375 -4.4597356886933994 0 0 0 0 27.133572755654313 0.84923369683428973 0 0.84923369683428973 2.3783550788702996 0 0 0 0 -52.621869664031692 67.933482668827764 0 67.933482668827764 4.8478247571638349 0 0 0 0 -54.451108303968795 66.430211798659684 0 66.430211798659684 12.44310273238807 0 0 0 0 -44.045573470200907 55.429609456902426 0 55.429609456902426 3.3409208141474664 0 0 0 0 -69.237029757327036 65.007509783244132 0 65.007509783244132 98.55340771084775 0 0 0 0 64.780078544670687 145.33855104661143 0 145.33855104661143 372.39859716771207 0 0 0 0 -107.52121282000371 -1.8074663766938102 0 -1.8074663766938102 -18.047663217625995 0 0 0 0 2.7989246001227954 1.4842412019572535 0 1.4842412019572535 0.89909999845212774 0 0 0 0 -13.437494010089722 70.849892099993667 0 70.849892099993667 16.392836267940766 0 0 0 0 -15.81352502120717 64.045183853288563 0 64.045183853288563 3.3344034767096673 0 0 0 0 -20.501893079926958 98.44373097636435 0 98.44373097636435 66.479368604691444 0 0 0 0 -45.058787239229787 59.343711806748843 0 59.343711806748843 32.965055519129237 0 0 0 0 -25.731484617721435 80.499820786450528 0 80.499820786450528 12.999095625094014 0 0 0 0 -23.646139701328366 71.764177839300714 0 71.764177839300714 -17.446605492597882 0 0 0 0 -22.486494054715877 84.541145485844936 0 84.541145485844936 54.304773977039076 0 0 0 0 28.768409908821241 104.21603119362372 0 104.21603119362372 19.885859860754863 0 0 0 0 33.347056209815491 91.074354711911383 0 91.074354711911383 13.806003637881076 0 0 0 0 270.09769784269884 311.64787494731036 0 311.64787494731036 219.28815606505214 0 0 0 0 -14.803032365030958 166.2813088000903 0 166.2813088000903 130.68829476617952 0 0 0 0 -35.375183420816029 122.41884324965076 0 122.41884324965076 37.614294781264107 0 0 0 0 198.56091417675634 149.37487746469014 0 149.37487746469014 -66.00849796321927 0 0 0 0 -73.436089417038602 52.638505595335118 0 52.638505595335118 -98.318854473755891 0 0 0 0 97.940299097077514 19.971492417415902 0 19.971492417415902 -246.22536612047588 0 0 0 0 0.81119899277473451 -40.98744736669687 0 -40.98744736669687 -83.54917574308638 0 0 0 0 232.11493695093668 71.481601044577019 0 71.481601044577019 -40.287819830019544 0 0 0 0 334.71040520189126 -21.11620822799523 0 -21.11620822799523 42.398827817673009 0 0 0 0 99.35212129098727 -36.510436938517614 0 -36.510436938517614 -100.43862992426875 0 0 0 0 75.449989167122112 -22.250401948348554 0 -22.250401948348554 87.749792335769371 0 0 0 0 -49.649768286086328 -38.435808639678271 0 -38.435808639678271 -133.49009092911911 0 0 0 0 -61.785770512366526 -136.64650248656005 0 -136.64650248656005 -150.81285710589509 0 0 0 0 48.160029662489251 -63.226644714356553 0 -63.226644714356553 -169.84339585906332 0 0 0 0 -22.130798120768304 -64.804752799234393 0 -64.804752799234393 -67.06461745215347 0 0 0 0 40.491021104862739 -52.190511017715835 0 -52.190511017715835 -6.8773172444613664 0 0 0 0 85.015587056521326 -9.3220258336295956 0 -9.3220258336295956 -132.00336842100535 0 0 0 0 13.166325157206302 -13.374775827098802 0 -13.374775827098802 -50.581569192343522 0 0 0 0 100.42243411411619 75.327586786533175 0 75.327586786533175 -7.8583228732926145 0 0 0 0 51.167950506760462 62.635588025036441 0 62.635588025036441 78.361229155976616 0 0 0 0 83.958263942558006 16.206076277262127 0 16.206076277262127 -97.233173097623876 0 0 0 0 114.45014690937387 76.886662432468711 0 76.886662432468711 22.133279423951535 0 0 0 0 256.63950621469121 185.27852645212124 0 185.27852645212124 96.262386595757562 0 0 0 0 274.21952532007708 160.21251440535343 0 160.21251440535343 98.165796218902869 0 0 0 0 174.89089830747616 94.789662806826527 0 94.789662806826527 369.67267065690612 0 0 0 0 604.01254679813792 230.07648514375296 0 230.07648514375296 105.22642849042677 0 0 0 0 3.4338421938578634 0.62437530207982661 0 0.62437530207982661 -1.9422330098040277 0 0 0 0 185.0102178461093 96.759575375694112 0 96.759575375694112 54.238914011790939 0 0 0 0 83.911046630171768 57.141912727813178 0 57.141912727813178 118.00883808439357 0 0 0 0 7.9037911750514809 -2.8769850828112489 0 -2.8769850828112489 0.26655018400273178 0 0 0 0 80.116505125108233 43.105075191985406 0 43.105075191985406 30.736416847316832 0 0 0 0 -15.065323056758643 -203.45363285531766 0 -203.45363285531766 -297.4677024499174 0 0 0 0 2.7043478724481247 -162.94455177417376 0 -162.94455177417376 -268.79799274487414 0 0 0 0 -123.97652763761471 -107.53636929211348 0 -107.53636929211348 -120.39290762981454 0 0 0 0 -9.2476713689175085 -23.100934486089955 0 -23.100934486089955 -224.07052331695581 0 0 0 0 -5.317171210579545 4.0946267546185027 0 4.0946267546185027 9.5221858821932983 0 0 0 0 72.76954223563007 -38.095271445526123 0 -38.095271445526123 -175.81693505040857 0 0 0 0 -38.282128085658769 -77.86817820570559 0 -77.86817820570559 -45.489857617848429 0 0 0 0 -3.2061344152280071 -22.555397112641458 0 -22.555397112641458 -214.61588334338535 0 0 0 0 129.62768594368026 -63.37119095687558 0 -63.37119095687558 -55.217729288436658 0 0 0 0 104.85510677671118 -23.945030105135629 0 -23.945030105135629 14.682015174568733 0 0 0 0 127.81815828990148 96.307632501060198 0 96.307632501060198 -9.7640796511960843 0 0 0 0 252.16200650203245 2.6257253685057549 0 2.6257253685057549 1.192648933859914 0 0 0 0 43.764700892401379 12.348989935881718 0 12.348989935881718 0.95830654185010644 0 0 0 0 170.42763216454659 113.95988170787905 0 113.95988170787905 12.550648516407819 0 0 0 0 441.73841645005086 134.14538911108548 0 134.14538911108548 -1.9682296090204545 0 0 0 0 257.35228913975516 -29.607123240054534 0 -29.607123240054534 -125.04367851024563 0 0 0 0 131.24432451727262 -74.657540031406143 0 -74.657540031406143 74.353855572167049 0 0 0 0 318.887064585404 -134.31274843457595 0 -134.31274843457595 49.027360644105102 0 0 0 0 15.65179308039751 16.133744489303751 0 16.133744489303751 -5.8678573667875753 0 0 0 0 266.98355278236704 193.4036291738139 0 193.4036291738139 63.059198207385634 0 0 0 0 19.419064315246942 8.0082051759827664 0 8.0082051759827664 1.9039025031433994 0 0 0 0 7.3349377411921601 -1.83111873922822 0 -1.83111873922822 -6.3635529321100783 0 0 0 0 128.46366866532662 121.86602742007881 0 121.86602742007881 140.43240809228701 0 0 0 0 273.02940386490809 150.18508288937164 0 150.18508288937164 30.012322430834104 0 0 0 0 128.76763817902793 90.075395318913934 0 90.075395318913934 3.8427029991544259 0 0 0 0 90.111564511993492 211.50922739702082 0 211.50922739702082 68.383308086527904 0 0 0 0 101.49618189664034 374.73545155410648 0 374.73545155410648 -77.31931392129809 0 0 0 0 23.818389589590424 -9.9756175958837048 0 -9.9756175958837048 -38.378874836921568 0 0 0 0 7.3243103807414727 -4.9409113940366645 0 -4.9409113940366645 -2.3137628448993333 0 0 0 0 23.976575148679331 -8.8434130487430593 0 -8.8434130487430593 -37.157835702009834 0 0 0 0 18.999886998313741 7.2095870529028616 0 7.2095870529028616 1.6710326395746051 0 0 0 0 50.305513830384371 -3.8697791409949787 0 -3.8697791409949787 -57.687997694404203 0 0 0 0 48.581020898626775 -13.533404333108933 0 -13.533404333108933 -68.267991211811932 0 0 0 0 42.606959037715569 -32.516948203984612 0 -32.516948203984612 -79.451893371079677 0 0 0 0 -42.987951899878681 -53.068780025704655 0 -53.068780025704655 -51.489776511287346 0 0 0 0 1.5462056192409364 -20.865806101500311 0 -20.865806101500311 -37.159653481063401 0 0 0 0 39.301511576595658 -55.801569253213529 0 -55.801569253213529 -125.12653342454723 0 0 0 0 43.26505214784811 1.3280090617031419 0 1.3280090617031419 -74.69166865973375 0 0 0 0 96.527015311490686 26.619421137786958 0 26.619421137786958 -54.04793632891284 0 0 0 0 55.076983920364 -18.928046662444558 0 -18.928046662444558 -60.026538519470932 0 0 0 0 77.005136720217706 -12.140980945606316 0 -12.140980945606316 -74.732120125965594 0 0 0 0 52.145108684581828 -11.878391304694219 0 -11.878391304694219 -73.02219802642685 0 0 0 0 322.02654421811349 -300.15719569791599 0 -300.15719569791599 156.58383272152878 0 0 0 0 7.5085411110698246 -0.5480796831682202 0 -0.5480796831682202 0.13941909967520427 0 0 0 0 97.417158947314874 -190.6908560686642 0 -190.6908560686642 146.34850738989007 0 0 0 0 763.39351771758447 -245.96283840303067 0 -245.96283840303067 558.42745694378482 0 0 0 0 875.34036393435599 -223.67968608138926 0 -223.67968608138926 -79.633974305822449 0 0 0 0 911.73897612932342 387.86046530045951 0 387.86046530045951 -354.25615443977495 0 0 0 0 418.45378537108627 356.63138167185389 0 356.63138167185389 88.842146202325466 0 0 0 0 -49.357591213296587 -126.64338081547454 0 -126.64338081547454 -120.78808568579461 0 0 0 0 7.5988345200460259 -5.619403709613028 0 -5.619403709613028 -0.029208722856779445 0 0 0 0 49.517612461495446 -46.945524238330108 0 -46.945524238330108 -198.43964925261139 0 0 0 0 212.60123114861381 299.22661433359622 0 299.22661433359622 92.847753127829492 0 0 0 0 963.29524956223395 393.85867445481722 0 393.85867445481722 -25.648175725952683 0 0 0 0 3.6798124961465462 -2.4000373860504425 0 -2.4000373860504425 -0.17956017172379291 0 0 0 0 549.50463968852637 -269.43040995814727 0 -269.43040995814727 101.18294707004361 0 0 0 0 -174.17015869563011 -363.3216792037353 0 -363.3216792037353 -79.858173822347453 0 0 0 0 -12.943608429026881 45.729410815453093 0 45.729410815453093 -72.712341789066159 0 0 0 0 515.71118669613361 -235.90657969755165 0 -235.90657969755165 -157.68531212522021 0 0 0 0 284.92034633895219 224.95589774902055 0 224.95589774902055 174.21090640811963 0 0 0 0 462.24260246299309 -195.85358763046202 0 -195.85358763046202 34.475939547859753 0 0 0 0 53.380942299054368 10.181267186459763 0 10.181267186459763 62.000802511777238 0 0 0 0 112.56140207619865 82.277823440681686 0 82.277823440681686 3.6033531284036826 0 0 0 0 56.238191504648057 -17.342013869550215 0 -17.342013869550215 -50.596942352946826 0 0 0 0 46.049068390735556 -20.840103651125673 0 -20.840103651125673 2.0759292713687501 0 0 0 0 28.763139077690539 51.366558885639847 0 51.366558885639847 207.1743436144418 0 0 0 0 41.544421224931284 25.516848319322662 0 25.516848319322662 67.385897845224008 0 0 0 0 25.732119540778513 29.129045322986144 0 29.129045322986144 162.87018698311113 0 0 0 0 37.739931934280321 -16.215443778357781 0 -16.215443778357781 188.77258318605936 0 0 0 0 64.565798884188553 15.485482581465931 0 15.485482581465931 -6.3698517293510122 0 0 0 0 46.040466964690495 -32.301959417897933 0 -32.301959417897933 97.965461215140522 0 0 0 0 69.786531799243676 -23.921761567386739 0 -23.921761567386739 -6.5734982485837463 0 0 0 0 231.7838329178885 -31.711153677060565 0 -31.711153677060565 135.52272459898541 0 0 0 0 69.471019415163028 70.349094165451334 0 70.349094165451334 131.85924272583816 0 0 0 0 261.47838991166213 210.84632659984891 0 210.84632659984891 222.02899254589283 0 0 0 0 105.23692890693928 179.33371658834494 0 179.33371658834494 146.7676208717221 0 0 0 0 35.291318223258713 120.03284379753677 0 120.03284379753677 94.09456208231768 0 0 0 0 45.323489770995366 61.761743042254238 0 61.761743042254238 -33.916335484662341 0 0 0 0 12.592172710323212 133.0365723277182 0 133.0365723277182 66.330843709386954 0 0 0 0 96.139432192005643 -6.5329481901479198 0 -6.5329481901479198 -31.503044831551961 0 0 0 0 25.79936486333645 4.4358859027640847 0 4.4358859027640847 129.54502461524658 0 0 0 0 47.343305437545496 47.748904500486788 0 47.748904500486788 -141.99494974374784 0 0 0 0 -36.998316861736384 32.679694102603889 0 32.679694102603889 -21.835568485180374 0 0 0 0 45.425011832488963 26.925802101967747 0 26.925802101967747 -217.9135098526458 0 0 0 0 -1.4606764880130285 -0.44141738085782123 0 -0.44141738085782123 0.67260616712205845 0 0 0 0 -104.92339678086137 195.29839741026717 0 195.29839741026717 -198.60031737572427 0 0 0 0 29.914268081938644 87.446765350206988 0 87.446765350206988 -137.51819594134031 0 0 0 0 20.715211010508938 107.59197487482106 0 107.59197487482106 -96.529861102604627 0 0 0 0 -52.581208918472839 80.699384387196005 0 80.699384387196005 -37.359545995505187 0 0 0 0 -11.067894480260293 59.360322733382873 0 59.360322733382873 -137.20985040006988 0 0 0 0 66.409782774290761 -69.99792533493337 0 -69.99792533493337 -47.397147437724016 0 0 0 0 28.481597522732045 33.207590700665605 0 33.207590700665605 -48.525776815049539 0 0 0 0 10.566769544251862 11.220505145024529 0 11.220505145024529 8.5964181996305502 0 0 0 0 -27.812953163424027 85.156962289370313 0 85.156962289370313 -115.80639602276278 0 0 0 0 -64.566994657380747 48.675697233279948 0 48.675697233279948 -87.411029973310178 0 0 0 0 1.1433984194184887 -0.62474693176925733 0 -0.62474693176925733 -3.1549271592470305 0 0 0 0 -15.192781973985348 35.628327722282279 0 35.628327722282279 -70.364186981690182 0 0 0 0 52.878948532528739 38.522316258364754 0 38.522316258364754 -100.24726965256332 0 0 0 0 52.274910493360949 2.2199014841776261 0 2.2199014841776261 -68.090151968551254 0 0 0 0 52.501768232534232 9.4642013038474033 0 9.4642013038474033 -76.905352006579051 0 0 0 0 54.114812803840323 -14.244220541726918 0 -14.244220541726918 -28.87519011663926 0 0 0 0 71.972749649332627 13.910678179582192 0 13.910678179582192 -61.152916475338316 0 0 0 0 59.819531452001002 26.918469439644497 0 26.918469439644497 -21.972150262344257 0 0 0 0 30.216077270708411 -8.8864175420887932 0 -8.8864175420887932 -57.153917120416281 0 0 0 0 
</DataArray>
<DataArray type="Float64" Name="cross_section_updated" format="ascii">
1 1 1 1 0.010524834540772523 1 1 1 1 1 1 1 1 1 1 1 1 1 1 1 1 1 1 1 1 1 1 1 0.0110217409790894 1 1 1 1 0.010497945958022828 1 1 1 1 1 1 1 1 0.010076963052367299 1 1 1 1 0.013785754282089667 0.013823616798854944 1 1 1 1 1 1 1 0.01004196470053886 1 1 0.01370987261681633 0.0097778813298157585 0.010436487943155028 1 0.0088590738130760772 0.010053026109852679 0.011576876574442799 1 1 1 0.0095115753792708868 1 1 1 1 1 1 1 1 1 1 1 1 1 1 1 1 1 1 1 1 1 0.010652456510194605 1 1 1 1 1 1 0.01096262883976231 1 1 0.009652106217671862 1 0.0099794604053228056 1 1 1 1 0.0094195659643128826 1 1 0.009858748050178329 1 1 0.010699897449757462 1 1 1 0.01002017211829442 1 1 1 1 1 1 1 1 1 1 1 1 1 1 1 1 1 1 1 1 1 1 1 1 1 1 0.010671787606931127 1 1 1 0.010711707033260373 1 1 1 1 1 1 1 0.010097253989928039 1 1 1 1 0.010090112906800926 1 1 1 0.010037145474815016 1 1 1 1 1 1 1 1 1 1 1 1 0.010301719929805905 1 0.012560342794628601 1 1 1 0.010900388426492044 1 1 1 1 1 1 1 1 1 1 1 1 0.011469236763986385 0.012211923821885131 1 1 1 1 0.0099729446572597944 1 0.010415366219006262 1 1 1 1 1 1 1 1 1 1 1 1 1 1 1 1 1 1 1 1 1 1 1 1 0.010358955691748124 1 1 1 1 1 1 1 1 1 0.010133801995324165 1 0.010015271051896403 1 1 1 1 1 0.010003386615671366 1 1 1 1 1 1 1 0.010177997272824632 1 1 1 1 0.010056993076708792 1 1 1 1 1 1 1 1 1 0.012728242309681316 1 1 1 1 1 1 1 1 0.01246543997270824 1 0.0096306294748519979 1 1 0.010568847680455174 1 1 1 1 1 0.010022762375113426 1 1 1 1 1 0.012736045584486601 1 1 1 1 1 0.010846253052829042 1 1 1 1 1 1 1 1 1 1 0.011013384999793509 1 0.012214312000750497 1 1 1 1 0.011251662141613269 1 0.010192705564124304 1 1 1 0.012004723336614188 1 1 1 0.012685135042927283 1 1 1 1 1 1 0.010036001409692984 1 1 0.010006293125820723 1 1 1 1 1 1 1 1 1 1 1 0.011502827417242092 0.010633633289098401 1 1 0.011401708996753036 1 1 1 1 1 1 1 0.011337560927968924 1 1 1 1 1 1 1 0.010000896929665781 1 0.010022197236071374 1 1 1 1 1 1 1 1 1 1 1 0.010218849390720191 1 1 1 1 1 1 0.010075514691890051 1 1 1 1 1 1 1 0.012477782735585217 1 1 0.012127963795311905 1 1 1 0.011313894320979838 1 1 1 1 1 1 0.010491941474746549 1 1 1 0.0098338606897979599 1 1 1 0.0098703598552454756 1 1 0.010177554247156849 1 1 1 1 0.010582898921137927 0.010041590293238782 1 1 0.01132667882315282 0.012598152792774639 1 1 1 1 0.0096917807236288223 1 1 1 1 1 1 1 0.0099160105167096051 1 1 1 1 0.010158896600975863 1 1 1 1 1 1 1 0.010360320060869527 1 1 1 0.010030751770221336 1 0.010090740811051583 1 0.010789520780402259 1 1 1 1 1 0.010258000816734406 1 1 1 0.01080702516454829 1 0.010304917393672872 1 1 0.010780102419383557 1 1 0.010008485188515149 1 1 1 1 1 1 1 1 1 1 1 1 1 1 0.010083694777571997 1 1 1 1 1 1 0.01085221818692904 1 0.010556920213633079 1 1 1 1 0.01231737942132566 1 1 1 1 0.010001847669215958 1 1 1 1 1 1 0.011746978884640467 1 1 1 1 1 1 1 0.010715042600532847 1 1 1 1 1 0.011321187640885053 1 1 1 1 0.0106076182266868 1 1 1 1 0.012280725911801002 1 1 1 1 1 1 1 0.012744822108476977 1 1 1 1 1 1 1 1 1 1 1 0.010475138329647984 1 1 1 1 1 1 1 1 0.01103480899921731 1 1 1 1 1 1 1 1 1 1 1 1 1 1 1 1 0.009814444984309157 1 1 1 1 1 1 1 1 1 1 1 1 1 1 1 1 1 1 1 1 1 1 1 1 1 1 1 1 1 1 1 1 1 1 1 1 1 1 1 1 1 1 1 1 1 1 1 1 1 1 1 1 1 1 1 1 1 1 1 1 0.010467996618751717 1 1 0.010160284346160883 1 1 1 1 1 1 1 1 1 0.010984270537134811 1 1 1 1 0.010516273918383097 1 1 1 1 1 1 1 1 1 1 1 1 1 1 1 0.010722864256512001 1 1 1 1 1 1 1 1 1 1 1 1 1 1 0.010416338044646853 1 1 1 1 1 1 1 1 1 0.010088380998505729 0.010869003950523419 1 1 1 0.010088877555302847 1 1 1 1 1 1 1 1 1 1 1 1 0.01084536699853169 1 1 1 1 1 1 1 1 1 1 1 1 1 1 1 1 1 1 1 1 1 1 1 1 1 1 1 1 1 1 1 1 1 1 1 1 1 1 1 1 1 1 1 0.010303729650817123 1 1 1 1 1 1 0.0099939110164033711 1 1 0.010255426550466643 1 1 1 0.010625115388970149 1 1 1 1 1 1 1 1 1 1 1 1 1 1 1 1 1 1 1 1 1 1 1 1 1 1 1 1 1 1 1 1 1 1 1 1 1 1 1 1 1 1 1 1 1 1 1 1 1 1 1 1 1 1 1 1 1 1 1 1 1 1 0.01039184798565281 1 1 1 1 1 1 1 1 1 1 1 1 0.010309477178461974 1 1 1 1 1 1 1 1 1 1 1 1 1 1 0.010506726750333827 1 0.010392123316455358 1 1 0.010648408097778467 1 1 1 0.0099984523578734649 1 1 1 1 1 1 1 0.010808218446856296 1 0.010783139463962052 1 1 1 1 1 0.010271834685392197 1 1 1 1 1 0.011052045112505463 1 1 1 1 1 0.010465721502757205 0.010034929439630014 1 1 1 1 1 0.010001469544178014 1 1 1 0.0104883294075605 1 0.011183592455670507 1 1 1 0.011369228940236328 1 0.011816653240063016 1 1 1 0.011181647739726873 1 0.010494234755647071 1 1 1 1 0.010664564013882934 1 1 1 1 1 1 1 1 1 1 0.0099848951171974849 0.010027927702441861 1 0.013656908847189205 1 1 0.012555926893039861 1 1 0.01015615046441073 1 1 1 1 0.010122641853091108 1 1 1 1 1 1 1 1 1 1 1 1 1 1 1 1 1 1 1 1 1 1 1 1 1 1 1 1 1 1 1 0.011144061708476186 1 0.01001362752545636 0.010644205409592397 1 1 0.0090572486760257323 1 1 1 1 1 1 1 1 1 1 1 1 1 1 1 0.010047623249124102 1 1 1 1 1 1 1 0.01241392565496717 1 1 1 1 1 1 1 0.0099010833950209983 1 1 1 1 1 1 1 0.0098350518818688601 1 1 0.0097149851547342729 1 1 1 1 1 0.010061680036667988 0.0093978796759244775 1 1 1 1 1 0.0091235139989932976 1 1 1 1 0.013851839845425352 1 1 0.0099837506437879357 1 1 1 1 1 0.011866077116648381 0.010860588072494506 1 1 1 1 1 1 1 1 1 1 1 1 0.0098659095498598026 1 1 1 1 1 1 1 1 1 1 1 1 1 1 1 1 1 1 1 1 1 1 1 1 0.0094088493541353031 1 1 1 1 0.010042554963691349 1 1 1 0.012008571991992163 1 1 1 1 1 1 1 0.01462600927008304 1 1 1 1 1 0.014558606991028905 1 1 1 1 1 1 1 1 1 1 1 1 1 1 1 1 1 1 0.010316607834392932 1 1 1 1 1 1 1 1 1 1 1 0.010694906752266357 0.010715863085977531 1 1 1 0.0090654414621743496 0.014127671967701077 1 1 1 0.013552387950374684 1 1 0.010464806521863141 1 1 1 0.01037868315375241 1 0.014384203875927436 0.010071925411963186 1 1 1 1 1 1 1 1 1 1 1 1 0.010070631414562176 1 1 0.00998292958700942 1 1 0.0099794647443234852 1 0.0096644404005226444 1 1 1 0.011844071213402897 1 1 1 1 1 1 1 1 0.010811813631906825 1 1 1 1 1 0.0099377552903488955 1 1 1 1 1 1 1 0.0099885426323372169 1 1 1 1 1 1 1 1 0.013665483653558158 1 0.010027386578075854 1 1 1 1 0.011565210530759273 1 0.0094726095753728395 1 0.010571747844082382 1 0.011349259672881813 1 1 1 1 1 1 1 0.0097270015140603853 1 1 0.009720356321471427 1 0.0093630515868454618 1 0.012300828670526481 1 1 0.010828045118740678 1 1 1 1 1 1 1 1 0.010278278334399251 1 1 1 1 1 1 0.010188259256570969 1 1 1 1 1 1 1 1 1 1 1 1 0.010154203617963285 1 1 1 0.010755265839986591 1 1 1 1 1 1 0.010238910996716314 1 1 1 1 1 1 1 1 1 1 1 1 1 1 1 1 1 1 1 1 1 1 1 1 1 1 1 0.011317083508033307 1 0.0097013857388506888 1 1 1 1 1 1 1 1 1 1 1 1 0.010626692322521549 1 1 0.0098939586532209509 1 1 0.013478295506198111 1 1 1 1 1 1 1 1 1 1 1 0.0097374867040562474 1 0.0098341541217516759 1 1 1 1 1 1 1 1 1 1 1 1 1 1 1 1 1 1 1 0.01297428989323187 1 1 1 1 0.012068667923682047 1 1 1 1 0.0096636333901683989 1 1 0.010026903356038178 0.011052351188265391 1 1 1 1 1 1 1 1 1 1 1 1 1 0.0099857319469895747 1 1 1 1 1 1 1 1 1 0.010280454660031045 1 0.010401346145828419 1 1 1 1 1 1 1 1 1 1 1 1 1 1 1 1 1 1 0.010806759078544914 1 1 1 1 1 1 1 1 1 1 1 1 1 1 1 1 1 1 1 1 1 1 1 1 1 1 1 1 1 1 1 1 1 1 1 1 1 1 1 1 1 1 1 1 0.01011143297305429 1 1 1 1 1 1 1 0.010513850617350339 1 1 1 1 1 1 1 1 1 1 0.010582113889397848 1 1 1 1 1 0.010039975165822269 1 1 1 1 1 1 1 1 1 1 1 1 1 0.01033518141769104 1 1 0.0099599829491475497 1 0.010156819942731644 1 1 1 1 1 1 1 1 1 1 1 1 1 1 1 1 1 0.010912239122828375 0.0099939131865708127 1 0.010023596247796076 1 1 1 1 1 1 0.009806150874031451 0.010711329717140984 1 0.0096255010856998984 1 1 1 1 1 1 0.010213931716869989 1 1 1 1 1 1 1 1 1 1 1 1 0.01017888323600233 1 1 0.0099811980692587378 1 1 1 1 1 0.010490490352694063 1 0.010075012155903874 1 0.011358934583622355 1 1 1 1 1 1 1 1 1 1 1 0.010339278568183001 1 0.0098467449098297924 1 1 0.0099556393416502312 1 1 1 1 1 1 1 1 1 0.010099509867813987 0.011626300859857455 1 1 1 1 0.011465426510285755 0.011106215658087381 1 1 1 0.01218803280185979 1 1 1 0.010240830183196142 1 1 1 1 1 0.011385154106913634 1 1 0.011374067997373978 1 0.011318372408454931 1 1 1 0.011450922090109228 1 1 1 1 1 1 0.011522067226780007 1 0.01134372763755208 0.010207457177666307 1 1 1 1 1 1 1 0.010964120789177403 1 1 0.013157344498016692 1 0.0097734272016628022 1 1 1 1 1 1 1 1 1 1 1 1 1 1 1 1 1 1 1 1 1 1 1 1 1 0.013692665142854193 1 1 1 1 1 1 1 0.0096539836285416715 1 1 1 1 0.010006141993428818 1 1 1 1 1 1 1 1 1 1 1 0.010419401696144852 1 1 1 1 1 1 1 1 1 0.010177517911619909 1 1 1 1 1 1 1 1 1 1 0.011250229238674419 1 1 0.011006927668316882 1 1 1 1 1 1 1 0.012913220484682228 1 1 1 0.0097594471097375707 1 0.0085648473669410162 1 0.0084199710529216099 1 1 1 1 1 1 1 1 1 1 1 1 1 1 0.010077981172386332 1 1 1 0.010755024735222662 1 1 0.010183217699812926 1 1 1 1 1 1 1 1 1 1 1 1 1 0.010206652121087652 1 0.0088568438330345663 1 1 0.0093148054479309742 1 0.010115023103774117 1 1 1 1 1 1 1 0.014411857174003192 1 1 1 1 1 1 1 0.010249577107966878 1 1 1 0.0099994843779812222 1 1 1 1 1 1 0.010282916443860316 1 1 1 1 0.012977076680378574 1 1 1 1 1 1 1 1 1 1 1 0.0096516010277783552 1 1 1 1 1 0.0089841691527973791 0.010589608876466466 1 1 1 0.012928835163429939 0.013510774447426398 1 1 1 0.009613004348189947 1 1 0.013779942174743501 1 1 0.011534082671904203 1 0.0095723625679836055 0.013391989756661957 1 1 1 1 0.012197209715618013 1 1 1 1 1 1 0.010021964704270254 1 1 1 1 1 0.010057736624363114 1 1 1 1 1 0.010017406649496957 1 1 1 1 1 1 1 1 1 1 1 1 1 0.010012176573010725 1 1 1 1 1 0.010714132845124832 1 0.018728999836297281 1 1 1 1 1 1 0.017893953989808649 1 1 1 1 1 1 0.012895611962631986 0.011565265291220671 0.0099620656250818899 1 1 1 0.010035648976288379 1 1 1 1 1 1 1 1 1 1 1 0.010024157499404756 1 1 1 1 1 1 1 1 1 1 1 1 0.010341681651881134 0.010734489811993625 0.011528686338348543 1 1 0.010273448940435661 1 1 1 0.015567041389575046 1 1 0.010862545220684413 1 0.013838013248365699 1 0.010279349985344759 1 0.015006115704367587 0.012712670469138911 0.010069977951773713 1 1 1 1 1 0.015221559802265267 1 1 0.015238871065779938 1 1 1 0.0092895094745107792 1 0.0095664145057072613 1 1 1 1 0.0098844914723663652 1 1 1 1 1 1 1 0.010397648567222854 1 1 1 1 0.010143969567583913 1 1 1 1 1 1 1 0.0099998816169721526 1 1 0.0099903409289742798 1 1 1 1 1 0.010087170316515272 1 1 1 1 1 1 1 1 1 0.01026824234416767 1 1 1 1 1 1 1 0.010320768553929056 1 1 1 1 1 0.010208480719397204 1 1 0.010634705083376043 1 1 1 1 1 1 1 1 1 1 1 1 1 1 1 1 1 1 1 1 1 1 1 1 1 1 1 1 1 1 1 1 1 1 1 1 1 1 1 1 0.014106123939044533 1 0.010319056748867461 1 0.0099291774950043717 1 1 0.013513734057932299 1 1 1 1 1 1 1 1 1 0.01118010945099303 0.012756561728396006 1 1 1 1 0.0138348243545741 1 1 0.013509295090379878 1 1 1 1 1 0.010119671838241634 1 1 1 0.01404061245138483 1 0.013548128247116414 0.013642472888175713 0.013320920543590079 1 1 1 1 1 1 1 1 1 1 1 1 1 1 1 1 1 1 1 1 1 1 1 1 1 1 1 0.010738958474621436 1 1 0.011058261356477431 1 1 0.010980466705791378 1 1 1 1 1 0.012646407705041371 1 1 0.011221354244149957 1 1 0.012676728279312825 0.010339900254856951 1 0.01138314120356867 0.0093844332550608953 1 1 1 0.010003216134375166 1 0.010108614583064316 1 1 1 1 1 1 1 0.010982718735616043 1 1 1 1 1 1 1 1 1 1 1 1 1 1 1 1 1 1 1 1 1 1 1 1 1 1 1 1 1 1 1 1 1 1 1 1 1 1 1 1 1 1 0.010238746854681296 1 1 1 1 1 1 0.0099851238330245697 1 1 1 1 1 1 1 1 1 1 1 1 1 0.01051337898384291 1 1 1 0.010648560788804351 1 1 1 1 1 1 1 0.011195523478786639 1 1 1 1 1 1 1 1 1 1 1 1 1 1 1 1 0.0089995389525171984 1 0.010157499003126272 1 1 0.010573666727467785 1 1 1 1 0.010009279165518038 1 1 1 1 1 1 1 1 1 0.0095254498225147751 1 1 0.010113964056655588 1 0.0099435274118560932 1 1 1 1 1 0.0098525528758071582 1 1 0.009814263060605271 1 1 1 1 1 0.010667034352663701 1 1 1 0.013395638424786195 1 1 1 1 0.013372008097554306 1 1 1 0.010223161516728582 1 1 1 1 1 1 0.011065867851819334 1 1 1 0.011453791136191516 1 1 0.0099778911431972102 1 1 0.01163951964832092 1 0.010749972849830629 0.010331183154648472 1 1 1 1 1 1 1 1 1 1 1 1 1 1 1 1 1 1 1 1 1 1 1 1 1 1 1 1 1 1 1 1 1 1 1 1 1 1 1 1 1 1 1 0.010468059978355116 1 1 0.010011980926394029 1 1 1 0.010342908333879144 1 1 1 1 1 1 1 1 1 1 1 0.010111422036658425 1 1 1 1 1 1 1 1 0.010143096427517472 1 1 1 1 1 1 1 1 1 1 0.010274632129161616 1 1 0.010209354072697938 1 1 0.0099214164650643904 0.011088172992731496 1 1 0.010350498900303947 1 1 1 1 1 1 1 1 1 1 1 1 1 0.0099823049387200748 1 1 0.01044967460034325 1 1 1 1 1 1 1 1 0.0099906007566303752 1 1 0.011850574381066424 0.010001713590715394 1 0.010234467726597824 1 1 1 1 0.010017363216795718 1 1 1 1 0.013180276382404345 1 1 1 1 1 1 1 1 1 1 1 1 0.010369101190512202 1 1 1 0.011884191968153672 1 1 1 1 1 1 0.010007964096951084 1 1 1 1 0.010009832583807039 1 1 0.012052694687077245 0.009464498006229248 1 1 1 1 1 0.011141062972894227 1 1 0.012593776867850733 1 1 1 1 1 1 1 0.0092911897867195489 1 0.016420261735915622 1 1 1 1 1 1 1 0.011766623258722828 1 1 1 1 1 1 0.012192820543138029 1 1 1 1 0.0099960933941601188 1 1 1 1 1 0.0095589568657826231 1 1 1 1 0.010019491005172817 1 1 1 1 1 1 1 1 1 1 0.0098858108489628619 1 1 0.012799073018091526 1 0.009634613884141904 1 1 0.012126151076007492 0.0098377717347016939 1 1 1 0.010005817134380847 1 1 1 1 1 1 1 0.010251841860211802 1 1 1 1 1 1 0.010053620994185389 1 1 1 1 1 1 0.010400882740680687 1 0.015804261520579704 0.0099094366360093916 1 1 1 1 0.011272123248456459 1 1 1 0.010152724181241603 1 1 1 1 1 1 1 1 1 1 1 1 1 1 1 1 1 1 1 1 1 1 1 1 0.010000853515081485 1 1 0.0099798292162695534 1 1 1 1 1 0.011309186305752726 0.012308303429405934 1 1 0.010006269423275196 1 1 1 1 0.010613212352275811 1 0.010446637793507284 1 1 1 1 0.0099322779750484168 1 1 1 1 1 1 1 0.010152443810553186 1 1 1 1 1 1 0.010017549361749695 1 1 0.0099287986072231771 1 1 0.010364124932380238 1 1 1 0.010902810228620691 0.010457949719207766 1 1 0.011290478859222686 1 1 1 1 1 0.011550679560376427 1 1 1 1 1 1 1 1 1 0.0099771365648501729 0.011781842037030572 1 1 0.010203453175394124 1 1 1 1 1 1 1 1 1 0.01369235577490715 1 1 0.013071954041749252 1 0.010500908928900397 1 1 0.010278863617780666 1 0.010065543485007405 1 1 1 0.01002361200383463 1 1 0.010013932540345643 1 0.014237024982280175 1 1 1 1 1 1 1 1 0.01015938678404343 1 0.0099835733332250612 1 1 1 0.010122203814108822 1 1 1 1 1 1 0.0099743982801064352 1 1 1 1 1 0.010059389037654781 1 0.0099999466294882627 0.010685250857989685 1 1 1 1 1 0.0099945293055157189 1 1 1 0.0099576084881107044 1 0.010851963173446166 1 1 1 1 1 1 1 1 1 0.010207655362527565 1 1 0.0097818230253070883 0.010961997116498264 1 1 1 0.010724066749029662 1 1 1 1 0.010137553707936125 1 0.010043073561496706 1 1 1 1 1 1 1 1 0.010051206612746687 1 0.010154671949142411 1 1 1 1 1 1 1 1 1 1 1 0.010084118644926362 1 1 1 1 1 1 1 1 0.010223826332747602 1 0.010678845141801811 0.009818467879609577 1 0.010557754815173038 1 1 1 1 0.010207502574036817 1 1 1 0.010195343855423106 1 1 1 1 1 1 0.011648486570833529 1 1 1 1 1 0.0098741823486121656 0.011703308947516023 1 1 1 1 1 1 1 1 1 0.010077860953457083 1 1 1 1 1 1 1 1 1 1 0.010201244882567538 1 1 1 1 1 0.010043138941267855 1 0.010149130671143917 1 0.009835319225087685 1 1 1 1 1 1 1 1 0.010175509571751146 1 1 1 1 1 1 1 1 1 1 1 1 1 1 1 1 1 1 1 1 0.0099865246599839877 1 1 1 1 1 1 1 1 1 0.009868449705904319 1 1 1 1 1 0.009938775868173752 1 1 1 1 1 1 1 0.010028956317503905 0.010170054875745089 1 1 0.010045598705961899 1 1 1 1 1 1 1 1 1 0.009972192918187097 1 0.010004752448025005 1 1 1 1 1 0.010004751541580618 1 1 1 1 1 1 1 1 1 1 1 1 1 0.010461259769148093 0.010109934533983466 1 1 1 1 1 1 1 1 1 1 1 0.0099024435558982288 1 1 0.010330511794300046 1 0.010276975835596287 0.010648524780157485 1 0.0097485053134617871 1 0.010343382085440358 1 1 0.010000402722727442 1 1 1 1 0.010411762889371137 0.010552529298738492 1 1 1 1 1 1 1 1 1 1 1 1 0.0099535392797767269 1 1 1 1 1 1 1 0.010077199888187206 0.010283912765615388 1 0.010670626409609515 1 0.011169160287688887 1 1 1 1 1 1 0.010364479416339265 1 0.0096189344108319526 1 1 1 1 1 1 0.0098334556446646997 1 0.010856180796494272 1 1 1 1 1 1 1 1 1 1 1 1 1 1 1 1 1 1 1 1 1 1 1 0.010000180635371126 1 1 1 0.010008311435111368 1 1 0.010115058467839874 1 1 0.01148995629433016 1 1 1 1 1 1 1 1 1 0.011708161471197567 1 1 1 0.011757835158360777 1 1 1 1 0.011732656974874607 1 1 1 0.010546971600671909 1 1 1 0.011626480293718804 1 1 0.010001583560698607 1 1 1 1 1 1 1 1 0.012165668167459138 0.010294567284974783 0.010417154185919403 1 0.010686149020056726 1 1 1 0.010230096619764291 1 1 1 1 1 1 0.011668405979363722 0.012076136681279775 1 1 1 1 1 1 1 0.012680328304275311 1 1 0.012634043778843061 1 1 1 0.010160999841852408 1 1 1 0.012807807970878722 1 1 1 1 1 0.015961897174877691 1 1 1 1 1 1 0.016185444621764931 1 1 1 0.010577032184301515 1 1 1 1 0.012703217279589944 1 0.012177791202877392 0.010366170664813146 1 1 0.010758540343293882 1 0.0099368146805752459 1 0.010533019082812047 1 1 0.011086003881591444 1 1 1 1 1 1 1 1 1 1 1 0.010161108405939964 1 0.0099926954886186119 1 1 1 1 1 1 1 1 1 1 1 1 1 1 1 1 1 1 0.0099836947468428666 1 1 1 1 1 1 1 1 1 1 1 1 1 1 1 0.011011353569733599 1 1 1 1 1 0.011329764686354179 1 1 1 1 1 1 1 1 1 1 0.012411008577446973 1 1 1 1 1 1 0.010192702557906483 1 1 1 1 1 1 1 1 1 1 1 1 1 1 1 1 1 1 1 1 1 1 1 1 1 1 1 1 1 1 1 0.010149821646448395 1 1 1 1 1 1 1 1 1 1 1 1 1 1 0.014551087448317053 0.011822678364299611 1 1 1 1 1 1 1 0.015544881693264675 1 1 1 1 1 0.010704065523113487 1 1 1 1 1 1 1 0.011103578606409583 1 1 1 1 0.010390051116200553 1 1 1 1 1 1 1 0.0094749161583923634 1 1 1 1 0.0093957618915022668 0.011723203436984244 1 0.012438444199703764 1 1 0.015300169044970686 0.013141449131306856 1 0.011459648822503934 1 1 0.014331995492486187 0.010870165422470213 1 1 1 1 1 1 1 1 0.014536533022331681 1 1 1 1 1 1 1 1 1 1 1 1 1 1 0.015581421501309065 1 0.0095738433588869899 1 0.010653708895882359 1 1 0.014854016719116413 1 1 0.0088204421847770421 1 0.010972300894699728 1 1 1 0.014575514242141917 0.010004969044589026 1 1 0.010181809421845021 1 1 0.012965656814279376 1 1 1 1 1 1 1 1 1 1 1 0.014352348452956926 1 1 1 1 1 1 1 1 1 1 1 1 1 1 1 1 1 1 1 1 1 1 1 1 1 1 1 1 0.010596853477402029 1 1 1 1 0.0096851012432934928 1 1 1 1 1 0.013739115657752654 1 0.013316606459994719 1 0.01155410413889792 1 1 0.010178594259534077 1 1 1 1 0.012591051445296243 0.010085314985470009 1 1 1 1 1 1 1 1 1 1 1 0.013553591769400915 1 1 0.01029499605875938 1 1 1 1 1 1 0.010133996216906974 1 1 1 1 1 1 0.013454568280177114 1 1 1 1 1 1 1 1 1 1 1 0.011498736799750471 1 1 1 1 0.010203672199722345 1 1 1 0.010748555223085954 1 1 1 1 1 0.010423575249248728 1 1 1 1 0.010453159752006653 1 1 0.011184657252890149 1 0.011828035778663289 1 1 1 1 1 1 1 1 1 1 0.01259592727785225 1 1 1 1 1 1 1 0.013261898561924088 1 1 1 1 1 1 1 1 1 1 1 1 1 1 1 1 1 1 0.010494322001090278 0.011625097835361486 1 1 1 1 1 1 1 0.01217799677467918 1 1 1 1 1 1 0.0080765792228709669 1 1 1 1 1 1 1 1 0.013071360022924278 1 1 0.013400435848398343 1 1 1 1 1 1 1 1 1 1 0.01232722989644074 1 1 1 1 1 1 1 1 1 1 1 1 1 1 1 1 1 0.010008919133596984 0.012373579839807861 1 0.012875964882621509 1 1 1 1 1 0.014424675172122691 1 1 1 1 1 1 1 0.01381461238018817 1 1 1 1 1 1 1 1 1 1 1 1 1 1 0.0099468155717132162 1 1 1 1 1 1 0.009785283642584474 1 1 1 1 1 1 1 1 1 1 1 1 1 1 1 0.010174272696283094 1 1 0.009942264011974674 1 0.010061739467287575 1 1 1 1 1 0.0098067133018704851 0.010204417517028632 1 1 1 1 0.0099046016668230298 0.010018957248928748 1 1 1 1 1 1 1 1 1 1 0.010175566298445533 1 1 1 1 1 1 1 1 1 0.0095511456679966671 1 1 0.012951623700008933 0.010455351781029108 0.010248754519279007 1 1 0.012774771155403784 1 1 1 0.01020627338681627 1 1 1 1 0.015605974804922455 1 1 1 0.015076508648574842 1 1 1 1 1 1 1 0.010134128251131498 1 1 1 0.010194212672152383 1 1 1 1 1 1 1 1 1 1 1 1 1 1 0.010039161561322327 1 1 1 0.0099627718871443116 1 1 1 1 1 1 0.011603083215222625 1 1 1 1 1 1 1 1 0.0096619809181269171 1 1 1 1 1 1 1 1 1 1 1 1 1 1 1 1 1 1 1 1 1 1 1 0.010025220643266917 1 1 0.011650504236046518 1 1 0.010176200995696848 0.010445076957747754 1 1 0.0095617849684398546 1 1 1 1 1 1 1 1 0.0098394914448923562 1 1 1 1 1 1 1 1 1 1 0.010978969416452154 1 1 1 1 1 1 1 1 1 1 1 1 1 1 1 1 1 1 1 1 1 1 1 1 1 1 1 0.010564200571016976 1 0.0097734015159307158 1 1 1 1 1 0.0098643560543298994 1 1 0.010035212328063505 1 1 0.011137484025559577 1 1 1 1 1 1 1 1 1 1 1 0.010425905130681267 1 1 1 0.011373955050061963 1 1 1 1 1 1 1 1 1 1 0.00867578083736174 1 1 1 1 1 1 0.0094379220518385556 1 1 1 1 1 1 1 1 0.0098330033134363774 1 1 1 1 0.010126663931602102 1 1 1 1 1 1 1 1 1 1 1 1 1 1 1 1 1 1 1 1 0.0095092322877596176 1 1 1 1 0.0099936288067338161 1 1 1 1 1 1 1 1 1 1 1 1 1 0.0098636984942213589 1 1 1 1 0.0097904069233016484 1 1 1 1 1 0.010097175573743074 0.011900727943439424 1 1 1 1 0.01066105916313664 1 1 1 1 1 1 1 1 1 1 1 1 1 1 1 1 1 1 1 1 1 1 1 1 1 1 1 0.0098474962433584903 1 1 1 1 0.010106538827273095 1 1 1 1 1 0.010055796816247374 1 1 1 0.0096925148667488647 1 1 1 1 1 1 1 1 0.010884927983137812 1 1 1 1 1 1 0.010784363470749941 1 1 1 1 0.010379638892872432 1 1 1 1 1 1 1 1 1 1 1 0.010208106277109804 1 1 1 1 1 1 1 1 0.01020581517644235 1 1 1 1 0.010709978510625488 1 1 1 1 0.011140549436800639 1 1 1 0.010497310448451298 1 1 1 1 1 1 1 1 1 0.010995013761944485 1 0.0099547063192059384 1 1 1 1 0.010624638176742987 1 0.010309780508892532 1 1 1 1 1 0.010381828820101108 1 1 0.010041123625870183 1 1 0.010131542446761444 1 1 0.010458165405191323 1 1 0.010087739927078431 0.010790263518348921 0.010427331600026974 1 0.011223170745611539 1 0.01134872352863437 1 1 1 0.011587601262992903 1 1 0.010046457731358725 0.01088472782571385 1 0.011059227972326937 1 0.0099208216019754762 1 1 1 1 1 1 1 1 1 1 1 1 1 1 1 1 1 1 1 1 1 1 1 1 0.010590410127431173 1 1 1 1 1 1 1 1 1 1 1 1 1 1 1 1 1 1 1 1 1 0.009851041043830909 1 1 1 1 1 1 1 1 1 1 1 1 1 1 1 1 1 1 1 1 1 1 1 1 1 1 1 1 0.0094975447007640389 1 0.010030744132672331 1 1 1 1 1 1 1 1 1 1 1 1 1 1 1 1 1 1 1 1 1 1 1 0.013742077699424452 1 1 0.0099974332284564552 1 1 1 0.010346274723019053 1 1 1 0.012512927852193836 1 1 1 1 1 1 1 1 1 1 1 1 1 1 1 1 0.012472967637933962 1 0.01121423771482275 0.012000980432050329 0.011387231021788128 1 1 1 1 0.011544132167591755 1 1 0.010029831146908325 0.010635931778992124 1 1 1 0.011638571964610007 0.011847165903596172 1 1 1 1 1 1 1 1 0.010004435892941334 0.013408908901077024 1 1 1 0.011075610766215492 1 0.0098545015504879555 1 1 1 0.013486166058826795 1 1 1 1 0.0099494751778789227 1 0.0093399437509358325 1 1 1 1 1 1 1 1 1 1 1 1 1 0.015130371906884913 1 1 0.010000551168322963 1 0.016919125305247876 1 0.0096298650531003987 0.0092025731303022208 1 1 1 1 1 0.013489445079314263 0.0094402094467125643 1 1 1 1 0.014107768757627238 1 1 1 1 1 1 0.010397518168475889 1 0.0085711805593341305 1 1 1 0.010808244553133527 1 1 0.0093371690771340363 1 1 1 1 1 1 0.010525065809891491 1 0.012335295877060337 1 1 1 1 0.012384910832530883 1 1 1 1 1 1 1 0.011773733421034318 1 1 1 1 1 1 0.012875355360194985 1 1 0.0098893441214815275 1 1 0.010450215684027563 1 1 1 1 1 1 1 1 1 1 1 1 1 0.0091421331340746179 1 1 1 1 1 1 1 0.010028045185823915 0.010904885648537263 1 1 1 1 0.011421705138430464 1 1 1 1 1 1 1 0.0099528092485010947 1 1 0.01026459201254943 1 0.01024169403135311 1 0.010790840120564804 0.0099997614446894305 1 1 1 1 1 1 1 0.009958139444621622 1 1 1 1 0.0098910859336582124 1 0.019125623033629208 1 1 0.015288615492149896 1 1 1 1 1 1 1 1 1 1 1 1 1 1 1 1 1 1 1 1 1 0.0101024833585532 1 1 1 1 1 1 1 1 1 0.010227938746895751 1 1 1 1 1 1 0.010484125331290754 1 1 1 1 1 1 1 1 1 1 1 1 1 1 1 1 0.010003783645444657 1 1 1 1 1 0.010118646646373972 1 1 1 1 1 1 1 1 1 1 1 1 1 1 1 1 1 1 1 1 1 0.0098966180444677136 1 1 1 1 1 0.010049390592549449 1 1 1 1 1 1 1 1 0.010413260841843686 1 1 1 1 1 1 1 1 1 1 1 1 0.010143607661694542 1 1 1 1 0.010157074257448682 1 1 1 1 0.010165108078479528 1 1 1 1 1 1 1 1 1 1 1 1 0.0098714462561161499 1 1 1 1 1 1 1 1 1 1 1 1 1 1 1 1 1 0.0094687853396959246 0.012614129186477164 1 1 1 0.009991714203816119 1 0.010146722389414234 1 0.012647511081776169 1 1 0.0099761902382850525 1 1 1 1 1 1 0.0099443667113990764 1 0.010063848401929965 1 1 1 1 1 0.010032732876430264 1 0.0094614173295388976 1 1 1 1 1 1 1 1 1 1 1 1 1 1 1 1 1 1 0.0099791239898352653 1 1 1 1 1 0.0099430986813470977 1 1 1 1 1 1 1 1 1 1 1 1 1 1 1 0.010145453853112274 1 1 0.010176943515767227 1 1 1 1 0.01016764309536841 1 1 0.012023303125413002 0.010260016244496694 1 1 1 0.01124166773775823 1 0.0091796403566720749 0.010761970109346521 1 1 0.0098923736186273606 1 0.011277693428568759 1 0.009940447112428431 1 1 0.0098079854117462985 1 0.012872016348679145 1 0.0096446641893489886 1 1 1 1 1 0.010139897108917339 1 1 1 1 1 1 1 0.010210310272516121 0.009651049081524395 1 1 1 0.0098317845220841672 1 0.009937080802472964 1 1 1 1 1 1 1 0.010497806519123531 1 1 1 1 1 0.0099432647365387903 1 1 1 1 1 0.0097797543092510986 0.0098598375932758501 1 1 1 1 1 1 1 1 1 1 1 1 1 1 1 1 1 1 1 1 1 1 1 1 1 1 1 0.01125539270502891 1 1 0.010938027139350423 0.01090471960490535 1 1 1 1 0.012049426532384399 1 1 0.010003107245957845 1 1 1 1 1 1 1 1 1 1 0.010810507602694702 1 1 1 0.01178197089690191 1 1 1 0.010439824859293002 1 0.010970494364316945 1 1 1 1 1 1 0.01015164429830265 1 0.01026787300312222 1 1 1 1 1 1 0.010027200732254082 1 1 1 1 0.01002568647795056 0.010188267448682765 0.01077160494728264 1 0.010226837916375664 1 1 1 1 1 1 1 0.011127578925212678 1 1 1 1 1 1 1 1 1 1 1 0.010076528674738128 1 1 1 1 0.011225348805214612 1 1 0.010388250902499743 1 1 0.010683757287822343 1 0.010000056215166019 1 0.011053034432570615 1 0.010139716872284675 0.011091989832831526 1 1 0.0099975088719755512 1 0.01029513332077262 1 1 1 1 1 1 1 0.017810821553436908 1 1 1 1 1 1 1 1 1 0.019199168243113289 1 1 0.0099423075072284303 1 1 1 1 1 1 1 1 1 0.018546289141069046 1 1 0.0099022864553396841 1 1 1 1 1 1 1 1 1 1 1 1 1 1 1 1 1 1 1 1 1 1 1 1 1 1 1 1 1 1 1 1 1 1 1 1 1 1 1 1 1 1 1 1 0.0097166629415341155 0.010008510560096702 1 1 1 1 1 1 1 0.0099933328088135445 1 1 1 0.014321823505022115 1 1 1 1 0.013104577962142603 1 1 0.010045004205077111 1 1 1 1 1 1 1 1 1 1 1 1 1 1 1 1 1 1 1 1 1 1 1 1 1 1 0.012396570800285698 1 0.010787088255172987 1 1 1 1 0.010056503820628957 0.0093578602056037189 0.009938696367481464 1 1 1 1 1 0.009989666567609563 1 0.010092635422400414 1 1 1 1 1 1 1 1 1 1 1 1 1 1 1 1 1 1 1 0.010242457068848807 1 1 0.010116754886677369 1 1 1 1 1 1 1 1 1 1 1 1 1 1 1 1 1 1 1 1 1 1 0.01237290400747282 1 1 1 1 0.0099807694020794743 0.012659721284503735 0.0085421381967537031 1 1 1 1 1 1 0.010249522016529015 1 1 1 1 1 1 1 1 1 1 1 1 1 1 1 1 0.010239742440567353 1 1 1 1 0.011909350564503806 1 1 1 1 1 1 1 1 0.010396508872291283 1 1 1 1 1 1 1 1 0.0099394152905603154 1 0.013938986986768926 1 1 0.012776913310230937 1 0.0092847737897681082 1 1 0.013049158911244895 1 1 0.012489353918349124 1 0.010358630341720248 1 1 1 1 1 0.011280508913802331 1 1 1 1 1 0.010053569001663858 1 1 1 1 1 1 1 1 0.016818318109545469 1 1 1 1 1 0.013024705840424857 1 1 0.01000928261721371 0.013890604324648293 1 0.010006849709020181 1 1 1 1 1 1 1 1 1 0.0085745034741883663 1 1 1 0.0081915117040475237 1 1 1 0.012913848273853057 1 1 0.01006029292083303 1 1 1 1 1 1 1 1 1 1 1 1 1 1 1 1 1 1 1 0.010002240858262547 0.010431471527667966 1 0.009293859189464064 1 1 1 1 1 1 1 0.015995484144367574 1 1 1 1 1 0.010225845861577054 1 0.011529481063000408 1 1 1 1 1 1 1 1 1 1 1 1 1 1 1 1 1 1 1 1 1 1 1 1 0.0055895623359267788 1 0.010063235371964692 1 1 1 1 1 1 0.011472744343554234 0.0099526688951962223 1 1 1 0.0087864484302994095 1 1 1 0.01177236741416374 1 1 1 0.015789307908578888 1 0.010022529251843409 1 1 1 1 1 1 1 1 1 1 1 1 1 0.0091447561685188625 1 1 1 1 0.0089396393387312159 1 1 1 1 1 1 1 1 1 1 1 1 1 0.008862148902840759 1 1 1 1 1 1 1 1 1 0.0099730517810039335 1 1 0.010025925858674687 0.0094292729065638993 1 1 1 1 1 0.010012965383084826 1 1 1 1 1 1 1 0.010269847362702464 1 1 1 1 1 1 1 0.0098952820901956756 1 1 1 1 1 1 0.010138041419871239 0.010037260892532745 1 0.010444345010375744 1 1 1 1 1 1 0.011826260816421252 1 0.010000670443922263 1 0.0086773229570653605 1 1 1 1 0.010268881108152106 1 0.0093161047776932904 1 0.010003735369377965 1 1 1 1 1 1 1 1 1 1 1 1 1 1 1 1 1 0.010106535566192721 1 1 1 1 0.0099521562738267393 1 1 1 1 1 0.0089241290750478354 1 0.011545005402374674 1 1 1 1 1 1 1 1 1 1 0.010905186949560941 1 1 1 1 1 1 1 1 1 1 1 0.010832930590594392 1 1 1 1 1 1 1 1 1 1 1 1 1 1 1 0.010164453979144098 0.009961578193804152 1 1 0.01042091472146861 1 1 0.010010725203725314 0.010848122141111017 1 1 1 1 0.010290191630705551 1 1 1 1 1 1 0.0090296140634166869 0.010037540427459626 1 1 1 0.010999542615820033 1 1 1 0.009394429497978838 1 0.0092564901995969909 1 1 1 0.0086077086085819716 1 1 0.0091748840675290842 1 1 1 0.0094152183186809978 1 1 1 1 1 1 1 1 1 1 1 1 1 1 1 1 1 1 1 0.0100869154338331 1 1 1 1 1 1 1 1 0.010169511613950364 1 1 1 1 1 1 1 0.010050347178078275 1 1 1 1 1 1 1 1 1 1 1 1 1 1 1 1 1 1 1 1 1 1 1 1 1 1 1 1 1 1 1 1 1 1 1 1 1 1 1 1 1 1 1 1 1 1 1 1 1 1 1 1 1 1 1 1 1 1 1 1 1 1 1 1 1 1 1 1 1 1 1 1 0.010023275121538801 1 1 1 1 1 1 1 0.010021257967349682 1 1 1 1 1 1 1 0.010032442438578858 1 1 1 1 1 1 1 1 1 1 1 1 1 1 1 1 1 1 1 1 1 1 1 1 1 1 1 1 1 1 1 1 1 0.010042994212004086 1 1 0.010009167317040057 1 1 1 0.010021736244654408 1 1 1 1 1 1 1 1 1 1 1 1 0.010178361474959399 1 1 1 1 1 1 1 1 1 1 1 1 1 1 1 1 1 1 1 1 1 1 1 1 1 1 1 1 1 1 1 1 1 1 1 1 1 1 1 1 0.010288871378881924 1 1 1 1 1 1 1 1 1 1 1 1 1 1 1 1 1 1 1 0.010177641077073231 1 1 1 1 0.010373760290804872 1 1 0.010196119213731647 1 1 1 1 1 1 1 1 1 1 1 1 1 1 1 1 1 0.0098779581642882523 1 0.0087155985786916256 1 1 1 1 0.0095349220985406491 1 1 1 1 1 1 1 1 1 1 1 1 1 1 1 1 1 1 1 1 1 1 1 1 1 1 1 1 1 1 1 1 1 1 1 1 1 1 1 1 1 1 1 1 1 1 1 1 1 1 1 1 1 1 1 1 1 1 1 1 1 1 1 1 1 1 1 1 1 1 1 1 1 1 1 1 1 1 1 1 1 1 1 1 1 1 1 1 1 1 1 1 1 1 1 1 1 1 1 1 1 1 1 1 1 1 1 1 1 1 1 0.0099963663249662618 1 1 0.010478813584798479 1 1 0.010468391900446629 1 1 1 0.01064425531731009 1 1 1 1 1 0.01033679791124523 1 1 1 1 1 1 1 1 1 0.010252756998548909 1 1 1 1 1 1 1 1 1 0.01003108864424471 1 1 1 1 1 1 1 1 1 1 1 1 1 1 1 1 1 1 1 1 1 1 1 1 1 1 1 1 1 1 1 1 0.010107385547521863 1 1 1 1 1 1 1 1 1 1 1 1 1 1 1 1 1 1 1 1 1 1 1 1 1 1 1 1 1 1 1 1 1 1 1 1 1 1 1 1 1 1 1 1 1 1 0.010060573326303878 1 1 0.010161908097427903 1 1 1 1 1 1 1 1 1 1 1 1 1 1 0.010054522549906041 1 1 1 0.010029484682059168 1 1 1 1 1 1 1 1 1 1 1 1 1 1 1 1 1 1 1 1 1 1 1 1 1 1 1 1 1 1 1 1 1 1 1 1 1 1 1 1 1 1 1 1 1 1 1 1 1 1 1 1 1 1 1 1 1 1 1 1 1 1 1 1 0.0097329919194070868 1 1 1 1 1 1 1 1 1 1 1 1 0.0099621419320769303 1 1 1 1 1 0.013193938548940125 0.009527703699098021 1 1 1 1 0.011732085737004728 1 0.010933808881343338 0.01050412629481196 1 0.01351314505535702 1 1 0.0093500640965527015 1 0.0098296485562809639 1 1 1 1 1 1 1 0.012554702792205186 1 1 1 1 1 0.010492257291740623 1 1 1 1 0.011011678926954906 1 1 1 0.0099909029014429961 1 0.011512761583393868 1 1 1 1 1 1 0.010578766278578136 1 1 1 1 1 1 1 1 1 1 1 0.011050488802488326 1 1 1 1 1 1 0.010332801139563539 1 1 1 1 1 1 1 1 1 1 1 1 0.012395683841249708 1 1 0.01168309357165738 1 1 0.010642286064722215 1 1 1 1 1 1 1 1 1 1 1 1 1 1 1 1 0.011951688414618074 1 1 1 1 1 0.0099999726748275126 1 1 1 1 1 1 1 1 1 1 1 1 1 1 1 0.010918965393430288 1 1 1 1 1 1 1 1 1 1 0.010200497977407345 1 1 1 1 1 1 1 0.010511163103785671 1 1 1 1 1 1 0.010119796487676417 1 1 1 1 1 1 1 1 1 1 1 1 1 1 1 1 1 1 1 1 1 1 1 1 1 1 1 1 1 1 1 1 1 1 1 1 1 1 1 1 1 1 1 1 1 1 1 1 1 1 1 1 1 0.009966491570744463 1 1 1 1 1 1 1 1 1 1 1 1 1 1 1 1 1 1 1 1 1 1 1 1 1 1 1 1 0.010975117855199243 1 1 1 1 1 1 1 1 1 0.0099519731574063963 1 1 1 1 1 1 0.0095162587383392089 0.011574473554819612 1 1 1 1 1 1 1 1 1 1 1 1 0.010001293695886536 1 1 1 0.011051840290782431 0.01004908234978483 1 1 1 1 1 1 1 1 1 1 1 1 1 1 1 1 0.012521329110302779 0.0099738581109014308 1 1 1 1 1 0.00984209466106503 1 1 0.012496812995674168 1 1 1 1 1 0.0098834589008128838 1 1 1 1 0.009763307885255583 1 1 1 1 1 1 1 1 1 0.011477349350313016 1 1 1 1 1 1 1 1 1 1 1 1 1 1 1 1 1 1 1 1 1 1 0.0098310934285863062 1 1 1 1 1 1 0.010246828966537594 1 1 1 1 1 1 1 1 1 1 1 1 0.0095408052331935438 1 1 1 0.010984045164861359 1 0.010660003701837954 1 1 1 1 1 1 0.010684761781498693 1 1 1 1 1 0.010253949955006267 1 1 1 1 1 1 1 1 1 1 1 0.0099750002655345366 0.010018021334787911 1 1 1 1 1 1 1 1 1 1 1 0.010070891009334434 1 1 1 1 1 1 1 1 1 1 1 1 0.0099342414583087693 1 1 1 1 1 1 1 1 0.0098716417668100985 1 1 0.0097986083869623687 1 1 1 1 0.010004828699458698 0.0090258095926709029 1 1 1 1 0.0098193890193924403 0.0095872455090828881 1 1 1 1 1 1 1 1 1 1 1 1 1 1 1 1 1 1 1 1 1 1 0.010039923932076124 1 1 1 1 1 1 1 1 0.011509662212092242 1 0.0099485236218538262 1 1 1 1 1 1 1 1 1 1 1 1 1 0.011963314351323893 1 1 1 1 1 1 0.0082677837916406531 1 1 0.010980218625398996 0.0099891109040127404 0.01102182906689652 1 1 1 1 1 1 1 0.0089712587328430182 0.010397851771962669 1 1 1 1 1 0.010128484133348841 1 0.0093908262645636242 0.0099479054084474772 0.010771268300999367 1 1 0.0099451899782516309 1 1 1 1 1 1 0.010938719328069366 1 1 1 0.010049109233218648 1 1 1 1 1 1 0.010734234721389993 1 1 1 1 1 1 1 1 1 1 1 1 1 1 1 1 1 1 1 1 1 1 1 1 1 1 1 1 1 1 1 1 1 1 1 1 1 1 1 0.011149747211241991 1 1 1 1 1 1 1 1 1 1 1 1 1 0.011436319522891642 1 1 1 1 1 1 1 1 1 1 1 1 1 1 1 1 1 1 1 1 1 1 1 1 1 1 1 1 1 1 1 1 1 1 1 1 1 1 1 1 1 1 1 1 1 1 1 1 1 1 1 1 1 1 1 1 1 1 1 1 1 1 1 1 1 1 1 1 1 1 1 1 1 1 1 0.010104438017347646 1 1 1 1 0.010542065302006794 0.009847183172494247 1 1 1 1 1 1 1 0.011618341320125071 0.0099778947449912225 1 1 1 1 1 0.011015238438335215 1 1 0.011230243189321861 1 1 1 1 1 1 0.0099566006651007292 1 1 1 1 1 1 1 1 1 1 0.011766514702237198 1 1 1 1 1 1 1 1 1 1 1 0.010053641296522614 1 1 0.0103489851708564 1 1 1 0.010021204711303194 1 1 1 1 0.0099590683043308172 1 1 1 1 1 1 1 1 1 1 1 1 1 1 1 1 1 1 1 1 1 1 1 1 1 1 1 1 1 1 1 1 1 1 1 1 1 1 1 1 1 1 1 1 1 1 1 1 1 1 1 1 1 1 1 1 1 1 1 1 1 1 1 1 1 1 1 1 1 1 1 1 1 1 1 1 1 1 0.010533926973372864 1 1 1 1 0.010179167018854131 1 1 1 1 0.013452866288345883 1 1 0.01029142390910674 1 1 1 1 1 0.010120482150704397 1 1 1 1 1 1 0.0099831699971313255 1 1 1 1 0.010579229641940188 1 1 1 1 1 1 1 1 1 1 1 1 1 1 0.011330524727393043 1 0.01194186886341868 1 1 1 1 1 1 1 1 1 1 1 1 1 1 1 1 1 1 1 1 0.010532528183723262 1 1 1 0.011459158608806731 1 1 1 1 1 1 1 1 1 1 1 1 1 1 1 1 1 0.0094814007309066781 1 1 1 1 1 0.0091476235543993343 1 1 1 1 0.0087163332947389014 1 1 0.0083276370905630837 1 1 1 1 1 1 1 1 1 1 0.014812236092245717 1 1 1 1 1 1 1 1 1 1 0.015721648266699716 1 1 0.010337985747582049 1 1 0.010132714086617176 1 1 0.010195997021722808 1 1 1 1 1 1 1 1 1 1 0.010137930771843587 1 1 0.010116539051651136 0.016354265611985247 1 1 1 1 1 1 1 1 1 1 1 1 1 1 1 1 1 1 1 1 1 1 1 1 1 1 1 1 1 0.0098726224826617519 1 1 1 1 1 1 1 1 0.0098763223290341783 1 1 0.0098008685397081331 1 1 1 1 0.010003875535026725 1 1 1 1 1 0.010768460245035454 1 1 1 1 1 1 1 0.010442021295936403 1 1 1 1 1 1 1 1 0.010326438949099057 1 1 1 1 1 1 1 1 1 1 1 1 1 1 1 1 1 1 1 1 1 1 1 1 1 1 1 1 1 1 1 1 1 1 1 1 1 1 1 1 1 1 1 1 1 1 1 1 1 1 1 1 1 1 1 0.01010873154730438 1 1 1 0.010117341006337474 1 1 1 1 1 1 0.010061839165613956 1 0.01026846606357543 1 1 0.010293287084149755 1 1 1 0.010242508913895863 1 1 1 1 1 1 1 1 0.010124109030047269 1 1 0.010087742900228461 1 1 1 1 1 1 1 1 1 0.010061784241504303 1 1 1 1 1 1 1 1 1 1 1 1 1 1 1 1 1 1 1 1 1 1 1 1 1 0.0098873627676075021 1 1 1 0.01000817828528746 1 1 1 1 1 1 0.011355158968626822 1 0.011230719968913144 1 1 0.012570069434669113 1 1 1 0.011111408068076258 1 1 1 0.010268329855687888 0.010984141190696333 1 1 1 0.011327326123389811 0.009792493565878 1 1 1 1 1 1 1 0.013998161806496368 0.010000601966576513 1 1 0.0092359887243586326 1 0.012221874534993734 1 1 1 1 1 1 1 0.012513184112536673 1 1 1 1 1 0.0095899375195900045 1 1 1 1 1 1 1 1 1 0.010151098388570345 1 1 0.010422787075247816 1 1 1 1 1 1 1 1 0.0098763502167208191 1 1 1 1 1 0.010631060817063219 1 1 1 1 1 1 1 1 1 1 0.0099960441020328708 1 1 1 0.010995754103821526 1 1 1 1 1 1 1 1 1 1 1 1 0.010920099040615605 1 1 1 1 0.010100935237546476 1 0.010293696181672082 1 0.0094019189660367423 1 1 1 1 1 1 1 1 1 1 1 1 1 1 1 1 1 0.009999460918917201 1 1 1 0.010890405833353134 1 0.010737087500401863 1 0.0098084089657054993 0.0099942584443742082 1 1 1 1 1 1 1 0.010038023993601529 0.01059552417474118 1 1 1 0.009905531808828064 1 0.0095527959276473871 1 1 1 1 1 1 1 1 1 1 1 0.011766194201483431 1 0.011418917226809351 1 1 1 0.011036285530971118 1 1 1 1 1 1 1 1 1 1 0.013514419458625093 0.01295672063261356 1 1 1 1 0.012321737629773854 1 1 1 1 0.0099659693700201724 1 1 1 1 1 1 0.013248124791778971 1 1 1 0.010634586288562668 1 0.01019310823498875 1 1 1 1 0.013860266795881296 1 1 1 1 1 1 1 1 0.010264439137903024 1 1 1 1 1 1 1 1 1 1 1 1 1 1 1 1 0.010287426096404205 1 1 0.010170216324395609 1 0.010252025645269282 1 1 1 1 1 1 1 1 0.010117108563410969 1 1 1 1 1 0.010778515501892136 1 1 1 1 1 0.010623535508564482 1 1 1 1 1 1 1 1 0.010928483346388181 1 1 1 1 1 1 0.010811980292006243 0.01039405061826894 1 1 1 1 1 1 1 1 0.010482699602228153 1 1 1 1 1 1 0.010813919591380979 1 1 0.012007300900509188 1 1 0.012378493922600859 1 1 1 1 1 1 1 1 1 1 1 1 1 1 1 1 1 1 1 1 1 1 1 1 1 1 1 1 1 1 1 1 1 1 1 1 1 1 1 1 1 1 1 1 1 1 1 1 1 1 1 1 1 1 1 1 1 1 1 1 1 1 0.010739982536307521 1 1 1 1 1 1 1 1 1 1 1 1 1 1 1 1 1 1 1 1 1 1 1 1 1 1 1 1 1 1 1 1 1 1 1 1 1 1 1 1 1 1 1 1 1 1 1 1 1 1 1 1 1 1 1 1 1 1 1 1 1 1 1 1 1 1 1 1 1 1 1 1 1 1 1 1 1 1 0.009877912782224307 1 1 1 0.010293627865699347 1 1 1 1 1 0.010182865565144516 0.010511152616887277 1 1 0.011389538393536607 1 1 1 1 1 1 0.0099966050017260381 0.010765181752362907 1 1 1 1 1 1 1 1 1 1 1 1 1 1 1 1 1 0.010577020189478373 1 1 1 1 1 1 1 1 1 1 1 1 1 1 1 0.011654164635043679 0.012516866521485879 1 1 1 1 1 1 1 1 1 1 1 1 1 1 1 1 1 1 1 0.010005234607765791 1 1 1 1 1 1 1 1 1 1 1 1 1 1 1 0.010623119580365237 1 1 1 0.01001001940015258 0.012806200551357399 0.012600276999991861 1 0.010463448701370096 1 1 1 0.010487488830452741 0.011200144710630151 1 1 0.012045564883150516 1 1 0.011439862261666186 1 1 1 1 0.0099806694847442319 1 1 0.010989747227907805 0.010310556027750828 1 1 1 1 1 1 0.0098823374319873571 1 1 1 1 1 1 1 1 1 1 1 0.011854271123523233 1 1 1 1 1 1 1 1 1 1 1 1 1 1 1 1 1 1 1 0.011779455114983503 1 0.011352824921368047 1 1 1 1 1 1 1 1 1 1 1 1 1 1 1 1 1 1 1 1 1 0.010193502247228972 1 1 1 1 1 1 1 1 1 1 1 1 1 1 1 1 0.011780605198226008 1 0.010077183407000562 1 1 0.010103121305117386 1 1 1 1 1 1 1 1 1 1 1 1 1 1 0.010070508867989585 1 1 1 1 1 1 1 1 1 1 1 0.010008745371400616 1 1 1 1 1 1 1 1 1 1 1 1 0.0099633732537059358 1 1 1 1 1 1 1 1 1 1 1 1 1 0.010215708128872208 1 1 1 1 1 1 1 1 1 1 1 1 1 1 1 1 1 1 1 1 1 1 1 0.010066235530638665 1 1 1 1 0.010036175274186154 1 1 1 1 1 1 1 1 1 1 1 0.010038888919225839 1 1 1 1 1 1 1 1 1 1 1 1 1 1 1 1 1 1 1 1 1 1 0.0099452977318335543 1 1 1 1 0.010386109446466556 1 1 1 1 1 1 1 1 1 1 1 1 1 1 0.011921151631628903 1 0.010902507519429455 1 1 1 0.011662237880609723 1 1 1 1 0.01126271953164483 0.0099474007300111196 1 1 1 1 1 1 1 1 1 1 1 1 0.010771884860622626 1 1 0.011790528972822071 1 1 1 1 1 1 1 1 1 1 1 1 1 1 1 1 1 1 1 1 1 1 1 1 1 1 1 1 1 1 1 1 1 1 0.010762580719474968 1 1 1 1 0.010365319363340855 1 1 1 1 1 0.010430052913697131 1 1 1 0.010303112963804664 1 1 1 1 0.010101432968213878 1 1 1 1 0.010619921959673739 1 1 1 0.010222660603539628 1 1 1 1 1 1 0.010200149951200586 1 1 1 1 1 1 1 0.010080740821063154 0.010077606286688212 1 1 1 1 1 1 1 0.009967670257415899 1 1 1 1 0.010179235740618629 1 1 1 1 0.010147675339423234 1 1 1 1 1 1 1 1 1 1 1 1 1 1 1 1 1 1 1 1 1 0.0099792321026353006 1 1 1 1 1 1 1 1 1 1 1 1 1 1 0.01252284218366251 0.011901517634213748 1 1 1 1 0.0094319602693420934 0.015216474558939902 1 1 0.0098264083935698902 1 1 1 1 1 1 1 1 1 1 1 1 1 0.0099884381547806038 1 1 1 1 1 1 1 0.015922385532366863 1 1 1 0.01585827983687052 1 1 1 1 1 0.015586696967604749 1 1 1 1 1 1 1 1 1 1 1 1 1 1 1 1 1 0.010170074497004709 1 1 1 1 1 1 1 1 1 1 1 1 1 1 1 1 1 0.011749928389836049 1 1 1 0.012240802130750508 1 1 1 1 1 1 1 1 1 1 1 1 1 1 1 1 1 1 1 1 1 1 1 1 1 1 1 1 1 1 1 1 1 1 1 1 1 1 1 1 1 1 1 1 1 1 1 1 0.010002888062486058 1 1 1 1 1 0.010028359374218207 1 1 1 1 1 1 1 1 0.011018744209502801 1 1 0.010009039504076077 1 1 1 1 1 1 1 1 1 1 0.010243183497813767 1 0.010695499678158204 0.010229069860585804 1 1 1 0.010086202479024347 1 1 1 1 1 0.010021453630702615 0.010355215964020437 1 1 1 1 1 1 1 1 1 1 1 1 1 1 1 0.0096992829299865739 1 1 1 1 0.010472976988848085 0.010091706153221892 1 1 1 1 1 1 1 1 1 1 1 1 1 0.010069277271925858 1 1 1 1 1 1 1 1 1 1 1 1 1 1 1 1 1 1 1 1 1 1 1 1 1 1 1 1 1 1 1 1 1 1 1 1 0.010272056707305462 1 1 1 1 1 1 1 1 1 1 1 1 1 1 1 1 1 1 1 1 1 0.0099766338812077061 1 1 1 1 0.015615056160647883 1 1 1 1 1 1 1 1 1 0.010060109046304442 1 0.010098494919555475 1 1 1 1 0.010011362948873484 1 1 1 0.0097334450061006515 1 1 1 1 0.012446271100207396 0.012104257420260913 0.010008929768827423 1 0.014929850473421333 1 1 1 0.011428120346577116 1 0.012286599996142759 1 1 1 1 0.013011614391048436 1 1 1 1 0.01012381219874796 1 1 0.014001517062918941 1 1 1 1 0.0097854137087247488 1 1 1 1 1 1 1 1 1 1 1 1 1 1 1 1 1 1 1 0.01032264318238869 1 1 1 1 1 1 1 1 1 1 1 1 1 1 1 1 1 1 1 1 1 1 1 1 1 1 1 1 1 1 1 1 1 1 1 1 1 1 1 1 1 1 1 1 1 1 1 1 1 1 1 1 1 1 0.009369632761522962 1 1 1 0.010629607164001971 0.012605054756121534 1 1 0.014184975221981483 0.0088411202550747036 1 0.010946197682295881 0.012774780714533498 1 1 1 1 0.013505356966151119 0.0095731318865176114 1 1 0.0098536668246061321 1 1 1 1 1 1 1 1 1 1 1 1 1 1 1 0.010238235403524096 1 1 1 1 1 1 1 0.010219771333787857 1 1 0.010027220530443194 1 1 1 0.011461367518129503 1 1 1 1 1 1 1 1 0.010460861763003886 1 1 1 1 1 1 1 1 1 1 1 1 1 0.0099412202722756783 1 1 1 1 1 0.0098450054461209149 0.010521508002753326 1 0.0099004168177505777 1 1 0.010348445457299019 1 1 1 1 1 0.010139300798706499 1 1 1 1 1 1 0.010122543664512377 1 1 1 1 1 1 1 1 1 1 0.0099868344458950986 1 1 1 0.010163058900201628 1 1 1 1 1 1 1 0.010391431818307975 1 1 1 1 1 1 1 1 1 1 1 1 1 1 1 1 1 0.0099304066482828104 1 1 1 1 1 1 1 1 1 1 1 1 1 1 1 1 1 1 1 1 1 1 1 1 1 1 1 1 1 1 1 1 1 1 1 1 1 1 1 1 1 1 1 1 1 1 1 0.010010898085936939 1 1 1 0.010000279700740923 1 1 1 1 1 0.010003643842156951 1 1 1 1 1 1 1 1 1 1 1 1 1 1 1 1 0.01004228320131002 1 0.010010556253124398 1 1 1 1 1 1 1 1 0.015635822852749275 1 1 1 0.010135801138128474 1 1 1 0.015425778968427343 1 1 1 0.010258333423784858 1 0.0099999586757352869 1 1 1 1 1 1 1 1 1 0.01104318910671169 1 1 1 1 0.010104194020694176 1 1 1 1 1 1 1 1 0.013050550028488435 1 0.0078295661520772081 1 1 1 1 0.0088661985500641059 1 1 1 1 1 1 1 1 0.013014889819310923 1 1 1 1 0.014525536170076831 1 1 1 1 1 1 0.010142092869531123 1 1 1 0.010428147706569697 1 1 1 1 1 1 1 1 1 1 1 1 1 1 1 1 1 1 1 1 1 0.010003633896228098 1 1 1 1 1 1 1 1 1 1 1 1 1 1 1 1 0.014630057608385542 1 1 1 1 1 0.010003068256135256 1 1 1 1 0.013774065016706971 1 1 1 1 1 1 1 0.012915926120608823 1 1 1 1 1 1 1 1 1 1 1 1 1 1 1 1 1 1 1 1 0.010648858494173153 1 1 1 1 1 1 0.0098390137570881202 1 1 1 1 1 0.010857722493684805 1 1 1 0.010290326549133708 1 1 1 1 1 1 1 1 1 1 1 0.009387859073464868 0.0086096228416758184 1 1 1 1 1 1 1 1 1 1 0.0097951010906704335 1 1 0.010140936962335536 0.011481511639936135 1 1 1 1 1 1 0.010439027360617985 1 1 1 0.010096783005913216 0.010041881486308871 0.0099460717396835999 1 1 0.010447127144108006 1 1 1 0.011959069399911587 1 0.010017919948385353 0.01048816917696023 1 1 1 1 1 0.010439453400686258 0.011429259415944477 1 0.0099791310809549724 0.01093829693146485 1 0.0099406409628514103 1 1 1 1 1 1 1 1 1 1 1 0.010949508901382167 1 1 1 0.01045532958528967 1 1 1 1 1 1 0.01004935674522453 1 1 1 1 1 1 1 0.010006229138249169 1 0.010950237002083531 1 1 1 1 0.010077674722120818 1 1 0.010784297330741861 1 0.010811693563981609 0.0094208111634656137 0.010452943452708755 1 1 0.010032306904253227 1 1 1 1 1 0.0099174164407626296 1 1 0.0098884724801864537 1 1 0.0097187632294350144 1 1 0.011191182607085657 0.0099897227292701229 1 1 1 1 1 1 1 1 1 1 0.010937790757582269 1 1 1 1 1 1 1 0.010049293583733725 0.0120996514537541 1 1 1 1 1 1 1 0.010069785310249772 1 1 1 1 0.0095941016583827414 1 0.012214399663935362 1 0.010032442866517888 1 0.011082391831022755 0.010059208680895564 1 1 0.011137421944493912 1 0.0093903086213524903 1 1 0.010331231796239827 1 1 0.009996877900010798 1 0.0099741942823506277 1 1 1 1 1 1 1 1 1 1 1 1 0.010011331025841386 1 1 1 1 1 1 1 1 1 1 1 0.010979192260434679 1 1 0.010003228909008587 1 1 1 0.0099996936858498774 1 0.0093899065123932476 1 1 1 1 0.0099761317574301404 1 1 1 1 1 1 1 1 1 1 1 1 1 0.010214494640633688 0.010159757862281547 1 1 0.010204146432614752 1 1 0.010081471287642777 0.01001023900191365 1 1 1 1 1 1 1 1 1 0.0099828055542295225 1 1 0.010918552903556634 1 1 0.010404692507367912 0.0099215038179454786 1 0.0098871156512545244 1 1 0.010402974667054556 1 1 0.0099678987584702564 1 0.0099727286510972925 1 1 1 0.010004818781295614 1 1 1 1 1 1 1 1 1 1 1 1 1 1 1 0.010611094599560618 1 1 1 1 1 1 0.0094098757384090785 1 1 0.0091104778665632158 1 1 0.010561831005157707 1 1 1 1 1 1 0.0099382067567163421 1 1 1 0.0097006604642966322 1 1 0.010451099201528711 1 1 1 1 1 0.010536293599316912 1 1 0.010049031760241252 1 1 1 1 0.010944076048886444 1 0.010014405681702209 1 0.014653432851641342 1 1 1 0.010645016719762573 1 1 1 1 1 1 0.015439278527989597 1 0.0098550402212584029 1 1 1 1 1 1 1 1 1 1 1 0.0097999681287048862 1 1 1 1 1 1 1 0.010495716233995086 1 1 1 1 1 1 1 0.010429437778119194 1 1 1 1 0.011388129000365163 1 1 1 1 1 1 1 1 1 1 1 1 1 1 1 1 1 1 1 1 1 1 1 1 1 1 1 1 1 1 0.0099248635168100313 1 1 1 1 1 1 1 1 1 1 1 0.010144091345181966 1 1 0.01040271847528867 0.0097671786577573465 1 1 1 1 0.01062014874900217 1 1 0.0099468513198418054 1 1 0.0098816108625331758 1 0.0097511342369503203 1 1 0.0095750689560309167 1 1 1 1 1 1 0.0094573774343036498 0.010030555266077322 1 1 1 1 1 1 1 0.010003120997045405 1 1 1 0.010167236325233038 1 1 1 1 1 1 1 1 1 1 1 1 1 1 1 0.0103427970535124 1 1 1 1 1 0.010126998373303086 1 1 1 1 1 1 1 1 1 1 1 1 1 0.0096062226788328001 1 0.009609099325106122 1 1 1 1 1 0.0099088266483913414 1 0.0099823175371918822 1 1 1 1 1 1 1 1 1 1 1 1 0.009319736817882885 1 0.0095110509245358056 1 1 1 1 0.0084057898348500072 1 0.010022731558444581 1 1 1 0.0098280612573396348 1 0.012434483097743728 1 1 0.012932866402705284 0.0091355115220967814 1 0.012227353381147568 0.0098392482365028573 1 1 1 1 1 1 1 0.0099359500381561942 1 1 1 1 1 0.012166580627525752 1 1 0.010000292607237487 1 0.010912023681378093 1 1 0.011449922775030949 1 1 1 1 1 1 0.011961545507210793 1 0.010255441803092657 1 0.0092946868890674758 1 1 1 1 0.013581506380945709 1 0.0096437966057297091 0.01111660378151169 1 1 1 1 1 1 1 1 1 1 1 1 0.0098014934536679033 0.012319975776594468 0.01172145835381451 1 1 1 1 1 1 1 1 1 1 1 1 1 1 1 1 1 1 0.011768508485033361 1 1 1 1 0.01031498359931415 1 1 1 1 1 1 1 1 1 0.010006891737237886 0.012136354212328478 1 1 0.010435461267564819 1 1 1 1 1 0.01086841164582163 1 1 1 1 1 1 1 1 1 1 1 1 1 1 0.010337521692076496 1 1 1 1 1 1 1 1 1 1 1 1 1 1 1 1 1 1 1 0.010038344697192132 1 1 1 1 1 1 1 0.010242216031265737 1 1 1 1 1 0.010279153466402343 1 1 1 1 1 1 1 1 1 1 1 1 1 1 0.010127208137788283 1 1 1 1 1 1 1 1 1 1 0.0099899955016664096 1 1 1 1 0.010367530184424566 1 1 1 1 1 1 1 1 1 1 1 1 1 1 1 1 1 1 1 1 1 1 1 1 1 1 1 1 1 1 1 1 1 1 1 1 1 1 1 1 1 1 1 1 1 1 1 1 1 1 1 1 1 1 1 1 1 1 1 1 1 1 1 1 1 1 1 0.011323451793333111 1 1 1 1 1 0.010436057252353697 1 1 1 1 0.0097842283198033946 1 1 1 1 1 1 1 1 1 1 1 1 1 1 1 1 1 1 1 1 1 1 1 1 1 1 1 1 1 1 0.010249583772008033 1 1 1 0.0099712558326366888 1 1 1 1 1 1 1 1 1 1 1 1 1 1 1 1 1 1 1 1 1 1 0.010068918600225419 1 1 1 1 0.010117808664631646 1 1 0.010474762393692955 1 1 0.010327948720321299 1 1 1 1 1 0.012126055161841998 1 1 1 1 0.010052367977307752 0.011953001141533873 1 1 0.010507655197514197 1 1 1 1 0.01115847734367603 0.010535736178307976 1 1 1 0.010344284862579746 0.010374565921906586 1 1 1 0.010556019981776646 0.010100810317487264 1 1 0.012516092090140804 1 1 1 1 1 0.011222359507901921 1 1 0.010001564005781333 1 1 1 0.014955667071158932 1 0.0099935355347140643 1 1 1 1 1 1 1 1 1 1 1 1 1 1 1 0.011986309544444807 1 1 1 0.012454222346337505 1 1 1 1 1 1 1 1 1 1 1 0.010273038648606346 1 1 0.010018095878935795 1 0.013250867707495154 1 1 1 0.009537030453432736 0.010397924318551535 1 1 1 0.01193728467825813 1 1 1 1 0.012706302820507994 1 1 1 1 1 1 0.0093345608154208146 1 1 1 1 1 0.0099371491736540384 1 0.013425686556374071 1 1 1 1 1 1 1 1 0.012513453446712928 1 1 1 1 1 1 1 1 1 1 1 1 1 1 1 1 1 1 1 0.010615240682717844 1 1 1 1 1 1 1 1 1 0.010251598945258055 1 1 1 1 1 1 1 1 0.010716718946760755 1 1 0.0099855811399868436 1 1 1 1 1 1 1 1 1 1 1 1 1 1 1 1 1 1 1 1 1 0.010035414454247205 1 1 1 1 1 1 1 1 1 1 1 0.010092651721854673 1 1 1 1 1 1 1 0.012114612071613958 1 1 1 1 1 1 1 1 1 1 1 0.010087336701415362 1 1 1 1 1 0.0099518496538412368 1 1 1 1 1 1 1 1 1 1 1 1 0.010136567944835303 1 1 1 1 1 1 1 1 1 1 1 1 1 1 1 1 1 1 1 1 1 1 1 1 1 1 1 1 1 0.0098712719405188703 1 1 1 1 1 1 1 0.011833068449278568 1 1 1 1 1 0.010058531788585135 1 1 1 1 1 1 0.010407290885390719 1 1 1 0.010159930569559349 1 1 1 1 1 1 1 1 1 1 1 1 1 0.0099939499844222818 1 1 1 0.010247360315831372 1 1 1 1 1 1 1 1 1 1 1 1 1 1 1 1 1 1 1 1 1 1 1 1 1 1 1 1 1 1 1 1 1 1 1 1 1 1 1 1 1 1 1 1 0.010985708784408367 1 1 1 1 1 1 0.010543141032244055 1 1 1 1 1 1 0.0099780602777209404 1 1 1 1 1 1 1 1 1 1 1 1 1 1 1 1 1 1 1 1 1 1 1 1 1 1 1 1 1 0.0099268561652440315 1 1 0.011183577099920482 1 1 0.010403714488112866 1 1 1 1 0.010131925273339554 1 1 1 0.011784216535631484 1 1 1 1 1 1 1 1 1 1 1 1 1 0.010385848523973052 1 1 1 1 1 0.010964553275183694 1 1 1 1 1 1 0.0097873349369699512 1 1 0.0097438853518579671 1 1 1 1 0.012424406072725677 1 1 1 1 1 1 1 1 0.009993749387686518 0.008809589935948969 1 1 1 1 1 0.010090749026592918 1 1 1 1 1 1 1 1 1 1 1 1 1 1 0.011826786754459893 1 1 1 1 1 1 0.0096732123424224797 1 1 1 1 0.010034699638900893 1 1 1 1 1 1 1 0.012030177503293943 1 1 1 1 1 0.010073466723191022 0.0099498414441755098 1 1 1 1 1 0.012301733889736941 1 1 1 1 1 1 1 1 1 1 1 1 1 1 1 1 1 1 1 1 1 1 1 1 1 1 1 1 1 0.010705781507846596 1 1 1 1 0.010414177287122912 1 1 1 1 1 1 1 1 1 1 1 1 1 1 1 1 1 1 1 1 1 1 1 0.010014440310054783 1 1 1 0.0099365293591063067 1 1 1 1 0.010008514990658475 1 1 1 1 1 1 1 1 1 1 1 1 0.010017626366632129 1 1 1 0.010002489976838759 1 1 1 0.0099851712806051113 1 1 1 1 1 1 1 1 1 1 1 1 1 1 1 1 1 1 1 0.009946145171387406 1 1 1 1 1 1 1 1 1 1 1 0.010710940026765163 1 1 1 1 1 1 0.0099995470371343556 1 0.0099035474060377542 1 0.011075077109074113 1 1 1 1 1 1 1 1 1 1 1 1 1 0.0093993083132198167 0.011186540452061217 1 1 1 1 1 0.009753410205076276 1 1 1 1 0.0099569468935216347 1 1 1 1 1 1 1 1 1 1 1 1 1 1 1 1 1 1 0.010656922142352506 1 0.0099614203108635731 1 1 1 1 0.010216977601031917 1 1 0.011120870164593 1 1 1 1 1 1 1 1 1 1 1 1 1 1 0.010424211923519385 1 1 1 1 1 1 1 1 1 1 1 1 1 1 1 1 0.0099328245380729211 1 1 1 1 1 0.011392858993559081 1 1 0.0096926156193290654 1 1 1 0.0099778136910234558 1 1 1 1 0.01002486626172943 1 1 1 1 1 1 1 1 1 1 1 1 1 1 1 1 1 1 0.011224841386513322 1 1 0.010859731909218337 1 1 1 1 0.0094267588307360133 1 1 1 1 0.0115954635821886 1 1 1 1 1 1 1 1 1 1 1 1 1 1 1 1 0.01000264489025968 1 0.01155687856886971 1 1 1 1 1 1 1 0.010205756931123812 1 1 1 1 0.0112614285247208 1 1 0.010664788404677279 1 1 1 1 1 0.0109066367714824 1 1 1 1 1 1 1 1 1 1 1 1 1 1 1 1 1 0.009900481041532759 1 0.01005408346909302 0.010103560704378674 1 1 1 1 1 1 1 1 1 1 1 1 1 1 0.0098183171860050222 1 1 1 1 1 0.01046177162758684 1 1 1 1 1 0.010140394417913427 1 1 1 1 1 1 1 1 1 1 1 1 1 1 1 1 1 1 1 1 1 0.010039630834754005 0.011838211385482487 1 1 1 0.011798015949083418 1 1 1 1 1 1 1 1 1 1 1 0.010010041049949008 1 1 1 1 1 1 1 1 1 1 1 1 1 1 1 1 1 1 1 1 1 1 1 1 1 1 1 1 1 1 1 1 1 1 1 0.010088041904076337 1 1 0.010842899145157282 1 1 1 1 1 1 1 1 1 1 1 1 1 1 1 1 1 1 1 1 1 1 0.0099189765217593678 1 1 1 1 1 1 0.01048902264788704 1 1 1 1 1 1 1 1 1 1 1 1 1 1 0.010749764944222044 1 1 1 1 1 1 0.010721483218003843 1 1 1 0.01030856164362177 1 1 1 1 1 1 1 1 1 1 1 1 1 1 1 1 1 1 1 1 1 1 1 1 1 1 1 1 1 0.0099361998824359921 1 1 1 1 1 1 1 0.011909080597486917 1 1 0.0097995955774658732 1 1 1 1 1 1 1 1 
</DataArray>
</CellData>
</Piece>
</UnstructuredGrid>
</VTKFile>
