<?xml version="1.0"?>
<VTKFile type="UnstructuredGrid" version="0.1" byte_order="LittleEndian">
<UnstructuredGrid>
<Piece NumberOfPoints="31611" NumberOfCells="11060">
<Points>
<DataArray type="Float64" NumberOfComponents="3" format="ascii">
-0.5 -0.5 0 -0.46828038073245648 -0.47886534663837521 0 -0.44865810322365568 -0.48409953664285638 0 -0.5 -0.5 0 -0.49999999999999972 -0.48510845838876121 0 -0.48570950625765019 -0.47768115510604992 0 -0.5 -0.5 0 -0.48570950625765019 -0.47768115510604992 0 -0.46828038073245648 -0.47886534663837521 0 -0.5 -0.5 0 -0.44865810322365568 -0.48409953664285638 0 -0.43065798387075171 -0.5 0 -0.49999999999999972 -0.48510845838876121 0 -0.4941949942269972 -0.45916426609095218 0 -0.49999999999999972 -0.48510845838876121 0 -0.49069418980235951 -0.47133381242174988 0 -0.4941949942269972 -0.45916426609095218 0 -0.49999999999999972 -0.48510845838876121 0 -0.48570950625765019 -0.47768115510604992 0 -0.49069418980235951 -0.47133381242174988 0 -0.48570950625765019 -0.47768115510604992 0 -0.49069418980235951 -0.47133381242174988 0 -0.48287225872479073 -0.46338137010123648 0 -0.48570950625765019 -0.47768115510604992 0 -0.46828038073245648 -0.47886534663837521 0 -0.47348037271648358 -0.46746596895788939 0 -0.48570950625765019 -0.47768115510604992 0 -0.47348037271648358 -0.46746596895788939 0 -0.48287225872479073 -0.46338137010123648 0 -0.46828038073245648 -0.47886534663837521 0 -0.45685729718066292 -0.46317756925396197 0 -0.47348037271648358 -0.46746596895788939 0 -0.46828038073245648 -0.47886534663837521 0 -0.44865810322365568 -0.48409953664285638 0 -0.45685729718066292 -0.46317756925396197 0 -0.44865810322365568 -0.48409953664285638 0 -0.45685729718066292 -0.46317756925396197 0 -0.43679251415364467 -0.46810751068103917 0 -0.44227138583608377 -0.44763337228523992 0 -0.46139451200219128 -0.43849474965389679 0 -0.43321442839889329 -0.42847143344951949 0 -0.44227138583608377 -0.44763337228523992 0 -0.45685729718066292 -0.46317756925396197 0 -0.43679251415364467 -0.46810751068103917 0 -0.45685729718066292 -0.46317756925396197 0 -0.47348037271648358 -0.46746596895788939 0 -0.47368242068685817 -0.45422440368982331 0 -0.44227138583608377 -0.44763337228523992 0 -0.45685729718066292 -0.46317756925396197 0 -0.46139451200219128 -0.43849474965389679 0 -0.45685729718066292 -0.46317756925396197 0 -0.46139451200219128 -0.43849474965389679 0 -0.47368242068685817 -0.45422440368982331 0 -0.46139451200219128 -0.43849474965389679 0 -0.47368242068685817 -0.45422440368982331 0 -0.47606701927266332 -0.43679131520182141 0 -0.47368242068685817 -0.45422440368982331 0 -0.48467876016018729 -0.44770481390493477 0 -0.47606701927266332 -0.43679131520182141 0 -0.47368242068685817 -0.45422440368982331 0 -0.48385710844970842 -0.45611871344673671 0 -0.48467876016018729 -0.44770481390493477 0 -0.48467876016018729 -0.44770481390493477 0 -0.48838998845399501 -0.43322007379314309 0 -0.47606701927266332 -0.43679131520182141 0 -0.47368242068685817 -0.45422440368982331 0 -0.48385710844970842 -0.45611871344673671 0 -0.48287225872479073 -0.46338137010123648 0 -0.47348037271648358 -0.46746596895788939 0 -0.47368242068685817 -0.45422440368982331 0 -0.48287225872479073 -0.46338137010123648 0 -0.49999999999999972 -0.48510845838876121 0 -0.5 -0.45593863611047231 0 -0.4941949942269972 -0.45916426609095218 0 -0.49069418980235951 -0.47133381242174988 0 -0.48287225872479073 -0.46338137010123648 0 -0.4941949942269972 -0.45916426609095218 0 -0.48385710844970842 -0.45611871344673671 0 -0.4941949942269972 -0.45916426609095218 0 -0.48467876016018729 -0.44770481390493477 0 -0.48385710844970842 -0.45611871344673671 0 -0.48287225872479073 -0.46338137010123648 0 -0.4941949942269972 -0.45916426609095218 0 -0.4941949942269972 -0.45916426609095218 0 -0.48838998845399501 -0.43322007379314309 0 -0.5 -0.45593863611047231 0 -0.5 -0.42676881383218318 0 -0.48838998845399501 -0.43322007379314309 0 -0.4941949942269972 -0.45916426609095218 0 -0.48467876016018729 -0.44770481390493477 0 -0.48838998845399501 -0.43322007379314309 0 -0.5 -0.45593863611047231 0 -0.4941949942269972 -0.45916426609095218 0 -0.48838998845399501 -0.43322007379314309 0 -0.5 -0.42676881383218318 0 -0.48838998845399501 -0.43322007379314309 0 -0.48258498268099292 -0.40727588149533411 0 -0.48838998845399501 -0.43322007379314309 0 -0.48258498268099292 -0.40727588149533411 0 -0.5 -0.42676881383218318 0 -0.48258498268099292 -0.40727588149533411 0 -0.49999999999999889 -0.39759899155389428 0 -0.48053050573248501 -0.42147672776700368 0 -0.47795132075354452 -0.40761925728951731 0 -0.46868921987334328 -0.4251814927320644 0 -0.48838998845399501 -0.43322007379314309 0 -0.48053050573248501 -0.42147672776700368 0 -0.48258498268099292 -0.40727588149533411 0 -0.48053050573248501 -0.42147672776700368 0 -0.48258498268099292 -0.40727588149533411 0 -0.47795132075354452 -0.40761925728951731 0 -0.48053050573248501 -0.42147672776700368 0 -0.47606701927266332 -0.43679131520182141 0 -0.46868921987334328 -0.4251814927320644 0 -0.48838998845399501 -0.43322007379314309 0 -0.48053050573248501 -0.42147672776700368 0 -0.47606701927266332 -0.43679131520182141 0 -0.48601428613885628 -0.38090720245017817 0 -0.49999999999999889 -0.39759899155389428 0 -0.49999999999999861 -0.3727285205933355 0 -0.48601428613885628 -0.38090720245017817 0 -0.49999999999999861 -0.3727285205933355 0 -0.48951587853512041 -0.37205782224554212 0 -0.47795132075354452 -0.40761925728951731 0 -0.49999999999999889 -0.39759899155389428 0 -0.48258498268099292 -0.40727588149533411 0 -0.47795132075354452 -0.40761925728951731 0 -0.49999999999999889 -0.39759899155389428 0 -0.47795132075354452 -0.40761925728951731 0 -0.48601428613885628 -0.38090720245017817 0 -0.49999999999999889 -0.39759899155389428 0 -0.47795132075354452 -0.40761925728951731 0 -0.48601428613885628 -0.38090720245017817 0 -0.46701881497498549 -0.38556963815403872 0 -0.48601428613885628 -0.38090720245017817 0 -0.46701881497498549 -0.38556963815403872 0 -0.48360124133216081 -0.36452456285067619 0 -0.46701881497498549 -0.38556963815403872 0 -0.48360124133216081 -0.36452456285067619 0 -0.46701881497498549 -0.38556963815403872 0 -0.45043638861781121 -0.40661471345740208 0 -0.47795132075354452 -0.40761925728951731 0 -0.46701881497498549 -0.38556963815403872 0 -0.45043638861781121 -0.40661471345740208 0 -0.43757402427761649 -0.38321264390829712 0 -0.45043638861781121 -0.40661471345740208 0 -0.43445765052041008 -0.40013769257658671 0 -0.46701881497498549 -0.38556963815403872 0 -0.43757402427761649 -0.38321264390829712 0 -0.45043638861781121 -0.40661471345740208 0 -0.46701881497498549 -0.38556963815403872 0 -0.43757402427761649 -0.38321264390829712 0 -0.45412424375837229 -0.36522802627992829 0 -0.46139451200219128 -0.43849474965389679 0 -0.46868921987334328 -0.4251814927320644 0 -0.45590264150709009 -0.41763952302514062 0 -0.46139451200219128 -0.43849474965389679 0 -0.47606701927266332 -0.43679131520182141 0 -0.46868921987334328 -0.4251814927320644 0 -0.47795132075354452 -0.40761925728951731 0 -0.46868921987334328 -0.4251814927320644 0 -0.45590264150709009 -0.41763952302514062 0 -0.47795132075354452 -0.40761925728951731 0 -0.45590264150709009 -0.41763952302514062 0 -0.47795132075354452 -0.40761925728951731 0 -0.45590264150709009 -0.41763952302514062 0 -0.45043638861781121 -0.40661471345740208 0 -0.45590264150709009 -0.41763952302514062 0 -0.45043638861781121 -0.40661471345740208 0 -0.43321442839889329 -0.42847143344951949 0 -0.45043638861781121 -0.40661471345740208 0 -0.43321442839889329 -0.42847143344951949 0 -0.45590264150709009 -0.41763952302514062 0 -0.43321442839889329 -0.42847143344951949 0 -0.46139451200219128 -0.43849474965389679 0 -0.43321442839889329 -0.42847143344951949 0 -0.46139451200219128 -0.43849474965389679 0 -0.45590264150709009 -0.41763952302514062 0 -0.43321442839889329 -0.42847143344951949 0 -0.43321442839889329 -0.42847143344951949 0 -0.4150547181030021 -0.42201224329813569 0 -0.43321442839889329 -0.42847143344951949 0 -0.41130010695178332 -0.4379096373358819 0 -0.43321442839889329 -0.42847143344951949 0 -0.41997124084165238 -0.44527861675283092 0 -0.45043638861781121 -0.40661471345740208 0 -0.42737642030605999 -0.41510915361333012 0 -0.43445765052041008 -0.40013769257658671 0 -0.45043638861781121 -0.40661471345740208 0 -0.43321442839889329 -0.42847143344951949 0 -0.42737642030605999 -0.41510915361333012 0 -0.43321442839889329 -0.42847143344951949 0 -0.42737642030605999 -0.41510915361333012 0 -0.4150547181030021 -0.42201224329813569 0 -0.4150547181030021 -0.42201224329813569 0 -0.39753810119907962 -0.41578179371783658 0 -0.42737642030605999 -0.41510915361333012 0 -0.41032563161211538 -0.40660119821764668 0 -0.4150547181030021 -0.42201224329813569 0 -0.41032563161211538 -0.40660119821764668 0 -0.4150547181030021 -0.42201224329813569 0 -0.39753810119907962 -0.41578179371783658 0 -0.4150547181030021 -0.42201224329813569 0 -0.40213307724174607 -0.43893379688698969 0 -0.41130010695178332 -0.4379096373358819 0 -0.43321442839889329 -0.42847143344951949 0 -0.41130010695178332 -0.4379096373358819 0 -0.41997124084165238 -0.44527861675283092 0 -0.43321442839889329 -0.42847143344951949 0 -0.4150547181030021 -0.42201224329813569 0 -0.41130010695178332 -0.4379096373358819 0 -0.43757402427761649 -0.38321264390829712 0 -0.42244376888015273 -0.3956142593273177 0 -0.41815388626361671 -0.38328093199412921 0 -0.43757402427761649 -0.38321264390829712 0 -0.41815388626361671 -0.38328093199412921 0 -0.41789923135236701 -0.3671592219858863 0 -0.42737642030605999 -0.41510915361333012 0 -0.43445765052041008 -0.40013769257658671 0 -0.42244376888015273 -0.3956142593273177 0 -0.43757402427761649 -0.38321264390829712 0 -0.43445765052041008 -0.40013769257658671 0 -0.42244376888015273 -0.3956142593273177 0 -0.42737642030605999 -0.41510915361333012 0 -0.41032563161211538 -0.40660119821764668 0 -0.42244376888015273 -0.3956142593273177 0 -0.41032563161211538 -0.40660119821764668 0 -0.42244376888015273 -0.3956142593273177 0 -0.40782779998459739 -0.39126724871651919 0 -0.41815388626361671 -0.38328093199412921 0 -0.40502460682334968 -0.37915128603262571 0 -0.41789923135236701 -0.3671592219858863 0 -0.42244376888015273 -0.3956142593273177 0 -0.40782779998459739 -0.39126724871651919 0 -0.41815388626361671 -0.38328093199412921 0 -0.40782779998459739 -0.39126724871651919 0 -0.41815388626361671 -0.38328093199412921 0 -0.40502460682334968 -0.37915128603262571 0 -0.39266853255410172 -0.37808603827981441 0 -0.40502460682334968 -0.37915128603262571 0 -0.39746554615158508 -0.38654950759924872 0 -0.39266853255410172 -0.37808603827981441 0 -0.40502460682334968 -0.37915128603262571 0 -0.40028023094057202 -0.3699734792735111 0 -0.40782779998459739 -0.39126724871651919 0 -0.40502460682334968 -0.37915128603262571 0 -0.39746554615158508 -0.38654950759924872 0 -0.39266853255410172 -0.37808603827981441 0 -0.39746554615158508 -0.38654950759924872 0 -0.38885445286266312 -0.38976002594220183 0 -0.41032563161211538 -0.40660119821764668 0 -0.40782779998459739 -0.39126724871651919 0 -0.39418114190203463 -0.39886759621990592 0 -0.39746554615158508 -0.38654950759924872 0 -0.39418114190203463 -0.39886759621990592 0 -0.38885445286266312 -0.38976002594220183 0 -0.40782779998459739 -0.39126724871651919 0 -0.39746554615158508 -0.38654950759924872 0 -0.39418114190203463 -0.39886759621990592 0 -0.38885445286266312 -0.38976002594220183 0 -0.36930797127598503 -0.40732753710696867 0 -0.39418114190203463 -0.39886759621990592 0 -0.38885445286266312 -0.38976002594220183 0 -0.36930797127598503 -0.40732753710696867 0 -0.38885445286266312 -0.38976002594220183 0 -0.36930797127598503 -0.40732753710696867 0 -0.37294335233419318 -0.38910311623310501 0 -0.38885445286266312 -0.38976002594220183 0 -0.37976219896696839 -0.37713098054591881 0 -0.37294335233419318 -0.38910311623310501 0 -0.39266853255410172 -0.37808603827981441 0 -0.38885445286266312 -0.38976002594220183 0 -0.37976219896696839 -0.37713098054591881 0 -0.39331838900900662 -0.43407251036102151 0 -0.39753810119907962 -0.41578179371783658 0 -0.3885941774883277 -0.42307056805102261 0 -0.4150547181030021 -0.42201224329813569 0 -0.39753810119907962 -0.41578179371783658 0 -0.40213307724174607 -0.43893379688698969 0 -0.39753810119907962 -0.41578179371783658 0 -0.40213307724174607 -0.43893379688698969 0 -0.39331838900900662 -0.43407251036102151 0 -0.39753810119907962 -0.41578179371783658 0 -0.40213307724174607 -0.43893379688698969 0 -0.41032563161211538 -0.40660119821764668 0 -0.39418114190203463 -0.39886759621990592 0 -0.39753810119907962 -0.41578179371783658 0 -0.39418114190203463 -0.39886759621990592 0 -0.39753810119907962 -0.41578179371783658 0 -0.39418114190203463 -0.39886759621990592 0 -0.39753810119907962 -0.41578179371783658 0 -0.38941386818386547 -0.41289210192075498 0 -0.39753810119907962 -0.41578179371783658 0 -0.38941386818386547 -0.41289210192075498 0 -0.39753810119907962 -0.41578179371783658 0 -0.38941386818386547 -0.41289210192075498 0 -0.3885941774883277 -0.42307056805102261 0 -0.38941386818386547 -0.41289210192075498 0 -0.3885941774883277 -0.42307056805102261 0 -0.36930797127598503 -0.40732753710696867 0 -0.39418114190203463 -0.39886759621990592 0 -0.38941386818386547 -0.41289210192075498 0 -0.36930797127598503 -0.40732753710696867 0 -0.3885941774883277 -0.42307056805102261 0 -0.38254485346395473 -0.43330131008540912 0 -0.36930797127598503 -0.40732753710696867 0 -0.38254485346395473 -0.43330131008540912 0 -0.36930797127598503 -0.40732753710696867 0 -0.39331838900900662 -0.43407251036102151 0 -0.3885941774883277 -0.42307056805102261 0 -0.38254485346395473 -0.43330131008540912 0 -0.38254485346395473 -0.43330131008540912 0 -0.37790747141822401 -0.45066121505040729 0 -0.3718111466315091 -0.42916012514221041 0 -0.38254485346395473 -0.43330131008540912 0 -0.39578173565192498 -0.4592750830638494 0 -0.39331838900900662 -0.43407251036102151 0 -0.38254485346395473 -0.43330131008540912 0 -0.39578173565192498 -0.4592750830638494 0 -0.38254485346395473 -0.43330131008540912 0 -0.37790747141822401 -0.45066121505040729 0 -0.39578173565192498 -0.4592750830638494 0 -0.40213307724174607 -0.43893379688698969 0 -0.40672805328441197 -0.4620858000561428 0 -0.39331838900900662 -0.43407251036102151 0 -0.40213307724174607 -0.43893379688698969 0 -0.39578173565192498 -0.4592750830638494 0 -0.40213307724174607 -0.43893379688698969 0 -0.39578173565192498 -0.4592750830638494 0 -0.40672805328441197 -0.4620858000561428 0 -0.40282597299224271 -0.4670380049880184 0 -0.39578173565192498 -0.4592750830638494 0 -0.40672805328441197 -0.4620858000561428 0 -0.40282597299224271 -0.4670380049880184 0 -0.40672805328441197 -0.4620858000561428 0 -0.39578173565192498 -0.4592750830638494 0 -0.38381987284522667 -0.46501486217037291 0 -0.39270245124346198 -0.46914679492877193 0 -0.40282597299224271 -0.4670380049880184 0 -0.39578173565192498 -0.4592750830638494 0 -0.39270245124346198 -0.46914679492877193 0 -0.37790747141822401 -0.45066121505040729 0 -0.39578173565192498 -0.4592750830638494 0 -0.38381987284522667 -0.46501486217037291 0 -0.37790747141822401 -0.45066121505040729 0 -0.38381987284522667 -0.46501486217037291 0 -0.37253297241535249 -0.46451740972283989 0 -0.38119284069107479 -0.5 0 -0.40355866179319883 -0.48175392949759838 0 -0.43065798387075171 -0.5 0 -0.38381987284522667 -0.46501486217037291 0 -0.38322057614176092 -0.47775084625121039 0 -0.37253297241535249 -0.46451740972283989 0 -0.38381987284522667 -0.46501486217037291 0 -0.38322057614176092 -0.47775084625121039 0 -0.39270245124346198 -0.46914679492877193 0 -0.38322057614176092 -0.47775084625121039 0 -0.38119284069107479 -0.5 0 -0.40355866179319883 -0.48175392949759838 0 -0.38322057614176092 -0.47775084625121039 0 -0.39270245124346198 -0.46914679492877193 0 -0.40355866179319883 -0.48175392949759838 0 -0.40282597299224271 -0.4670380049880184 0 -0.39270245124346198 -0.46914679492877193 0 -0.40355866179319883 -0.48175392949759838 0 -0.40282597299224271 -0.4670380049880184 0 -0.40355866179319883 -0.48175392949759838 0 -0.40930994832916101 -0.47509479982097319 0 -0.40355866179319883 -0.48175392949759838 0 -0.40930994832916101 -0.47509479982097319 0 -0.42500085928393833 -0.48324706049421479 0 -0.40930994832916101 -0.47509479982097319 0 -0.42500085928393833 -0.48324706049421479 0 -0.42144446586510248 -0.46489412285529169 0 -0.40355866179319883 -0.48175392949759838 0 -0.43065798387075171 -0.5 0 -0.42500085928393833 -0.48324706049421479 0 -0.44865810322365568 -0.48409953664285638 0 -0.43065798387075171 -0.5 0 -0.42500085928393833 -0.48324706049421479 0 -0.42500085928393833 -0.48324706049421479 0 -0.43679251415364467 -0.46810751068103917 0 -0.42144446586510248 -0.46489412285529169 0 -0.44865810322365568 -0.48409953664285638 0 -0.42500085928393833 -0.48324706049421479 0 -0.43679251415364467 -0.46810751068103917 0 -0.44227138583608377 -0.44763337228523992 0 -0.43679251415364467 -0.46810751068103917 0 -0.4308641792978069 -0.45555094932654999 0 -0.4308641792978069 -0.45555094932654999 0 -0.41997124084165238 -0.44527861675283092 0 -0.42144446586510248 -0.46489412285529169 0 -0.43679251415364467 -0.46810751068103917 0 -0.4308641792978069 -0.45555094932654999 0 -0.42144446586510248 -0.46489412285529169 0 -0.44227138583608377 -0.44763337228523992 0 -0.4308641792978069 -0.45555094932654999 0 -0.43166111889509379 -0.44211809517386258 0 -0.44227138583608377 -0.44763337228523992 0 -0.43321442839889329 -0.42847143344951949 0 -0.43166111889509379 -0.44211809517386258 0 -0.43321442839889329 -0.42847143344951949 0 -0.43166111889509379 -0.44211809517386258 0 -0.41997124084165238 -0.44527861675283092 0 -0.4308641792978069 -0.45555094932654999 0 -0.43166111889509379 -0.44211809517386258 0 -0.41997124084165238 -0.44527861675283092 0 -0.41130010695178332 -0.4379096373358819 0 -0.41997124084165238 -0.44527861675283092 0 -0.40672805328441197 -0.4620858000561428 0 -0.40213307724174607 -0.43893379688698969 0 -0.41130010695178332 -0.4379096373358819 0 -0.40672805328441197 -0.4620858000561428 0 -0.41997124084165238 -0.44527861675283092 0 -0.40672805328441197 -0.4620858000561428 0 -0.41997124084165238 -0.44527861675283092 0 -0.40672805328441197 -0.4620858000561428 0 -0.42144446586510248 -0.46489412285529169 0 -0.40930994832916101 -0.47509479982097319 0 -0.40672805328441197 -0.4620858000561428 0 -0.42144446586510248 -0.46489412285529169 0 -0.40282597299224271 -0.4670380049880184 0 -0.40930994832916101 -0.47509479982097319 0 -0.40672805328441197 -0.4620858000561428 0 -0.40930994832916101 -0.47509479982097319 0 -0.40672805328441197 -0.4620858000561428 0 -0.44654527977615688 -0.26269252391549519 0 -0.43389645052110831 -0.25250213825564749 0 -0.4507037835954032 -0.24589632149042839 0 -0.44654527977615688 -0.26269252391549519 0 -0.43275288537494971 -0.26605967700558308 0 -0.43389645052110831 -0.25250213825564749 0 -0.44654527977615688 -0.26269252391549519 0 -0.44058928147511472 -0.27539389852291618 0 -0.43275288537494971 -0.26605967700558308 0 -0.44058928147511472 -0.27539389852291618 0 -0.45517367854317242 -0.27698976963335092 0 -0.44614328460128277 -0.28954760608686841 0 -0.44654527977615688 -0.26269252391549519 0 -0.44058928147511472 -0.27539389852291618 0 -0.45517367854317242 -0.27698976963335092 0 -0.44654527977615688 -0.26269252391549519 0 -0.45517367854317242 -0.27698976963335092 0 -0.46713585573027022 -0.26026357074689799 0 -0.45517367854317242 -0.27698976963335092 0 -0.46713585573027022 -0.26026357074689799 0 -0.46958648552583632 -0.28046518955013999 0 -0.46713585573027022 -0.26026357074689799 0 -0.4507037835954032 -0.24589632149042839 0 -0.44654527977615688 -0.26269252391549519 0 -0.46713585573027022 -0.26026357074689799 0 -0.4507037835954032 -0.24589632149042839 0 -0.46713585573027022 -0.26026357074689799 0 -0.48356792786513592 -0.27463082000336891 0 -0.48431189365409638 -0.2488967277830833 0 -0.5 -0.25894026581088281 0 -0.48356792786513592 -0.27463082000336891 0 -0.48431189365409638 -0.2488967277830833 0 -0.5 -0.25894026581088281 0 -0.48356792786513592 -0.27463082000336891 0 -0.50000000000000122 -0.2889980692598404 0 -0.46713585573027022 -0.26026357074689799 0 -0.48356792786513592 -0.27463082000336891 0 -0.46713585573027022 -0.26026357074689799 0 -0.48356792786513592 -0.27463082000336891 0 -0.46958648552583632 -0.28046518955013999 0 -0.46958648552583632 -0.28046518955013999 0 -0.47997421633502979 -0.29547857206078598 0 -0.46000301914517411 -0.29218844264927912 0 -0.48356792786513592 -0.27463082000336891 0 -0.46958648552583632 -0.28046518955013999 0 -0.47997421633502979 -0.29547857206078598 0 -0.48356792786513592 -0.27463082000336891 0 -0.50000000000000122 -0.2889980692598404 0 -0.48356792786513592 -0.27463082000336891 0 -0.47997421633502979 -0.29547857206078598 0 -0.50000000000000122 -0.2889980692598404 0 -0.47997421633502979 -0.29547857206078598 0 -0.50000000000000122 -0.2889980692598404 0 -0.5 -0.3169082197043388 0 -0.47997421633502979 -0.29547857206078598 0 -0.47701408024303149 -0.31535669994994658 0 -0.5 -0.3169082197043388 0 -0.47997421633502979 -0.29547857206078598 0 -0.46123690260457068 -0.30997212066036772 0 -0.47701408024303149 -0.31535669994994658 0 -0.46123690260457068 -0.30997212066036772 0 -0.44988600248534649 -0.30236000231903848 0 -0.45033017499313482 -0.3199375169035078 0 -0.46123690260457068 -0.30997212066036772 0 -0.46000301914517411 -0.29218844264927912 0 -0.44988600248534649 -0.30236000231903848 0 -0.47997421633502979 -0.29547857206078598 0 -0.46123690260457068 -0.30997212066036772 0 -0.46000301914517411 -0.29218844264927912 0 -0.45517367854317242 -0.27698976963335092 0 -0.46958648552583632 -0.28046518955013999 0 -0.46000301914517411 -0.29218844264927912 0 -0.45517367854317242 -0.27698976963335092 0 -0.46000301914517411 -0.29218844264927912 0 -0.44614328460128277 -0.28954760608686841 0 -0.46000301914517411 -0.29218844264927912 0 -0.44614328460128277 -0.28954760608686841 0 -0.44988600248534649 -0.30236000231903848 0 -0.44614328460128277 -0.28954760608686841 0 -0.44988600248534649 -0.30236000231903848 0 -0.43171663108257008 -0.30015432529516961 0 -0.44988600248534649 -0.30236000231903848 0 -0.45033017499313482 -0.3199375169035078 0 -0.43171663108257008 -0.30015432529516961 0 -0.45033017499313482 -0.3199375169035078 0 -0.43171663108257008 -0.30015432529516961 0 -0.45033017499313482 -0.3199375169035078 0 -0.43774143185113712 -0.3302241584482758 0 -0.43171663108257008 -0.30015432529516961 0 -0.43774143185113712 -0.3302241584482758 0 -0.46067133659164888 -0.34737436064947602 0 -0.43774143185113712 -0.3302241584482758 0 -0.46067133659164888 -0.34737436064947602 0 -0.44042544316274052 -0.34834793162398803 0 -0.45033017499313482 -0.3199375169035078 0 -0.43774143185113712 -0.3302241584482758 0 -0.46067133659164888 -0.34737436064947602 0 -0.45033017499313482 -0.3199375169035078 0 -0.4689437189036994 -0.3397207085118461 0 -0.46067133659164888 -0.34737436064947602 0 -0.45033017499313482 -0.3199375169035078 0 -0.4689437189036994 -0.3397207085118461 0 -0.46123690260457068 -0.30997212066036772 0 -0.45033017499313482 -0.3199375169035078 0 -0.46800269988651028 -0.32329039264155629 0 -0.45033017499313482 -0.3199375169035078 0 -0.46800269988651028 -0.32329039264155629 0 -0.4689437189036994 -0.3397207085118461 0 -0.46123690260457068 -0.30997212066036772 0 -0.46800269988651028 -0.32329039264155629 0 -0.47701408024303149 -0.31535669994994658 0 -0.46800269988651028 -0.32329039264155629 0 -0.47701408024303149 -0.31535669994994658 0 -0.48248862268811538 -0.33146491718211363 0 -0.47701408024303149 -0.31535669994994658 0 -0.5 -0.3169082197043388 0 -0.48248862268811538 -0.33146491718211363 0 -0.5 -0.3169082197043388 0 -0.48248862268811538 -0.33146491718211363 0 -0.5 -0.34481837014883709 0 -0.48248862268811538 -0.33146491718211363 0 -0.48485378816532881 -0.34637453222082931 0 -0.5 -0.34481837014883709 0 -0.48248862268811538 -0.33146491718211363 0 -0.4689437189036994 -0.3397207085118461 0 -0.48485378816532881 -0.34637453222082931 0 -0.46800269988651028 -0.32329039264155629 0 -0.48248862268811538 -0.33146491718211363 0 -0.4689437189036994 -0.3397207085118461 0 -0.4689437189036994 -0.3397207085118461 0 -0.48485378816532881 -0.34637453222082931 0 -0.48755726281426393 -0.35950390012018429 0 -0.4689437189036994 -0.3397207085118461 0 -0.48755726281426393 -0.35950390012018429 0 -0.48360124133216081 -0.36452456285067619 0 -0.4689437189036994 -0.3397207085118461 0 -0.48360124133216081 -0.36452456285067619 0 -0.46067133659164888 -0.34737436064947602 0 -0.4689437189036994 -0.3397207085118461 0 -0.48755726281426393 -0.35950390012018429 0 -0.48360124133216081 -0.36452456285067619 0 -0.46067133659164888 -0.34737436064947602 0 -0.5 -0.34481837014883709 0 -0.49999999999999861 -0.3727285205933355 0 -0.48755726281426393 -0.35950390012018429 0 -0.48485378816532881 -0.34637453222082931 0 -0.5 -0.34481837014883709 0 -0.48755726281426393 -0.35950390012018429 0 -0.48601428613885628 -0.38090720245017817 0 -0.48951587853512041 -0.37205782224554212 0 -0.48360124133216081 -0.36452456285067619 0 -0.49999999999999861 -0.3727285205933355 0 -0.48755726281426393 -0.35950390012018429 0 -0.48951587853512041 -0.37205782224554212 0 -0.49999999999999861 -0.3727285205933355 0 -0.48755726281426393 -0.35950390012018429 0 -0.48755726281426393 -0.35950390012018429 0 -0.48951587853512041 -0.37205782224554212 0 -0.48360124133216081 -0.36452456285067619 0 -0.48755726281426393 -0.35950390012018429 0 -0.48360124133216081 -0.36452456285067619 0 -0.46701881497498549 -0.38556963815403872 0 -0.48360124133216081 -0.36452456285067619 0 -0.45412424375837229 -0.36522802627992829 0 -0.48360124133216081 -0.36452456285067619 0 -0.45412424375837229 -0.36522802627992829 0 -0.46067133659164888 -0.34737436064947602 0 -0.45412424375837229 -0.36522802627992829 0 -0.46067133659164888 -0.34737436064947602 0 -0.44042544316274052 -0.34834793162398803 0 -0.45412424375837229 -0.36522802627992829 0 -0.44042544316274052 -0.34834793162398803 0 -0.43545460221108218 -0.36233902049309441 0 -0.43757402427761649 -0.38321264390829712 0 -0.45412424375837229 -0.36522802627992829 0 -0.43545460221108218 -0.36233902049309441 0 -0.43757402427761649 -0.38321264390829712 0 -0.43545460221108218 -0.36233902049309441 0 -0.41789923135236701 -0.3671592219858863 0 -0.43545460221108218 -0.36233902049309441 0 -0.42326725198169213 -0.34909421697012821 0 -0.41789923135236701 -0.3671592219858863 0 -0.44042544316274052 -0.34834793162398803 0 -0.43545460221108218 -0.36233902049309441 0 -0.42326725198169213 -0.34909421697012821 0 -0.44042544316274052 -0.34834793162398803 0 -0.42326725198169213 -0.34909421697012821 0 -0.42927373708781508 -0.33941745081925218 0 -0.42326725198169213 -0.34909421697012821 0 -0.40708859454345792 -0.34925432437331461 0 -0.413135508675334 -0.35649862749028599 0 -0.42326725198169213 -0.34909421697012821 0 -0.413135508675334 -0.35649862749028599 0 -0.41789923135236701 -0.3671592219858863 0 -0.42326725198169213 -0.34909421697012821 0 -0.40708859454345792 -0.34925432437331461 0 -0.41127821905149192 -0.34208818859875428 0 -0.40708859454345792 -0.34925432437331461 0 -0.413135508675334 -0.35649862749028599 0 -0.40428695682381932 -0.36048674663181518 0 -0.41789923135236701 -0.3671592219858863 0 -0.40028023094057202 -0.3699734792735111 0 -0.40428695682381932 -0.36048674663181518 0 -0.413135508675334 -0.35649862749028599 0 -0.41789923135236701 -0.3671592219858863 0 -0.40428695682381932 -0.36048674663181518 0 -0.40502460682334968 -0.37915128603262571 0 -0.41789923135236701 -0.3671592219858863 0 -0.40028023094057202 -0.3699734792735111 0 -0.40028023094057202 -0.3699734792735111 0 -0.40428695682381932 -0.36048674663181518 0 -0.39093762902572687 -0.366301777827022 0 -0.40428695682381932 -0.36048674663181518 0 -0.39093762902572687 -0.366301777827022 0 -0.39573280001806621 -0.35511590925957209 0 -0.39266853255410172 -0.37808603827981441 0 -0.40028023094057202 -0.3699734792735111 0 -0.39093762902572687 -0.366301777827022 0 -0.39266853255410172 -0.37808603827981441 0 -0.37976219896696839 -0.37713098054591881 0 -0.39093762902572687 -0.366301777827022 0 -0.37976219896696839 -0.37713098054591881 0 -0.39093762902572687 -0.366301777827022 0 -0.37930372380650229 -0.36547688239778742 0 -0.39093762902572687 -0.366301777827022 0 -0.38497256959962889 -0.35678136057209758 0 -0.39573280001806621 -0.35511590925957209 0 -0.39093762902572687 -0.366301777827022 0 -0.37930372380650229 -0.36547688239778742 0 -0.38497256959962889 -0.35678136057209758 0 -0.37976219896696839 -0.37713098054591881 0 -0.37930372380650229 -0.36547688239778742 0 -0.36742545467469251 -0.3676459075998566 0 -0.39137825009769772 -0.34275533689361087 0 -0.36847526157608179 -0.3543504891053138 0 -0.38497256959962889 -0.35678136057209758 0 -0.39137825009769772 -0.34275533689361087 0 -0.36847526157608179 -0.3543504891053138 0 -0.39137825009769772 -0.34275533689361087 0 -0.37908097214207531 -0.34144857673128642 0 -0.36847526157608179 -0.3543504891053138 0 -0.37930372380650229 -0.36547688239778742 0 -0.38497256959962889 -0.35678136057209758 0 -0.36847526157608179 -0.3543504891053138 0 -0.40708859454345792 -0.34925432437331461 0 -0.39137825009769772 -0.34275533689361087 0 -0.41127821905149192 -0.34208818859875428 0 -0.38497256959962889 -0.35678136057209758 0 -0.39573280001806621 -0.35511590925957209 0 -0.39137825009769772 -0.34275533689361087 0 -0.40708859454345792 -0.34925432437331461 0 -0.39573280001806621 -0.35511590925957209 0 -0.39137825009769772 -0.34275533689361087 0 -0.40708859454345792 -0.34925432437331461 0 -0.40428695682381932 -0.36048674663181518 0 -0.39573280001806621 -0.35511590925957209 0 -0.39137825009769772 -0.34275533689361087 0 -0.41127821905149192 -0.34208818859875428 0 -0.41428123861931399 -0.33116018468190878 0 -0.39672067963188112 -0.32912860907556901 0 -0.39137825009769772 -0.34275533689361087 0 -0.41428123861931399 -0.33116018468190878 0 -0.39137825009769772 -0.34275533689361087 0 -0.41428123861931399 -0.33116018468190878 0 -0.39672067963188112 -0.32912860907556901 0 -0.39137825009769772 -0.34275533689361087 0 -0.38669399122191561 -0.33081625020701549 0 -0.38669399122191561 -0.33081625020701549 0 -0.36977638567260612 -0.33787223071920558 0 -0.38669399122191561 -0.33081625020701549 0 -0.37908097214207531 -0.34144857673128642 0 -0.36977638567260612 -0.33787223071920558 0 -0.38669399122191561 -0.33081625020701549 0 -0.38022369196157763 -0.32403794866055319 0 -0.36977638567260612 -0.33787223071920558 0 -0.39137825009769772 -0.34275533689361087 0 -0.38669399122191561 -0.33081625020701549 0 -0.37908097214207531 -0.34144857673128642 0 -0.3789924780201141 -0.31474847846018889 0 -0.38022369196157763 -0.32403794866055319 0 -0.38342934416815538 -0.31823422331293039 0 -0.3789924780201141 -0.31474847846018889 0 -0.38342934416815538 -0.31823422331293039 0 -0.38146100487945822 -0.31114317025860622 0 -0.3789924780201141 -0.31474847846018889 0 -0.38146100487945822 -0.31114317025860622 0 -0.3789924780201141 -0.31474847846018889 0 -0.38022369196157763 -0.32403794866055319 0 -0.37099873218516449 -0.32239166147519188 0 -0.38669399122191561 -0.33081625020701549 0 -0.38022369196157763 -0.32403794866055319 0 -0.39033895215656289 -0.32085961730076989 0 -0.38022369196157763 -0.32403794866055319 0 -0.39033895215656289 -0.32085961730076989 0 -0.38342934416815538 -0.31823422331293039 0 -0.39033895215656289 -0.32085961730076989 0 -0.38342934416815538 -0.31823422331293039 0 -0.38146100487945822 -0.31114317025860622 0 -0.40091096606391519 -0.32005165629453969 0 -0.4148115271106253 -0.31307395624707562 0 -0.39726628010602832 -0.31004813421152427 0 -0.39672067963188112 -0.32912860907556901 0 -0.40091096606391519 -0.32005165629453969 0 -0.41428123861931399 -0.33116018468190878 0 -0.39033895215656289 -0.32085961730076989 0 -0.40091096606391519 -0.32005165629453969 0 -0.38146100487945822 -0.31114317025860622 0 -0.40091096606391519 -0.32005165629453969 0 -0.38146100487945822 -0.31114317025860622 0 -0.40091096606391519 -0.32005165629453969 0 -0.39726628010602832 -0.31004813421152427 0 -0.38146100487945822 -0.31114317025860622 0 -0.39672067963188112 -0.32912860907556901 0 -0.38669399122191561 -0.33081625020701549 0 -0.39033895215656289 -0.32085961730076989 0 -0.39672067963188112 -0.32912860907556901 0 -0.39033895215656289 -0.32085961730076989 0 -0.40091096606391519 -0.32005165629453969 0 -0.40091096606391519 -0.32005165629453969 0 -0.4203609272483721 -0.32896014233047299 0 -0.41428123861931399 -0.33116018468190878 0 -0.40091096606391519 -0.32005165629453969 0 -0.4203609272483721 -0.32896014233047299 0 -0.40091096606391519 -0.32005165629453969 0 -0.4148115271106253 -0.31307395624707562 0 -0.4203609272483721 -0.32896014233047299 0 -0.42326725198169213 -0.34909421697012821 0 -0.41127821905149192 -0.34208818859875428 0 -0.42037576001529769 -0.33817688007480878 0 -0.41127821905149192 -0.34208818859875428 0 -0.42037576001529769 -0.33817688007480878 0 -0.41428123861931399 -0.33116018468190878 0 -0.42037576001529769 -0.33817688007480878 0 -0.4203609272483721 -0.32896014233047299 0 -0.41428123861931399 -0.33116018468190878 0 -0.42037576001529769 -0.33817688007480878 0 -0.4203609272483721 -0.32896014233047299 0 -0.42927373708781508 -0.33941745081925218 0 -0.43774143185113712 -0.3302241584482758 0 -0.4203609272483721 -0.32896014233047299 0 -0.42927373708781508 -0.33941745081925218 0 -0.43774143185113712 -0.3302241584482758 0 -0.44042544316274052 -0.34834793162398803 0 -0.42927373708781508 -0.33941745081925218 0 -0.42326725198169213 -0.34909421697012821 0 -0.42037576001529769 -0.33817688007480878 0 -0.42927373708781508 -0.33941745081925218 0 -0.43774143185113712 -0.3302241584482758 0 -0.4148115271106253 -0.31307395624707562 0 -0.4203609272483721 -0.32896014233047299 0 -0.43774143185113712 -0.3302241584482758 0 -0.4148115271106253 -0.31307395624707562 0 -0.43774143185113712 -0.3302241584482758 0 -0.4148115271106253 -0.31307395624707562 0 -0.43171663108257008 -0.30015432529516961 0 -0.43171663108257008 -0.30015432529516961 0 -0.41370788962546612 -0.2934539518868966 0 -0.42564429765555362 -0.28060186931298869 0 -0.44058928147511472 -0.27539389852291618 0 -0.44614328460128277 -0.28954760608686841 0 -0.42564429765555362 -0.28060186931298869 0 -0.44614328460128277 -0.28954760608686841 0 -0.43171663108257008 -0.30015432529516961 0 -0.42564429765555362 -0.28060186931298869 0 -0.41370788962546612 -0.2934539518868966 0 -0.4044853699084654 -0.27751585453337252 0 -0.42564429765555362 -0.28060186931298869 0 -0.4148115271106253 -0.31307395624707562 0 -0.43171663108257008 -0.30015432529516961 0 -0.41370788962546612 -0.2934539518868966 0 -0.4148115271106253 -0.31307395624707562 0 -0.41370788962546612 -0.2934539518868966 0 -0.39188162237011359 -0.29592375404587518 0 -0.4148115271106253 -0.31307395624707562 0 -0.39726628010602832 -0.31004813421152427 0 -0.39188162237011359 -0.29592375404587518 0 -0.4148115271106253 -0.31307395624707562 0 -0.39188162237011359 -0.29592375404587518 0 -0.39726628010602832 -0.31004813421152427 0 -0.38146100487945822 -0.31114317025860622 0 -0.39188162237011359 -0.29592375404587518 0 -0.38146100487945822 -0.31114317025860622 0 -0.39188162237011359 -0.29592375404587518 0 -0.38043548388706422 -0.29894495503382529 0 -0.38146100487945822 -0.31114317025860622 0 -0.39188162237011359 -0.29592375404587518 0 -0.38043548388706422 -0.29894495503382529 0 -0.37345028143882653 -0.29134369137300392 0 -0.37222107869772081 -0.30691109223117802 0 -0.38146100487945822 -0.31114317025860622 0 -0.37222107869772081 -0.30691109223117802 0 -0.38043548388706422 -0.29894495503382529 0 -0.38146100487945822 -0.31114317025860622 0 -0.37222107869772081 -0.30691109223117802 0 -0.3789924780201141 -0.31474847846018889 0 -0.38146100487945822 -0.31114317025860622 0 -0.37222107869772081 -0.30691109223117802 0 -0.38316343204919889 -0.2894030672604625 0 -0.3860591934614932 -0.27882190896394299 0 -0.37467948417992919 -0.27577629051482949 0 -0.38316343204919889 -0.2894030672604625 0 -0.37467948417992919 -0.27577629051482949 0 -0.37345028143882653 -0.29134369137300392 0 -0.38043548388706422 -0.29894495503382529 0 -0.38316343204919889 -0.2894030672604625 0 -0.37345028143882653 -0.29134369137300392 0 -0.38316343204919889 -0.2894030672604625 0 -0.39188162237011359 -0.29592375404587518 0 -0.38316343204919889 -0.2894030672604625 0 -0.39261487325791328 -0.2824372228884805 0 -0.39188162237011359 -0.29592375404587518 0 -0.38043548388706422 -0.29894495503382529 0 -0.38316343204919889 -0.2894030672604625 0 -0.39188162237011359 -0.29592375404587518 0 -0.38316343204919889 -0.2894030672604625 0 -0.39261487325791328 -0.2824372228884805 0 -0.3860591934614932 -0.27882190896394299 0 -0.41370788962546612 -0.2934539518868966 0 -0.39188162237011359 -0.29592375404587518 0 -0.4044853699084654 -0.27751585453337252 0 -0.39261487325791328 -0.2824372228884805 0 -0.39188162237011359 -0.29592375404587518 0 -0.4044853699084654 -0.27751585453337252 0 -0.39188162237011359 -0.29592375404587518 0 -0.4044853699084654 -0.27751585453337252 0 -0.4044853699084654 -0.27751585453337252 0 -0.39588430081337111 -0.2674421227678474 0 -0.41708911744681348 -0.25910795502086709 0 -0.39261487325791328 -0.2824372228884805 0 -0.4044853699084654 -0.27751585453337252 0 -0.39588430081337111 -0.2674421227678474 0 -0.39261487325791328 -0.2824372228884805 0 -0.39588430081337111 -0.2674421227678474 0 -0.3860591934614932 -0.27882190896394299 0 -0.39588430081337111 -0.2674421227678474 0 -0.38348577188552008 -0.26553919972822843 0 -0.37467948417992919 -0.27577629051482949 0 -0.39588430081337111 -0.2674421227678474 0 -0.3860591934614932 -0.27882190896394299 0 -0.37467948417992919 -0.27577629051482949 0 -0.39588430081337111 -0.2674421227678474 0 -0.37467948417992919 -0.27577629051482949 0 -0.37512589737599011 -0.27012263148930188 0 -0.38348577188552008 -0.26553919972822843 0 -0.37467948417992919 -0.27577629051482949 0 -0.38279029993493541 -0.25521283213244289 0 -0.37452619856098252 -0.25983336737841528 0 -0.37329009336983582 -0.24701193440318839 0 -0.38279029993493541 -0.25521283213244289 0 -0.38348577188552008 -0.26553919972822843 0 -0.37452619856098252 -0.25983336737841528 0 -0.37512589737599011 -0.27012263148930188 0 -0.38348577188552008 -0.26553919972822843 0 -0.37452619856098252 -0.25983336737841528 0 -0.39588430081337111 -0.2674421227678474 0 -0.38348577188552008 -0.26553919972822843 0 -0.39217757666982078 -0.25435668718018062 0 -0.38279029993493541 -0.25521283213244289 0 -0.38348577188552008 -0.26553919972822843 0 -0.39217757666982078 -0.25435668718018062 0 -0.38279029993493541 -0.25521283213244289 0 -0.39217757666982078 -0.25435668718018062 0 -0.3857421214741299 -0.24761256388671449 0 -0.39217757666982078 -0.25435668718018062 0 -0.40336899173835827 -0.25317939998793071 0 -0.39427694324533219 -0.24468440519333171 0 -0.39588430081337111 -0.2674421227678474 0 -0.40336899173835827 -0.25317939998793071 0 -0.41708911744681348 -0.25910795502086709 0 -0.39588430081337111 -0.2674421227678474 0 -0.39217757666982078 -0.25435668718018062 0 -0.40336899173835827 -0.25317939998793071 0 -0.39588430081337111 -0.2674421227678474 0 -0.41708911744681348 -0.25910795502086709 0 -0.40336899173835827 -0.25317939998793071 0 -0.41708911744681348 -0.25910795502086709 0 -0.41137459664158882 -0.2413977865800809 0 -0.4044853699084654 -0.27751585453337252 0 -0.41708911744681348 -0.25910795502086709 0 -0.4044853699084654 -0.27751585453337252 0 -0.41708911744681348 -0.25910795502086709 0 -0.42564429765555362 -0.28060186931298869 0 -0.41708911744681348 -0.25910795502086709 0 -0.42564429765555362 -0.28060186931298869 0 -0.43275288537494971 -0.26605967700558308 0 -0.44058928147511472 -0.27539389852291618 0 -0.42564429765555362 -0.28060186931298869 0 -0.43275288537494971 -0.26605967700558308 0 -0.41708911744681348 -0.25910795502086709 0 -0.43275288537494971 -0.26605967700558308 0 -0.43389645052110831 -0.25250213825564749 0 -0.41708911744681348 -0.25910795502086709 0 -0.43389645052110831 -0.25250213825564749 0 -0.32578959289503467 -0.26950517022481801 0 -0.34047067558443911 -0.2514149711421132 0 -0.31088160300180567 -0.25564055683012482 0 -0.34047067558443911 -0.2514149711421132 0 -0.31088160300180567 -0.25564055683012482 0 -0.32578959289503467 -0.26950517022481801 0 -0.31323823511508492 -0.2798957252886754 0 -0.32646035918359051 -0.2859517326252799 0 -0.32578959289503467 -0.26950517022481801 0 -0.31323823511508492 -0.2798957252886754 0 -0.31088160300180567 -0.25564055683012482 0 -0.32578959289503467 -0.26950517022481801 0 -0.34019681668896318 -0.26568598075743022 0 -0.32646035918359051 -0.2859517326252799 0 -0.34019681668896318 -0.26568598075743022 0 -0.32646035918359051 -0.2859517326252799 0 -0.34019681668896318 -0.26568598075743022 0 -0.3481259111426494 -0.27361576212878952 0 -0.32646035918359051 -0.2859517326252799 0 -0.32578959289503467 -0.26950517022481801 0 -0.34019681668896318 -0.26568598075743022 0 -0.34047067558443911 -0.2514149711421132 0 -0.34019681668896318 -0.26568598075743022 0 -0.35539479894934922 -0.26143017368191379 0 -0.3539332741943354 -0.24542022888958009 0 -0.34019681668896318 -0.26568598075743022 0 -0.3539332741943354 -0.24542022888958009 0 -0.34019681668896318 -0.26568598075743022 0 -0.34047067558443911 -0.2514149711421132 0 -0.3539332741943354 -0.24542022888958009 0 -0.35539479894934922 -0.26143017368191379 0 -0.36547778398137482 -0.25600809124793539 0 -0.3539332741943354 -0.24542022888958009 0 -0.35539479894934922 -0.26143017368191379 0 -0.36547778398137482 -0.25600809124793539 0 -0.36613862832461669 -0.26492163826623971 0 -0.36547778398137482 -0.25600809124793539 0 -0.36613862832461669 -0.26492163826623971 0 -0.37452619856098252 -0.25983336737841528 0 -0.37512589737599011 -0.27012263148930188 0 -0.36613862832461669 -0.26492163826623971 0 -0.37452619856098252 -0.25983336737841528 0 -0.36547778398137482 -0.25600809124793539 0 -0.37452619856098252 -0.25983336737841528 0 -0.37329009336983582 -0.24701193440318839 0 -0.37467948417992919 -0.27577629051482949 0 -0.35222022146651932 -0.28460349549201758 0 -0.37467948417992919 -0.27577629051482949 0 -0.3652863382002397 -0.27331277661919823 0 -0.35222022146651932 -0.28460349549201758 0 -0.37512589737599011 -0.27012263148930188 0 -0.37467948417992919 -0.27577629051482949 0 -0.3652863382002397 -0.27331277661919823 0 -0.37512589737599011 -0.27012263148930188 0 -0.37467948417992919 -0.27577629051482949 0 -0.37512589737599011 -0.27012263148930188 0 -0.36613862832461669 -0.26492163826623971 0 -0.3652863382002397 -0.27331277661919823 0 -0.36613862832461669 -0.26492163826623971 0 -0.3652863382002397 -0.27331277661919823 0 -0.35826745965414247 -0.27113982733360198 0 -0.35539479894934922 -0.26143017368191379 0 -0.36613862832461669 -0.26492163826623971 0 -0.35826745965414247 -0.27113982733360198 0 -0.3652863382002397 -0.27331277661919823 0 -0.35826745965414247 -0.27113982733360198 0 -0.35222022146651932 -0.28460349549201758 0 -0.35826745965414247 -0.27113982733360198 0 -0.3481259111426494 -0.27361576212878952 0 -0.35222022146651932 -0.28460349549201758 0 -0.35539479894934922 -0.26143017368191379 0 -0.35826745965414247 -0.27113982733360198 0 -0.3481259111426494 -0.27361576212878952 0 -0.34019681668896318 -0.26568598075743022 0 -0.35539479894934922 -0.26143017368191379 0 -0.3481259111426494 -0.27361576212878952 0 -0.34934071894065638 -0.29643141242822751 0 -0.35222022146651932 -0.28460349549201758 0 -0.36283378061068627 -0.29201528128501458 0 -0.37467948417992919 -0.27577629051482949 0 -0.35222022146651932 -0.28460349549201758 0 -0.36283378061068627 -0.29201528128501458 0 -0.37467948417992919 -0.27577629051482949 0 -0.36283378061068627 -0.29201528128501458 0 -0.37345028143882653 -0.29134369137300392 0 -0.36283378061068627 -0.29201528128501458 0 -0.37345028143882653 -0.29134369137300392 0 -0.37222107869772081 -0.30691109223117802 0 -0.37467948417992919 -0.27577629051482949 0 -0.37345028143882653 -0.29134369137300392 0 -0.34934071894065638 -0.29643141242822751 0 -0.37222107869772081 -0.30691109223117802 0 -0.34934071894065638 -0.29643141242822751 0 -0.37222107869772081 -0.30691109223117802 0 -0.35862532849121859 -0.31421241673407202 0 -0.34934071894065638 -0.29643141242822751 0 -0.36283378061068627 -0.29201528128501458 0 -0.37222107869772081 -0.30691109223117802 0 -0.37345028143882653 -0.29134369137300392 0 -0.37222107869772081 -0.30691109223117802 0 -0.34934071894065638 -0.29643141242822751 0 -0.34399066607456519 -0.31851925407302722 0 -0.35862532849121859 -0.31421241673407202 0 -0.34934071894065638 -0.29643141242822751 0 -0.33411454884277458 -0.30175618637728518 0 -0.34399066607456519 -0.31851925407302722 0 -0.33411454884277458 -0.30175618637728518 0 -0.3290576898669581 -0.31539002770769659 0 -0.34399066607456519 -0.31851925407302722 0 -0.33411454884277458 -0.30175618637728518 0 -0.32582565319458912 -0.3038797483246628 0 -0.3290576898669581 -0.31539002770769659 0 -0.33411454884277458 -0.30175618637728518 0 -0.32653385445719951 -0.29621070988789677 0 -0.32582565319458912 -0.3038797483246628 0 -0.33411454884277458 -0.30175618637728518 0 -0.32653385445719951 -0.29621070988789677 0 -0.32646035918359051 -0.2859517326252799 0 -0.34934071894065638 -0.29643141242822751 0 -0.33411454884277458 -0.30175618637728518 0 -0.32646035918359051 -0.2859517326252799 0 -0.34934071894065638 -0.29643141242822751 0 -0.32646035918359051 -0.2859517326252799 0 -0.34934071894065638 -0.29643141242822751 0 -0.35222022146651932 -0.28460349549201758 0 -0.32646035918359051 -0.2859517326252799 0 -0.3481259111426494 -0.27361576212878952 0 -0.35222022146651932 -0.28460349549201758 0 -0.32646035918359051 -0.2859517326252799 0 -0.32653385445719951 -0.29621070988789677 0 -0.32646035918359051 -0.2859517326252799 0 -0.3245537161370306 -0.28876465254055278 0 -0.32653385445719951 -0.29621070988789677 0 -0.32241212561357357 -0.2936528653266714 0 -0.3245537161370306 -0.28876465254055278 0 -0.32241212561357357 -0.2936528653266714 0 -0.3245537161370306 -0.28876465254055278 0 -0.31741417123713339 -0.29067236249880252 0 -0.32653385445719951 -0.29621070988789677 0 -0.32241212561357357 -0.2936528653266714 0 -0.31983068578879142 -0.29789155537658202 0 -0.31323823511508492 -0.2798957252886754 0 -0.32646035918359051 -0.2859517326252799 0 -0.3245537161370306 -0.28876465254055278 0 -0.32646035918359051 -0.2859517326252799 0 -0.3245537161370306 -0.28876465254055278 0 -0.31323823511508492 -0.2798957252886754 0 -0.31741417123713339 -0.29067236249880252 0 -0.31068142912224589 -0.29481077381828441 0 -0.31323823511508492 -0.2798957252886754 0 -0.32646035918359051 -0.2859517326252799 0 -0.31323823511508492 -0.2798957252886754 0 -0.3245537161370306 -0.28876465254055278 0 -0.31741417123713339 -0.29067236249880252 0 -0.31741417123713339 -0.29067236249880252 0 -0.31983068578879142 -0.29789155537658202 0 -0.31068142912224589 -0.29481077381828441 0 -0.32241212561357357 -0.2936528653266714 0 -0.31741417123713339 -0.29067236249880252 0 -0.31983068578879142 -0.29789155537658202 0 -0.31313903055878711 -0.30265247665852402 0 -0.31983068578879142 -0.29789155537658202 0 -0.31068142912224589 -0.29481077381828441 0 -0.31313903055878711 -0.30265247665852402 0 -0.31983068578879142 -0.29789155537658202 0 -0.31959148701722201 -0.30815026227385339 0 -0.31313903055878711 -0.30265247665852402 0 -0.31959148701722201 -0.30815026227385339 0 -0.3102070358997836 -0.31047417944304612 0 -0.31959148701722201 -0.30815026227385339 0 -0.31772013218925882 -0.31657869104279268 0 -0.3102070358997836 -0.31047417944304612 0 -0.31959148701722201 -0.30815026227385339 0 -0.32582565319458912 -0.3038797483246628 0 -0.3290576898669581 -0.31539002770769659 0 -0.31983068578879142 -0.29789155537658202 0 -0.31959148701722201 -0.30815026227385339 0 -0.32582565319458912 -0.3038797483246628 0 -0.32653385445719951 -0.29621070988789677 0 -0.31983068578879142 -0.29789155537658202 0 -0.32582565319458912 -0.3038797483246628 0 -0.31772013218925882 -0.31657869104279268 0 -0.32605104388716932 -0.32941727028517748 0 -0.30369340427516073 -0.31946171550418961 0 -0.32605104388716932 -0.32941727028517748 0 -0.30369340427516073 -0.31946171550418961 0 -0.31772013218925882 -0.31657869104279268 0 -0.32605104388716932 -0.32941727028517748 0 -0.3290576898669581 -0.31539002770769659 0 -0.31959148701722201 -0.30815026227385339 0 -0.31772013218925882 -0.31657869104279268 0 -0.3290576898669581 -0.31539002770769659 0 -0.31417906229765052 -0.34287117485509888 0 -0.32605104388716932 -0.32941727028517748 0 -0.34006021631284039 -0.34518436854177048 0 -0.31417906229765052 -0.34287117485509888 0 -0.32605104388716932 -0.32941727028517748 0 -0.30369340427516073 -0.31946171550418961 0 -0.32605104388716932 -0.32941727028517748 0 -0.34840868349917747 -0.33937282506616612 0 -0.34006021631284039 -0.34518436854177048 0 -0.32605104388716932 -0.32941727028517748 0 -0.33816353653184911 -0.32659229972562209 0 -0.34840868349917747 -0.33937282506616612 0 -0.32605104388716932 -0.32941727028517748 0 -0.34840868349917747 -0.33937282506616612 0 -0.33816353653184911 -0.32659229972562209 0 -0.34399066607456519 -0.31851925407302722 0 -0.3467370282568028 -0.32896302859789389 0 -0.32605104388716932 -0.32941727028517748 0 -0.33816353653184911 -0.32659229972562209 0 -0.3290576898669581 -0.31539002770769659 0 -0.33816353653184911 -0.32659229972562209 0 -0.3290576898669581 -0.31539002770769659 0 -0.34399066607456519 -0.31851925407302722 0 -0.34399066607456519 -0.31851925407302722 0 -0.35657544655798368 -0.32680866346273502 0 -0.3467370282568028 -0.32896302859789389 0 -0.34399066607456519 -0.31851925407302722 0 -0.35657544655798368 -0.32680866346273502 0 -0.35862532849121859 -0.31421241673407202 0 -0.35657544655798368 -0.32680866346273502 0 -0.35862532849121859 -0.31421241673407202 0 -0.37099873218516449 -0.32239166147519188 0 -0.38022369196157763 -0.32403794866055319 0 -0.37099873218516449 -0.32239166147519188 0 -0.36977638567260612 -0.33787223071920558 0 -0.37222107869772081 -0.30691109223117802 0 -0.37099873218516449 -0.32239166147519188 0 -0.37222107869772081 -0.30691109223117802 0 -0.35862532849121859 -0.31421241673407202 0 -0.37099873218516449 -0.32239166147519188 0 -0.3789924780201141 -0.31474847846018889 0 -0.37222107869772081 -0.30691109223117802 0 -0.37099873218516449 -0.32239166147519188 0 -0.37099873218516449 -0.32239166147519188 0 -0.36977638567260612 -0.33787223071920558 0 -0.35657544655798368 -0.32680866346273502 0 -0.37099873218516449 -0.32239166147519188 0 -0.36977638567260612 -0.33787223071920558 0 -0.35657544655798368 -0.32680866346273502 0 -0.36977638567260612 -0.33787223071920558 0 -0.34840868349917747 -0.33937282506616612 0 -0.36977638567260612 -0.33787223071920558 0 -0.34840868349917747 -0.33937282506616612 0 -0.34541022967195212 -0.34803484630901133 0 -0.36977638567260612 -0.33787223071920558 0 -0.34541022967195212 -0.34803484630901133 0 -0.33816353653184911 -0.32659229972562209 0 -0.3467370282568028 -0.32896302859789389 0 -0.34840868349917747 -0.33937282506616612 0 -0.35657544655798368 -0.32680866346273502 0 -0.3467370282568028 -0.32896302859789389 0 -0.34840868349917747 -0.33937282506616612 0 -0.356246644014312 -0.35373486433768808 0 -0.36847526157608179 -0.3543504891053138 0 -0.34950394614634361 -0.36395514353093122 0 -0.36977638567260612 -0.33787223071920558 0 -0.34541022967195212 -0.34803484630901133 0 -0.356246644014312 -0.35373486433768808 0 -0.34840868349917747 -0.33937282506616612 0 -0.34541022967195212 -0.34803484630901133 0 -0.34006021631284039 -0.34518436854177048 0 -0.34541022967195212 -0.34803484630901133 0 -0.34950394614634361 -0.36395514353093122 0 -0.33662272005155008 -0.36093681242382708 0 -0.36847526157608179 -0.3543504891053138 0 -0.34950394614634361 -0.36395514353093122 0 -0.34541022967195212 -0.34803484630901133 0 -0.356246644014312 -0.35373486433768808 0 -0.34950394614634361 -0.36395514353093122 0 -0.37908097214207531 -0.34144857673128642 0 -0.36977638567260612 -0.33787223071920558 0 -0.36847526157608179 -0.3543504891053138 0 -0.36977638567260612 -0.33787223071920558 0 -0.356246644014312 -0.35373486433768808 0 -0.36847526157608179 -0.3543504891053138 0 -0.36977638567260612 -0.33787223071920558 0 -0.36847526157608179 -0.3543504891053138 0 -0.36847526157608179 -0.3543504891053138 0 -0.36742545467469251 -0.3676459075998566 0 -0.34950394614634361 -0.36395514353093122 0 -0.37976219896696839 -0.37713098054591881 0 -0.36742545467469251 -0.3676459075998566 0 -0.36933661851741278 -0.3800994361278619 0 -0.37930372380650229 -0.36547688239778742 0 -0.36847526157608179 -0.3543504891053138 0 -0.36742545467469251 -0.3676459075998566 0 -0.36847526157608179 -0.3543504891053138 0 -0.36742545467469251 -0.3676459075998566 0 -0.36742545467469251 -0.3676459075998566 0 -0.34950394614634361 -0.36395514353093122 0 -0.35810822852911051 -0.38535109496649161 0 -0.34950394614634361 -0.36395514353093122 0 -0.33053263071660588 -0.37355979795654931 0 -0.33662272005155008 -0.36093681242382708 0 -0.34950394614634361 -0.36395514353093122 0 -0.33053263071660588 -0.37355979795654931 0 -0.34950394614634361 -0.36395514353093122 0 -0.33053263071660588 -0.37355979795654931 0 -0.34358557285563779 -0.38001980394704421 0 -0.33053263071660588 -0.37355979795654931 0 -0.33662272005155008 -0.36093681242382708 0 -0.32104407367129811 -0.35819746189881713 0 -0.34541022967195212 -0.34803484630901133 0 -0.34006021631284039 -0.34518436854177048 0 -0.32104407367129811 -0.35819746189881713 0 -0.34541022967195212 -0.34803484630901133 0 -0.33662272005155008 -0.36093681242382708 0 -0.32104407367129811 -0.35819746189881713 0 -0.34541022967195212 -0.34803484630901133 0 -0.32104407367129811 -0.35819746189881713 0 -0.31417906229765052 -0.34287117485509888 0 -0.34006021631284039 -0.34518436854177048 0 -0.31417906229765052 -0.34287117485509888 0 -0.32104407367129811 -0.35819746189881713 0 -0.30464637595492011 -0.35292163741916749 0 -0.31417906229765052 -0.34287117485509888 0 -0.34006021631284039 -0.34518436854177048 0 -0.32104407367129811 -0.35819746189881713 0 -0.31417906229765052 -0.34287117485509888 0 -0.32104407367129811 -0.35819746189881713 0 -0.32104407367129811 -0.35819746189881713 0 -0.33263342769329263 -0.38407094654796808 0 -0.32104407367129811 -0.35819746189881713 0 -0.31588958576831472 -0.37484088716642749 0 -0.30352898256157701 -0.36550264117960901 0 -0.33053263071660588 -0.37355979795654931 0 -0.32104407367129811 -0.35819746189881713 0 -0.33263342769329263 -0.38407094654796808 0 -0.32104407367129811 -0.35819746189881713 0 -0.31588958576831472 -0.37484088716642749 0 -0.33263342769329263 -0.38407094654796808 0 -0.31588958576831472 -0.37484088716642749 0 -0.30352898256157701 -0.36550264117960901 0 -0.30592647319921618 -0.38178253104015392 0 -0.32104407367129811 -0.35819746189881713 0 -0.30352898256157701 -0.36550264117960901 0 -0.32104407367129811 -0.35819746189881713 0 -0.30352898256157701 -0.36550264117960901 0 -0.30464637595492011 -0.35292163741916749 0 -0.31417906229765052 -0.34287117485509888 0 -0.30464637595492011 -0.35292163741916749 0 -0.29298673066318331 -0.34097705654360722 0 -0.30352898256157701 -0.36550264117960901 0 -0.30464637595492011 -0.35292163741916749 0 -0.29149303058089049 -0.35705985261870571 0 -0.30464637595492011 -0.35292163741916749 0 -0.29149303058089049 -0.35705985261870571 0 -0.29298673066318331 -0.34097705654360722 0 -0.29149303058089049 -0.35705985261870571 0 -0.28064204563500872 -0.34902575399504249 0 -0.29298673066318331 -0.34097705654360722 0 -0.29149303058089049 -0.35705985261870571 0 -0.28154412808691048 -0.36202910388750098 0 -0.28064204563500872 -0.34902575399504249 0 -0.28601389145185602 -0.3728078204604009 0 -0.26997968939302708 -0.3660173985467875 0 -0.29177216161437308 -0.38151348323529072 0 -0.30352898256157701 -0.36550264117960901 0 -0.28601389145185602 -0.3728078204604009 0 -0.30352898256157701 -0.36550264117960901 0 -0.29149303058089049 -0.35705985261870571 0 -0.28601389145185602 -0.3728078204604009 0 -0.30352898256157701 -0.36550264117960901 0 -0.28601389145185602 -0.3728078204604009 0 -0.29177216161437308 -0.38151348323529072 0 -0.29149303058089049 -0.35705985261870571 0 -0.28154412808691048 -0.36202910388750098 0 -0.28601389145185602 -0.3728078204604009 0 -0.28154412808691048 -0.36202910388750098 0 -0.28601389145185602 -0.3728078204604009 0 -0.26997968939302708 -0.3660173985467875 0 -0.26997968939302708 -0.3660173985467875 0 -0.29177216161437308 -0.38151348323529072 0 -0.26997968939302708 -0.3660173985467875 0 -0.26210413338494798 -0.37210736184484278 0 -0.27333333048026448 -0.37753569437505669 0 -0.26997968939302708 -0.3660173985467875 0 -0.26210413338494798 -0.37210736184484278 0 -0.25325273149551991 -0.36644090651784578 0 -0.26997968939302708 -0.3660173985467875 0 -0.25325273149551991 -0.36644090651784578 0 -0.24818721717168121 -0.35052131385828428 0 -0.25325273149551991 -0.36644090651784578 0 -0.25338974013739751 -0.37479073521783091 0 -0.24643703795879759 -0.37108148237203897 0 -0.26210413338494798 -0.37210736184484278 0 -0.25325273149551991 -0.36644090651784578 0 -0.25338974013739751 -0.37479073521783091 0 -0.26607309774057969 -0.34960896190406249 0 -0.25060206739424878 -0.33718881992062411 0 -0.24818721717168121 -0.35052131385828428 0 -0.26997968939302708 -0.3660173985467875 0 -0.26607309774057969 -0.34960896190406249 0 -0.24818721717168121 -0.35052131385828428 0 -0.26997968939302708 -0.3660173985467875 0 -0.24818721717168121 -0.35052131385828428 0 -0.26607309774057969 -0.34960896190406249 0 -0.28064204563500872 -0.34902575399504249 0 -0.27179439902871599 -0.33908293823211572 0 -0.28154412808691048 -0.36202910388750098 0 -0.26997968939302708 -0.3660173985467875 0 -0.26607309774057969 -0.34960896190406249 0 -0.28154412808691048 -0.36202910388750098 0 -0.26607309774057969 -0.34960896190406249 0 -0.28064204563500872 -0.34902575399504249 0 -0.28154412808691048 -0.36202910388750098 0 -0.26607309774057969 -0.34960896190406249 0 -0.27179439902871599 -0.33908293823211572 0 -0.26585280108131498 -0.32060405135262182 0 -0.28713551885953342 -0.32538626693317102 0 -0.26607309774057969 -0.34960896190406249 0 -0.25060206739424878 -0.33718881992062411 0 -0.27179439902871599 -0.33908293823211572 0 -0.25060206739424878 -0.33718881992062411 0 -0.26585280108131498 -0.32060405135262182 0 -0.27179439902871599 -0.33908293823211572 0 -0.25060206739424878 -0.33718881992062411 0 -0.26607309774057969 -0.34960896190406249 0 -0.27179439902871599 -0.33908293823211572 0 -0.25060206739424878 -0.33718881992062411 0 -0.25060206739424878 -0.33718881992062411 0 -0.26585280108131498 -0.32060405135262182 0 -0.24666961817122871 -0.31346571522936922 0 -0.26585280108131498 -0.32060405135262182 0 -0.28713551885953342 -0.32538626693317102 0 -0.28126744737491899 -0.30947573995798089 0 -0.28713551885953342 -0.32538626693317102 0 -0.30369340427516073 -0.31946171550418961 0 -0.28126744737491899 -0.30947573995798089 0 -0.30369340427516073 -0.31946171550418961 0 -0.29984510407510329 -0.31087030169781749 0 -0.28126744737491899 -0.30947573995798089 0 -0.30369340427516073 -0.31946171550418961 0 -0.28126744737491899 -0.30947573995798089 0 -0.28713551885953342 -0.32538626693317102 0 -0.299498679023882 -0.33217405345901668 0 -0.30369340427516073 -0.31946171550418961 0 -0.27179439902871599 -0.33908293823211572 0 -0.28713551885953342 -0.32538626693317102 0 -0.29298673066318331 -0.34097705654360722 0 -0.28064204563500872 -0.34902575399504249 0 -0.27179439902871599 -0.33908293823211572 0 -0.29298673066318331 -0.34097705654360722 0 -0.27179439902871599 -0.33908293823211572 0 -0.29298673066318331 -0.34097705654360722 0 -0.28713551885953342 -0.32538626693317102 0 -0.29298673066318331 -0.34097705654360722 0 -0.299498679023882 -0.33217405345901668 0 -0.31417906229765052 -0.34287117485509888 0 -0.30369340427516073 -0.31946171550418961 0 -0.31417906229765052 -0.34287117485509888 0 -0.299498679023882 -0.33217405345901668 0 -0.30369340427516073 -0.31946171550418961 0 -0.31417906229765052 -0.34287117485509888 0 -0.29298673066318331 -0.34097705654360722 0 -0.299498679023882 -0.33217405345901668 0 -0.31417906229765052 -0.34287117485509888 0 -0.29298673066318331 -0.34097705654360722 0 -0.31772013218925882 -0.31657869104279268 0 -0.30369340427516073 -0.31946171550418961 0 -0.3102070358997836 -0.31047417944304612 0 -0.30369340427516073 -0.31946171550418961 0 -0.29984510407510329 -0.31087030169781749 0 -0.3102070358997836 -0.31047417944304612 0 -0.30369340427516073 -0.31946171550418961 0 -0.29984510407510329 -0.31087030169781749 0 -0.29984510407510329 -0.31087030169781749 0 -0.30538451496589281 -0.30193561238085409 0 -0.29560350577492978 -0.30093914059700011 0 -0.30538451496589281 -0.30193561238085409 0 -0.30157920614258849 -0.28926007905483919 0 -0.29560350577492978 -0.30093914059700011 0 -0.31313903055878711 -0.30265247665852402 0 -0.3102070358997836 -0.31047417944304612 0 -0.30538451496589281 -0.30193561238085409 0 -0.29984510407510329 -0.31087030169781749 0 -0.3102070358997836 -0.31047417944304612 0 -0.30538451496589281 -0.30193561238085409 0 -0.31313903055878711 -0.30265247665852402 0 -0.30538451496589281 -0.30193561238085409 0 -0.31068142912224589 -0.29481077381828441 0 -0.30538451496589281 -0.30193561238085409 0 -0.31068142912224589 -0.29481077381828441 0 -0.30157920614258849 -0.28926007905483919 0 -0.31323823511508492 -0.2798957252886754 0 -0.30157920614258849 -0.28926007905483919 0 -0.29464735139065817 -0.27491141327805368 0 -0.31323823511508492 -0.2798957252886754 0 -0.31068142912224589 -0.29481077381828441 0 -0.30157920614258849 -0.28926007905483919 0 -0.30157920614258849 -0.28926007905483919 0 -0.2892074086796263 -0.29055742265417223 0 -0.29560350577492978 -0.30093914059700011 0 -0.30157920614258849 -0.28926007905483919 0 -0.2892074086796263 -0.29055742265417223 0 -0.29464735139065817 -0.27491141327805368 0 -0.2892074086796263 -0.29055742265417223 0 -0.27261494343457432 -0.2811216313153837 0 -0.29464735139065817 -0.27491141327805368 0 -0.2892074086796263 -0.29055742265417223 0 -0.28126744737491899 -0.30947573995798089 0 -0.29560350577492978 -0.30093914059700011 0 -0.29984510407510329 -0.31087030169781749 0 -0.28126744737491899 -0.30947573995798089 0 -0.29560350577492978 -0.30093914059700011 0 -0.25884149047467703 -0.29948976441177289 0 -0.27261494343457432 -0.2811216313153837 0 -0.25170345783653902 -0.26409172820614801 0 -0.28126744737491899 -0.30947573995798089 0 -0.25884149047467703 -0.29948976441177289 0 -0.26585280108131498 -0.32060405135262182 0 -0.28126744737491899 -0.30947573995798089 0 -0.25884149047467703 -0.29948976441177289 0 -0.26585280108131498 -0.32060405135262182 0 -0.25884149047467703 -0.29948976441177289 0 -0.24666961817122871 -0.31346571522936922 0 -0.28126744737491899 -0.30947573995798089 0 -0.25884149047467703 -0.29948976441177289 0 -0.27261494343457432 -0.2811216313153837 0 -0.2892074086796263 -0.29055742265417223 0 -0.28126744737491899 -0.30947573995798089 0 -0.27261494343457432 -0.2811216313153837 0 -0.27261494343457432 -0.2811216313153837 0 -0.25170345783653902 -0.26409172820614801 0 -0.2812925304191724 -0.25986614251813639 0 -0.25170345783653902 -0.26409172820614801 0 -0.2812925304191724 -0.25986614251813639 0 -0.26467237822917622 -0.242367723876314 0 -0.25170345783653902 -0.26409172820614801 0 -0.2812925304191724 -0.25986614251813639 0 -0.2812925304191724 -0.25986614251813639 0 -0.29464735139065817 -0.27491141327805368 0 -0.31088160300180567 -0.25564055683012482 0 -0.2812925304191724 -0.25986614251813639 0 -0.31088160300180567 -0.25564055683012482 0 -0.27261494343457432 -0.2811216313153837 0 -0.2812925304191724 -0.25986614251813639 0 -0.29464735139065817 -0.27491141327805368 0 -0.31323823511508492 -0.2798957252886754 0 -0.29464735139065817 -0.27491141327805368 0 -0.31088160300180567 -0.25564055683012482 0 -0.2812925304191724 -0.25986614251813639 0 -0.31088160300180567 -0.25564055683012482 0 -0.3032200744027207 -0.23846922127844189 0 -0.32339175278068061 -0.45331813882363442 0 -0.33052339812506382 -0.47746110059285751 0 -0.34415556660374091 -0.45705261545823778 0 -0.32339175278068061 -0.45331813882363442 0 -0.33640862104900771 -0.43689601467993738 0 -0.33099359053368749 -0.44176280406162799 0 -0.32339175278068061 -0.45331813882363442 0 -0.33640862104900771 -0.43689601467993738 0 -0.34176245890799878 -0.44527125583192839 0 -0.32339175278068061 -0.45331813882363442 0 -0.34415556660374091 -0.45705261545823778 0 -0.34176245890799878 -0.44527125583192839 0 -0.32339175278068061 -0.45331813882363442 0 -0.33640862104900771 -0.43689601467993738 0 -0.34176245890799878 -0.44527125583192839 0 -0.34633732341043671 -0.43575973287829223 0 -0.33640862104900771 -0.43689601467993738 0 -0.33099359053368749 -0.44176280406162799 0 -0.33640862104900771 -0.43689601467993738 0 -0.3229196479366197 -0.44097674932536962 0 -0.31503147533802139 -0.44376113674322171 0 -0.32339175278068061 -0.45331813882363442 0 -0.31503147533802139 -0.44376113674322171 0 -0.32339175278068061 -0.45331813882363442 0 -0.30515279313527371 -0.45375777491010771 0 -0.33099359053368749 -0.44176280406162799 0 -0.3229196479366197 -0.44097674932536962 0 -0.32339175278068061 -0.45331813882363442 0 -0.33099359053368749 -0.44176280406162799 0 -0.3229196479366197 -0.44097674932536962 0 -0.32862907754937098 -0.4336860199510168 0 -0.3229196479366197 -0.44097674932536962 0 -0.31503147533802139 -0.44376113674322171 0 -0.3167653920845277 -0.43253915212292621 0 -0.32339175278068061 -0.45331813882363442 0 -0.30515279313527371 -0.45375777491010771 0 -0.31037488451235329 -0.46974026296733129 0 -0.32339175278068061 -0.45331813882363442 0 -0.31037488451235329 -0.46974026296733129 0 -0.32339175278068061 -0.45331813882363442 0 -0.33052339812506382 -0.47746110059285751 0 -0.31037488451235329 -0.46974026296733129 0 -0.33052339812506382 -0.47746110059285751 0 -0.31207930079406848 -0.48640338681590611 0 -0.31037488451235329 -0.46974026296733129 0 -0.32161485031421427 -0.5 0 -0.33052339812506382 -0.47746110059285751 0 -0.31207930079406848 -0.48640338681590611 0 -0.32161485031421427 -0.5 0 -0.33052339812506382 -0.47746110059285751 0 -0.34590579504004237 -0.49999999999999911 0 -0.33052339812506382 -0.47746110059285751 0 -0.35454091223719769 -0.47638670838073621 0 -0.34590579504004237 -0.49999999999999911 0 -0.33052339812506382 -0.47746110059285751 0 -0.35454091223719769 -0.47638670838073621 0 -0.34415556660374091 -0.45705261545823778 0 -0.38119284069107479 -0.5 0 -0.35454091223719769 -0.47638670838073621 0 -0.34590579504004237 -0.49999999999999911 0 -0.35454091223719769 -0.47638670838073621 0 -0.34590579504004237 -0.49999999999999911 0 -0.38322057614176092 -0.47775084625121039 0 -0.38119284069107479 -0.5 0 -0.35454091223719769 -0.47638670838073621 0 -0.38322057614176092 -0.47775084625121039 0 -0.35454091223719769 -0.47638670838073621 0 -0.37253297241535249 -0.46451740972283989 0 -0.35454091223719769 -0.47638670838073621 0 -0.37253297241535249 -0.46451740972283989 0 -0.3631760294343534 -0.45277341676147342 0 -0.37790747141822401 -0.45066121505040729 0 -0.37253297241535249 -0.46451740972283989 0 -0.3631760294343534 -0.45277341676147342 0 -0.35454091223719769 -0.47638670838073621 0 -0.34415556660374091 -0.45705261545823778 0 -0.3631760294343534 -0.45277341676147342 0 -0.35454091223719769 -0.47638670838073621 0 -0.3631760294343534 -0.45277341676147342 0 -0.34415556660374091 -0.45705261545823778 0 -0.35086611419175529 -0.44169203243335697 0 -0.3631760294343534 -0.45277341676147342 0 -0.35086611419175529 -0.44169203243335697 0 -0.3631760294343534 -0.45277341676147342 0 -0.36041152392150649 -0.43047308774241572 0 -0.34176245890799878 -0.44527125583192839 0 -0.35086611419175529 -0.44169203243335697 0 -0.34633732341043671 -0.43575973287829223 0 -0.34176245890799878 -0.44527125583192839 0 -0.34415556660374091 -0.45705261545823778 0 -0.35086611419175529 -0.44169203243335697 0 -0.3631760294343534 -0.45277341676147342 0 -0.3718111466315091 -0.42916012514221041 0 -0.37790747141822401 -0.45066121505040729 0 -0.3631760294343534 -0.45277341676147342 0 -0.3718111466315091 -0.42916012514221041 0 -0.38254485346395473 -0.43330131008540912 0 -0.3718111466315091 -0.42916012514221041 0 -0.36930797127598503 -0.40732753710696867 0 -0.3718111466315091 -0.42916012514221041 0 -0.36041152392150649 -0.43047308774241572 0 -0.36930797127598503 -0.40732753710696867 0 -0.3631760294343534 -0.45277341676147342 0 -0.3718111466315091 -0.42916012514221041 0 -0.36041152392150649 -0.43047308774241572 0 -0.36930797127598503 -0.40732753710696867 0 -0.35285829616249698 -0.42211177589345372 0 -0.36930797127598503 -0.40732753710696867 0 -0.35602619359630361 -0.4089061293831151 0 -0.35285829616249698 -0.42211177589345372 0 -0.36041152392150649 -0.43047308774241572 0 -0.36930797127598503 -0.40732753710696867 0 -0.35285829616249698 -0.42211177589345372 0 -0.35602619359630361 -0.4089061293831151 0 -0.34827900363081749 -0.41630270579575451 0 -0.35285829616249698 -0.42211177589345372 0 -0.35602619359630361 -0.4089061293831151 0 -0.34422278171528642 -0.40994443119711949 0 -0.34827900363081749 -0.41630270579575451 0 -0.34422278171528642 -0.40994443119711949 0 -0.34827900363081749 -0.41630270579575451 0 -0.34069423188813658 -0.41776607683656081 0 -0.34827900363081749 -0.41630270579575451 0 -0.34759351479186429 -0.42278511566852323 0 -0.35285829616249698 -0.42211177589345372 0 -0.34827900363081749 -0.41630270579575451 0 -0.34759351479186429 -0.42278511566852323 0 -0.34069423188813658 -0.41776607683656081 0 -0.35285829616249698 -0.42211177589345372 0 -0.33640862104900771 -0.43689601467993738 0 -0.34759351479186429 -0.42278511566852323 0 -0.35285829616249698 -0.42211177589345372 0 -0.33640862104900771 -0.43689601467993738 0 -0.34633732341043671 -0.43575973287829223 0 -0.35285829616249698 -0.42211177589345372 0 -0.33640862104900771 -0.43689601467993738 0 -0.34633732341043671 -0.43575973287829223 0 -0.35230418245703499 -0.43254453816086902 0 -0.35285829616249698 -0.42211177589345372 0 -0.35086611419175529 -0.44169203243335697 0 -0.34633732341043671 -0.43575973287829223 0 -0.35230418245703499 -0.43254453816086902 0 -0.35086611419175529 -0.44169203243335697 0 -0.36041152392150649 -0.43047308774241572 0 -0.35230418245703499 -0.43254453816086902 0 -0.36041152392150649 -0.43047308774241572 0 -0.35230418245703499 -0.43254453816086902 0 -0.35285829616249698 -0.42211177589345372 0 -0.36742545467469251 -0.3676459075998566 0 -0.36933661851741278 -0.3800994361278619 0 -0.35810822852911051 -0.38535109496649161 0 -0.37976219896696839 -0.37713098054591881 0 -0.36933661851741278 -0.3800994361278619 0 -0.37294335233419318 -0.38910311623310501 0 -0.36933661851741278 -0.3800994361278619 0 -0.37294335233419318 -0.38910311623310501 0 -0.35810822852911051 -0.38535109496649161 0 -0.36930797127598503 -0.40732753710696867 0 -0.35602619359630361 -0.4089061293831151 0 -0.35810822852911051 -0.38535109496649161 0 -0.36930797127598503 -0.40732753710696867 0 -0.37294335233419318 -0.38910311623310501 0 -0.35810822852911051 -0.38535109496649161 0 -0.36930797127598503 -0.40732753710696867 0 -0.35810822852911051 -0.38535109496649161 0 -0.35602619359630361 -0.4089061293831151 0 -0.34422278171528642 -0.40994443119711949 0 -0.34714963119283609 -0.39316203673328071 0 -0.35602619359630361 -0.4089061293831151 0 -0.34714963119283609 -0.39316203673328071 0 -0.35810822852911051 -0.38535109496649161 0 -0.34950394614634361 -0.36395514353093122 0 -0.35810822852911051 -0.38535109496649161 0 -0.34358557285563779 -0.38001980394704421 0 -0.34714963119283609 -0.39316203673328071 0 -0.35810822852911051 -0.38535109496649161 0 -0.34358557285563779 -0.38001980394704421 0 -0.33053263071660588 -0.37355979795654931 0 -0.34358557285563779 -0.38001980394704421 0 -0.33263342769329263 -0.38407094654796808 0 -0.34714963119283609 -0.39316203673328071 0 -0.34358557285563779 -0.38001980394704421 0 -0.33263342769329263 -0.38407094654796808 0 -0.34422278171528642 -0.40994443119711949 0 -0.33263342769329263 -0.38407094654796808 0 -0.3267151446880513 -0.40303186538163088 0 -0.34422278171528642 -0.40994443119711949 0 -0.34714963119283609 -0.39316203673328071 0 -0.33263342769329263 -0.38407094654796808 0 -0.34422278171528642 -0.40994443119711949 0 -0.33263342769329263 -0.38407094654796808 0 -0.33263342769329263 -0.38407094654796808 0 -0.3267151446880513 -0.40303186538163088 0 -0.32359125366649538 -0.39197827191968743 0 -0.3267151446880513 -0.40303186538163088 0 -0.31490218187009672 -0.4038211334693787 0 -0.31962766348226679 -0.41126758518744377 0 -0.3267151446880513 -0.40303186538163088 0 -0.31490218187009672 -0.4038211334693787 0 -0.31780730346090341 -0.39684360875902458 0 -0.31780730346090341 -0.39684360875902458 0 -0.3173928243099976 -0.38577236781030377 0 -0.31067237925689101 -0.39276374086348259 0 -0.31780730346090341 -0.39684360875902458 0 -0.32359125366649538 -0.39197827191968743 0 -0.3173928243099976 -0.38577236781030377 0 -0.31490218187009672 -0.4038211334693787 0 -0.31780730346090341 -0.39684360875902458 0 -0.31067237925689101 -0.39276374086348259 0 -0.3267151446880513 -0.40303186538163088 0 -0.31780730346090341 -0.39684360875902458 0 -0.32359125366649538 -0.39197827191968743 0 -0.31588958576831472 -0.37484088716642749 0 -0.33263342769329263 -0.38407094654796808 0 -0.3173928243099976 -0.38577236781030377 0 -0.33263342769329263 -0.38407094654796808 0 -0.32359125366649538 -0.39197827191968743 0 -0.3173928243099976 -0.38577236781030377 0 -0.31588958576831472 -0.37484088716642749 0 -0.3173928243099976 -0.38577236781030377 0 -0.30592647319921618 -0.38178253104015392 0 -0.3351411334425643 -0.42425057568182928 0 -0.33364027237479482 -0.43021481666749861 0 -0.33865708330087962 -0.42747395627937512 0 -0.3351411334425643 -0.42425057568182928 0 -0.32976102099138138 -0.42751166352868197 0 -0.33364027237479482 -0.43021481666749861 0 -0.3351411334425643 -0.42425057568182928 0 -0.32976102099138138 -0.42751166352868197 0 -0.32787843651726872 -0.42200937466312632 0 -0.32976102099138138 -0.42751166352868197 0 -0.32862907754937098 -0.4336860199510168 0 -0.33364027237479482 -0.43021481666749861 0 -0.33099359053368749 -0.44176280406162799 0 -0.32862907754937098 -0.4336860199510168 0 -0.33640862104900771 -0.43689601467993738 0 -0.32862907754937098 -0.4336860199510168 0 -0.33364027237479482 -0.43021481666749861 0 -0.33640862104900771 -0.43689601467993738 0 -0.34759351479186429 -0.42278511566852323 0 -0.33640862104900771 -0.43689601467993738 0 -0.33364027237479482 -0.43021481666749861 0 -0.33640862104900771 -0.43689601467993738 0 -0.33865708330087962 -0.42747395627937512 0 -0.34759351479186429 -0.42278511566852323 0 -0.33640862104900771 -0.43689601467993738 0 -0.33865708330087962 -0.42747395627937512 0 -0.34759351479186429 -0.42278511566852323 0 -0.33865708330087962 -0.42747395627937512 0 -0.34050187484616679 -0.42322325869908678 0 -0.3351411334425643 -0.42425057568182928 0 -0.33865708330087962 -0.42747395627937512 0 -0.34050187484616679 -0.42322325869908678 0 -0.34759351479186429 -0.42278511566852323 0 -0.34050187484616679 -0.42322325869908678 0 -0.34069423188813658 -0.41776607683656081 0 -0.34422278171528642 -0.40994443119711949 0 -0.3267151446880513 -0.40303186538163088 0 -0.33434086259717571 -0.41255017748077921 0 -0.34069423188813658 -0.41776607683656081 0 -0.33434086259717571 -0.41255017748077921 0 -0.33298788567090309 -0.41815521648610582 0 -0.3351411334425643 -0.42425057568182928 0 -0.34050187484616679 -0.42322325869908678 0 -0.34069423188813658 -0.41776607683656081 0 -0.3351411334425643 -0.42425057568182928 0 -0.34069423188813658 -0.41776607683656081 0 -0.33298788567090309 -0.41815521648610582 0 -0.34422278171528642 -0.40994443119711949 0 -0.34069423188813658 -0.41776607683656081 0 -0.33434086259717571 -0.41255017748077921 0 -0.3267151446880513 -0.40303186538163088 0 -0.33434086259717571 -0.41255017748077921 0 -0.32688476390937021 -0.41419987776823308 0 -0.33434086259717571 -0.41255017748077921 0 -0.33298788567090309 -0.41815521648610582 0 -0.32688476390937021 -0.41419987776823308 0 -0.3351411334425643 -0.42425057568182928 0 -0.33298788567090309 -0.41815521648610582 0 -0.32787843651726872 -0.42200937466312632 0 -0.33298788567090309 -0.41815521648610582 0 -0.32688476390937021 -0.41419987776823308 0 -0.32787843651726872 -0.42200937466312632 0 -0.32688476390937021 -0.41419987776823308 0 -0.31909723532280682 -0.42024942121312991 0 -0.32787843651726872 -0.42200937466312632 0 -0.32688476390937021 -0.41419987776823308 0 -0.31962766348226679 -0.41126758518744377 0 -0.31909723532280682 -0.42024942121312991 0 -0.3267151446880513 -0.40303186538163088 0 -0.32688476390937021 -0.41419987776823308 0 -0.31962766348226679 -0.41126758518744377 0 -0.31490218187009672 -0.4038211334693787 0 -0.31962766348226679 -0.41126758518744377 0 -0.3105389916210089 -0.41503562810484629 0 -0.31962766348226679 -0.41126758518744377 0 -0.31909723532280682 -0.42024942121312991 0 -0.3105389916210089 -0.41503562810484629 0 -0.31909723532280682 -0.42024942121312991 0 -0.32351618507290841 -0.42739753067993891 0 -0.3167653920845277 -0.43253915212292621 0 -0.31909723532280682 -0.42024942121312991 0 -0.3167653920845277 -0.43253915212292621 0 -0.30757926098307498 -0.42610910316271211 0 -0.31909723532280682 -0.42024942121312991 0 -0.32351618507290841 -0.42739753067993891 0 -0.32787843651726872 -0.42200937466312632 0 -0.32976102099138138 -0.42751166352868197 0 -0.32862907754937098 -0.4336860199510168 0 -0.32351618507290841 -0.42739753067993891 0 -0.32976102099138138 -0.42751166352868197 0 -0.32351618507290841 -0.42739753067993891 0 -0.32787843651726872 -0.42200937466312632 0 -0.32862907754937098 -0.4336860199510168 0 -0.32351618507290841 -0.42739753067993891 0 -0.3167653920845277 -0.43253915212292621 0 -0.3229196479366197 -0.44097674932536962 0 -0.32862907754937098 -0.4336860199510168 0 -0.3167653920845277 -0.43253915212292621 0 -0.3167653920845277 -0.43253915212292621 0 -0.30757926098307498 -0.42610910316271211 0 -0.30482265476465931 -0.43924423994446132 0 -0.29733811801665783 -0.43137100292749531 0 -0.30757926098307498 -0.42610910316271211 0 -0.30482265476465931 -0.43924423994446132 0 -0.29733811801665783 -0.43137100292749531 0 -0.30757926098307498 -0.42610910316271211 0 -0.29688129563032262 -0.41917145436794262 0 -0.31909723532280682 -0.42024942121312991 0 -0.30757926098307498 -0.42610910316271211 0 -0.3105389916210089 -0.41503562810484629 0 -0.30757926098307498 -0.42610910316271211 0 -0.3105389916210089 -0.41503562810484629 0 -0.29688129563032262 -0.41917145436794262 0 -0.31490218187009672 -0.4038211334693787 0 -0.3105389916210089 -0.41503562810484629 0 -0.30379927120182532 -0.40781960677091023 0 -0.30379927120182532 -0.40781960677091023 0 -0.29688129563032262 -0.41917145436794262 0 -0.29209172546032403 -0.40426381416864882 0 -0.3105389916210089 -0.41503562810484629 0 -0.30379927120182532 -0.40781960677091023 0 -0.29688129563032262 -0.41917145436794262 0 -0.29209172546032403 -0.40426381416864882 0 -0.27817582580569788 -0.40185916217325712 0 -0.27423920082649128 -0.41822274905209889 0 -0.29688129563032262 -0.41917145436794262 0 -0.29209172546032403 -0.40426381416864882 0 -0.27423920082649128 -0.41822274905209889 0 -0.29688129563032262 -0.41917145436794262 0 -0.28450154256450949 -0.42969215778920672 0 -0.27423920082649128 -0.41822274905209889 0 -0.29733811801665783 -0.43137100292749531 0 -0.28450154256450949 -0.42969215778920672 0 -0.29290583614072269 -0.4426380593731537 0 -0.29733811801665783 -0.43137100292749531 0 -0.29688129563032262 -0.41917145436794262 0 -0.28450154256450949 -0.42969215778920672 0 -0.30352898256157701 -0.36550264117960901 0 -0.30592647319921618 -0.38178253104015392 0 -0.29177216161437308 -0.38151348323529072 0 -0.30592647319921618 -0.38178253104015392 0 -0.29855642614430461 -0.39194884257261631 0 -0.31067237925689101 -0.39276374086348259 0 -0.3173928243099976 -0.38577236781030377 0 -0.30592647319921618 -0.38178253104015392 0 -0.31067237925689101 -0.39276374086348259 0 -0.30592647319921618 -0.38178253104015392 0 -0.29855642614430461 -0.39194884257261631 0 -0.29177216161437308 -0.38151348323529072 0 -0.29855642614430461 -0.39194884257261631 0 -0.31067237925689101 -0.39276374086348259 0 -0.30468231181894762 -0.39902474854899722 0 -0.29855642614430461 -0.39194884257261631 0 -0.30468231181894762 -0.39902474854899722 0 -0.29209172546032403 -0.40426381416864882 0 -0.31490218187009672 -0.4038211334693787 0 -0.31067237925689101 -0.39276374086348259 0 -0.30468231181894762 -0.39902474854899722 0 -0.31490218187009672 -0.4038211334693787 0 -0.30379927120182532 -0.40781960677091023 0 -0.30468231181894762 -0.39902474854899722 0 -0.30379927120182532 -0.40781960677091023 0 -0.30468231181894762 -0.39902474854899722 0 -0.29209172546032403 -0.40426381416864882 0 -0.29209172546032403 -0.40426381416864882 0 -0.28580479276822079 -0.39297471408142431 0 -0.27817582580569788 -0.40185916217325712 0 -0.29855642614430461 -0.39194884257261631 0 -0.29209172546032403 -0.40426381416864882 0 -0.28580479276822079 -0.39297471408142431 0 -0.29177216161437308 -0.38151348323529072 0 -0.27333333048026448 -0.37753569437505669 0 -0.28102439873172891 -0.38538882054633411 0 -0.29855642614430461 -0.39194884257261631 0 -0.28580479276822079 -0.39297471408142431 0 -0.29177216161437308 -0.38151348323529072 0 -0.28580479276822079 -0.39297471408142431 0 -0.29177216161437308 -0.38151348323529072 0 -0.28102439873172891 -0.38538882054633411 0 -0.26997968939302708 -0.3660173985467875 0 -0.29177216161437308 -0.38151348323529072 0 -0.27333333048026448 -0.37753569437505669 0 -0.27333333048026448 -0.37753569437505669 0 -0.27318731006405711 -0.3895313904935645 0 -0.26153897367393392 -0.37940853061269131 0 -0.26210413338494798 -0.37210736184484278 0 -0.27333333048026448 -0.37753569437505669 0 -0.26153897367393392 -0.37940853061269131 0 -0.27333333048026448 -0.37753569437505669 0 -0.28102439873172891 -0.38538882054633411 0 -0.27318731006405711 -0.3895313904935645 0 -0.28580479276822079 -0.39297471408142431 0 -0.28102439873172891 -0.38538882054633411 0 -0.27318731006405711 -0.3895313904935645 0 -0.28580479276822079 -0.39297471408142431 0 -0.27318731006405711 -0.3895313904935645 0 -0.27817582580569788 -0.40185916217325712 0 -0.27318731006405711 -0.3895313904935645 0 -0.27817582580569788 -0.40185916217325712 0 -0.26555609990939649 -0.40430314307054921 0 -0.25073010241706101 -0.39045336445211543 0 -0.25158065001821922 -0.41861590824496703 0 -0.26555609990939649 -0.40430314307054921 0 -0.25073010241706101 -0.39045336445211543 0 -0.25158065001821922 -0.41861590824496703 0 -0.27318731006405711 -0.3895313904935645 0 -0.26555609990939649 -0.40430314307054921 0 -0.25073010241706101 -0.39045336445211543 0 -0.27318731006405711 -0.3895313904935645 0 -0.24668967468649011 -0.38329288049428689 0 -0.27318731006405711 -0.3895313904935645 0 -0.26153897367393392 -0.37940853061269131 0 -0.24668967468649011 -0.38329288049428689 0 -0.27318731006405711 -0.3895313904935645 0 -0.25073010241706101 -0.39045336445211543 0 -0.24668967468649011 -0.38329288049428689 0 -0.25338974013739751 -0.37479073521783091 0 -0.26153897367393392 -0.37940853061269131 0 -0.24668967468649011 -0.38329288049428689 0 -0.26210413338494798 -0.37210736184484278 0 -0.25338974013739751 -0.37479073521783091 0 -0.26153897367393392 -0.37940853061269131 0 -0.28450154256450949 -0.42969215778920672 0 -0.26628251127645192 -0.43209555459421989 0 -0.27423920082649128 -0.41822274905209889 0 -0.28450154256450949 -0.42969215778920672 0 -0.26628251127645192 -0.43209555459421989 0 -0.27493663932138518 -0.44752049571545349 0 -0.27817582580569788 -0.40185916217325712 0 -0.26555609990939649 -0.40430314307054921 0 -0.27423920082649128 -0.41822274905209889 0 -0.26555609990939649 -0.40430314307054921 0 -0.27423920082649128 -0.41822274905209889 0 -0.25158065001821922 -0.41861590824496703 0 -0.26628251127645192 -0.43209555459421989 0 -0.25158065001821922 -0.41861590824496703 0 -0.25243119761937749 -0.44677845203781857 0 -0.25158065001821922 -0.41861590824496703 0 -0.25243119761937749 -0.44677845203781857 0 -0.26628251127645192 -0.43209555459421989 0 -0.27423920082649128 -0.41822274905209889 0 -0.25158065001821922 -0.41861590824496703 0 -0.26628251127645192 -0.43209555459421989 0 -0.25243119761937749 -0.44677845203781857 0 -0.27493663932138518 -0.44752049571545349 0 -0.25243119761937749 -0.44677845203781857 0 -0.26529007469312432 -0.4620053208386109 0 -0.27493663932138518 -0.44752049571545349 0 -0.25243119761937749 -0.44677845203781857 0 -0.26529007469312432 -0.4620053208386109 0 -0.25328174522053581 -0.47494099583067018 0 -0.25243119761937749 -0.44677845203781857 0 -0.25328174522053581 -0.47494099583067018 0 -0.26529007469312432 -0.4620053208386109 0 -0.27793823412794172 -0.46554699998673948 0 -0.27493663932138518 -0.44752049571545349 0 -0.27793823412794172 -0.46554699998673948 0 -0.27493663932138518 -0.44752049571545349 0 -0.28906489214598541 -0.45598079602013142 0 -0.26529007469312432 -0.4620053208386109 0 -0.27793823412794172 -0.46554699998673948 0 -0.26788497059470828 -0.47484634210229548 0 -0.28450154256450949 -0.42969215778920672 0 -0.27493663932138518 -0.44752049571545349 0 -0.29290583614072269 -0.4426380593731537 0 -0.27493663932138518 -0.44752049571545349 0 -0.29290583614072269 -0.4426380593731537 0 -0.28906489214598541 -0.45598079602013142 0 -0.29290583614072269 -0.4426380593731537 0 -0.28906489214598541 -0.45598079602013142 0 -0.30515279313527371 -0.45375777491010771 0 -0.28906489214598541 -0.45598079602013142 0 -0.30515279313527371 -0.45375777491010771 0 -0.29439095800460391 -0.47044065011520242 0 -0.27793823412794172 -0.46554699998673948 0 -0.28906489214598541 -0.45598079602013142 0 -0.29439095800460391 -0.47044065011520242 0 -0.30515279313527371 -0.45375777491010771 0 -0.31037488451235329 -0.46974026296733129 0 -0.29439095800460391 -0.47044065011520242 0 -0.31503147533802139 -0.44376113674322171 0 -0.30515279313527371 -0.45375777491010771 0 -0.30482265476465931 -0.43924423994446132 0 -0.31503147533802139 -0.44376113674322171 0 -0.3167653920845277 -0.43253915212292621 0 -0.30482265476465931 -0.43924423994446132 0 -0.29290583614072269 -0.4426380593731537 0 -0.30515279313527371 -0.45375777491010771 0 -0.30482265476465931 -0.43924423994446132 0 -0.29733811801665783 -0.43137100292749531 0 -0.29290583614072269 -0.4426380593731537 0 -0.30482265476465931 -0.43924423994446132 0 -0.32161485031421427 -0.5 0 -0.29732390558838639 -0.5 0 -0.31207930079406848 -0.48640338681590611 0 -0.29735801624402608 -0.48616238711102833 0 -0.29732390558838639 -0.5 0 -0.31207930079406848 -0.48640338681590611 0 -0.29735801624402608 -0.48616238711102833 0 -0.31037488451235329 -0.46974026296733129 0 -0.29735801624402608 -0.48616238711102833 0 -0.31037488451235329 -0.46974026296733129 0 -0.29439095800460391 -0.47044065011520242 0 -0.29735801624402608 -0.48616238711102833 0 -0.31207930079406848 -0.48640338681590611 0 -0.31037488451235329 -0.46974026296733129 0 -0.27793823412794172 -0.46554699998673948 0 -0.29439095800460391 -0.47044065011520242 0 -0.28125630292907738 -0.48403839377308161 0 -0.29735801624402608 -0.48616238711102833 0 -0.29439095800460391 -0.47044065011520242 0 -0.28125630292907738 -0.48403839377308161 0 -0.29735801624402608 -0.48616238711102833 0 -0.29732390558838639 -0.5 0 -0.28125630292907738 -0.48403839377308161 0 -0.29732390558838639 -0.5 0 -0.28125630292907738 -0.48403839377308161 0 -0.27303296086255829 -0.5 0 -0.28125630292907738 -0.48403839377308161 0 -0.27303296086255829 -0.5 0 -0.26165849600286212 -0.48770000008237557 0 -0.27793823412794172 -0.46554699998673948 0 -0.28125630292907738 -0.48403839377308161 0 -0.26788497059470828 -0.47484634210229548 0 -0.28125630292907738 -0.48403839377308161 0 -0.26788497059470828 -0.47484634210229548 0 -0.26165849600286212 -0.48770000008237557 0 -0.26529007469312432 -0.4620053208386109 0 -0.26788497059470828 -0.47484634210229548 0 -0.25328174522053581 -0.47494099583067018 0 -0.26788497059470828 -0.47484634210229548 0 -0.25328174522053581 -0.47494099583067018 0 -0.26165849600286212 -0.48770000008237557 0 -0.25328174522053581 -0.47494099583067018 0 -0.26165849600286212 -0.48770000008237557 0 -0.24762581169961301 -0.48435120988288338 0 -0.27303296086255829 -0.5 0 -0.26165849600286212 -0.48770000008237557 0 -0.24874201613673019 -0.50000000000000244 0 -0.26165849600286212 -0.48770000008237557 0 -0.24874201613673019 -0.50000000000000244 0 -0.24762581169961301 -0.48435120988288338 0 -0.24874201613673019 -0.50000000000000244 0 -0.23349384398924161 -0.48206012071295629 0 -0.24874201613673019 -0.50000000000000244 0 -0.24762581169961301 -0.48435120988288338 0 -0.23349384398924161 -0.48206012071295629 0 -0.2401852152942657 -0.49999999999999872 0 -0.24874201613673019 -0.50000000000000244 0 -0.23349384398924161 -0.48206012071295629 0 -0.25328174522053581 -0.47494099583067018 0 -0.24762581169961301 -0.48435120988288338 0 -0.24078509984688631 -0.47529130240825818 0 -0.25328174522053581 -0.47494099583067018 0 -0.24078509984688631 -0.47529130240825818 0 -0.23834504974483139 -0.46360208440513417 0 -0.24078509984688631 -0.47529130240825818 0 -0.23349384398924161 -0.48206012071295629 0 -0.23160042543519141 -0.46972895697388461 0 -0.24078509984688631 -0.47529130240825818 0 -0.23160042543519141 -0.46972895697388461 0 -0.23834504974483139 -0.46360208440513417 0 -0.24762581169961301 -0.48435120988288338 0 -0.24078509984688631 -0.47529130240825818 0 -0.23349384398924161 -0.48206012071295629 0 -0.23349384398924161 -0.48206012071295629 0 -0.23160042543519141 -0.46972895697388461 0 -0.2182456718417542 -0.46412024142590919 0 -0.23349384398924161 -0.48206012071295629 0 -0.22666027717466969 -0.48087393098390352 0 -0.2182456718417542 -0.46412024142590919 0 -0.22666027717466969 -0.48087393098390352 0 -0.21313533905507329 -0.46174786196780893 0 -0.23349384398924161 -0.48206012071295629 0 -0.2182456718417542 -0.46412024142590919 0 -0.22666027717466969 -0.48087393098390352 0 -0.2182456718417542 -0.46412024142590919 0 -0.21313533905507329 -0.46174786196780893 0 -0.22666027717466969 -0.48087393098390352 0 -0.21903976352125279 -0.4890009125744853 0 -0.21513919263416389 -0.47727804195808982 0 -0.2401852152942657 -0.49999999999999872 0 -0.23349384398924161 -0.48206012071295629 0 -0.22666027717466969 -0.48087393098390352 0 -0.2401852152942657 -0.49999999999999872 0 -0.22666027717466969 -0.48087393098390352 0 -0.2401852152942657 -0.49999999999999872 0 -0.21903976352125279 -0.4890009125744853 0 -0.21202537190306089 -0.5 0 -0.2401852152942657 -0.49999999999999872 0 -0.22666027717466969 -0.48087393098390352 0 -0.21903976352125279 -0.4890009125744853 0 -0.25243119761937749 -0.44677845203781857 0 -0.22860913547413531 -0.45495495185416401 0 -0.22332793404478521 -0.44077831438793358 0 -0.25243119761937749 -0.44677845203781857 0 -0.23834504974483139 -0.46360208440513417 0 -0.22860913547413531 -0.45495495185416401 0 -0.25243119761937749 -0.44677845203781857 0 -0.25328174522053581 -0.47494099583067018 0 -0.23834504974483139 -0.46360208440513417 0 -0.23160042543519141 -0.46972895697388461 0 -0.23834504974483139 -0.46360208440513417 0 -0.2292000706239781 -0.46310155866477298 0 -0.23160042543519141 -0.46972895697388461 0 -0.2292000706239781 -0.46310155866477298 0 -0.2182456718417542 -0.46412024142590919 0 -0.2292000706239781 -0.46310155866477298 0 -0.22860913547413531 -0.45495495185416401 0 -0.2182456718417542 -0.46412024142590919 0 -0.22860913547413531 -0.45495495185416401 0 -0.21829506026373541 -0.45150846745171719 0 -0.2182456718417542 -0.46412024142590919 0 -0.23834504974483139 -0.46360208440513417 0 -0.2292000706239781 -0.46310155866477298 0 -0.22860913547413531 -0.45495495185416401 0 -0.22860913547413531 -0.45495495185416401 0 -0.22332793404478521 -0.44077831438793358 0 -0.21829506026373541 -0.45150846745171719 0 -0.22332793404478521 -0.44077831438793358 0 -0.21829506026373541 -0.45150846745171719 0 -0.20299749969426689 -0.44618036213886209 0 -0.2182456718417542 -0.46412024142590919 0 -0.20299749969426689 -0.44618036213886209 0 -0.2182456718417542 -0.46412024142590919 0 -0.21313533905507329 -0.46174786196780893 0 -0.20299749969426689 -0.44618036213886209 0 -0.21829506026373541 -0.45150846745171719 0 -0.2182456718417542 -0.46412024142590919 0 -0.20299749969426689 -0.44618036213886209 0 -0.21313533905507329 -0.46174786196780893 0 -0.20194265541979881 -0.45762213015220188 0 -0.20299749969426689 -0.44618036213886209 0 -0.21313533905507329 -0.46174786196780893 0 -0.2054173464931015 -0.46449089405109723 0 -0.2077833528705384 -0.4711748939507327 0 -0.21313533905507329 -0.46174786196780893 0 -0.2054173464931015 -0.46449089405109723 0 -0.20194265541979881 -0.45762213015220188 0 -0.2054173464931015 -0.46449089405109723 0 -0.19880803862699559 -0.46741869013364529 0 -0.2077833528705384 -0.4711748939507327 0 -0.18917013796846571 -0.46322739018195858 0 -0.20194265541979881 -0.45762213015220188 0 -0.1835737936672682 -0.45108090179194688 0 -0.2054173464931015 -0.46449089405109723 0 -0.19880803862699559 -0.46741869013364529 0 -0.20194265541979881 -0.45762213015220188 0 -0.19880803862699559 -0.46741869013364529 0 -0.18917013796846571 -0.46322739018195858 0 -0.20194265541979881 -0.45762213015220188 0 -0.19880803862699559 -0.46741869013364529 0 -0.18917013796846571 -0.46322739018195858 0 -0.18482170387210689 -0.47388493090916772 0 -0.20299749969426689 -0.44618036213886209 0 -0.1835737936672682 -0.45108090179194688 0 -0.17860031537212451 -0.43980242521127932 0 -0.20194265541979881 -0.45762213015220188 0 -0.20299749969426689 -0.44618036213886209 0 -0.1835737936672682 -0.45108090179194688 0 -0.20299749969426689 -0.44618036213886209 0 -0.17860031537212451 -0.43980242521127932 0 -0.1877493275467795 -0.42824048285181499 0 -0.21903976352125279 -0.4890009125744853 0 -0.21202537190306089 -0.5 0 -0.21009905308156279 -0.48317033316106872 0 -0.21202537190306089 -0.5 0 -0.21009905308156279 -0.48317033316106872 0 -0.1969081072650451 -0.47991482098435712 0 -0.21513919263416389 -0.47727804195808982 0 -0.2077833528705384 -0.4711748939507327 0 -0.21009905308156279 -0.48317033316106872 0 -0.21903976352125279 -0.4890009125744853 0 -0.21513919263416389 -0.47727804195808982 0 -0.21009905308156279 -0.48317033316106872 0 -0.22666027717466969 -0.48087393098390352 0 -0.21313533905507329 -0.46174786196780893 0 -0.21513919263416389 -0.47727804195808982 0 -0.21313533905507329 -0.46174786196780893 0 -0.21513919263416389 -0.47727804195808982 0 -0.2077833528705384 -0.4711748939507327 0 -0.2077833528705384 -0.4711748939507327 0 -0.21009905308156279 -0.48317033316106872 0 -0.1969081072650451 -0.47991482098435712 0 -0.19880803862699559 -0.46741869013364529 0 -0.2077833528705384 -0.4711748939507327 0 -0.1969081072650451 -0.47991482098435712 0 -0.19880803862699559 -0.46741869013364529 0 -0.1969081072650451 -0.47991482098435712 0 -0.18482170387210689 -0.47388493090916772 0 -0.1969081072650451 -0.47991482098435712 0 -0.183865528511856 -0.5 0 -0.18482170387210689 -0.47388493090916772 0 -0.21202537190306089 -0.5 0 -0.1969081072650451 -0.47991482098435712 0 -0.183865528511856 -0.5 0 -0.183865528511856 -0.5 0 -0.15993436672964151 -0.48522047578628452 0 -0.17269921379581221 -0.47773209650806669 0 -0.183865528511856 -0.5 0 -0.15993436672964151 -0.48522047578628452 0 -0.15570568512065119 -0.5 0 -0.15993436672964151 -0.48522047578628452 0 -0.1622353866187575 -0.47050272795998782 0 -0.14826262320825051 -0.47567660465094652 0 -0.15993436672964151 -0.48522047578628452 0 -0.1622353866187575 -0.47050272795998782 0 -0.17269921379581221 -0.47773209650806669 0 -0.1622353866187575 -0.47050272795998782 0 -0.17269921379581221 -0.47773209650806669 0 -0.17670449825615911 -0.46613029792283089 0 -0.17269921379581221 -0.47773209650806669 0 -0.18482170387210689 -0.47388493090916772 0 -0.17670449825615911 -0.46613029792283089 0 -0.183865528511856 -0.5 0 -0.17269921379581221 -0.47773209650806669 0 -0.18482170387210689 -0.47388493090916772 0 -0.18917013796846571 -0.46322739018195858 0 -0.18482170387210689 -0.47388493090916772 0 -0.17670449825615911 -0.46613029792283089 0 -0.1835737936672682 -0.45108090179194688 0 -0.16990818781339179 -0.46107849793848588 0 -0.164872961518512 -0.45583813400081402 0 -0.18917013796846571 -0.46322739018195858 0 -0.17670449825615911 -0.46613029792283089 0 -0.1835737936672682 -0.45108090179194688 0 -0.17670449825615911 -0.46613029792283089 0 -0.1835737936672682 -0.45108090179194688 0 -0.16990818781339179 -0.46107849793848588 0 -0.1835737936672682 -0.45108090179194688 0 -0.17860031537212451 -0.43980242521127932 0 -0.16970778886229229 -0.44745133584280378 0 -0.17860031537212451 -0.43980242521127932 0 -0.16970778886229229 -0.44745133584280378 0 -0.1677976373499056 -0.43635173008887301 0 -0.1835737936672682 -0.45108090179194688 0 -0.16970778886229229 -0.44745133584280378 0 -0.15932374805725319 -0.45589008007446102 0 -0.16970778886229229 -0.44745133584280378 0 -0.1617365637108289 -0.44765910170980422 0 -0.1677976373499056 -0.43635173008887301 0 -0.1617365637108289 -0.44765910170980422 0 -0.15932374805725319 -0.45589008007446102 0 -0.15495141728298531 -0.44863206240752129 0 -0.16970778886229229 -0.44745133584280378 0 -0.1617365637108289 -0.44765910170980422 0 -0.15932374805725319 -0.45589008007446102 0 -0.1617365637108289 -0.44765910170980422 0 -0.15601876113085369 -0.44214238558604962 0 -0.15495141728298531 -0.44863206240752129 0 -0.1617365637108289 -0.44765910170980422 0 -0.15601876113085369 -0.44214238558604962 0 -0.1677976373499056 -0.43635173008887301 0 -0.1835737936672682 -0.45108090179194688 0 -0.15932374805725319 -0.45589008007446102 0 -0.1835737936672682 -0.45108090179194688 0 -0.164872961518512 -0.45583813400081402 0 -0.15932374805725319 -0.45589008007446102 0 -0.1622353866187575 -0.47050272795998782 0 -0.16990818781339179 -0.46107849793848588 0 -0.16215429900626249 -0.46184042801684971 0 -0.1622353866187575 -0.47050272795998782 0 -0.17670449825615911 -0.46613029792283089 0 -0.16990818781339179 -0.46107849793848588 0 -0.16990818781339179 -0.46107849793848588 0 -0.164872961518512 -0.45583813400081402 0 -0.16215429900626249 -0.46184042801684971 0 -0.164872961518512 -0.45583813400081402 0 -0.15932374805725319 -0.45589008007446102 0 -0.16215429900626249 -0.46184042801684971 0 -0.15932374805725319 -0.45589008007446102 0 -0.1567672166521262 -0.46406952562517001 0 -0.16215429900626249 -0.46184042801684971 0 -0.164872961518512 -0.45583813400081402 0 -0.15932374805725319 -0.45589008007446102 0 -0.1622353866187575 -0.47050272795998782 0 -0.1567672166521262 -0.46406952562517001 0 -0.16215429900626249 -0.46184042801684971 0 -0.1622353866187575 -0.47050272795998782 0 -0.1567672166521262 -0.46406952562517001 0 -0.15251673950024919 -0.46855416541959621 0 -0.15932374805725319 -0.45589008007446102 0 -0.13048762499189229 -0.46160875207318752 0 -0.15932374805725319 -0.45589008007446102 0 -0.13241923322612539 -0.45614193268719888 0 -0.13048762499189229 -0.46160875207318752 0 -0.15932374805725319 -0.45589008007446102 0 -0.1567672166521262 -0.46406952562517001 0 -0.14965049835223279 -0.46388104964274279 0 -0.15932374805725319 -0.45589008007446102 0 -0.14716711735397059 -0.45048520193211411 0 -0.13241923322612539 -0.45614193268719888 0 -0.15932374805725319 -0.45589008007446102 0 -0.13241923322612539 -0.45614193268719888 0 -0.15932374805725319 -0.45589008007446102 0 -0.14259348925416671 -0.46386008098029807 0 -0.13048762499189229 -0.46160875207318752 0 -0.15932374805725319 -0.45589008007446102 0 -0.14965049835223279 -0.46388104964274279 0 -0.14259348925416671 -0.46386008098029807 0 -0.1567672166521262 -0.46406952562517001 0 -0.15251673950024919 -0.46855416541959621 0 -0.14965049835223279 -0.46388104964274279 0 -0.15251673950024919 -0.46855416541959621 0 -0.14965049835223279 -0.46388104964274279 0 -0.14566797266987891 -0.46864091921913342 0 -0.14259348925416671 -0.46386008098029807 0 -0.14566797266987891 -0.46864091921913342 0 -0.13736110130861909 -0.4715535183898707 0 -0.14965049835223279 -0.46388104964274279 0 -0.14259348925416671 -0.46386008098029807 0 -0.14566797266987891 -0.46864091921913342 0 -0.15601876113085369 -0.44214238558604962 0 -0.14618844748882481 -0.44001954558519663 0 -0.15440800631846699 -0.43109459008894568 0 -0.15601876113085369 -0.44214238558604962 0 -0.148632283066082 -0.44516624059079429 0 -0.14618844748882481 -0.44001954558519663 0 -0.15932374805725319 -0.45589008007446102 0 -0.15495141728298531 -0.44863206240752129 0 -0.14716711735397059 -0.45048520193211411 0 -0.148632283066082 -0.44516624059079429 0 -0.15495141728298531 -0.44863206240752129 0 -0.14716711735397059 -0.45048520193211411 0 -0.15601876113085369 -0.44214238558604962 0 -0.148632283066082 -0.44516624059079429 0 -0.15495141728298531 -0.44863206240752129 0 -0.148632283066082 -0.44516624059079429 0 -0.14716711735397059 -0.45048520193211411 0 -0.13883567207377581 -0.4445520074430897 0 -0.14618844748882481 -0.44001954558519663 0 -0.13883567207377581 -0.4445520074430897 0 -0.13763627407778001 -0.42991556818764642 0 -0.148632283066082 -0.44516624059079429 0 -0.14618844748882481 -0.44001954558519663 0 -0.13883567207377581 -0.4445520074430897 0 -0.13883567207377581 -0.4445520074430897 0 -0.12781773141979991 -0.44001948796047591 0 -0.13763627407778001 -0.42991556818764642 0 -0.13883567207377581 -0.4445520074430897 0 -0.13015930364297151 -0.44725536930510129 0 -0.13241923322612539 -0.45614193268719888 0 -0.14716711735397059 -0.45048520193211411 0 -0.13883567207377581 -0.4445520074430897 0 -0.13241923322612539 -0.45614193268719888 0 -0.13015930364297151 -0.44725536930510129 0 -0.13241923322612539 -0.45614193268719888 0 -0.12156457785218459 -0.4483080491296404 0 -0.13015930364297151 -0.44725536930510129 0 -0.12781773141979991 -0.44001948796047591 0 -0.12156457785218459 -0.4483080491296404 0 -0.13883567207377581 -0.4445520074430897 0 -0.13015930364297151 -0.44725536930510129 0 -0.12781773141979991 -0.44001948796047591 0 -0.14259348925416671 -0.46386008098029807 0 -0.13048762499189229 -0.46160875207318752 0 -0.13736110130861909 -0.4715535183898707 0 -0.13048762499189229 -0.46160875207318752 0 -0.12568774758226359 -0.47361990141218541 0 -0.13736110130861909 -0.4715535183898707 0 -0.12568774758226359 -0.47361990141218541 0 -0.13736110130861909 -0.4715535183898707 0 -0.13864853893102841 -0.48587636301229309 0 -0.12568774758226359 -0.47361990141218541 0 -0.12540164004618509 -0.48559118387036998 0 -0.13864853893102841 -0.48587636301229309 0 -0.12540164004618509 -0.48559118387036998 0 -0.12754584172944641 -0.5 0 -0.13864853893102841 -0.48587636301229309 0 -0.15993436672964151 -0.48522047578628452 0 -0.13864853893102841 -0.48587636301229309 0 -0.15570568512065119 -0.5 0 -0.12754584172944641 -0.5 0 -0.13864853893102841 -0.48587636301229309 0 -0.15570568512065119 -0.5 0 -0.15993436672964151 -0.48522047578628452 0 -0.13864853893102841 -0.48587636301229309 0 -0.14826262320825051 -0.47567660465094652 0 -0.1622353866187575 -0.47050272795998782 0 -0.15251673950024919 -0.46855416541959621 0 -0.14826262320825051 -0.47567660465094652 0 -0.15251673950024919 -0.46855416541959621 0 -0.14566797266987891 -0.46864091921913342 0 -0.14826262320825051 -0.47567660465094652 0 -0.14566797266987891 -0.46864091921913342 0 -0.13736110130861909 -0.4715535183898707 0 -0.14826262320825051 -0.47567660465094652 0 -0.13736110130861909 -0.4715535183898707 0 -0.13864853893102841 -0.48587636301229309 0 -0.14826262320825051 -0.47567660465094652 0 -0.15271635663099381 -0.40551252670419868 0 -0.14342576483157091 -0.39233604756456208 0 -0.13519059213181819 -0.40979141842070149 0 -0.15271635663099381 -0.40551252670419868 0 -0.14342576483157091 -0.39233604756456208 0 -0.16492665850560939 -0.39285723622703839 0 -0.14342576483157091 -0.39233604756456208 0 -0.13258590425827241 -0.38150913525831909 0 -0.14922753474349509 -0.37432543009427388 0 -0.14342576483157091 -0.39233604756456208 0 -0.16492665850560939 -0.39285723622703839 0 -0.14922753474349509 -0.37432543009427388 0 -0.14342576483157091 -0.39233604756456208 0 -0.13258590425827241 -0.38150913525831909 0 -0.1295680225859088 -0.39517526054694602 0 -0.13258590425827241 -0.38150913525831909 0 -0.1295680225859088 -0.39517526054694602 0 -0.11662556475979249 -0.3889689481425978 0 -0.1295680225859088 -0.39517526054694602 0 -0.13519059213181819 -0.40979141842070149 0 -0.1183466706969695 -0.4046897122757972 0 -0.14342576483157091 -0.39233604756456208 0 -0.1295680225859088 -0.39517526054694602 0 -0.13519059213181819 -0.40979141842070149 0 -0.13519059213181819 -0.40979141842070149 0 -0.13763627407778001 -0.42991556818764642 0 -0.14643890077555571 -0.41901995926967839 0 -0.13519059213181819 -0.40979141842070149 0 -0.13763627407778001 -0.42991556818764642 0 -0.11933750183346691 -0.42371728314685853 0 -0.12781773141979991 -0.44001948796047591 0 -0.13763627407778001 -0.42991556818764642 0 -0.11933750183346691 -0.42371728314685853 0 -0.15440800631846699 -0.43109459008894568 0 -0.14643890077555571 -0.41901995926967839 0 -0.16629087090109879 -0.41688725339925181 0 -0.14618844748882481 -0.44001954558519663 0 -0.13763627407778001 -0.42991556818764642 0 -0.15440800631846699 -0.43109459008894568 0 -0.13763627407778001 -0.42991556818764642 0 -0.15440800631846699 -0.43109459008894568 0 -0.14643890077555571 -0.41901995926967839 0 -0.15271635663099381 -0.40551252670419868 0 -0.14643890077555571 -0.41901995926967839 0 -0.16629087090109879 -0.41688725339925181 0 -0.15271635663099381 -0.40551252670419868 0 -0.13519059213181819 -0.40979141842070149 0 -0.14643890077555571 -0.41901995926967839 0 -0.15440800631846699 -0.43109459008894568 0 -0.16629087090109879 -0.41688725339925181 0 -0.1677976373499056 -0.43635173008887301 0 -0.15601876113085369 -0.44214238558604962 0 -0.15440800631846699 -0.43109459008894568 0 -0.1677976373499056 -0.43635173008887301 0 -0.17860031537212451 -0.43980242521127932 0 -0.1677976373499056 -0.43635173008887301 0 -0.1877493275467795 -0.42824048285181499 0 -0.16629087090109879 -0.41688725339925181 0 -0.1677976373499056 -0.43635173008887301 0 -0.1877493275467795 -0.42824048285181499 0 -0.16629087090109879 -0.41688725339925181 0 -0.18204123566896091 -0.40621737687928189 0 -0.1877493275467795 -0.42824048285181499 0 -0.18204123566896091 -0.40621737687928189 0 -0.16492665850560939 -0.39285723622703839 0 -0.18798659128601511 -0.38858883091937352 0 -0.16629087090109879 -0.41688725339925181 0 -0.18204123566896091 -0.40621737687928189 0 -0.16492665850560939 -0.39285723622703839 0 -0.15271635663099381 -0.40551252670419868 0 -0.16629087090109879 -0.41688725339925181 0 -0.16492665850560939 -0.39285723622703839 0 -0.16492665850560939 -0.39285723622703839 0 -0.16719676855378879 -0.36457735049645401 0 -0.14922753474349509 -0.37432543009427388 0 -0.16492665850560939 -0.39285723622703839 0 -0.18798659128601511 -0.38858883091937352 0 -0.16719676855378879 -0.36457735049645401 0 -0.18798659128601511 -0.38858883091937352 0 -0.20325273010530179 -0.40451308099893118 0 -0.22019203930892309 -0.37705437049500928 0 -0.18798659128601511 -0.38858883091937352 0 -0.22019203930892309 -0.37705437049500928 0 -0.19369440393135601 -0.37081586049573162 0 -0.18204123566896091 -0.40621737687928189 0 -0.18798659128601511 -0.38858883091937352 0 -0.20325273010530179 -0.40451308099893118 0 -0.20325273010530179 -0.40451308099893118 0 -0.22019203930892309 -0.37705437049500928 0 -0.2292826606360138 -0.39783527403463942 0 -0.20299749969426689 -0.44618036213886209 0 -0.1877493275467795 -0.42824048285181499 0 -0.20299749969426689 -0.44618036213886209 0 -0.1877493275467795 -0.42824048285181499 0 -0.2109191015151432 -0.42399721624263897 0 -0.18204123566896091 -0.40621737687928189 0 -0.20325273010530179 -0.40451308099893118 0 -0.1877493275467795 -0.42824048285181499 0 -0.20325273010530179 -0.40451308099893118 0 -0.1877493275467795 -0.42824048285181499 0 -0.2109191015151432 -0.42399721624263897 0 -0.20325273010530179 -0.40451308099893118 0 -0.2109191015151432 -0.42399721624263897 0 -0.2292826606360138 -0.39783527403463942 0 -0.22332793404478521 -0.44077831438793358 0 -0.20299749969426689 -0.44618036213886209 0 -0.2109191015151432 -0.42399721624263897 0 -0.22332793404478521 -0.44077831438793358 0 -0.2109191015151432 -0.42399721624263897 0 -0.23127372188715181 -0.42148674523733182 0 -0.2109191015151432 -0.42399721624263897 0 -0.23127372188715181 -0.42148674523733182 0 -0.2292826606360138 -0.39783527403463942 0 -0.25158065001821922 -0.41861590824496703 0 -0.23127372188715181 -0.42148674523733182 0 -0.2292826606360138 -0.39783527403463942 0 -0.25243119761937749 -0.44677845203781857 0 -0.22332793404478521 -0.44077831438793358 0 -0.23127372188715181 -0.42148674523733182 0 -0.25158065001821922 -0.41861590824496703 0 -0.25243119761937749 -0.44677845203781857 0 -0.23127372188715181 -0.42148674523733182 0 -0.22019203930892309 -0.37705437049500928 0 -0.24668967468649011 -0.38329288049428689 0 -0.23583820077882409 -0.36999107527126363 0 -0.22019203930892309 -0.37705437049500928 0 -0.2292826606360138 -0.39783527403463942 0 -0.24668967468649011 -0.38329288049428689 0 -0.22019203930892309 -0.37705437049500928 0 -0.24668967468649011 -0.38329288049428689 0 -0.25073010241706101 -0.39045336445211543 0 -0.25158065001821922 -0.41861590824496703 0 -0.2292826606360138 -0.39783527403463942 0 -0.25073010241706101 -0.39045336445211543 0 -0.2292826606360138 -0.39783527403463942 0 -0.24668967468649011 -0.38329288049428689 0 -0.25338974013739751 -0.37479073521783091 0 -0.24668967468649011 -0.38329288049428689 0 -0.24643703795879759 -0.37108148237203897 0 -0.24668967468649011 -0.38329288049428689 0 -0.24643703795879759 -0.37108148237203897 0 -0.23583820077882409 -0.36999107527126363 0 -0.24301484269575641 -0.36089181435896811 0 -0.23583820077882409 -0.36999107527126363 0 -0.23553665096475751 -0.35181195722521269 0 -0.25325273149551991 -0.36644090651784578 0 -0.24643703795879759 -0.37108148237203897 0 -0.24301484269575641 -0.36089181435896811 0 -0.24643703795879759 -0.37108148237203897 0 -0.24301484269575641 -0.36089181435896811 0 -0.23583820077882409 -0.36999107527126363 0 -0.23583820077882409 -0.36999107527126363 0 -0.22286703346707601 -0.35755236338959301 0 -0.23553665096475751 -0.35181195722521269 0 -0.22019203930892309 -0.37705437049500928 0 -0.23583820077882409 -0.36999107527126363 0 -0.22286703346707601 -0.35755236338959301 0 -0.2246226841813509 -0.34388451065603859 0 -0.22286703346707601 -0.35755236338959301 0 -0.21435222238293641 -0.34299747063018499 0 -0.2246226841813509 -0.34388451065603859 0 -0.22286703346707601 -0.35755236338959301 0 -0.23553665096475751 -0.35181195722521269 0 -0.23553665096475751 -0.35181195722521269 0 -0.24818721717168121 -0.35052131385828428 0 -0.22639474495033621 -0.33502522916978 0 -0.25325273149551991 -0.36644090651784578 0 -0.24301484269575641 -0.36089181435896811 0 -0.24818721717168121 -0.35052131385828428 0 -0.24301484269575641 -0.36089181435896811 0 -0.23553665096475751 -0.35181195722521269 0 -0.24818721717168121 -0.35052131385828428 0 -0.25060206739424878 -0.33718881992062411 0 -0.22639474495033621 -0.33502522916978 0 -0.25060206739424878 -0.33718881992062411 0 -0.24818721717168121 -0.35052131385828428 0 -0.22639474495033621 -0.33502522916978 0 -0.24818721717168121 -0.35052131385828428 0 -0.22639474495033621 -0.33502522916978 0 -0.25060206739424878 -0.33718881992062411 0 -0.2272716900726571 -0.31845919478417761 0 -0.22639474495033621 -0.33502522916978 0 -0.25060206739424878 -0.33718881992062411 0 -0.24666961817122871 -0.31346571522936922 0 -0.2272716900726571 -0.31845919478417761 0 -0.25060206739424878 -0.33718881992062411 0 -0.2272716900726571 -0.31845919478417761 0 -0.2272716900726571 -0.31845919478417761 0 -0.22639474495033621 -0.33502522916978 0 -0.2139860101417119 -0.32365054651871461 0 -0.2246226841813509 -0.34388451065603859 0 -0.23553665096475751 -0.35181195722521269 0 -0.22639474495033621 -0.33502522916978 0 -0.22639474495033621 -0.33502522916978 0 -0.22449911420062521 -0.33485580237065171 0 -0.20668504768599441 -0.32101015392311788 0 -0.22639474495033621 -0.33502522916978 0 -0.22449911420062521 -0.33485580237065171 0 -0.2246226841813509 -0.34388451065603859 0 -0.22449911420062521 -0.33485580237065171 0 -0.21435222238293641 -0.34299747063018499 0 -0.2246226841813509 -0.34388451065603859 0 -0.22639474495033621 -0.33502522916978 0 -0.22449911420062521 -0.33485580237065171 0 -0.22449911420062521 -0.33485580237065171 0 -0.21435222238293641 -0.34299747063018499 0 -0.20668504768599441 -0.32101015392311788 0 -0.21435222238293641 -0.34299747063018499 0 -0.20668504768599441 -0.32101015392311788 0 -0.20012420737611269 -0.33989082470969328 0 -0.2139860101417119 -0.32365054651871461 0 -0.20668504768599441 -0.32101015392311788 0 -0.2039413127510655 -0.29972956964773079 0 -0.2272716900726571 -0.31845919478417761 0 -0.2139860101417119 -0.32365054651871461 0 -0.2039413127510655 -0.29972956964773079 0 -0.22639474495033621 -0.33502522916978 0 -0.2139860101417119 -0.32365054651871461 0 -0.20668504768599441 -0.32101015392311788 0 -0.22639474495033621 -0.33502522916978 0 -0.20668504768599441 -0.32101015392311788 0 -0.20668504768599441 -0.32101015392311788 0 -0.18697535042165339 -0.30699507867645448 0 -0.1868820220200407 -0.3276550968471395 0 -0.20668504768599441 -0.32101015392311788 0 -0.18697535042165339 -0.30699507867645448 0 -0.20668504768599441 -0.32101015392311788 0 -0.20012420737611269 -0.33989082470969328 0 -0.1868820220200407 -0.3276550968471395 0 -0.20012420737611269 -0.33989082470969328 0 -0.18528198072097371 -0.35146251036026849 0 -0.1868820220200407 -0.3276550968471395 0 -0.20012420737611269 -0.33989082470969328 0 -0.20608531453122961 -0.35662890001341341 0 -0.18528198072097371 -0.35146251036026849 0 -0.19369440393135601 -0.37081586049573162 0 -0.20608531453122961 -0.35662890001341341 0 -0.18528198072097371 -0.35146251036026849 0 -0.22019203930892309 -0.37705437049500928 0 -0.19369440393135601 -0.37081586049573162 0 -0.20608531453122961 -0.35662890001341341 0 -0.22019203930892309 -0.37705437049500928 0 -0.19369440393135601 -0.37081586049573162 0 -0.22019203930892309 -0.37705437049500928 0 -0.22286703346707601 -0.35755236338959301 0 -0.20608531453122961 -0.35662890001341341 0 -0.21435222238293641 -0.34299747063018499 0 -0.20012420737611269 -0.33989082470969328 0 -0.20608531453122961 -0.35662890001341341 0 -0.22286703346707601 -0.35755236338959301 0 -0.21435222238293641 -0.34299747063018499 0 -0.20608531453122961 -0.35662890001341341 0 -0.25170345783653902 -0.26409172820614801 0 -0.22211438525390581 -0.26831731389415958 0 -0.22719251964397941 -0.23902000411637531 0 -0.25170345783653902 -0.26409172820614801 0 -0.22211438525390581 -0.26831731389415958 0 -0.23316751146410999 -0.2925166188162559 0 -0.25170345783653902 -0.26409172820614801 0 -0.22211438525390581 -0.26831731389415958 0 -0.25884149047467703 -0.29948976441177289 0 -0.25170345783653902 -0.26409172820614801 0 -0.23316751146410999 -0.2925166188162559 0 -0.22211438525390581 -0.26831731389415958 0 -0.23316751146410999 -0.2925166188162559 0 -0.2039413127510655 -0.29972956964773079 0 -0.24666961817122871 -0.31346571522936922 0 -0.2272716900726571 -0.31845919478417761 0 -0.23316751146410999 -0.2925166188162559 0 -0.25884149047467703 -0.29948976441177289 0 -0.24666961817122871 -0.31346571522936922 0 -0.23316751146410999 -0.2925166188162559 0 -0.2272716900726571 -0.31845919478417761 0 -0.23316751146410999 -0.2925166188162559 0 -0.2039413127510655 -0.29972956964773079 0 -0.2272716900726571 -0.31845919478417761 0 -0.2039413127510655 -0.29972956964773079 0 -0.2139860101417119 -0.32365054651871461 0 -0.2039413127510655 -0.29972956964773079 0 -0.20668504768599441 -0.32101015392311788 0 -0.2039413127510655 -0.29972956964773079 0 -0.19711120307616939 -0.30504324985252879 0 -0.20668504768599441 -0.32101015392311788 0 -0.19711120307616939 -0.30504324985252879 0 -0.18697535042165339 -0.30699507867645448 0 -0.19711120307616939 -0.30504324985252879 0 -0.19058148174592729 -0.29751159770483743 0 -0.18697535042165339 -0.30699507867645448 0 -0.19711120307616939 -0.30504324985252879 0 -0.19058148174592729 -0.29751159770483743 0 -0.20059963665390679 -0.29704687233150401 0 -0.2039413127510655 -0.29972956964773079 0 -0.19711120307616939 -0.30504324985252879 0 -0.20059963665390679 -0.29704687233150401 0 -0.2039413127510655 -0.29972956964773079 0 -0.20059963665390679 -0.29704687233150401 0 -0.2039413127510655 -0.29972956964773079 0 -0.20059963665390679 -0.29704687233150401 0 -0.19252531267127251 -0.27254289958217098 0 -0.20059963665390679 -0.29704687233150401 0 -0.19252531267127251 -0.27254289958217098 0 -0.18461097401513049 -0.28945353125751988 0 -0.19058148174592729 -0.29751159770483743 0 -0.20059963665390679 -0.29704687233150401 0 -0.18461097401513049 -0.28945353125751988 0 -0.2039413127510655 -0.29972956964773079 0 -0.19252531267127251 -0.27254289958217098 0 -0.22211438525390581 -0.26831731389415958 0 -0.2039413127510655 -0.29972956964773079 0 -0.19252531267127251 -0.27254289958217098 0 -0.22211438525390581 -0.26831731389415958 0 -0.19252531267127251 -0.27254289958217098 0 -0.19252531267127251 -0.27254289958217098 0 -0.1811833936331812 -0.24553265005136821 0 -0.20599693829385629 -0.2419653887585361 0 -0.22211438525390581 -0.26831731389415958 0 -0.19252531267127251 -0.27254289958217098 0 -0.20599693829385629 -0.2419653887585361 0 -0.19252531267127251 -0.27254289958217098 0 -0.16530193415478339 -0.25707584513117598 0 -0.1811833936331812 -0.24553265005136821 0 -0.19252531267127251 -0.27254289958217098 0 -0.1811833936331812 -0.24553265005136821 0 -0.19252531267127251 -0.27254289958217098 0 -0.17004063428212199 -0.27575391388264991 0 -0.18461097401513049 -0.28945353125751988 0 -0.19252531267127251 -0.27254289958217098 0 -0.17004063428212199 -0.27575391388264991 0 -0.19252531267127251 -0.27254289958217098 0 -0.16530193415478339 -0.25707584513117598 0 -0.17004063428212199 -0.27575391388264991 0 -0.17004063428212199 -0.27575391388264991 0 -0.1526100913130124 -0.26673142784814963 0 -0.14755595589297141 -0.27896492818312801 0 -0.16530193415478339 -0.25707584513117598 0 -0.17004063428212199 -0.27575391388264991 0 -0.1526100913130124 -0.26673142784814963 0 -0.17004063428212199 -0.27575391388264991 0 -0.14755595589297141 -0.27896492818312801 0 -0.17004063428212199 -0.27575391388264991 0 -0.16726565315731259 -0.29298000342979108 0 -0.14755595589297141 -0.27896492818312801 0 -0.16726565315731259 -0.29298000342979108 0 -0.14755595589297141 -0.27896492818312801 0 -0.17004063428212199 -0.27575391388264991 0 -0.16726565315731259 -0.29298000342979108 0 -0.18461097401513049 -0.28945353125751988 0 -0.16726565315731259 -0.29298000342979108 0 -0.18461097401513049 -0.28945353125751988 0 -0.18697535042165339 -0.30699507867645448 0 -0.19058148174592729 -0.29751159770483743 0 -0.18461097401513049 -0.28945353125751988 0 -0.18697535042165339 -0.30699507867645448 0 -0.16726565315731259 -0.29298000342979108 0 -0.18697535042165339 -0.30699507867645448 0 -0.1670837535765175 -0.31601332304558599 0 -0.16726565315731259 -0.29298000342979108 0 -0.18697535042165339 -0.30699507867645448 0 -0.16726565315731259 -0.29298000342979108 0 -0.1458433281273645 -0.30507267541247612 0 -0.1670837535765175 -0.31601332304558599 0 -0.1458433281273645 -0.30507267541247612 0 -0.1345039384160536 -0.29547900280067507 0 -0.14355576635054049 -0.29070871927088537 0 -0.12754619973900011 -0.31030823668443558 0 -0.1345039384160536 -0.29547900280067507 0 -0.1191461166897551 -0.29075132242055929 0 -0.1458433281273645 -0.30507267541247612 0 -0.12754619973900011 -0.31030823668443558 0 -0.1345039384160536 -0.29547900280067507 0 -0.1345039384160536 -0.29547900280067507 0 -0.136428281173608 -0.28055406021501889 0 -0.1191461166897551 -0.29075132242055929 0 -0.1345039384160536 -0.29547900280067507 0 -0.14355576635054049 -0.29070871927088537 0 -0.136428281173608 -0.28055406021501889 0 -0.16726565315731259 -0.29298000342979108 0 -0.1458433281273645 -0.30507267541247612 0 -0.14355576635054049 -0.29070871927088537 0 -0.16726565315731259 -0.29298000342979108 0 -0.14355576635054049 -0.29070871927088537 0 -0.14755595589297141 -0.27896492818312801 0 -0.14355576635054049 -0.29070871927088537 0 -0.14755595589297141 -0.27896492818312801 0 -0.136428281173608 -0.28055406021501889 0 -0.1526100913130124 -0.26673142784814963 0 -0.14755595589297141 -0.27896492818312801 0 -0.13412286442209201 -0.26941299112216383 0 -0.14755595589297141 -0.27896492818312801 0 -0.13412286442209201 -0.26941299112216383 0 -0.14755595589297141 -0.27896492818312801 0 -0.136428281173608 -0.28055406021501889 0 -0.136428281173608 -0.28055406021501889 0 -0.13412286442209201 -0.26941299112216383 0 -0.1191461166897551 -0.29075132242055929 0 -0.13412286442209201 -0.26941299112216383 0 -0.1191461166897551 -0.29075132242055929 0 -0.14755595589297141 -0.27896492818312801 0 -0.136428281173608 -0.28055406021501889 0 -0.13412286442209201 -0.26941299112216383 0 -0.1325799788678669 -0.25567001283357299 0 -0.14602906781309299 -0.2524494609216309 0 -0.12970658661291981 -0.24250230616980631 0 -0.13412286442209201 -0.26941299112216383 0 -0.14602906781309299 -0.2524494609216309 0 -0.13412286442209201 -0.26941299112216383 0 -0.1325799788678669 -0.25567001283357299 0 -0.14602906781309299 -0.2524494609216309 0 -0.1325799788678669 -0.25567001283357299 0 -0.11909235651462161 -0.25872517098502051 0 -0.12970658661291981 -0.24250230616980631 0 -0.13412286442209201 -0.26941299112216383 0 -0.11909235651462161 -0.25872517098502051 0 -0.13412286442209201 -0.26941299112216383 0 -0.1325799788678669 -0.25567001283357299 0 -0.11909235651462161 -0.25872517098502051 0 -0.16530193415478339 -0.25707584513117598 0 -0.1526100913130124 -0.26673142784814963 0 -0.14602906781309299 -0.2524494609216309 0 -0.1526100913130124 -0.26673142784814963 0 -0.13412286442209201 -0.26941299112216383 0 -0.14602906781309299 -0.2524494609216309 0 -0.16719676855378879 -0.36457735049645401 0 -0.17000992425515921 -0.3369649013633122 0 -0.1498805689060082 -0.3513183438190205 0 -0.19369440393135601 -0.37081586049573162 0 -0.16719676855378879 -0.36457735049645401 0 -0.19369440393135601 -0.37081586049573162 0 -0.16719676855378879 -0.36457735049645401 0 -0.18528198072097371 -0.35146251036026849 0 -0.18798659128601511 -0.38858883091937352 0 -0.19369440393135601 -0.37081586049573162 0 -0.16719676855378879 -0.36457735049645401 0 -0.16719676855378879 -0.36457735049645401 0 -0.18528198072097371 -0.35146251036026849 0 -0.17000992425515921 -0.3369649013633122 0 -0.18528198072097371 -0.35146251036026849 0 -0.1868820220200407 -0.3276550968471395 0 -0.17000992425515921 -0.3369649013633122 0 -0.1868820220200407 -0.3276550968471395 0 -0.1670837535765175 -0.31601332304558599 0 -0.17000992425515921 -0.3369649013633122 0 -0.18697535042165339 -0.30699507867645448 0 -0.1868820220200407 -0.3276550968471395 0 -0.1670837535765175 -0.31601332304558599 0 -0.1670837535765175 -0.31601332304558599 0 -0.17000992425515921 -0.3369649013633122 0 -0.1433879651093109 -0.32908143712584131 0 -0.17000992425515921 -0.3369649013633122 0 -0.1433879651093109 -0.32908143712584131 0 -0.1498805689060082 -0.3513183438190205 0 -0.1458433281273645 -0.30507267541247612 0 -0.1670837535765175 -0.31601332304558599 0 -0.1433879651093109 -0.32908143712584131 0 -0.1458433281273645 -0.30507267541247612 0 -0.12754619973900011 -0.31030823668443558 0 -0.1433879651093109 -0.32908143712584131 0 -0.12754619973900011 -0.31030823668443558 0 -0.1433879651093109 -0.32908143712584131 0 -0.1213777932486355 -0.33315900817521382 0 -0.1433879651093109 -0.32908143712584131 0 -0.12515431825997089 -0.35195385293515208 0 -0.1213777932486355 -0.33315900817521382 0 -0.12515431825997089 -0.35195385293515208 0 -0.1498805689060082 -0.3513183438190205 0 -0.13568392715460051 -0.36477342612749719 0 -0.1433879651093109 -0.32908143712584131 0 -0.12515431825997089 -0.35195385293515208 0 -0.1498805689060082 -0.3513183438190205 0 -0.1498805689060082 -0.3513183438190205 0 -0.14922753474349509 -0.37432543009427388 0 -0.13568392715460051 -0.36477342612749719 0 -0.16719676855378879 -0.36457735049645401 0 -0.1498805689060082 -0.3513183438190205 0 -0.14922753474349509 -0.37432543009427388 0 -0.13258590425827241 -0.38150913525831909 0 -0.14922753474349509 -0.37432543009427388 0 -0.13568392715460051 -0.36477342612749719 0 -0.12515431825997089 -0.35195385293515208 0 -0.13568392715460051 -0.36477342612749719 0 -0.1209846114742668 -0.37347569907403821 0 -0.13258590425827241 -0.38150913525831909 0 -0.13568392715460051 -0.36477342612749719 0 -0.1209846114742668 -0.37347569907403821 0 -0.12515431825997089 -0.35195385293515208 0 -0.1209846114742668 -0.37347569907403821 0 -0.1053702347052006 -0.36687799583399339 0 -0.1053702347052006 -0.36687799583399339 0 -0.091317240238340897 -0.37481046074657443 0 -0.1017118879446318 -0.38310948283211771 0 -0.1053702347052006 -0.36687799583399339 0 -0.091317240238340897 -0.37481046074657443 0 -0.091600236588382414 -0.35709864970113969 0 -0.1209846114742668 -0.37347569907403821 0 -0.1053702347052006 -0.36687799583399339 0 -0.1017118879446318 -0.38310948283211771 0 -0.1055823733684382 -0.34902024904115519 0 -0.089192621225080954 -0.33342798501734988 0 -0.091600236588382414 -0.35709864970113969 0 -0.1053702347052006 -0.36687799583399339 0 -0.1055823733684382 -0.34902024904115519 0 -0.091600236588382414 -0.35709864970113969 0 -0.12515431825997089 -0.35195385293515208 0 -0.1053702347052006 -0.36687799583399339 0 -0.1055823733684382 -0.34902024904115519 0 -0.12515431825997089 -0.35195385293515208 0 -0.1055823733684382 -0.34902024904115519 0 -0.1213777932486355 -0.33315900817521382 0 -0.1055823733684382 -0.34902024904115519 0 -0.1213777932486355 -0.33315900817521382 0 -0.1050805391998932 -0.3319242239881684 0 -0.1213777932486355 -0.33315900817521382 0 -0.1050805391998932 -0.3319242239881684 0 -0.1041693689574182 -0.31208965371895481 0 -0.12754619973900011 -0.31030823668443558 0 -0.1213777932486355 -0.33315900817521382 0 -0.1041693689574182 -0.31208965371895481 0 -0.1050805391998932 -0.3319242239881684 0 -0.089192621225080954 -0.33342798501734988 0 -0.1041693689574182 -0.31208965371895481 0 -0.089192621225080954 -0.33342798501734988 0 -0.1041693689574182 -0.31208965371895481 0 -0.1055823733684382 -0.34902024904115519 0 -0.1050805391998932 -0.3319242239881684 0 -0.089192621225080954 -0.33342798501734988 0 -0.1055823733684382 -0.34902024904115519 0 -0.089192621225080954 -0.33342798501734988 0 -0.089192621225080954 -0.33342798501734988 0 -0.077765623426185315 -0.34970876033230108 0 -0.089192621225080954 -0.33342798501734988 0 -0.1041693689574182 -0.31208965371895481 0 -0.086657791193898756 -0.30805251980723242 0 -0.089192621225080954 -0.33342798501734988 0 -0.07060600577420921 -0.31574575206569139 0 -0.086657791193898756 -0.30805251980723242 0 -0.089192621225080954 -0.33342798501734988 0 -0.07060600577420921 -0.31574575206569139 0 -0.089192621225080954 -0.33342798501734988 0 -0.07060600577420921 -0.31574575206569139 0 -0.064121613040022507 -0.33466747713452288 0 -0.089192621225080954 -0.33342798501734988 0 -0.064121613040022507 -0.33466747713452288 0 -0.077765623426185315 -0.34970876033230108 0 -0.064121613040022507 -0.33466747713452288 0 -0.077765623426185315 -0.34970876033230108 0 -0.060812792032516633 -0.35007619191394879 0 -0.077765623426185315 -0.34970876033230108 0 -0.067849407017920832 -0.36139284934496518 0 -0.060812792032516633 -0.35007619191394879 0 -0.069395642857062997 -0.37258465187085521 0 -0.053612092178520573 -0.36398236059787442 0 -0.066508959857107197 -0.38733520903566881 0 -0.077765623426185315 -0.34970876033230108 0 -0.067849407017920832 -0.36139284934496518 0 -0.079705618939622705 -0.36760814190273239 0 -0.067849407017920832 -0.36139284934496518 0 -0.069395642857062997 -0.37258465187085521 0 -0.053612092178520573 -0.36398236059787442 0 -0.067849407017920832 -0.36139284934496518 0 -0.069395642857062997 -0.37258465187085521 0 -0.079705618939622705 -0.36760814190273239 0 -0.069395642857062997 -0.37258465187085521 0 -0.079705618939622705 -0.36760814190273239 0 -0.07930213629214368 -0.38260469847303491 0 -0.079705618939622705 -0.36760814190273239 0 -0.091317240238340897 -0.37481046074657443 0 -0.091600236588382414 -0.35709864970113969 0 -0.077765623426185315 -0.34970876033230108 0 -0.079705618939622705 -0.36760814190273239 0 -0.091600236588382414 -0.35709864970113969 0 -0.089192621225080954 -0.33342798501734988 0 -0.077765623426185315 -0.34970876033230108 0 -0.091600236588382414 -0.35709864970113969 0 -0.098290683877032076 -0.26249284091006192 0 -0.11909235651462161 -0.25872517098502051 0 -0.1040618486071499 -0.24803735084787901 0 -0.098290683877032076 -0.26249284091006192 0 -0.11909235651462161 -0.25872517098502051 0 -0.10756592309362489 -0.2749659878685129 0 -0.098290683877032076 -0.26249284091006192 0 -0.085946164471186026 -0.25424244442140992 0 -0.1040618486071499 -0.24803735084787901 0 -0.11909235651462161 -0.25872517098502051 0 -0.1040618486071499 -0.24803735084787901 0 -0.11909235651462161 -0.25872517098502051 0 -0.1199818151800234 -0.27346386809906409 0 -0.10756592309362489 -0.2749659878685129 0 -0.1199818151800234 -0.27346386809906409 0 -0.10756592309362489 -0.2749659878685129 0 -0.1191461166897551 -0.29075132242055929 0 -0.13412286442209201 -0.26941299112216383 0 -0.1199818151800234 -0.27346386809906409 0 -0.1191461166897551 -0.29075132242055929 0 -0.13412286442209201 -0.26941299112216383 0 -0.11909235651462161 -0.25872517098502051 0 -0.1199818151800234 -0.27346386809906409 0 -0.098290683877032076 -0.26249284091006192 0 -0.10756592309362489 -0.2749659878685129 0 -0.088310655947722 -0.2744371524352282 0 -0.10756592309362489 -0.2749659878685129 0 -0.096521434432794498 -0.29154988489976241 0 -0.088310655947722 -0.2744371524352282 0 -0.10756592309362489 -0.2749659878685129 0 -0.096521434432794498 -0.29154988489976241 0 -0.1191461166897551 -0.29075132242055929 0 -0.1191461166897551 -0.29075132242055929 0 -0.1041693689574182 -0.31208965371895481 0 -0.12754619973900011 -0.31030823668443558 0 -0.1191461166897551 -0.29075132242055929 0 -0.1041693689574182 -0.31208965371895481 0 -0.096521434432794498 -0.29154988489976241 0 -0.1041693689574182 -0.31208965371895481 0 -0.086657791193898756 -0.30805251980723242 0 -0.096521434432794498 -0.29154988489976241 0 -0.1191461166897551 -0.29075132242055929 0 -0.1041693689574182 -0.31208965371895481 0 -0.07060600577420921 -0.31574575206569139 0 -0.086657791193898756 -0.30805251980723242 0 -0.073757975848705123 -0.2905560229617703 0 -0.07060600577420921 -0.31574575206569139 0 -0.073757975848705123 -0.2905560229617703 0 -0.052019390323339521 -0.29806351911403067 0 -0.096521434432794498 -0.29154988489976241 0 -0.073757975848705123 -0.2905560229617703 0 -0.088310655947722 -0.2744371524352282 0 -0.096521434432794498 -0.29154988489976241 0 -0.086657791193898756 -0.30805251980723242 0 -0.073757975848705123 -0.2905560229617703 0 -0.088310655947722 -0.2744371524352282 0 -0.068866202069689852 -0.26633394354485129 0 -0.073757975848705123 -0.2905560229617703 0 -0.068866202069689852 -0.26633394354485129 0 -0.052526843465688408 -0.28020549378312382 0 -0.073757975848705123 -0.2905560229617703 0 -0.088310655947722 -0.2744371524352282 0 -0.068866202069689852 -0.26633394354485129 0 -0.068866202069689852 -0.26633394354485129 0 -0.085946164471186026 -0.25424244442140992 0 -0.063933618743594392 -0.23909247179508131 0 -0.098290683877032076 -0.26249284091006192 0 -0.088310655947722 -0.2744371524352282 0 -0.085946164471186026 -0.25424244442140992 0 -0.088310655947722 -0.2744371524352282 0 -0.068866202069689852 -0.26633394354485129 0 -0.085946164471186026 -0.25424244442140992 0 -0.031780871404022477 -0.26468181583675893 0 -0.049421748191657872 -0.25823073465447438 0 -0.030258962198398999 -0.25024490698356061 0 -0.031780871404022477 -0.26468181583675893 0 -0.049421748191657872 -0.25823073465447438 0 -0.03766000642806374 -0.27374212615637078 0 -0.049421748191657872 -0.25823073465447438 0 -0.030258962198398999 -0.25024490698356061 0 -0.068866202069689852 -0.26633394354485129 0 -0.049421748191657872 -0.25823073465447438 0 -0.048788462108414421 -0.26996548910403168 0 -0.068866202069689852 -0.26633394354485129 0 -0.049421748191657872 -0.25823073465447438 0 -0.063933618743594392 -0.23909247179508131 0 -0.068866202069689852 -0.26633394354485129 0 -0.049421748191657872 -0.25823073465447438 0 -0.068866202069689852 -0.26633394354485129 0 -0.048788462108414421 -0.26996548910403168 0 -0.052526843465688408 -0.28020549378312382 0 -0.048788462108414421 -0.26996548910403168 0 -0.052526843465688408 -0.28020549378312382 0 -0.03766000642806374 -0.27374212615637078 0 -0.052526843465688408 -0.28020549378312382 0 -0.03766000642806374 -0.27374212615637078 0 -0.03343277487246981 -0.28038128616237001 0 -0.031780871404022477 -0.26468181583675893 0 -0.03766000642806374 -0.27374212615637078 0 -0.03343277487246981 -0.28038128616237001 0 -0.049421748191657872 -0.25823073465447438 0 -0.048788462108414421 -0.26996548910403168 0 -0.03766000642806374 -0.27374212615637078 0 -0.049421748191657872 -0.25823073465447438 0 -0.03766000642806374 -0.27374212615637078 0 -0.03343277487246981 -0.28038128616237001 0 -0.052019390323339521 -0.29806351911403067 0 -0.03343277487246981 -0.28038128616237001 0 -0.034418270840495709 -0.29458417578757812 0 -0.052019390323339521 -0.29806351911403067 0 -0.052526843465688408 -0.28020549378312382 0 -0.03343277487246981 -0.28038128616237001 0 -0.052019390323339521 -0.29806351911403067 0 -0.03343277487246981 -0.28038128616237001 0 -0.034418270840495709 -0.29458417578757812 0 -0.028575611291580951 -0.2871646376695316 0 -0.073757975848705123 -0.2905560229617703 0 -0.052526843465688408 -0.28020549378312382 0 -0.052019390323339521 -0.29806351911403067 0 -0.07060600577420921 -0.31574575206569139 0 -0.052019390323339521 -0.29806351911403067 0 -0.047755636667727447 -0.31884534252385133 0 -0.07060600577420921 -0.31574575206569139 0 -0.052019390323339521 -0.29806351911403067 0 -0.034418270840495709 -0.29458417578757812 0 -0.052019390323339521 -0.29806351911403067 0 -0.036741299128673383 -0.30594839205664881 0 -0.052019390323339521 -0.29806351911403067 0 -0.036741299128673383 -0.30594839205664881 0 -0.047755636667727447 -0.31884534252385133 0 -0.01343142706436235 -0.30966182866597269 0 -0.014921489142761001 -0.29392381528449107 0 -0.027818356821347309 -0.31727666372228552 0 -0.021694840990456921 -0.30097225913549819 0 -0.014921489142761001 -0.29392381528449107 0 -0.027818356821347309 -0.31727666372228552 0 -0.014921489142761001 -0.29392381528449107 0 -0.027818356821347309 -0.31727666372228552 0 -0.036741299128673383 -0.30594839205664881 0 -0.021694840990456921 -0.30097225913549819 0 -0.027818356821347309 -0.31727666372228552 0 -0.034418270840495709 -0.29458417578757812 0 -0.036741299128673383 -0.30594839205664881 0 -0.021694840990456921 -0.30097225913549819 0 -0.021694840990456921 -0.30097225913549819 0 -0.014921489142761001 -0.29392381528449107 0 -0.01343142706436235 -0.30966182866597269 0 -0.001844919636969205 -0.30056216117952528 0 -0.014921489142761001 -0.29392381528449107 0 -0.01343142706436235 -0.30966182866597269 0 -0.001844919636969205 -0.30056216117952528 0 -0.0065825586867332827 -0.31374811121071122 0 -0.001844919636969205 -0.30056216117952528 0 -0.0065825586867332827 -0.31374811121071122 0 0.0073378752671417373 -0.31461425796533637 0 -0.014921489142761001 -0.29392381528449107 0 -0.00099987093679730155 -0.2886206222808092 0 0.0030807261057536478 -0.2751904604808319 0 -0.014921489142761001 -0.29392381528449107 0 -0.01326070663123961 -0.28217825954393272 0 -0.003490582175888074 -0.27322543761972468 0 -0.014921489142761001 -0.29392381528449107 0 -0.003490582175888074 -0.27322543761972468 0 -0.014921489142761001 -0.29392381528449107 0 0.0030807261057536478 -0.2751904604808319 0 -0.001844919636969205 -0.30056216117952528 0 -0.014921489142761001 -0.29392381528449107 0 -0.00099987093679730155 -0.2886206222808092 0 -0.014921489142761001 -0.29392381528449107 0 -0.01326070663123961 -0.28217825954393272 0 -0.02224569747113346 -0.28580739064927918 0 -0.01326070663123961 -0.28217825954393272 0 -0.02224569747113346 -0.28580739064927918 0 -0.017851260314263921 -0.2786282286340297 0 -0.02224569747113346 -0.28580739064927918 0 -0.022380907406941521 -0.28031278889406952 0 -0.017851260314263921 -0.2786282286340297 0 -0.021694840990456921 -0.30097225913549819 0 -0.014921489142761001 -0.29392381528449107 0 -0.024808463206474219 -0.29259797559730599 0 -0.014921489142761001 -0.29392381528449107 0 -0.02224569747113346 -0.28580739064927918 0 -0.024808463206474219 -0.29259797559730599 0 -0.034418270840495709 -0.29458417578757812 0 -0.024808463206474219 -0.29259797559730599 0 -0.028575611291580951 -0.2871646376695316 0 -0.034418270840495709 -0.29458417578757812 0 -0.021694840990456921 -0.30097225913549819 0 -0.024808463206474219 -0.29259797559730599 0 -0.03343277487246981 -0.28038128616237001 0 -0.028575611291580951 -0.2871646376695316 0 -0.02711458202655204 -0.28214386734948271 0 -0.02224569747113346 -0.28580739064927918 0 -0.02711458202655204 -0.28214386734948271 0 -0.022380907406941521 -0.28031278889406952 0 -0.02224569747113346 -0.28580739064927918 0 -0.028575611291580951 -0.2871646376695316 0 -0.02711458202655204 -0.28214386734948271 0 -0.02224569747113346 -0.28580739064927918 0 -0.024808463206474219 -0.29259797559730599 0 -0.028575611291580951 -0.2871646376695316 0 -0.03343277487246981 -0.28038128616237001 0 -0.01484615942159757 -0.26269905321071191 0 -0.03343277487246981 -0.28038128616237001 0 -0.021453821775037182 -0.27436317614184458 0 -0.01484615942159757 -0.26269905321071191 0 -0.031780871404022477 -0.26468181583675893 0 -0.03343277487246981 -0.28038128616237001 0 -0.01484615942159757 -0.26269905321071191 0 -0.03343277487246981 -0.28038128616237001 0 -0.02711458202655204 -0.28214386734948271 0 -0.021453821775037182 -0.27436317614184458 0 -0.02711458202655204 -0.28214386734948271 0 -0.021453821775037182 -0.27436317614184458 0 -0.022380907406941521 -0.28031278889406952 0 -0.016665881798942291 -0.26922702589885039 0 -0.021453821775037182 -0.27436317614184458 0 -0.01484615942159757 -0.26269905321071191 0 -0.016665881798942291 -0.26922702589885039 0 -0.016938490113890581 -0.27364418864600171 0 -0.021453821775037182 -0.27436317614184458 0 -0.016938490113890581 -0.27364418864600171 0 -0.017851260314263921 -0.2786282286340297 0 -0.01266581277024598 -0.27515891446470198 0 -0.016938490113890581 -0.27364418864600171 0 -0.021453821775037182 -0.27436317614184458 0 -0.017851260314263921 -0.2786282286340297 0 -0.021453821775037182 -0.27436317614184458 0 -0.022380907406941521 -0.28031278889406952 0 -0.017851260314263921 -0.2786282286340297 0 -0.014921489142761001 -0.29392381528449107 0 -0.003490582175888074 -0.27322543761972468 0 0.0030807261057536478 -0.2751904604808319 0 -0.01326070663123961 -0.28217825954393272 0 -0.01266581277024598 -0.27515891446470198 0 -0.009524053472869675 -0.27522766642530772 0 -0.01326070663123961 -0.28217825954393272 0 -0.017851260314263921 -0.2786282286340297 0 -0.01266581277024598 -0.27515891446470198 0 -0.01326070663123961 -0.28217825954393272 0 -0.009524053472869675 -0.27522766642530772 0 -0.003490582175888074 -0.27322543761972468 0 -0.01266581277024598 -0.27515891446470198 0 -0.009524053472869675 -0.27522766642530772 0 -0.0086791123141050398 -0.27034805407287121 0 -0.003490582175888074 -0.27322543761972468 0 -0.0086791123141050398 -0.27034805407287121 0 -0.0039288027152376082 -0.26392206421746622 0 -0.009524053472869675 -0.27522766642530772 0 -0.003490582175888074 -0.27322543761972468 0 -0.0086791123141050398 -0.27034805407287121 0 -0.0086791123141050398 -0.27034805407287121 0 -0.01143717147221596 -0.26545364853143599 0 -0.0039288027152376082 -0.26392206421746622 0 -0.0086791123141050398 -0.27034805407287121 0 -0.01299648441704002 -0.26991465219048122 0 -0.01143717147221596 -0.26545364853143599 0 -0.01266581277024598 -0.27515891446470198 0 -0.0086791123141050398 -0.27034805407287121 0 -0.01299648441704002 -0.26991465219048122 0 -0.016938490113890581 -0.27364418864600171 0 -0.01266581277024598 -0.27515891446470198 0 -0.01299648441704002 -0.26991465219048122 0 -0.016665881798942291 -0.26922702589885039 0 -0.016938490113890581 -0.27364418864600171 0 -0.01299648441704002 -0.26991465219048122 0 -0.016665881798942291 -0.26922702589885039 0 -0.01398642427744896 -0.26682359495786978 0 -0.01484615942159757 -0.26269905321071191 0 -0.01299648441704002 -0.26991465219048122 0 -0.01398642427744896 -0.26682359495786978 0 -0.01143717147221596 -0.26545364853143599 0 -0.016665881798942291 -0.26922702589885039 0 -0.01299648441704002 -0.26991465219048122 0 -0.01398642427744896 -0.26682359495786978 0 -0.01484615942159757 -0.26269905321071191 0 0.001002636242770817 -0.2476214239520933 0 -0.01484615942159757 -0.26269905321071191 0 -0.01143717147221596 -0.26545364853143599 0 -0.0059738021883775456 -0.25928744571137102 0 -0.01484615942159757 -0.26269905321071191 0 -0.015096143413475319 -0.24392601066732389 0 0.001002636242770817 -0.2476214239520933 0 -0.01484615942159757 -0.26269905321071191 0 -0.0059738021883775456 -0.25928744571137102 0 0.001002636242770817 -0.2476214239520933 0 -0.01398642427744896 -0.26682359495786978 0 -0.01484615942159757 -0.26269905321071191 0 -0.01143717147221596 -0.26545364853143599 0 -0.01484615942159757 -0.26269905321071191 0 -0.01143717147221596 -0.26545364853143599 0 -0.01143717147221596 -0.26545364853143599 0 -0.0039288027152376082 -0.26392206421746622 0 -0.0059738021883775456 -0.25928744571137102 0 -0.0039288027152376082 -0.26392206421746622 0 -0.0059738021883775456 -0.25928744571137102 0 -0.00065951357560741657 -0.25674103864514758 0 -0.0059738021883775456 -0.25928744571137102 0 -0.00065951357560741657 -0.25674103864514758 0 0.001002636242770817 -0.2476214239520933 0 -0.01484615942159757 -0.26269905321071191 0 -0.030258962198398999 -0.25024490698356061 0 -0.031780871404022477 -0.26468181583675893 0 -0.01484615942159757 -0.26269905321071191 0 -0.030258962198398999 -0.25024490698356061 0 -0.01484615942159757 -0.26269905321071191 0 -0.030258962198398999 -0.25024490698356061 0 -0.015096143413475319 -0.24392601066732389 0 -0.053612092178520573 -0.36398236059787442 0 -0.040715224499933943 -0.34062951216007992 0 -0.030954882755072719 -0.35332406589797422 0 -0.032903907754751549 -0.36778078217633681 0 -0.053612092178520573 -0.36398236059787442 0 -0.048189311580064828 -0.37701466809092099 0 -0.032903907754751549 -0.36778078217633681 0 -0.053612092178520573 -0.36398236059787442 0 -0.030954882755072719 -0.35332406589797422 0 -0.067849407017920832 -0.36139284934496518 0 -0.053612092178520573 -0.36398236059787442 0 -0.060812792032516633 -0.35007619191394879 0 -0.053612092178520573 -0.36398236059787442 0 -0.060812792032516633 -0.35007619191394879 0 -0.040715224499933943 -0.34062951216007992 0 -0.053612092178520573 -0.36398236059787442 0 -0.040715224499933943 -0.34062951216007992 0 -0.064121613040022507 -0.33466747713452288 0 -0.060812792032516633 -0.35007619191394879 0 -0.040715224499933943 -0.34062951216007992 0 -0.064121613040022507 -0.33466747713452288 0 -0.047755636667727447 -0.31884534252385133 0 -0.040715224499933943 -0.34062951216007992 0 -0.07060600577420921 -0.31574575206569139 0 -0.064121613040022507 -0.33466747713452288 0 -0.047755636667727447 -0.31884534252385133 0 -0.047755636667727447 -0.31884534252385133 0 -0.040715224499933943 -0.34062951216007992 0 -0.027818356821347309 -0.31727666372228552 0 -0.036741299128673383 -0.30594839205664881 0 -0.047755636667727447 -0.31884534252385133 0 -0.027818356821347309 -0.31727666372228552 0 -0.040715224499933943 -0.34062951216007992 0 -0.027818356821347309 -0.31727666372228552 0 -0.040715224499933943 -0.34062951216007992 0 -0.019985641671468799 -0.33726520044478669 0 -0.030954882755072719 -0.35332406589797422 0 -0.040715224499933943 -0.34062951216007992 0 -0.019985641671468799 -0.33726520044478669 0 -0.027818356821347309 -0.31727666372228552 0 -0.019985641671468799 -0.33726520044478669 0 -0.027818356821347309 -0.31727666372228552 0 -0.01549529543730071 -0.3227384604622196 0 -0.01343142706436235 -0.30966182866597269 0 -0.027818356821347309 -0.31727666372228552 0 -0.01549529543730071 -0.3227384604622196 0 -0.01549529543730071 -0.3227384604622196 0 -0.0065825586867332827 -0.31374811121071122 0 -0.0026324153446744621 -0.33488899193262089 0 -0.0065825586867332827 -0.31374811121071122 0 -0.0026324153446744621 -0.33488899193262089 0 0.0073378752671417373 -0.31461425796533637 0 -0.01343142706436235 -0.30966182866597269 0 -0.01549529543730071 -0.3227384604622196 0 -0.0065825586867332827 -0.31374811121071122 0 -0.019985641671468799 -0.33726520044478669 0 -0.01549529543730071 -0.3227384604622196 0 -0.0026324153446744621 -0.33488899193262089 0 -0.019985641671468799 -0.33726520044478669 0 -0.0026324153446744621 -0.33488899193262089 0 -0.0033282650061358548 -0.34830785935861719 0 -0.019985641671468799 -0.33726520044478669 0 -0.01450711526845286 -0.35142209395343549 0 -0.0033282650061358548 -0.34830785935861719 0 -0.01450711526845286 -0.35142209395343549 0 -0.018519924664961419 -0.36112741795293618 0 0.0053989168704140986 -0.35852483083951292 0 -0.01450711526845286 -0.35142209395343549 0 -0.0033282650061358548 -0.34830785935861719 0 0.0053989168704140986 -0.35852483083951292 0 -0.019985641671468799 -0.33726520044478669 0 -0.01450711526845286 -0.35142209395343549 0 -0.030954882755072719 -0.35332406589797422 0 -0.01450711526845286 -0.35142209395343549 0 -0.030954882755072719 -0.35332406589797422 0 -0.018519924664961419 -0.36112741795293618 0 -0.032903907754751549 -0.36778078217633681 0 -0.018519924664961419 -0.36112741795293618 0 -0.019632634416944052 -0.37458531689742142 0 -0.032903907754751549 -0.36778078217633681 0 -0.030954882755072719 -0.35332406589797422 0 -0.018519924664961419 -0.36112741795293618 0 -0.019632634416944052 -0.37458531689742142 0 -0.0050094893333455454 -0.37543182389169721 0 0.0053989168704140986 -0.35852483083951292 0 -0.018519924664961419 -0.36112741795293618 0 -0.019632634416944052 -0.37458531689742142 0 0.0053989168704140986 -0.35852483083951292 0 -0.019632634416944052 -0.37458531689742142 0 0.0053989168704140986 -0.35852483083951292 0 -0.019632634416944052 -0.37458531689742142 0 -0.0050094893333455454 -0.37543182389169721 0 -0.01191254570850837 -0.39187154892547149 0 -0.0050094893333455454 -0.37543182389169721 0 -0.01191254570850837 -0.39187154892547149 0 0.0031839916891533652 -0.3828139800537087 0 -0.01191254570850837 -0.39187154892547149 0 0.0031839916891533652 -0.3828139800537087 0 0.001202580214239484 -0.39360862266658431 0 -0.01191254570850837 -0.39187154892547149 0 -0.01762566480126157 -0.41252084574447628 0 0.0031083600501382591 -0.40643032647008359 0 -0.01191254570850837 -0.39187154892547149 0 0.001202580214239484 -0.39360862266658431 0 0.0031083600501382591 -0.40643032647008359 0 -0.01191254570850837 -0.39187154892547149 0 -0.0313800054243175 -0.40224123377783932 0 -0.01762566480126157 -0.41252084574447628 0 -0.01191254570850837 -0.39187154892547149 0 -0.026897342813518171 -0.38983597563901518 0 -0.0313800054243175 -0.40224123377783932 0 -0.019632634416944052 -0.37458531689742142 0 -0.01191254570850837 -0.39187154892547149 0 -0.026897342813518171 -0.38983597563901518 0 -0.019632634416944052 -0.37458531689742142 0 -0.026897342813518171 -0.38983597563901518 0 -0.044664185704302778 -0.39064580295532902 0 -0.032903907754751549 -0.36778078217633681 0 -0.044664185704302778 -0.39064580295532902 0 -0.048189311580064828 -0.37701466809092099 0 -0.032903907754751549 -0.36778078217633681 0 -0.019632634416944052 -0.37458531689742142 0 -0.044664185704302778 -0.39064580295532902 0 -0.032903907754751549 -0.36778078217633681 0 -0.044664185704302778 -0.39064580295532902 0 -0.019632634416944052 -0.37458531689742142 0 -0.044664185704302778 -0.39064580295532902 0 -0.044664185704302778 -0.39064580295532902 0 -0.053347920016148423 -0.40752922750798742 0 -0.041938640513373961 -0.40777516392123331 0 -0.026897342813518171 -0.38983597563901518 0 -0.044664185704302778 -0.39064580295532902 0 -0.0313800054243175 -0.40224123377783932 0 -0.044664185704302778 -0.39064580295532902 0 -0.0313800054243175 -0.40224123377783932 0 -0.041938640513373961 -0.40777516392123331 0 -0.044664185704302778 -0.39064580295532902 0 -0.061498029099403037 -0.40144656012951968 0 -0.044664185704302778 -0.39064580295532902 0 -0.053347920016148423 -0.40752922750798742 0 -0.044664185704302778 -0.39064580295532902 0 -0.061498029099403037 -0.40144656012951968 0 -0.066508959857107197 -0.38733520903566881 0 -0.044664185704302778 -0.39064580295532902 0 -0.061498029099403037 -0.40144656012951968 0 -0.053347920016148423 -0.40752922750798742 0 -0.053612092178520573 -0.36398236059787442 0 -0.048189311580064828 -0.37701466809092099 0 -0.066508959857107197 -0.38733520903566881 0 -0.053612092178520573 -0.36398236059787442 0 -0.066508959857107197 -0.38733520903566881 0 -0.044664185704302778 -0.39064580295532902 0 -0.048189311580064828 -0.37701466809092099 0 -0.066508959857107197 -0.38733520903566881 0 -0.051818108178887413 -0.43197622713323369 0 -0.059093714504061173 -0.42470188429326222 0 -0.037699103324548087 -0.42680812592118239 0 -0.059093714504061173 -0.42470188429326222 0 -0.037699103324548087 -0.42680812592118239 0 -0.051818108178887413 -0.43197622713323369 0 -0.060562771359902123 -0.43664540201961122 0 -0.049916843527038117 -0.43974949629887972 0 -0.051818108178887413 -0.43197622713323369 0 -0.060562771359902123 -0.43664540201961122 0 -0.059093714504061173 -0.42470188429326222 0 -0.060562771359902123 -0.43664540201961122 0 -0.059093714504061173 -0.42470188429326222 0 -0.062729763063910038 -0.42576995592890221 0 -0.059093714504061173 -0.42470188429326222 0 -0.062729763063910038 -0.42576995592890221 0 -0.059093714504061173 -0.42470188429326222 0 -0.053347920016148423 -0.40752922750798742 0 -0.048184991171561248 -0.41465441018533811 0 -0.053347920016148423 -0.40752922750798742 0 -0.062729763063910038 -0.42576995592890221 0 -0.059093714504061173 -0.42470188429326222 0 -0.038359689652661427 -0.41861136501886897 0 -0.059093714504061173 -0.42470188429326222 0 -0.048184991171561248 -0.41465441018533811 0 -0.038359689652661427 -0.41861136501886897 0 -0.060838633236123568 -0.41167235732992691 0 -0.053347920016148423 -0.40752922750798742 0 -0.062729763063910038 -0.42576995592890221 0 -0.059093714504061173 -0.42470188429326222 0 -0.053347920016148423 -0.40752922750798742 0 -0.062729763063910038 -0.42576995592890221 0 -0.061498029099403037 -0.40144656012951968 0 -0.060838633236123568 -0.41167235732992691 0 -0.053347920016148423 -0.40752922750798742 0 -0.053347920016148423 -0.40752922750798742 0 -0.048184991171561248 -0.41465441018533811 0 -0.041938640513373961 -0.40777516392123331 0 -0.0313800054243175 -0.40224123377783932 0 -0.041938640513373961 -0.40777516392123331 0 -0.038359689652661427 -0.41861136501886897 0 -0.048184991171561248 -0.41465441018533811 0 -0.041938640513373961 -0.40777516392123331 0 -0.038359689652661427 -0.41861136501886897 0 -0.059093714504061173 -0.42470188429326222 0 -0.038359689652661427 -0.41861136501886897 0 -0.037699103324548087 -0.42680812592118239 0 -0.038359689652661427 -0.41861136501886897 0 -0.037699103324548087 -0.42680812592118239 0 -0.026402397987955031 -0.42177271237389691 0 -0.051818108178887413 -0.43197622713323369 0 -0.037699103324548087 -0.42680812592118239 0 -0.049916843527038117 -0.43974949629887972 0 -0.037699103324548087 -0.42680812592118239 0 -0.016304492145034929 -0.42891436754910212 0 -0.026769507632525821 -0.44925154386396399 0 -0.037699103324548087 -0.42680812592118239 0 -0.016304492145034929 -0.42891436754910212 0 -0.026402397987955031 -0.42177271237389691 0 -0.037699103324548087 -0.42680812592118239 0 -0.016304492145034929 -0.42891436754910212 0 -0.016304492145034929 -0.42891436754910212 0 -0.01762566480126157 -0.41252084574447628 0 -0.026402397987955031 -0.42177271237389691 0 -0.0313800054243175 -0.40224123377783932 0 -0.038359689652661427 -0.41861136501886897 0 -0.01762566480126157 -0.41252084574447628 0 -0.038359689652661427 -0.41861136501886897 0 -0.01762566480126157 -0.41252084574447628 0 -0.038359689652661427 -0.41861136501886897 0 -0.01762566480126157 -0.41252084574447628 0 -0.026402397987955031 -0.42177271237389691 0 -0.01762566480126157 -0.41252084574447628 0 -0.0043417194721140882 -0.41940573435658168 0 0.0031083600501382591 -0.40643032647008359 0 -0.01762566480126157 -0.41252084574447628 0 0.0031083600501382591 -0.40643032647008359 0 -0.016304492145034929 -0.42891436754910212 0 -0.01762566480126157 -0.41252084574447628 0 -0.0043417194721140882 -0.41940573435658168 0 -0.016304492145034929 -0.42891436754910212 0 0.0050901190344784866 -0.43102060917701968 0 -0.016304492145034929 -0.42891436754910212 0 -0.0043417194721140882 -0.41940573435658168 0 0.0050901190344784866 -0.43102060917701968 0 -0.016304492145034929 -0.42891436754910212 0 -0.004343828094517492 -0.45401373945134632 0 0.0050901190344784866 -0.43102060917701968 0 -0.004343828094517492 -0.45401373945134632 0 -0.02302170318674357 -0.46410687745233747 0 -0.01377777522351295 -0.47700686972567308 0 -0.004343828094517492 -0.45401373945134632 0 -0.01377777522351295 -0.47700686972567308 0 -0.004343828094517492 -0.45401373945134632 0 -0.02302170318674357 -0.46410687745233747 0 -0.026769507632525821 -0.44925154386396399 0 -0.02302170318674357 -0.46410687745233747 0 -0.026769507632525821 -0.44925154386396399 0 -0.037368175190649271 -0.47089206321859889 0 -0.016304492145034929 -0.42891436754910212 0 -0.004343828094517492 -0.45401373945134632 0 -0.026769507632525821 -0.44925154386396399 0 -0.01377777522351295 -0.47700686972567308 0 0.0042708629438973321 -0.477985506460534 0 0.002743633780377341 -0.5 0 -0.01377777522351295 -0.47700686972567308 0 -0.023211722352508391 -0.49999999999999989 0 0.002743633780377341 -0.5 0 -0.004343828094517492 -0.45401373945134632 0 -0.01377777522351295 -0.47700686972567308 0 0.0042708629438973321 -0.477985506460534 0 -0.02302170318674357 -0.46410687745233747 0 -0.031918670286664452 -0.48521640448569109 0 -0.037368175190649271 -0.47089206321859889 0 -0.02302170318674357 -0.46410687745233747 0 -0.01377777522351295 -0.47700686972567308 0 -0.031918670286664452 -0.48521640448569109 0 -0.01377777522351295 -0.47700686972567308 0 -0.023211722352508391 -0.49999999999999989 0 -0.01377777522351295 -0.47700686972567308 0 -0.023211722352508391 -0.49999999999999989 0 -0.031918670286664452 -0.48521640448569109 0 -0.023211722352508391 -0.49999999999999989 0 -0.031918670286664452 -0.48521640448569109 0 -0.048603147681086027 -0.5 0 -0.031918670286664452 -0.48521640448569109 0 -0.048264086091323058 -0.48320222046902528 0 -0.048603147681086027 -0.5 0 -0.031918670286664452 -0.48521640448569109 0 -0.037368175190649271 -0.47089206321859889 0 -0.048264086091323058 -0.48320222046902528 0 -0.037368175190649271 -0.47089206321859889 0 -0.048264086091323058 -0.48320222046902528 0 -0.05903201091586583 -0.47156117241954471 0 -0.037368175190649271 -0.47089206321859889 0 -0.05903201091586583 -0.47156117241954471 0 -0.048264086091323058 -0.48320222046902528 0 -0.05903201091586583 -0.47156117241954471 0 -0.066697504473696462 -0.48558120924060738 0 -0.048264086091323058 -0.48320222046902528 0 -0.048603147681086027 -0.5 0 -0.066697504473696462 -0.48558120924060738 0 -0.037699103324548087 -0.42680812592118239 0 -0.041879743853661618 -0.45077408959121679 0 -0.049916843527038117 -0.43974949629887972 0 -0.037699103324548087 -0.42680812592118239 0 -0.026769507632525821 -0.44925154386396399 0 -0.041879743853661618 -0.45077408959121679 0 -0.037368175190649271 -0.47089206321859889 0 -0.041879743853661618 -0.45077408959121679 0 -0.054082718980523609 -0.45687523919390832 0 -0.026769507632525821 -0.44925154386396399 0 -0.037368175190649271 -0.47089206321859889 0 -0.041879743853661618 -0.45077408959121679 0 -0.054082718980523609 -0.45687523919390832 0 -0.062222613041307342 -0.46230896610992561 0 -0.070259359563511481 -0.45672380999246232 0 -0.054082718980523609 -0.45687523919390832 0 -0.070259359563511481 -0.45672380999246232 0 -0.037368175190649271 -0.47089206321859889 0 -0.05903201091586583 -0.47156117241954471 0 -0.054082718980523609 -0.45687523919390832 0 -0.05903201091586583 -0.47156117241954471 0 -0.054082718980523609 -0.45687523919390832 0 -0.062222613041307342 -0.46230896610992561 0 -0.054082718980523609 -0.45687523919390832 0 -0.055554550451921612 -0.44744766214873838 0 -0.064986722106106537 -0.44888975601142039 0 -0.041879743853661618 -0.45077408959121679 0 -0.055554550451921612 -0.44744766214873838 0 -0.049916843527038117 -0.43974949629887972 0 -0.041879743853661618 -0.45077408959121679 0 -0.054082718980523609 -0.45687523919390832 0 -0.055554550451921612 -0.44744766214873838 0 -0.060562771359902123 -0.43664540201961122 0 -0.055554550451921612 -0.44744766214873838 0 -0.064986722106106537 -0.44888975601142039 0 -0.060562771359902123 -0.43664540201961122 0 -0.055554550451921612 -0.44744766214873838 0 -0.049916843527038117 -0.43974949629887972 0 -0.060562771359902123 -0.43664540201961122 0 -0.070669983313889045 -0.44120779692078971 0 -0.064986722106106537 -0.44888975601142039 0 -0.070669983313889045 -0.44120779692078971 0 -0.078610203563870343 -0.45664563791267587 0 -0.070669983313889045 -0.44120779692078971 0 -0.070259359563511481 -0.45672380999246232 0 -0.078610203563870343 -0.45664563791267587 0 -0.064986722106106537 -0.44888975601142039 0 -0.070259359563511481 -0.45672380999246232 0 -0.070669983313889045 -0.44120779692078971 0 -0.064986722106106537 -0.44888975601142039 0 -0.070259359563511481 -0.45672380999246232 0 -0.062222613041307342 -0.46230896610992561 0 -0.070259359563511481 -0.45672380999246232 0 -0.080695846641082425 -0.47223028162049019 0 -0.05903201091586583 -0.47156117241954471 0 -0.062222613041307342 -0.46230896610992561 0 -0.080695846641082425 -0.47223028162049019 0 -0.054082718980523609 -0.45687523919390832 0 -0.064986722106106537 -0.44888975601142039 0 -0.070259359563511481 -0.45672380999246232 0 -0.070259359563511481 -0.45672380999246232 0 -0.080695846641082425 -0.47223028162049019 0 -0.070259359563511481 -0.45672380999246232 0 -0.078610203563870343 -0.45664563791267587 0 -0.080695846641082425 -0.47223028162049019 0 -0.070259359563511481 -0.45672380999246232 0 -0.078610203563870343 -0.45664563791267587 0 -0.078610203563870343 -0.45664563791267587 0 -0.080695846641082425 -0.47223028162049019 0 -0.086721654022465539 -0.47241639469913288 0 -0.078610203563870343 -0.45664563791267587 0 -0.1055147183949979 -0.45639378529993668 0 -0.078610203563870343 -0.45664563791267587 0 -0.086721654022465539 -0.47241639469913288 0 -0.1016515019265313 -0.46732742407191402 0 -0.078610203563870343 -0.45664563791267587 0 -0.086721654022465539 -0.47241639469913288 0 -0.078610203563870343 -0.45664563791267587 0 -0.091985459690815868 -0.44829393904392317 0 -0.1055147183949979 -0.45639378529993668 0 -0.070669983313889045 -0.44120779692078971 0 -0.078610203563870343 -0.45664563791267587 0 -0.091985459690815868 -0.44829393904392317 0 -0.070669983313889045 -0.44120779692078971 0 -0.091985459690815868 -0.44829393904392317 0 -0.0877243580640341 -0.43311199702776582 0 -0.091985459690815868 -0.44829393904392317 0 -0.099485872303501283 -0.44456343987456443 0 -0.0877243580640341 -0.43311199702776582 0 -0.048603147681086027 -0.5 0 -0.073994573009663722 -0.5 0 -0.066697504473696462 -0.48558120924060738 0 -0.073994573009663722 -0.5 0 -0.066697504473696462 -0.48558120924060738 0 -0.090040922489662292 -0.48611514081024448 0 -0.05903201091586583 -0.47156117241954471 0 -0.066697504473696462 -0.48558120924060738 0 -0.080695846641082425 -0.47223028162049019 0 -0.05903201091586583 -0.47156117241954471 0 -0.080695846641082425 -0.47223028162049019 0 -0.086721654022465539 -0.47241639469913288 0 -0.095328523623344041 -0.48915037438144832 0 -0.096297808542152336 -0.47807144082295072 0 -0.086721654022465539 -0.47241639469913288 0 -0.090040922489662292 -0.48611514081024448 0 -0.095328523623344041 -0.48915037438144832 0 -0.086721654022465539 -0.47241639469913288 0 -0.095328523623344041 -0.48915037438144832 0 -0.066697504473696462 -0.48558120924060738 0 -0.080695846641082425 -0.47223028162049019 0 -0.090040922489662292 -0.48611514081024448 0 -0.080695846641082425 -0.47223028162049019 0 -0.086721654022465539 -0.47241639469913288 0 -0.080695846641082425 -0.47223028162049019 0 -0.086721654022465539 -0.47241639469913288 0 -0.090040922489662292 -0.48611514081024448 0 -0.080695846641082425 -0.47223028162049019 0 -0.090040922489662292 -0.48611514081024448 0 -0.073994573009663722 -0.5 0 -0.090040922489662292 -0.48611514081024448 0 -0.09938599833824141 -0.49999999999999928 0 -0.09938599833824141 -0.49999999999999928 0 -0.1022037623160411 -0.49019119802159411 0 -0.11242120805489859 -0.48894166705752973 0 -0.090040922489662292 -0.48611514081024448 0 -0.09938599833824141 -0.49999999999999928 0 -0.09938599833824141 -0.49999999999999928 0 -0.095328523623344041 -0.48915037438144832 0 -0.1022037623160411 -0.49019119802159411 0 -0.090040922489662292 -0.48611514081024448 0 -0.09938599833824141 -0.49999999999999928 0 -0.095328523623344041 -0.48915037438144832 0 -0.095328523623344041 -0.48915037438144832 0 -0.1022037623160411 -0.49019119802159411 0 -0.1002655924228823 -0.48429834472149252 0 -0.10465325033550379 -0.48442557571321149 0 -0.1022037623160411 -0.49019119802159411 0 -0.11242120805489859 -0.48894166705752973 0 -0.10465325033550379 -0.48442557571321149 0 -0.1022037623160411 -0.49019119802159411 0 -0.1002655924228823 -0.48429834472149252 0 -0.10465325033550379 -0.48442557571321149 0 -0.1087671261018907 -0.48002938484433572 0 -0.11242120805489859 -0.48894166705752973 0 -0.086721654022465539 -0.47241639469913288 0 -0.096297808542152336 -0.47807144082295072 0 -0.1062047008023646 -0.47301814805565889 0 -0.086721654022465539 -0.47241639469913288 0 -0.1062047008023646 -0.47301814805565889 0 -0.1016515019265313 -0.46732742407191402 0 -0.086721654022465539 -0.47241639469913288 0 -0.1062047008023646 -0.47301814805565889 0 -0.1028446172973702 -0.47965313466825782 0 -0.096297808542152336 -0.47807144082295072 0 -0.1062047008023646 -0.47301814805565889 0 -0.1087671261018907 -0.48002938484433572 0 -0.1028446172973702 -0.47965313466825782 0 -0.1062047008023646 -0.47301814805565889 0 -0.10465325033550379 -0.48442557571321149 0 -0.1087671261018907 -0.48002938484433572 0 -0.1028446172973702 -0.47965313466825782 0 -0.10465325033550379 -0.48442557571321149 0 -0.1028446172973702 -0.47965313466825782 0 -0.1002655924228823 -0.48429834472149252 0 -0.095328523623344041 -0.48915037438144832 0 -0.1002655924228823 -0.48429834472149252 0 -0.096297808542152336 -0.47807144082295072 0 -0.1028446172973702 -0.47965313466825782 0 -0.1002655924228823 -0.48429834472149252 0 -0.096297808542152336 -0.47807144082295072 0 -0.12568774758226359 -0.47361990141218541 0 -0.1062047008023646 -0.47301814805565889 0 -0.12568774758226359 -0.47361990141218541 0 -0.1062047008023646 -0.47301814805565889 0 -0.11578217443489371 -0.47925495805264839 0 -0.13048762499189229 -0.46160875207318752 0 -0.12568774758226359 -0.47361990141218541 0 -0.1062047008023646 -0.47301814805565889 0 -0.12568774758226359 -0.47361990141218541 0 -0.12540164004618509 -0.48559118387036998 0 -0.11578217443489371 -0.47925495805264839 0 -0.1087671261018907 -0.48002938484433572 0 -0.1062047008023646 -0.47301814805565889 0 -0.11578217443489371 -0.47925495805264839 0 -0.1087671261018907 -0.48002938484433572 0 -0.11578217443489371 -0.47925495805264839 0 -0.11242120805489859 -0.48894166705752973 0 -0.12754584172944641 -0.5 0 -0.09938599833824141 -0.49999999999999928 0 -0.11242120805489859 -0.48894166705752973 0 -0.12540164004618509 -0.48559118387036998 0 -0.12754584172944641 -0.5 0 -0.11242120805489859 -0.48894166705752973 0 -0.12540164004618509 -0.48559118387036998 0 -0.11578217443489371 -0.47925495805264839 0 -0.11242120805489859 -0.48894166705752973 0 -0.099485872303501283 -0.44456343987456443 0 -0.1055147183949979 -0.45639378529993668 0 -0.1127189530641572 -0.44045403812663192 0 -0.099485872303501283 -0.44456343987456443 0 -0.1127189530641572 -0.44045403812663192 0 -0.0877243580640341 -0.43311199702776582 0 -0.091985459690815868 -0.44829393904392317 0 -0.099485872303501283 -0.44456343987456443 0 -0.1055147183949979 -0.45639378529993668 0 -0.078610203563870343 -0.45664563791267587 0 -0.1016515019265313 -0.46732742407191402 0 -0.1055147183949979 -0.45639378529993668 0 -0.13048762499189229 -0.46160875207318752 0 -0.1016515019265313 -0.46732742407191402 0 -0.13048762499189229 -0.46160875207318752 0 -0.1016515019265313 -0.46732742407191402 0 -0.1055147183949979 -0.45639378529993668 0 -0.13048762499189229 -0.46160875207318752 0 -0.1062047008023646 -0.47301814805565889 0 -0.1016515019265313 -0.46732742407191402 0 -0.13241923322612539 -0.45614193268719888 0 -0.13048762499189229 -0.46160875207318752 0 -0.1055147183949979 -0.45639378529993668 0 -0.13241923322612539 -0.45614193268719888 0 -0.1055147183949979 -0.45639378529993668 0 -0.13241923322612539 -0.45614193268719888 0 -0.1055147183949979 -0.45639378529993668 0 -0.12156457785218459 -0.4483080491296404 0 -0.1055147183949979 -0.45639378529993668 0 -0.12156457785218459 -0.4483080491296404 0 -0.1127189530641572 -0.44045403812663192 0 -0.12781773141979991 -0.44001948796047591 0 -0.12156457785218459 -0.4483080491296404 0 -0.1127189530641572 -0.44045403812663192 0 -0.1127189530641572 -0.44045403812663192 0 -0.11933750183346691 -0.42371728314685853 0 -0.1033114980840817 -0.42584262853453592 0 -0.12781773141979991 -0.44001948796047591 0 -0.1127189530641572 -0.44045403812663192 0 -0.11933750183346691 -0.42371728314685853 0 -0.1127189530641572 -0.44045403812663192 0 -0.1033114980840817 -0.42584262853453592 0 -0.0877243580640341 -0.43311199702776582 0 -0.1127189530641572 -0.44045403812663192 0 -0.0877243580640341 -0.43311199702776582 0 -0.1033114980840817 -0.42584262853453592 0 -0.0877243580640341 -0.43311199702776582 0 -0.091361521347947519 -0.41813543878373122 0 -0.11933750183346691 -0.42371728314685853 0 -0.1033114980840817 -0.42584262853453592 0 -0.1054151561108029 -0.4137943855876921 0 -0.1054151561108029 -0.4137943855876921 0 -0.093355061288683941 -0.40490126328414477 0 -0.091361521347947519 -0.41813543878373122 0 -0.1033114980840817 -0.42584262853453592 0 -0.1054151561108029 -0.4137943855876921 0 -0.091361521347947519 -0.41813543878373122 0 -0.13519059213181819 -0.40979141842070149 0 -0.11933750183346691 -0.42371728314685853 0 -0.1183466706969695 -0.4046897122757972 0 -0.11933750183346691 -0.42371728314685853 0 -0.1054151561108029 -0.4137943855876921 0 -0.1183466706969695 -0.4046897122757972 0 -0.1295680225859088 -0.39517526054694602 0 -0.1183466706969695 -0.4046897122757972 0 -0.11662556475979249 -0.3889689481425978 0 -0.1183466706969695 -0.4046897122757972 0 -0.11662556475979249 -0.3889689481425978 0 -0.103580640528648 -0.3975953864000461 0 -0.1209846114742668 -0.37347569907403821 0 -0.11662556475979249 -0.3889689481425978 0 -0.1017118879446318 -0.38310948283211771 0 -0.13258590425827241 -0.38150913525831909 0 -0.1209846114742668 -0.37347569907403821 0 -0.11662556475979249 -0.3889689481425978 0 -0.091317240238340897 -0.37481046074657443 0 -0.1017118879446318 -0.38310948283211771 0 -0.090213326960064316 -0.39156379573642808 0 -0.11662556475979249 -0.3889689481425978 0 -0.1017118879446318 -0.38310948283211771 0 -0.103580640528648 -0.3975953864000461 0 -0.1054151561108029 -0.4137943855876921 0 -0.103580640528648 -0.3975953864000461 0 -0.093355061288683941 -0.40490126328414477 0 -0.1054151561108029 -0.4137943855876921 0 -0.1183466706969695 -0.4046897122757972 0 -0.103580640528648 -0.3975953864000461 0 -0.103580640528648 -0.3975953864000461 0 -0.093355061288683941 -0.40490126328414477 0 -0.090213326960064316 -0.39156379573642808 0 -0.1017118879446318 -0.38310948283211771 0 -0.103580640528648 -0.3975953864000461 0 -0.090213326960064316 -0.39156379573642808 0 -0.093355061288683941 -0.40490126328414477 0 -0.085660528017511811 -0.40230150216812999 0 -0.08639885026482659 -0.41020240825840881 0 -0.093355061288683941 -0.40490126328414477 0 -0.090213326960064316 -0.39156379573642808 0 -0.085660528017511811 -0.40230150216812999 0 -0.090213326960064316 -0.39156379573642808 0 -0.079792732703948738 -0.39519430059342592 0 -0.085660528017511811 -0.40230150216812999 0 -0.079792732703948738 -0.39519430059342592 0 -0.085660528017511811 -0.40230150216812999 0 -0.079405827535693835 -0.41068805747346332 0 -0.091317240238340897 -0.37481046074657443 0 -0.090213326960064316 -0.39156379573642808 0 -0.07930213629214368 -0.38260469847303491 0 -0.090213326960064316 -0.39156379573642808 0 -0.079792732703948738 -0.39519430059342592 0 -0.07930213629214368 -0.38260469847303491 0 -0.079705618939622705 -0.36760814190273239 0 -0.091317240238340897 -0.37481046074657443 0 -0.07930213629214368 -0.38260469847303491 0 -0.069395642857062997 -0.37258465187085521 0 -0.07930213629214368 -0.38260469847303491 0 -0.066508959857107197 -0.38733520903566881 0 -0.079792732703948738 -0.39519430059342592 0 -0.07930213629214368 -0.38260469847303491 0 -0.066508959857107197 -0.38733520903566881 0 -0.079792732703948738 -0.39519430059342592 0 -0.066508959857107197 -0.38733520903566881 0 -0.079405827535693835 -0.41068805747346332 0 -0.061498029099403037 -0.40144656012951968 0 -0.066508959857107197 -0.38733520903566881 0 -0.079405827535693835 -0.41068805747346332 0 -0.066508959857107197 -0.38733520903566881 0 -0.079405827535693835 -0.41068805747346332 0 -0.061498029099403037 -0.40144656012951968 0 -0.060838633236123568 -0.41167235732992691 0 -0.066476929500949897 -0.41330098962155409 0 -0.061498029099403037 -0.40144656012951968 0 -0.078331872494503962 -0.41224731730370939 0 -0.061498029099403037 -0.40144656012951968 0 -0.066476929500949897 -0.41330098962155409 0 -0.078331872494503962 -0.41224731730370939 0 -0.061498029099403037 -0.40144656012951968 0 -0.078331872494503962 -0.41224731730370939 0 -0.079405827535693835 -0.41068805747346332 0 -0.066476929500949897 -0.41330098962155409 0 -0.073113899269608096 -0.41519399587168998 0 -0.078331872494503962 -0.41224731730370939 0 -0.076651993276886154 -0.41756136856457682 0 -0.070294716910648244 -0.42359917588948631 0 -0.081387361624505813 -0.42194268690131231 0 -0.076651993276886154 -0.41756136856457682 0 -0.073113899269608096 -0.41519399587168998 0 -0.078331872494503962 -0.41224731730370939 0 -0.076651993276886154 -0.41756136856457682 0 -0.073113899269608096 -0.41519399587168998 0 -0.070994801806092397 -0.41766630799691967 0 -0.076651993276886154 -0.41756136856457682 0 -0.070994801806092397 -0.41766630799691967 0 -0.070294716910648244 -0.42359917588948631 0 -0.060838633236123568 -0.41167235732992691 0 -0.066476929500949897 -0.41330098962155409 0 -0.062729763063910038 -0.42576995592890221 0 -0.070994801806092397 -0.41766630799691967 0 -0.067449525636420857 -0.41974478139215171 0 -0.070294716910648244 -0.42359917588948631 0 -0.066476929500949897 -0.41330098962155409 0 -0.067449525636420857 -0.41974478139215171 0 -0.062729763063910038 -0.42576995592890221 0 -0.066476929500949897 -0.41330098962155409 0 -0.073113899269608096 -0.41519399587168998 0 -0.070994801806092397 -0.41766630799691967 0 -0.066476929500949897 -0.41330098962155409 0 -0.070994801806092397 -0.41766630799691967 0 -0.067449525636420857 -0.41974478139215171 0 -0.062729763063910038 -0.42576995592890221 0 -0.0877243580640341 -0.43311199702776582 0 -0.062729763063910038 -0.42576995592890221 0 -0.070294716910648244 -0.42359917588948631 0 -0.0877243580640341 -0.43311199702776582 0 -0.070669983313889045 -0.44120779692078971 0 -0.062729763063910038 -0.42576995592890221 0 -0.0877243580640341 -0.43311199702776582 0 -0.062729763063910038 -0.42576995592890221 0 -0.070294716910648244 -0.42359917588948631 0 -0.067449525636420857 -0.41974478139215171 0 -0.062729763063910038 -0.42576995592890221 0 -0.070294716910648244 -0.42359917588948631 0 -0.060562771359902123 -0.43664540201961122 0 -0.070669983313889045 -0.44120779692078971 0 -0.062729763063910038 -0.42576995592890221 0 -0.070669983313889045 -0.44120779692078971 0 -0.062729763063910038 -0.42576995592890221 0 -0.070294716910648244 -0.42359917588948631 0 -0.081387361624505813 -0.42194268690131231 0 -0.0877243580640341 -0.43311199702776582 0 -0.081387361624505813 -0.42194268690131231 0 -0.0877243580640341 -0.43311199702776582 0 -0.091361521347947519 -0.41813543878373122 0 -0.091361521347947519 -0.41813543878373122 0 -0.08639885026482659 -0.41020240825840881 0 -0.082211313134295819 -0.41498577958257399 0 -0.093355061288683941 -0.40490126328414477 0 -0.091361521347947519 -0.41813543878373122 0 -0.08639885026482659 -0.41020240825840881 0 -0.085660528017511811 -0.40230150216812999 0 -0.08639885026482659 -0.41020240825840881 0 -0.079405827535693835 -0.41068805747346332 0 -0.08639885026482659 -0.41020240825840881 0 -0.079405827535693835 -0.41068805747346332 0 -0.082211313134295819 -0.41498577958257399 0 -0.078331872494503962 -0.41224731730370939 0 -0.079405827535693835 -0.41068805747346332 0 -0.082211313134295819 -0.41498577958257399 0 -0.076651993276886154 -0.41756136856457682 0 -0.078331872494503962 -0.41224731730370939 0 -0.082211313134295819 -0.41498577958257399 0 -0.081387361624505813 -0.42194268690131231 0 -0.091361521347947519 -0.41813543878373122 0 -0.082211313134295819 -0.41498577958257399 0 -0.076651993276886154 -0.41756136856457682 0 -0.081387361624505813 -0.42194268690131231 0 -0.082211313134295819 -0.41498577958257399 0 -0.073001572421288213 -0.08400824822856201 0 -0.095314539659743222 -0.093443859849604252 0 -0.09632221981006335 -0.078655209532709991 0 -0.073001572421288213 -0.08400824822856201 0 -0.09632221981006335 -0.078655209532709991 0 -0.071003619973766433 -0.073022860316535904 0 -0.073001572421288213 -0.08400824822856201 0 -0.09632221981006335 -0.078655209532709991 0 -0.071003619973766433 -0.073022860316535904 0 -0.096634809900872393 -0.069978605875025177 0 -0.071003619973766433 -0.073022860316535904 0 -0.09632221981006335 -0.078655209532709991 0 -0.096634809900872393 -0.069978605875025177 0 -0.08472154316162972 -0.063549968540847851 0 -0.071003619973766433 -0.073022860316535904 0 -0.096634809900872393 -0.069978605875025177 0 -0.08472154316162972 -0.063549968540847851 0 -0.096634809900872393 -0.069978605875025177 0 -0.093075972177240465 -0.058947424059673181 0 -0.08472154316162972 -0.063549968540847851 0 -0.071003619973766433 -0.073022860316535904 0 -0.071439044093043857 -0.066825830691815094 0 -0.071439044093043857 -0.066825830691815094 0 -0.065742443399236961 -0.067574582697172147 0 -0.063002185432843305 -0.061487649908456538 0 -0.071003619973766433 -0.073022860316535904 0 -0.065742443399236961 -0.067574582697172147 0 -0.057524924097294247 -0.068961989871881041 0 -0.071003619973766433 -0.073022860316535904 0 -0.071439044093043857 -0.066825830691815094 0 -0.065742443399236961 -0.067574582697172147 0 -0.073001572421288213 -0.08400824822856201 0 -0.069185343766926505 -0.10237375167914541 0 -0.049680925032513167 -0.08936128692441439 0 -0.071003619973766433 -0.073022860316535904 0 -0.073001572421288213 -0.08400824822856201 0 -0.059968474837979791 -0.080704243685852259 0 -0.073001572421288213 -0.08400824822856201 0 -0.069185343766926505 -0.10237375167914541 0 -0.085533453113827485 -0.10458163087714969 0 -0.069185343766926505 -0.10237375167914541 0 -0.078265588891665988 -0.1183520873834991 0 -0.085533453113827485 -0.10458163087714969 0 -0.078265588891665988 -0.1183520873834991 0 -0.058259027341881688 -0.1158296405690406 0 -0.072203733128623937 -0.13100593580747641 0 -0.069185343766926505 -0.10237375167914541 0 -0.078265588891665988 -0.1183520873834991 0 -0.058259027341881688 -0.1158296405690406 0 -0.078265588891665988 -0.1183520873834991 0 -0.098357256145280986 -0.1249743301371234 0 -0.086054719853455378 -0.13134723523105879 0 -0.078265588891665988 -0.1183520873834991 0 -0.085533453113827485 -0.10458163087714969 0 -0.098357256145280986 -0.1249743301371234 0 -0.073001572421288213 -0.08400824822856201 0 -0.085533453113827485 -0.10458163087714969 0 -0.095314539659743222 -0.093443859849604252 0 -0.085533453113827485 -0.10458163087714969 0 -0.1090000616720591 -0.099138250486989626 0 -0.095314539659743222 -0.093443859849604252 0 -0.085533453113827485 -0.10458163087714969 0 -0.1090000616720591 -0.099138250486989626 0 -0.098357256145280986 -0.1249743301371234 0 -0.1090000616720591 -0.099138250486989626 0 -0.098357256145280986 -0.1249743301371234 0 -0.1163299610319649 -0.123559176195451 0 -0.1090000616720591 -0.099138250486989626 0 -0.098357256145280986 -0.1249743301371234 0 -0.1090000616720591 -0.099138250486989626 0 -0.1163299610319649 -0.123559176195451 0 -0.1209594764258113 -0.10818761065369201 0 -0.1163299610319649 -0.123559176195451 0 -0.1209594764258113 -0.10818761065369201 0 -0.13170401298238199 -0.1142150949500024 0 -0.1090000616720591 -0.099138250486989626 0 -0.1209594764258113 -0.10818761065369201 0 -0.1224440299586441 -0.090322099331281741 0 -0.1090000616720591 -0.099138250486989626 0 -0.1224440299586441 -0.090322099331281741 0 -0.119642867198838 -0.073302170836856362 0 -0.1090000616720591 -0.099138250486989626 0 -0.119642867198838 -0.073302170836856362 0 -0.1224440299586441 -0.090322099331281741 0 -0.119642867198838 -0.073302170836856362 0 -0.127429446573081 -0.082462269219444884 0 -0.1090000616720591 -0.099138250486989626 0 -0.09632221981006335 -0.078655209532709991 0 -0.119642867198838 -0.073302170836856362 0 -0.1090000616720591 -0.099138250486989626 0 -0.095314539659743222 -0.093443859849604252 0 -0.09632221981006335 -0.078655209532709991 0 -0.09632221981006335 -0.078655209532709991 0 -0.096634809900872393 -0.069978605875025177 0 -0.119642867198838 -0.073302170836856362 0 -0.09632221981006335 -0.078655209532709991 0 -0.119642867198838 -0.073302170836856362 0 -0.096634809900872393 -0.069978605875025177 0 -0.1222659998279787 -0.066934351433516059 0 -0.1107437765417419 -0.058165493353871521 0 -0.096634809900872393 -0.069978605875025177 0 -0.119642867198838 -0.073302170836856362 0 -0.1222659998279787 -0.066934351433516059 0 -0.096634809900872393 -0.069978605875025177 0 -0.1222659998279787 -0.066934351433516059 0 -0.119642867198838 -0.073302170836856362 0 -0.1222659998279787 -0.066934351433516059 0 -0.1222659998279787 -0.066934351433516059 0 -0.1107437765417419 -0.058165493353871521 0 -0.1190072837466777 -0.054101168097751819 0 -0.1222659998279787 -0.066934351433516059 0 -0.1190072837466777 -0.054101168097751819 0 -0.1281145509328212 -0.052736625861778713 0 -0.1107437765417419 -0.058165493353871521 0 -0.1102168128399985 -0.050958595907632007 0 -0.1190072837466777 -0.054101168097751819 0 -0.1102168128399985 -0.050958595907632007 0 -0.1190072837466777 -0.054101168097751819 0 -0.1175079881229442 -0.046424089695533917 0 -0.1102168128399985 -0.050958595907632007 0 -0.1175079881229442 -0.046424089695533917 0 -0.1114203269237781 -0.044652475660634627 0 -0.1190072837466777 -0.054101168097751819 0 -0.1175079881229442 -0.046424089695533917 0 -0.1281145509328212 -0.052736625861778713 0 -0.1238325117896016 -0.041547804325526752 0 -0.1175079881229442 -0.046424089695533917 0 -0.1281145509328212 -0.052736625861778713 0 -0.1238325117896016 -0.041547804325526752 0 -0.1175079881229442 -0.046424089695533917 0 -0.1160034724869929 -0.040180211785070967 0 -0.1238325117896016 -0.041547804325526752 0 -0.1190551344852407 -0.036229189638846977 0 -0.1160034724869929 -0.040180211785070967 0 -0.1238325117896016 -0.041547804325526752 0 -0.1190551344852407 -0.036229189638846977 0 -0.12556548126247061 -0.032941768348231711 0 -0.1190551344852407 -0.036229189638846977 0 -0.1142587870320074 -0.031924150647621073 0 -0.12556548126247061 -0.032941768348231711 0 -0.11425775405139491 -0.035432304702313802 0 -0.1123418035652386 -0.032474747122959391 0 -0.1083947361954009 -0.041647644134725811 0 -0.1190551344852407 -0.036229189638846977 0 -0.1142587870320074 -0.031924150647621073 0 -0.11425775405139491 -0.035432304702313802 0 -0.1142587870320074 -0.031924150647621073 0 -0.1123418035652386 -0.032474747122959391 0 -0.1142587870320074 -0.031924150647621073 0 -0.11425775405139491 -0.035432304702313802 0 -0.1123418035652386 -0.032474747122959391 0 -0.1190551344852407 -0.036229189638846977 0 -0.11425775405139491 -0.035432304702313802 0 -0.1160034724869929 -0.040180211785070967 0 -0.1175079881229442 -0.046424089695533917 0 -0.1160034724869929 -0.040180211785070967 0 -0.1114203269237781 -0.044652475660634627 0 -0.11425775405139491 -0.035432304702313802 0 -0.1160034724869929 -0.040180211785070967 0 -0.1083947361954009 -0.041647644134725811 0 -0.1160034724869929 -0.040180211785070967 0 -0.1114203269237781 -0.044652475660634627 0 -0.1083947361954009 -0.041647644134725811 0 -0.1123418035652386 -0.032474747122959391 0 -0.1012930514348037 -0.031353613443955368 0 -0.087611434624970924 -0.039577809934080853 0 -0.1114203269237781 -0.044652475660634627 0 -0.1083947361954009 -0.041647644134725811 0 -0.10445463631586011 -0.047495836629989102 0 -0.1123418035652386 -0.032474747122959391 0 -0.091890423829141143 -0.04965028890738702 0 -0.087611434624970924 -0.039577809934080853 0 -0.1123418035652386 -0.032474747122959391 0 -0.1083947361954009 -0.041647644134725811 0 -0.091890423829141143 -0.04965028890738702 0 -0.1123418035652386 -0.032474747122959391 0 -0.091890423829141143 -0.04965028890738702 0 -0.1083947361954009 -0.041647644134725811 0 -0.10445463631586011 -0.047495836629989102 0 -0.091890423829141143 -0.04965028890738702 0 -0.1123418035652386 -0.032474747122959391 0 -0.087611434624970924 -0.039577809934080853 0 -0.1012930514348037 -0.031353613443955368 0 -0.096067906318219293 -0.030125742195540931 0 -0.087611434624970924 -0.039577809934080853 0 -0.1007319438144349 -0.055203474756829622 0 -0.093075972177240465 -0.058947424059673181 0 -0.091890423829141143 -0.04965028890738702 0 -0.1007319438144349 -0.055203474756829622 0 -0.10445463631586011 -0.047495836629989102 0 -0.091890423829141143 -0.04965028890738702 0 -0.096634809900872393 -0.069978605875025177 0 -0.1007319438144349 -0.055203474756829622 0 -0.093075972177240465 -0.058947424059673181 0 -0.1107437765417419 -0.058165493353871521 0 -0.1102168128399985 -0.050958595907632007 0 -0.1007319438144349 -0.055203474756829622 0 -0.096634809900872393 -0.069978605875025177 0 -0.1107437765417419 -0.058165493353871521 0 -0.1007319438144349 -0.055203474756829622 0 -0.1102168128399985 -0.050958595907632007 0 -0.1007319438144349 -0.055203474756829622 0 -0.10445463631586011 -0.047495836629989102 0 -0.1102168128399985 -0.050958595907632007 0 -0.1114203269237781 -0.044652475660634627 0 -0.10445463631586011 -0.047495836629989102 0 -0.11702144746713999 -0.012253183510905759 0 -0.1092426205505718 -0.001834213791223281 0 -0.12684239433194619 -0.0024106449572988912 0 -0.11702144746713999 -0.012253183510905759 0 -0.12684239433194619 -0.0024106449572988912 0 -0.12656208370071809 -0.020532226921150191 0 -0.11702144746713999 -0.012253183510905759 0 -0.11035698058035 -0.018405557555846431 0 -0.1051346162555214 -0.01157316281476325 0 -0.11702144746713999 -0.012253183510905759 0 -0.1051346162555214 -0.01157316281476325 0 -0.1092426205505718 -0.001834213791223281 0 -0.11702144746713999 -0.012253183510905759 0 -0.11035698058035 -0.018405557555846431 0 -0.1160690283741105 -0.021476064884214659 0 -0.11035698058035 -0.018405557555846431 0 -0.1160690283741105 -0.021476064884214659 0 -0.1102543452063682 -0.025004040498027558 0 -0.11702144746713999 -0.012253183510905759 0 -0.1160690283741105 -0.021476064884214659 0 -0.12656208370071809 -0.020532226921150191 0 -0.1142587870320074 -0.031924150647621073 0 -0.1123418035652386 -0.032474747122959391 0 -0.12656208370071809 -0.020532226921150191 0 -0.1142587870320074 -0.031924150647621073 0 -0.12656208370071809 -0.020532226921150191 0 -0.12556548126247061 -0.032941768348231711 0 -0.1123418035652386 -0.032474747122959391 0 -0.1160690283741105 -0.021476064884214659 0 -0.12656208370071809 -0.020532226921150191 0 -0.1123418035652386 -0.032474747122959391 0 -0.12656208370071809 -0.020532226921150191 0 -0.1123418035652386 -0.032474747122959391 0 -0.1160690283741105 -0.021476064884214659 0 -0.1102543452063682 -0.025004040498027558 0 -0.1123418035652386 -0.032474747122959391 0 -0.1102543452063682 -0.025004040498027558 0 -0.1072188864938787 -0.028158395326441491 0 -0.1123418035652386 -0.032474747122959391 0 -0.1012930514348037 -0.031353613443955368 0 -0.1072188864938787 -0.028158395326441491 0 -0.1102543452063682 -0.025004040498027558 0 -0.1072188864938787 -0.028158395326441491 0 -0.1067823498554259 -0.02553919760427498 0 -0.1072188864938787 -0.028158395326441491 0 -0.1067823498554259 -0.02553919760427498 0 -0.1032252261717113 -0.026431372640754139 0 -0.1102543452063682 -0.025004040498027558 0 -0.1067823498554259 -0.02553919760427498 0 -0.1064309415497454 -0.02256298195187675 0 -0.1067823498554259 -0.02553919760427498 0 -0.1032252261717113 -0.026431372640754139 0 -0.1064309415497454 -0.02256298195187675 0 -0.1012930514348037 -0.031353613443955368 0 -0.1072188864938787 -0.028158395326441491 0 -0.1032252261717113 -0.026431372640754139 0 -0.1012930514348037 -0.031353613443955368 0 -0.1032252261717113 -0.026431372640754139 0 -0.096067906318219293 -0.030125742195540931 0 -0.096067906318219293 -0.030125742195540931 0 -0.096559027056621921 -0.024774143163355359 0 -0.089622125559431109 -0.029067765208732239 0 -0.1032252261717113 -0.026431372640754139 0 -0.096067906318219293 -0.030125742195540931 0 -0.096559027056621921 -0.024774143163355359 0 -0.1032252261717113 -0.026431372640754139 0 -0.096559027056621921 -0.024774143163355359 0 -0.1025727106701535 -0.019000068478592251 0 -0.096559027056621921 -0.024774143163355359 0 -0.094158401810381265 -0.019152878499301629 0 -0.1025727106701535 -0.019000068478592251 0 -0.094158401810381265 -0.019152878499301629 0 -0.1025727106701535 -0.019000068478592251 0 -0.098208361105241476 -0.013367013628020541 0 -0.096559027056621921 -0.024774143163355359 0 -0.094158401810381265 -0.019152878499301629 0 -0.090963205928309004 -0.023737483100127171 0 -0.1032252261717113 -0.026431372640754139 0 -0.1025727106701535 -0.019000068478592251 0 -0.1064309415497454 -0.02256298195187675 0 -0.11035698058035 -0.018405557555846431 0 -0.1102543452063682 -0.025004040498027558 0 -0.1064309415497454 -0.02256298195187675 0 -0.11035698058035 -0.018405557555846431 0 -0.1025727106701535 -0.019000068478592251 0 -0.1064309415497454 -0.02256298195187675 0 -0.11035698058035 -0.018405557555846431 0 -0.1025727106701535 -0.019000068478592251 0 -0.1051346162555214 -0.01157316281476325 0 -0.1025727106701535 -0.019000068478592251 0 -0.1051346162555214 -0.01157316281476325 0 -0.098208361105241476 -0.013367013628020541 0 -0.098208361105241476 -0.013367013628020541 0 -0.098915291074047326 -0.0063860750211698521 0 -0.090260785716103867 -0.010722883326275721 0 -0.094158401810381265 -0.019152878499301629 0 -0.098208361105241476 -0.013367013628020541 0 -0.090260785716103867 -0.010722883326275721 0 -0.1051346162555214 -0.01157316281476325 0 -0.098208361105241476 -0.013367013628020541 0 -0.098915291074047326 -0.0063860750211698521 0 -0.098915291074047326 -0.0063860750211698521 0 -0.097921128137241215 0.0020243512805800138 0 -0.08924030644861769 0.001862120829466571 0 -0.098915291074047326 -0.0063860750211698521 0 -0.1092426205505718 -0.001834213791223281 0 -0.097921128137241215 0.0020243512805800138 0 -0.1051346162555214 -0.01157316281476325 0 -0.098915291074047326 -0.0063860750211698521 0 -0.1092426205505718 -0.001834213791223281 0 -0.098915291074047326 -0.0063860750211698521 0 -0.090260785716103867 -0.010722883326275721 0 -0.08924030644861769 0.001862120829466571 0 -0.07999044300750352 -0.003657782716673298 0 -0.090260785716103867 -0.010722883326275721 0 -0.08924030644861769 0.001862120829466571 0 -0.090260785716103867 -0.010722883326275721 0 -0.080763211176913846 -0.01295231132663285 0 -0.085601266141746721 -0.021467108794363601 0 -0.07999044300750352 -0.003657782716673298 0 -0.090260785716103867 -0.010722883326275721 0 -0.080763211176913846 -0.01295231132663285 0 -0.080763211176913846 -0.01295231132663285 0 -0.085601266141746721 -0.021467108794363601 0 -0.073581800989694454 -0.021944454217785271 0 -0.094158401810381265 -0.019152878499301629 0 -0.085601266141746721 -0.021467108794363601 0 -0.090963205928309004 -0.023737483100127171 0 -0.094158401810381265 -0.019152878499301629 0 -0.090260785716103867 -0.010722883326275721 0 -0.085601266141746721 -0.021467108794363601 0 -0.085601266141746721 -0.021467108794363601 0 -0.090963205928309004 -0.023737483100127171 0 -0.089622125559431109 -0.029067765208732239 0 -0.096559027056621921 -0.024774143163355359 0 -0.090963205928309004 -0.023737483100127171 0 -0.089622125559431109 -0.029067765208732239 0 -0.085601266141746721 -0.021467108794363601 0 -0.073581800989694454 -0.021944454217785271 0 -0.077500660287789763 -0.032073767809408828 0 -0.085601266141746721 -0.021467108794363601 0 -0.089622125559431109 -0.029067765208732239 0 -0.077500660287789763 -0.032073767809408828 0 -0.064846832595175471 -0.031195953332099971 0 -0.073581800989694454 -0.021944454217785271 0 -0.077500660287789763 -0.032073767809408828 0 -0.064846832595175471 -0.031195953332099971 0 -0.073581800989694454 -0.021944454217785271 0 -0.061769702261262147 -0.0218061252971775 0 -0.073581800989694454 -0.021944454217785271 0 -0.069592722772413601 -0.011363571298059479 0 -0.061769702261262147 -0.0218061252971775 0 -0.069592722772413601 -0.011363571298059479 0 -0.053835296384681958 -0.011036601727367109 0 -0.067907753424216635 0.002033453052028423 0 -0.080763211176913846 -0.01295231132663285 0 -0.073581800989694454 -0.021944454217785271 0 -0.069592722772413601 -0.011363571298059479 0 -0.07999044300750352 -0.003657782716673298 0 -0.080763211176913846 -0.01295231132663285 0 -0.069592722772413601 -0.011363571298059479 0 -0.07999044300750352 -0.003657782716673298 0 -0.069592722772413601 -0.011363571298059479 0 -0.067907753424216635 0.002033453052028423 0 -0.071439044093043857 -0.066825830691815094 0 -0.091890423829141143 -0.04965028890738702 0 -0.071439044093043857 -0.066825830691815094 0 -0.091890423829141143 -0.04965028890738702 0 -0.076747695332570351 -0.052911839901043492 0 -0.08472154316162972 -0.063549968540847851 0 -0.071439044093043857 -0.066825830691815094 0 -0.091890423829141143 -0.04965028890738702 0 -0.079782654867846386 -0.047205202871928302 0 -0.091890423829141143 -0.04965028890738702 0 -0.076747695332570351 -0.052911839901043492 0 -0.08472154316162972 -0.063549968540847851 0 -0.093075972177240465 -0.058947424059673181 0 -0.091890423829141143 -0.04965028890738702 0 -0.079782654867846386 -0.047205202871928302 0 -0.091890423829141143 -0.04965028890738702 0 -0.087611434624970924 -0.039577809934080853 0 -0.096067906318219293 -0.030125742195540931 0 -0.089622125559431109 -0.029067765208732239 0 -0.087611434624970924 -0.039577809934080853 0 -0.089622125559431109 -0.029067765208732239 0 -0.087611434624970924 -0.039577809934080853 0 -0.077500660287789763 -0.032073767809408828 0 -0.087611434624970924 -0.039577809934080853 0 -0.062881065684703169 -0.046680872745201857 0 -0.079782654867846386 -0.047205202871928302 0 -0.087611434624970924 -0.039577809934080853 0 -0.062881065684703169 -0.046680872745201857 0 -0.087611434624970924 -0.039577809934080853 0 -0.077500660287789763 -0.032073767809408828 0 -0.062881065684703169 -0.046680872745201857 0 -0.064846832595175471 -0.031195953332099971 0 -0.077500660287789763 -0.032073767809408828 0 -0.062881065684703169 -0.046680872745201857 0 -0.062881065684703169 -0.046680872745201857 0 -0.076747695332570351 -0.052911839901043492 0 -0.069868862205096485 -0.05776718396497578 0 -0.079782654867846386 -0.047205202871928302 0 -0.062881065684703169 -0.046680872745201857 0 -0.076747695332570351 -0.052911839901043492 0 -0.071439044093043857 -0.066825830691815094 0 -0.076747695332570351 -0.052911839901043492 0 -0.069868862205096485 -0.05776718396497578 0 -0.062881065684703169 -0.046680872745201857 0 -0.069868862205096485 -0.05776718396497578 0 -0.063002185432843305 -0.061487649908456538 0 -0.071439044093043857 -0.066825830691815094 0 -0.069868862205096485 -0.05776718396497578 0 -0.063002185432843305 -0.061487649908456538 0 -0.062881065684703169 -0.046680872745201857 0 -0.063002185432843305 -0.061487649908456538 0 -0.054006185005840028 -0.059667565887694111 0 -0.062881065684703169 -0.046680872745201857 0 -0.054006185005840028 -0.059667565887694111 0 -0.038150696744434789 -0.053783935556320592 0 -0.062881065684703169 -0.046680872745201857 0 -0.038150696744434789 -0.053783935556320592 0 -0.054006185005840028 -0.059667565887694111 0 -0.038150696744434789 -0.053783935556320592 0 -0.048763558973557393 -0.064620151518485602 0 -0.062881065684703169 -0.046680872745201857 0 -0.050010008940510532 -0.033459047271277097 0 -0.038150696744434789 -0.053783935556320592 0 -0.064846832595175471 -0.031195953332099971 0 -0.062881065684703169 -0.046680872745201857 0 -0.050010008940510532 -0.033459047271277097 0 -0.050010008940510532 -0.033459047271277097 0 -0.034333151248951553 -0.042004623467853573 0 -0.038150696744434789 -0.053783935556320592 0 -0.050010008940510532 -0.033459047271277097 0 -0.034333151248951553 -0.042004623467853573 0 -0.038308567323490583 -0.022548664485676339 0 -0.034333151248951553 -0.042004623467853573 0 -0.038150696744434789 -0.053783935556320592 0 -0.034333151248951553 -0.042004623467853573 0 -0.038150696744434789 -0.053783935556320592 0 -0.025264376599132721 -0.048291600418356888 0 -0.069592722772413601 -0.011363571298059479 0 -0.053835296384681958 -0.011036601727367109 0 -0.061769702261262147 -0.0218061252971775 0 -0.053835296384681958 -0.011036601727367109 0 -0.035192282316726747 -0.002915282895884485 0 -0.055028287529294832 0.0036901326515541141 0 -0.053835296384681958 -0.011036601727367109 0 -0.067907753424216635 0.002033453052028423 0 -0.055028287529294832 0.0036901326515541141 0 -0.050010008940510532 -0.033459047271277097 0 -0.053835296384681958 -0.011036601727367109 0 -0.038308567323490583 -0.022548664485676339 0 -0.050010008940510532 -0.033459047271277097 0 -0.053835296384681958 -0.011036601727367109 0 -0.061769702261262147 -0.0218061252971775 0 -0.064846832595175471 -0.031195953332099971 0 -0.050010008940510532 -0.033459047271277097 0 -0.061769702261262147 -0.0218061252971775 0 -0.053835296384681958 -0.011036601727367109 0 -0.038308567323490583 -0.022548664485676339 0 -0.035192282316726747 -0.002915282895884485 0 -0.035192282316726747 -0.002915282895884485 0 -0.018172097726582109 -0.023327767065999459 0 -0.01107981885403149 0.0016360662863579461 0 -0.034333151248951553 -0.042004623467853573 0 -0.038308567323490583 -0.022548664485676339 0 -0.018172097726582109 -0.023327767065999459 0 -0.038308567323490583 -0.022548664485676339 0 -0.035192282316726747 -0.002915282895884485 0 -0.018172097726582109 -0.023327767065999459 0 -0.018172097726582109 -0.023327767065999459 0 -0.001002805299617866 -0.025814161131358621 0 -0.01107981885403149 0.0016360662863579461 0 -0.018172097726582109 -0.023327767065999459 0 -0.001002805299617866 -0.025814161131358621 0 -0.0074553692504295398 -0.03968401933578676 0 -0.018172097726582109 -0.023327767065999459 0 -0.01107981885403149 0.0016360662863579461 0 -0.038150696744434789 -0.053783935556320592 0 -0.025264376599132721 -0.048291600418356888 0 -0.012525151283420429 -0.061144111193753362 0 -0.038150696744434789 -0.053783935556320592 0 -0.012525151283420429 -0.061144111193753362 0 -0.026488452136547599 -0.067637679485120727 0 -0.038150696744434789 -0.053783935556320592 0 -0.012525151283420429 -0.061144111193753362 0 -0.025264376599132721 -0.048291600418356888 0 -0.010575400648911061 -0.050743287774334588 0 -0.012525151283420429 -0.061144111193753362 0 -0.018172097726582109 -0.023327767065999459 0 -0.025264376599132721 -0.048291600418356888 0 -0.018172097726582109 -0.023327767065999459 0 -0.025264376599132721 -0.048291600418356888 0 -0.0074553692504295398 -0.03968401933578676 0 -0.034333151248951553 -0.042004623467853573 0 -0.018172097726582109 -0.023327767065999459 0 -0.025264376599132721 -0.048291600418356888 0 -0.025264376599132721 -0.048291600418356888 0 -0.0074553692504295398 -0.03968401933578676 0 -0.010575400648911061 -0.050743287774334588 0 -0.0074553692504295398 -0.03968401933578676 0 -0.010575400648911061 -0.050743287774334588 0 0.002943294537338474 -0.053853420149441403 0 -0.010575400648911061 -0.050743287774334588 0 -0.012525151283420429 -0.061144111193753362 0 0.002943294537338474 -0.053853420149441403 0 -0.012525151283420429 -0.061144111193753362 0 -0.0036820921910391412 -0.074779930311672529 0 -0.018476046152773339 -0.078537623573902662 0 -0.012525151283420429 -0.061144111193753362 0 -0.0036820921910391412 -0.074779930311672529 0 0.013100394177594579 -0.068504286831183855 0 -0.018476046152773339 -0.078537623573902662 0 -0.01194636801717355 -0.10010589385246919 0 0.0031724344944426231 -0.090933699647850266 0 -0.0036820921910391412 -0.074779930311672529 0 -0.018476046152773339 -0.078537623573902662 0 0.0031724344944426231 -0.090933699647850266 0 -0.018476046152773339 -0.078537623573902662 0 -0.036801914365561829 -0.077085047616506322 0 -0.031636402924981058 -0.084676455489959557 0 -0.018476046152773339 -0.078537623573902662 0 -0.027791939411752498 -0.094385700916337717 0 -0.01194636801717355 -0.10010589385246919 0 -0.018476046152773339 -0.078537623573902662 0 -0.031636402924981058 -0.084676455489959557 0 -0.027791939411752498 -0.094385700916337717 0 -0.012525151283420429 -0.061144111193753362 0 -0.018476046152773339 -0.078537623573902662 0 -0.026488452136547599 -0.067637679485120727 0 -0.018476046152773339 -0.078537623573902662 0 -0.026488452136547599 -0.067637679485120727 0 -0.036801914365561829 -0.077085047616506322 0 -0.038150696744434789 -0.053783935556320592 0 -0.045372430046660438 -0.076067114758046547 0 -0.036801914365561829 -0.077085047616506322 0 -0.038150696744434789 -0.053783935556320592 0 -0.045372430046660438 -0.076067114758046547 0 -0.048763558973557393 -0.064620151518485602 0 -0.038150696744434789 -0.053783935556320592 0 -0.026488452136547599 -0.067637679485120727 0 -0.036801914365561829 -0.077085047616506322 0 -0.038150696744434789 -0.053783935556320592 0 -0.045372430046660438 -0.076067114758046547 0 -0.045372430046660438 -0.076067114758046547 0 -0.036801914365561829 -0.077085047616506322 0 -0.036801914365561829 -0.077085047616506322 0 -0.031636402924981058 -0.084676455489959557 0 -0.040706113532750193 -0.08450976113680872 0 -0.049680925032513167 -0.08936128692441439 0 -0.027791939411752498 -0.094385700916337717 0 -0.040706113532750193 -0.08450976113680872 0 -0.049680925032513167 -0.08936128692441439 0 -0.027791939411752498 -0.094385700916337717 0 -0.031636402924981058 -0.084676455489959557 0 -0.040706113532750193 -0.08450976113680872 0 -0.027791939411752498 -0.094385700916337717 0 -0.045372430046660438 -0.076067114758046547 0 -0.036801914365561829 -0.077085047616506322 0 -0.040706113532750193 -0.08450976113680872 0 -0.045372430046660438 -0.076067114758046547 0 -0.040706113532750193 -0.08450976113680872 0 -0.049680925032513167 -0.08936128692441439 0 -0.073001572421288213 -0.08400824822856201 0 -0.049680925032513167 -0.08936128692441439 0 -0.059968474837979791 -0.080704243685852259 0 -0.045372430046660438 -0.076067114758046547 0 -0.049680925032513167 -0.08936128692441439 0 -0.059968474837979791 -0.080704243685852259 0 -0.073001572421288213 -0.08400824822856201 0 -0.049680925032513167 -0.08936128692441439 0 -0.045372430046660438 -0.076067114758046547 0 -0.049680925032513167 -0.08936128692441439 0 -0.071003619973766433 -0.073022860316535904 0 -0.045372430046660438 -0.076067114758046547 0 -0.059968474837979791 -0.080704243685852259 0 -0.071003619973766433 -0.073022860316535904 0 -0.045372430046660438 -0.076067114758046547 0 -0.071003619973766433 -0.073022860316535904 0 -0.045372430046660438 -0.076067114758046547 0 -0.057524924097294247 -0.068961989871881041 0 -0.063002185432843305 -0.061487649908456538 0 -0.054006185005840028 -0.059667565887694111 0 -0.057524924097294247 -0.068961989871881041 0 -0.065742443399236961 -0.067574582697172147 0 -0.063002185432843305 -0.061487649908456538 0 -0.057524924097294247 -0.068961989871881041 0 -0.054006185005840028 -0.059667565887694111 0 -0.057524924097294247 -0.068961989871881041 0 -0.048763558973557393 -0.064620151518485602 0 -0.045372430046660438 -0.076067114758046547 0 -0.057524924097294247 -0.068961989871881041 0 -0.048763558973557393 -0.064620151518485602 0 -0.058259027341881688 -0.1158296405690406 0 -0.040399076260744883 -0.1095887869708518 0 -0.042970154091505113 -0.1307372619221103 0 -0.049680925032513167 -0.08936128692441439 0 -0.058259027341881688 -0.1158296405690406 0 -0.049680925032513167 -0.08936128692441439 0 -0.058259027341881688 -0.1158296405690406 0 -0.040399076260744883 -0.1095887869708518 0 -0.069185343766926505 -0.10237375167914541 0 -0.049680925032513167 -0.08936128692441439 0 -0.058259027341881688 -0.1158296405690406 0 -0.049680925032513167 -0.08936128692441439 0 -0.040399076260744883 -0.1095887869708518 0 -0.027791939411752498 -0.094385700916337717 0 -0.040399076260744883 -0.1095887869708518 0 -0.023293335426071982 -0.11763004452235649 0 -0.042970154091505113 -0.1307372619221103 0 -0.023293335426071982 -0.11763004452235649 0 -0.027791939411752498 -0.094385700916337717 0 -0.01194636801717355 -0.10010589385246919 0 -0.040399076260744883 -0.1095887869708518 0 -0.023293335426071982 -0.11763004452235649 0 -0.027791939411752498 -0.094385700916337717 0 -0.01194636801717355 -0.10010589385246919 0 -0.0011764143374023801 -0.11412863934658821 0 0.0031724344944426231 -0.090933699647850266 0 -0.023293335426071982 -0.11763004452235649 0 -0.0011764143374023801 -0.11412863934658821 0 -0.0088617873603559459 -0.13056791950759369 0 -0.023293335426071982 -0.11763004452235649 0 -0.01194636801717355 -0.10010589385246919 0 -0.0011764143374023801 -0.11412863934658821 0 -0.023293335426071982 -0.11763004452235649 0 -0.0088617873603559459 -0.13056791950759369 0 -0.028776094212841389 -0.146690803341917 0 -0.028776094212841389 -0.146690803341917 0 -0.018472838120386938 -0.16450941630276031 0 0.000430259749712468 -0.14745823775527289 0 -0.0088617873603559459 -0.13056791950759369 0 -0.028776094212841389 -0.146690803341917 0 0.000430259749712468 -0.14745823775527289 0 -0.028776094212841389 -0.146690803341917 0 0.000430259749712468 -0.14745823775527289 0 -0.018472838120386938 -0.16450941630276031 0 0.0079046543420133591 -0.16440801616877129 0 0.000430259749712468 -0.14745823775527289 0 -0.0026331348495214381 -0.17964338822667961 0 -0.018472838120386938 -0.16450941630276031 0 0.0079046543420133591 -0.16440801616877129 0 -0.0026331348495214381 -0.17964338822667961 0 -0.028110825796704739 -0.18392609401925711 0 -0.028110825796704739 -0.18392609401925711 0 -0.018472838120386938 -0.16450941630276031 0 -0.040135079069643753 -0.17179534645977651 0 -0.0026331348495214381 -0.17964338822667961 0 -0.028110825796704739 -0.18392609401925711 0 -0.018472838120386938 -0.16450941630276031 0 -0.0026331348495214381 -0.17964338822667961 0 -0.028110825796704739 -0.18392609401925711 0 -0.017600433510891082 -0.1945295728945102 0 -0.028776094212841389 -0.146690803341917 0 -0.018472838120386938 -0.16450941630276031 0 -0.03950515838417009 -0.1577167067866623 0 -0.018472838120386938 -0.16450941630276031 0 -0.040135079069643753 -0.17179534645977651 0 -0.03950515838417009 -0.1577167067866623 0 -0.040135079069643753 -0.17179534645977651 0 -0.052159332342583208 -0.1596645989002963 0 -0.040135079069643753 -0.17179534645977651 0 -0.03950515838417009 -0.1577167067866623 0 -0.052159332342583208 -0.1596645989002963 0 -0.028110825796704739 -0.18392609401925711 0 -0.054068469804083308 -0.18828947814941949 0 -0.028110825796704739 -0.18392609401925711 0 -0.040135079069643753 -0.17179534645977651 0 -0.054068469804083308 -0.18828947814941949 0 -0.028110825796704739 -0.18392609401925711 0 -0.040135079069643753 -0.17179534645977651 0 -0.040135079069643753 -0.17179534645977651 0 -0.061820852391367018 -0.17181966013959499 0 -0.054068469804083308 -0.18828947814941949 0 -0.040135079069643753 -0.17179534645977651 0 -0.052159332342583208 -0.1596645989002963 0 -0.061820852391367018 -0.17181966013959499 0 -0.052159332342583208 -0.1596645989002963 0 -0.061820852391367018 -0.17181966013959499 0 -0.061418771746677432 -0.1578521400882166 0 -0.052159332342583208 -0.1596645989002963 0 -0.061418771746677432 -0.1578521400882166 0 -0.058399815617928903 -0.14681249464509261 0 -0.03950515838417009 -0.1577167067866623 0 -0.052159332342583208 -0.1596645989002963 0 -0.058399815617928903 -0.14681249464509261 0 -0.058399815617928903 -0.14681249464509261 0 -0.057582960438171793 -0.13130499554637179 0 -0.065698609619951526 -0.13778827336378421 0 -0.058399815617928903 -0.14681249464509261 0 -0.057582960438171793 -0.13130499554637179 0 -0.042970154091505113 -0.1307372619221103 0 -0.058259027341881688 -0.1158296405690406 0 -0.057582960438171793 -0.13130499554637179 0 -0.042970154091505113 -0.1307372619221103 0 -0.023293335426071982 -0.11763004452235649 0 -0.028776094212841389 -0.146690803341917 0 -0.042970154091505113 -0.1307372619221103 0 -0.028776094212841389 -0.146690803341917 0 -0.058399815617928903 -0.14681249464509261 0 -0.042970154091505113 -0.1307372619221103 0 -0.028776094212841389 -0.146690803341917 0 -0.03950515838417009 -0.1577167067866623 0 -0.058399815617928903 -0.14681249464509261 0 -0.028776094212841389 -0.146690803341917 0 -0.058399815617928903 -0.14681249464509261 0 -0.030258962198398999 -0.25024490698356061 0 -0.015096143413475319 -0.24392601066732389 0 -0.024454971105695091 -0.23112094332367011 0 -0.030258962198398999 -0.25024490698356061 0 -0.015096143413475319 -0.24392601066732389 0 -0.015096143413475319 -0.24392601066732389 0 0.001002636242770817 -0.2476214239520933 0 6.6675371447742771e-05 -0.2376071143510857 0 -0.015096143413475319 -0.24392601066732389 0 -0.0049798415012361477 -0.2285224919532845 0 -0.024454971105695091 -0.23112094332367011 0 -0.015096143413475319 -0.24392601066732389 0 6.6675371447742771e-05 -0.2376071143510857 0 -0.015096143413475319 -0.24392601066732389 0 -0.0049798415012361477 -0.2285224919532845 0 6.6675371447742771e-05 -0.2376071143510857 0 -0.0049798415012361477 -0.2285224919532845 0 -0.024454971105695091 -0.23112094332367011 0 -0.009562854976084556 -0.21821496082468619 0 -0.0049798415012361477 -0.2285224919532845 0 6.6675371447742771e-05 -0.2376071143510857 0 0.0034097270499151649 -0.23211242673024021 0 -0.0049798415012361477 -0.2285224919532845 0 -0.001800744778070993 -0.2222387047670854 0 0.0037958381253691388 -0.226356213423825 0 -0.0049798415012361477 -0.2285224919532845 0 -0.001800744778070993 -0.2222387047670854 0 -0.009562854976084556 -0.21821496082468619 0 -0.001800744778070993 -0.2222387047670854 0 -0.009562854976084556 -0.21821496082468619 0 0.0035438792396675911 -0.215861152866546 0 -0.024454971105695091 -0.23112094332367011 0 -0.009562854976084556 -0.21821496082468619 0 -0.036674901946808711 -0.21255843818173509 0 -0.009562854976084556 -0.21821496082468619 0 -0.012283473278518401 -0.19989362344290129 0 -0.027931788179426771 -0.19957659596617849 0 -0.009562854976084556 -0.21821496082468619 0 -0.027931788179426771 -0.19957659596617849 0 -0.036674901946808711 -0.21255843818173509 0 -0.009562854976084556 -0.21821496082468619 0 -0.036674901946808711 -0.21255843818173509 0 -0.012283473278518401 -0.19989362344290129 0 0.0035438792396675911 -0.215861152866546 0 -0.009562854976084556 -0.21821496082468619 0 -0.012283473278518401 -0.19989362344290129 0 0.0035438792396675911 -0.215861152866546 0 -0.012283473278518401 -0.19989362344290129 0 0.0051413943394210959 -0.20564009610296011 0 0.0035438792396675911 -0.215861152866546 0 -0.00223065776861801 -0.1943155930565372 0 -0.017600433510891082 -0.1945295728945102 0 0.0051413943394210959 -0.20564009610296011 0 -0.012283473278518401 -0.19989362344290129 0 -0.017600433510891082 -0.1945295728945102 0 0.0051413943394210959 -0.20564009610296011 0 -0.017600433510891082 -0.1945295728945102 0 0.0051413943394210959 -0.20564009610296011 0 -0.012283473278518401 -0.19989362344290129 0 -0.017600433510891082 -0.1945295728945102 0 -0.0026331348495214381 -0.17964338822667961 0 -0.00223065776861801 -0.1943155930565372 0 -0.017600433510891082 -0.1945295728945102 0 -0.012283473278518401 -0.19989362344290129 0 -0.017600433510891082 -0.1945295728945102 0 -0.027931788179426771 -0.19957659596617849 0 -0.028110825796704739 -0.18392609401925711 0 -0.017600433510891082 -0.1945295728945102 0 -0.027931788179426771 -0.19957659596617849 0 -0.028110825796704739 -0.18392609401925711 0 -0.017600433510891082 -0.1945295728945102 0 -0.028110825796704739 -0.18392609401925711 0 -0.042114586928911291 -0.1982505043710748 0 -0.054068469804083308 -0.18828947814941949 0 -0.028110825796704739 -0.18392609401925711 0 -0.027931788179426771 -0.19957659596617849 0 -0.042114586928911291 -0.1982505043710748 0 -0.042114586928911291 -0.1982505043710748 0 -0.054068469804083308 -0.18828947814941949 0 -0.063786948917532962 -0.20690191553878401 0 -0.036674901946808711 -0.21255843818173509 0 -0.063786948917532962 -0.20690191553878401 0 -0.036674901946808711 -0.21255843818173509 0 -0.055618211095426487 -0.2191882704538993 0 -0.063786948917532962 -0.20690191553878401 0 -0.042114586928911291 -0.1982505043710748 0 -0.036674901946808711 -0.21255843818173509 0 -0.063786948917532962 -0.20690191553878401 0 -0.027931788179426771 -0.19957659596617849 0 -0.042114586928911291 -0.1982505043710748 0 -0.036674901946808711 -0.21255843818173509 0 -0.024454971105695091 -0.23112094332367011 0 -0.036674901946808711 -0.21255843818173509 0 -0.050472306761683662 -0.23391173562098311 0 -0.036674901946808711 -0.21255843818173509 0 -0.050472306761683662 -0.23391173562098311 0 -0.055618211095426487 -0.2191882704538993 0 -0.050472306761683662 -0.23391173562098311 0 -0.070685651324970525 -0.21757856425840821 0 -0.050472306761683662 -0.23391173562098311 0 -0.055618211095426487 -0.2191882704538993 0 -0.070685651324970525 -0.21757856425840821 0 -0.050472306761683662 -0.23391173562098311 0 -0.063933618743594392 -0.23909247179508131 0 -0.070685651324970525 -0.21757856425840821 0 -0.049421748191657872 -0.25823073465447438 0 -0.063933618743594392 -0.23909247179508131 0 -0.049421748191657872 -0.25823073465447438 0 -0.050472306761683662 -0.23391173562098311 0 -0.063933618743594392 -0.23909247179508131 0 -0.030258962198398999 -0.25024490698356061 0 -0.050472306761683662 -0.23391173562098311 0 -0.030258962198398999 -0.25024490698356061 0 -0.024454971105695091 -0.23112094332367011 0 -0.050472306761683662 -0.23391173562098311 0 -0.049421748191657872 -0.25823073465447438 0 -0.030258962198398999 -0.25024490698356061 0 -0.050472306761683662 -0.23391173562098311 0 -0.085946164471186026 -0.25424244442140992 0 -0.091429839638279581 -0.23626048501933339 0 -0.063933618743594392 -0.23909247179508131 0 -0.063933618743594392 -0.23909247179508131 0 -0.078445489295531565 -0.21995420893568879 0 -0.063933618743594392 -0.23909247179508131 0 -0.078445489295531565 -0.21995420893568879 0 -0.070685651324970525 -0.21757856425840821 0 -0.091429839638279581 -0.23626048501933339 0 -0.063933618743594392 -0.23909247179508131 0 -0.078445489295531565 -0.21995420893568879 0 -0.091429839638279581 -0.23626048501933339 0 -0.078445489295531565 -0.21995420893568879 0 -0.099793012416592219 -0.2234217956546998 0 -0.078445489295531565 -0.21995420893568879 0 -0.092957359847468585 -0.20081594607629619 0 -0.099626914383013992 -0.21086592318999131 0 -0.078445489295531565 -0.21995420893568879 0 -0.099626914383013992 -0.21086592318999131 0 -0.099793012416592219 -0.2234217956546998 0 -0.078445489295531565 -0.21995420893568879 0 -0.09089899588825727 -0.20124539289583299 0 -0.092957359847468585 -0.20081594607629619 0 -0.078445489295531565 -0.21995420893568879 0 -0.092957359847468585 -0.20081594607629619 0 -0.078445489295531565 -0.21995420893568879 0 -0.070685651324970525 -0.21757856425840821 0 -0.09089899588825727 -0.20124539289583299 0 -0.070685651324970525 -0.21757856425840821 0 -0.09089899588825727 -0.20124539289583299 0 -0.063786948917532962 -0.20690191553878401 0 -0.09089899588825727 -0.20124539289583299 0 -0.070685651324970525 -0.21757856425840821 0 -0.063786948917532962 -0.20690191553878401 0 -0.09089899588825727 -0.20124539289583299 0 -0.055618211095426487 -0.2191882704538993 0 -0.070685651324970525 -0.21757856425840821 0 -0.063786948917532962 -0.20690191553878401 0 -0.063786948917532962 -0.20690191553878401 0 -0.075048195930898023 -0.1930746551107394 0 -0.09089899588825727 -0.20124539289583299 0 -0.054068469804083308 -0.18828947814941949 0 -0.063786948917532962 -0.20690191553878401 0 -0.075048195930898023 -0.1930746551107394 0 -0.075048195930898023 -0.1930746551107394 0 -0.085343947221851957 -0.1934300606576497 0 -0.09089899588825727 -0.20124539289583299 0 -0.085343947221851957 -0.1934300606576497 0 -0.09089899588825727 -0.20124539289583299 0 -0.092661102325423683 -0.1932310749331175 0 -0.09089899588825727 -0.20124539289583299 0 -0.092957359847468585 -0.20081594607629619 0 -0.092661102325423683 -0.1932310749331175 0 -0.09089899588825727 -0.20124539289583299 0 -0.092957359847468585 -0.20081594607629619 0 -0.085343947221851957 -0.1934300606576497 0 -0.092661102325423683 -0.1932310749331175 0 -0.088822991632564741 -0.1836029539575155 0 -0.092957359847468585 -0.20081594607629619 0 -0.092661102325423683 -0.1932310749331175 0 -0.10576439063765709 -0.18392602683165149 0 -0.092957359847468585 -0.20081594607629619 0 -0.10576439063765709 -0.18392602683165149 0 -0.092957359847468585 -0.20081594607629619 0 -0.10627517643349051 -0.1895158333490122 0 -0.10576439063765709 -0.18392602683165149 0 -0.092957359847468585 -0.20081594607629619 0 -0.1032568518600548 -0.1986671112855109 0 -0.092957359847468585 -0.20081594607629619 0 -0.1032568518600548 -0.1986671112855109 0 -0.10627517643349051 -0.1895158333490122 0 -0.1032568518600548 -0.1986671112855109 0 -0.11399839955051259 -0.19698127294328871 0 -0.1100984799513402 -0.206092288943827 0 -0.1032568518600548 -0.1986671112855109 0 -0.10627517643349051 -0.1895158333490122 0 -0.11399839955051259 -0.19698127294328871 0 -0.11433042648821309 -0.1895876984183705 0 -0.1207267468035822 -0.18875657531459769 0 -0.11399839955051259 -0.19698127294328871 0 -0.10627517643349051 -0.1895158333490122 0 -0.11433042648821309 -0.1895876984183705 0 -0.11399839955051259 -0.19698127294328871 0 -0.1207267468035822 -0.18875657531459769 0 -0.11399839955051259 -0.19698127294328871 0 -0.12593165599190059 -0.19965710542283349 0 -0.11399839955051259 -0.19698127294328871 0 -0.1208038108430409 -0.20820852192257669 0 -0.12593165599190059 -0.19965710542283349 0 -0.1100984799513402 -0.206092288943827 0 -0.1208038108430409 -0.20820852192257669 0 -0.1128892284524087 -0.21715406913128091 0 -0.11399839955051259 -0.19698127294328871 0 -0.1100984799513402 -0.206092288943827 0 -0.1208038108430409 -0.20820852192257669 0 -0.1208038108430409 -0.20820852192257669 0 -0.1128892284524087 -0.21715406913128091 0 -0.12559206385880539 -0.22291903087034021 0 -0.1100984799513402 -0.206092288943827 0 -0.1128892284524087 -0.21715406913128091 0 -0.099626914383013992 -0.21086592318999131 0 -0.1128892284524087 -0.21715406913128091 0 -0.099626914383013992 -0.21086592318999131 0 -0.099793012416592219 -0.2234217956546998 0 -0.1032568518600548 -0.1986671112855109 0 -0.1100984799513402 -0.206092288943827 0 -0.099626914383013992 -0.21086592318999131 0 -0.092957359847468585 -0.20081594607629619 0 -0.1032568518600548 -0.1986671112855109 0 -0.099626914383013992 -0.21086592318999131 0 -0.091429839638279581 -0.23626048501933339 0 -0.099793012416592219 -0.2234217956546998 0 -0.1138353769378945 -0.2356475333400759 0 -0.1128892284524087 -0.21715406913128091 0 -0.099793012416592219 -0.2234217956546998 0 -0.1138353769378945 -0.2356475333400759 0 -0.1128892284524087 -0.21715406913128091 0 -0.1138353769378945 -0.2356475333400759 0 -0.12559206385880539 -0.22291903087034021 0 -0.1138353769378945 -0.2356475333400759 0 -0.12970658661291981 -0.24250230616980631 0 -0.12559206385880539 -0.22291903087034021 0 -0.11909235651462161 -0.25872517098502051 0 -0.1138353769378945 -0.2356475333400759 0 -0.1040618486071499 -0.24803735084787901 0 -0.11909235651462161 -0.25872517098502051 0 -0.1138353769378945 -0.2356475333400759 0 -0.12970658661291981 -0.24250230616980631 0 -0.085946164471186026 -0.25424244442140992 0 -0.091429839638279581 -0.23626048501933339 0 -0.1040618486071499 -0.24803735084787901 0 -0.091429839638279581 -0.23626048501933339 0 -0.1138353769378945 -0.2356475333400759 0 -0.1040618486071499 -0.24803735084787901 0 -0.087188802137949134 -0.14515593451520539 0 -0.081842935405833914 -0.1379062742199523 0 -0.073232502483120299 -0.13968304861446171 0 -0.098357256145280986 -0.1249743301371234 0 -0.087188802137949134 -0.14515593451520539 0 -0.086054719853455378 -0.13134723523105879 0 -0.098357256145280986 -0.1249743301371234 0 -0.087714450618503192 -0.15081040978725729 0 -0.087188802137949134 -0.14515593451520539 0 -0.098357256145280986 -0.1249743301371234 0 -0.087714450618503192 -0.15081040978725729 0 -0.078265588891665988 -0.1183520873834991 0 -0.086054719853455378 -0.13134723523105879 0 -0.072203733128623937 -0.13100593580747641 0 -0.086054719853455378 -0.13134723523105879 0 -0.081842935405833914 -0.1379062742199523 0 -0.072203733128623937 -0.13100593580747641 0 -0.087188802137949134 -0.14515593451520539 0 -0.086054719853455378 -0.13134723523105879 0 -0.081842935405833914 -0.1379062742199523 0 -0.073232502483120299 -0.13968304861446171 0 -0.072203733128623937 -0.13100593580747641 0 -0.065698609619951526 -0.13778827336378421 0 -0.081842935405833914 -0.1379062742199523 0 -0.073232502483120299 -0.13968304861446171 0 -0.072203733128623937 -0.13100593580747641 0 -0.058259027341881688 -0.1158296405690406 0 -0.057582960438171793 -0.13130499554637179 0 -0.072203733128623937 -0.13100593580747641 0 -0.057582960438171793 -0.13130499554637179 0 -0.072203733128623937 -0.13100593580747641 0 -0.065698609619951526 -0.13778827336378421 0 -0.058399815617928903 -0.14681249464509261 0 -0.087714450618503192 -0.15081040978725729 0 -0.058399815617928903 -0.14681249464509261 0 -0.073232502483120299 -0.13968304861446171 0 -0.065698609619951526 -0.13778827336378421 0 -0.058399815617928903 -0.14681249464509261 0 -0.087188802137949134 -0.14515593451520539 0 -0.073232502483120299 -0.13968304861446171 0 -0.058399815617928903 -0.14681249464509261 0 -0.087714450618503192 -0.15081040978725729 0 -0.071816090021077084 -0.15791137658148111 0 -0.058399815617928903 -0.14681249464509261 0 -0.087714450618503192 -0.15081040978725729 0 -0.087188802137949134 -0.14515593451520539 0 -0.058399815617928903 -0.14681249464509261 0 -0.087188802137949134 -0.14515593451520539 0 -0.061418771746677432 -0.1578521400882166 0 -0.058399815617928903 -0.14681249464509261 0 -0.071816090021077084 -0.15791137658148111 0 -0.061820852391367018 -0.17181966013959499 0 -0.061418771746677432 -0.1578521400882166 0 -0.071816090021077084 -0.15791137658148111 0 -0.061820852391367018 -0.17181966013959499 0 -0.071816090021077084 -0.15791137658148111 0 -0.078100027824606399 -0.174150025687236 0 -0.061820852391367018 -0.17181966013959499 0 -0.075048195930898023 -0.1930746551107394 0 -0.078100027824606399 -0.174150025687236 0 -0.061820852391367018 -0.17181966013959499 0 -0.054068469804083308 -0.18828947814941949 0 -0.075048195930898023 -0.1930746551107394 0 -0.075048195930898023 -0.1930746551107394 0 -0.085343947221851957 -0.1934300606576497 0 -0.078100027824606399 -0.174150025687236 0 -0.085343947221851957 -0.1934300606576497 0 -0.078100027824606399 -0.174150025687236 0 -0.088822991632564741 -0.1836029539575155 0 -0.078100027824606399 -0.174150025687236 0 -0.08979447329133855 -0.17483323097556239 0 -0.088822991632564741 -0.1836029539575155 0 -0.092661102325423683 -0.1932310749331175 0 -0.088822991632564741 -0.1836029539575155 0 -0.095626443648086368 -0.18216237399726681 0 -0.08979447329133855 -0.17483323097556239 0 -0.088822991632564741 -0.1836029539575155 0 -0.095626443648086368 -0.18216237399726681 0 -0.087714450618503192 -0.15081040978725729 0 -0.071816090021077084 -0.15791137658148111 0 -0.078100027824606399 -0.174150025687236 0 -0.087714450618503192 -0.15081040978725729 0 -0.078100027824606399 -0.174150025687236 0 -0.087714450618503192 -0.15081040978725729 0 -0.078100027824606399 -0.174150025687236 0 -0.091501519531596229 -0.16568344529978701 0 -0.078100027824606399 -0.174150025687236 0 -0.08979447329133855 -0.17483323097556239 0 -0.091501519531596229 -0.16568344529978701 0 -0.08979447329133855 -0.17483323097556239 0 -0.091501519531596229 -0.16568344529978701 0 -0.098583698942545761 -0.16857126245218079 0 -0.087714450618503192 -0.15081040978725729 0 -0.091501519531596229 -0.16568344529978701 0 -0.1002331349810444 -0.16095070808087311 0 -0.098583698942545761 -0.16857126245218079 0 -0.10463475483845611 -0.1660644098959167 0 -0.1010892603534477 -0.17521858328848711 0 -0.091501519531596229 -0.16568344529978701 0 -0.1002331349810444 -0.16095070808087311 0 -0.098583698942545761 -0.16857126245218079 0 -0.1002331349810444 -0.16095070808087311 0 -0.098583698942545761 -0.16857126245218079 0 -0.10463475483845611 -0.1660644098959167 0 -0.1078247963758978 -0.16704294146427659 0 -0.1010892603534477 -0.17521858328848711 0 -0.11511452479080569 -0.16595969427384799 0 -0.10463475483845611 -0.1660644098959167 0 -0.1078247963758978 -0.16704294146427659 0 -0.1010892603534477 -0.17521858328848711 0 -0.1010892603534477 -0.17521858328848711 0 -0.11511452479080569 -0.16595969427384799 0 -0.10463475483845611 -0.1660644098959167 0 -0.1078247963758978 -0.16704294146427659 0 -0.1104606455208815 -0.16092907839885459 0 -0.1002331349810444 -0.16095070808087311 0 -0.10463475483845611 -0.1660644098959167 0 -0.1104606455208815 -0.16092907839885459 0 -0.1002331349810444 -0.16095070808087311 0 -0.1104606455208815 -0.16092907839885459 0 -0.1085037404342835 -0.15364564265124259 0 -0.1010892603534477 -0.17521858328848711 0 -0.10576439063765709 -0.18392602683165149 0 -0.11511452479080569 -0.16595969427384799 0 -0.092661102325423683 -0.1932310749331175 0 -0.095626443648086368 -0.18216237399726681 0 -0.10576439063765709 -0.18392602683165149 0 -0.095626443648086368 -0.18216237399726681 0 -0.1010892603534477 -0.17521858328848711 0 -0.10576439063765709 -0.18392602683165149 0 -0.08979447329133855 -0.17483323097556239 0 -0.095626443648086368 -0.18216237399726681 0 -0.1010892603534477 -0.17521858328848711 0 -0.08979447329133855 -0.17483323097556239 0 -0.098583698942545761 -0.16857126245218079 0 -0.1010892603534477 -0.17521858328848711 0 -0.10576439063765709 -0.18392602683165149 0 -0.11511452479080569 -0.16595969427384799 0 -0.11857142142784539 -0.1670361075870066 0 -0.10576439063765709 -0.18392602683165149 0 -0.11770748283082701 -0.17310831930411039 0 -0.11857142142784539 -0.1670361075870066 0 -0.10576439063765709 -0.18392602683165149 0 -0.11857142142784539 -0.1670361075870066 0 -0.10627517643349051 -0.1895158333490122 0 -0.10576439063765709 -0.18392602683165149 0 -0.11770748283082701 -0.17310831930411039 0 -0.10627517643349051 -0.1895158333490122 0 -0.1163213831652673 -0.18309711206658369 0 -0.11770748283082701 -0.17310831930411039 0 -0.10627517643349051 -0.1895158333490122 0 -0.11770748283082701 -0.17310831930411039 0 -0.10627517643349051 -0.1895158333490122 0 -0.11433042648821309 -0.1895876984183705 0 -0.1163213831652673 -0.18309711206658369 0 -0.11433042648821309 -0.1895876984183705 0 -0.1207267468035822 -0.18875657531459769 0 -0.1163213831652673 -0.18309711206658369 0 -0.11770748283082701 -0.17310831930411039 0 -0.12343237556044651 -0.1791236618178097 0 -0.12897329576219391 -0.17161489535535629 0 -0.1163213831652673 -0.18309711206658369 0 -0.11770748283082701 -0.17310831930411039 0 -0.12343237556044651 -0.1791236618178097 0 -0.1207267468035822 -0.18875657531459769 0 -0.1163213831652673 -0.18309711206658369 0 -0.12343237556044651 -0.1791236618178097 0 -0.11770748283082701 -0.17310831930411039 0 -0.11857142142784539 -0.1670361075870066 0 -0.12928055312758621 -0.15656846092296081 0 -0.1104606455208815 -0.16092907839885459 0 -0.1085037404342835 -0.15364564265124259 0 -0.12928055312758621 -0.15656846092296081 0 -0.11770748283082701 -0.17310831930411039 0 -0.12928055312758621 -0.15656846092296081 0 -0.1104606455208815 -0.16092907839885459 0 -0.11511452479080569 -0.16595969427384799 0 -0.12928055312758621 -0.15656846092296081 0 -0.1078247963758978 -0.16704294146427659 0 -0.1104606455208815 -0.16092907839885459 0 -0.11511452479080569 -0.16595969427384799 0 -0.11511452479080569 -0.16595969427384799 0 -0.11857142142784539 -0.1670361075870066 0 -0.12928055312758621 -0.15656846092296081 0 -0.11511452479080569 -0.16595969427384799 0 -0.12928055312758621 -0.15656846092296081 0 -0.1206686247853231 -0.1416060808675581 0 -0.1085037404342835 -0.15364564265124259 0 -0.12928055312758621 -0.15656846092296081 0 -0.1085037404342835 -0.15364564265124259 0 -0.12928055312758621 -0.15656846092296081 0 -0.1206686247853231 -0.1416060808675581 0 -0.1085037404342835 -0.15364564265124259 0 -0.1101036066335533 -0.13468096795638701 0 -0.087714450618503192 -0.15081040978725729 0 -0.1085037404342835 -0.15364564265124259 0 -0.087714450618503192 -0.15081040978725729 0 -0.1085037404342835 -0.15364564265124259 0 -0.1011697634579052 -0.14102783763300261 0 -0.087714450618503192 -0.15081040978725729 0 -0.1002331349810444 -0.16095070808087311 0 -0.1085037404342835 -0.15364564265124259 0 -0.1085037404342835 -0.15364564265124259 0 -0.1011697634579052 -0.14102783763300261 0 -0.1101036066335533 -0.13468096795638701 0 -0.098357256145280986 -0.1249743301371234 0 -0.087714450618503192 -0.15081040978725729 0 -0.1011697634579052 -0.14102783763300261 0 -0.098357256145280986 -0.1249743301371234 0 -0.1011697634579052 -0.14102783763300261 0 -0.1101036066335533 -0.13468096795638701 0 -0.098357256145280986 -0.1249743301371234 0 -0.1163299610319649 -0.123559176195451 0 -0.1101036066335533 -0.13468096795638701 0 -0.1163299610319649 -0.123559176195451 0 -0.1206686247853231 -0.1416060808675581 0 -0.1101036066335533 -0.13468096795638701 0 -0.1163299610319649 -0.123559176195451 0 -0.1206686247853231 -0.1416060808675581 0 -0.12989010731622691 -0.13518549962976181 0 -0.12989010731622691 -0.13518549962976181 0 -0.13994524882091439 -0.14119293450523829 0 -0.13307603398775869 -0.124728085141914 0 -0.1163299610319649 -0.123559176195451 0 -0.12989010731622691 -0.13518549962976181 0 -0.13307603398775869 -0.124728085141914 0 -0.1206686247853231 -0.1416060808675581 0 -0.12989010731622691 -0.13518549962976181 0 -0.12994613351251269 -0.14363824398137981 0 -0.12989010731622691 -0.13518549962976181 0 -0.13994524882091439 -0.14119293450523829 0 -0.12994613351251269 -0.14363824398137981 0 -0.15059746739176519 -0.12590499349524931 0 -0.13994524882091439 -0.14119293450523829 0 -0.13307603398775869 -0.124728085141914 0 -0.15059746739176519 -0.12590499349524931 0 -0.15258203782876109 -0.14122521982437231 0 -0.1625300074857437 -0.1237110143843189 0 -0.15059746739176519 -0.12590499349524931 0 -0.13994524882091439 -0.14119293450523829 0 -0.15059746739176519 -0.12590499349524931 0 -0.15258203782876109 -0.14122521982437231 0 -0.13994524882091439 -0.14119293450523829 0 -0.14978309452402039 -0.15176397400257799 0 -0.12928055312758621 -0.15656846092296081 0 -0.15427733994330539 -0.1598882230751475 0 -0.14978309452402039 -0.15176397400257799 0 -0.15258203782876109 -0.14122521982437231 0 -0.12928055312758621 -0.15656846092296081 0 -0.15258203782876109 -0.14122521982437231 0 -0.12928055312758621 -0.15656846092296081 0 -0.14978309452402039 -0.15176397400257799 0 -0.15427733994330539 -0.1598882230751475 0 -0.16299244719642869 -0.1493739921878314 0 -0.14978309452402039 -0.15176397400257799 0 -0.15258203782876109 -0.14122521982437231 0 -0.16299244719642869 -0.1493739921878314 0 -0.13994524882091439 -0.14119293450523829 0 -0.12928055312758621 -0.15656846092296081 0 -0.15258203782876109 -0.14122521982437231 0 -0.13994524882091439 -0.14119293450523829 0 -0.12928055312758621 -0.15656846092296081 0 -0.13994524882091439 -0.14119293450523829 0 -0.12994613351251269 -0.14363824398137981 0 -0.12928055312758621 -0.15656846092296081 0 -0.1206686247853231 -0.1416060808675581 0 -0.12994613351251269 -0.14363824398137981 0 -0.12928055312758621 -0.15656846092296081 0 -0.11770748283082701 -0.17310831930411039 0 -0.12928055312758621 -0.15656846092296081 0 -0.12897329576219391 -0.17161489535535629 0 -0.12928055312758621 -0.15656846092296081 0 -0.12897329576219391 -0.17161489535535629 0 -0.13996265082933801 -0.16892615601871619 0 -0.1207267468035822 -0.18875657531459769 0 -0.12343237556044651 -0.1791236618178097 0 -0.1334261763581156 -0.1806486634438946 0 -0.12343237556044651 -0.1791236618178097 0 -0.12897329576219391 -0.17161489535535629 0 -0.1334261763581156 -0.1806486634438946 0 -0.12897329576219391 -0.17161489535535629 0 -0.13996265082933801 -0.16892615601871619 0 -0.1334261763581156 -0.1806486634438946 0 -0.13996265082933801 -0.16892615601871619 0 -0.1334261763581156 -0.1806486634438946 0 -0.14522263497675539 -0.18351705652622799 0 -0.1334261763581156 -0.1806486634438946 0 -0.14522263497675539 -0.18351705652622799 0 -0.14197073321563339 -0.1957488344643141 0 -0.13996265082933801 -0.16892615601871619 0 -0.14522263497675539 -0.18351705652622799 0 -0.15046896911535651 -0.17238768510890451 0 -0.15046896911535651 -0.17238768510890451 0 -0.1604539079308234 -0.1771212672353849 0 -0.15684184437151949 -0.1875643893614688 0 -0.14522263497675539 -0.18351705652622799 0 -0.15046896911535651 -0.17238768510890451 0 -0.15684184437151949 -0.1875643893614688 0 -0.15046896911535651 -0.17238768510890451 0 -0.15684184437151949 -0.1875643893614688 0 -0.12928055312758621 -0.15656846092296081 0 -0.13996265082933801 -0.16892615601871619 0 -0.15427733994330539 -0.1598882230751475 0 -0.12928055312758621 -0.15656846092296081 0 -0.15427733994330539 -0.1598882230751475 0 -0.13996265082933801 -0.16892615601871619 0 -0.15046896911535651 -0.17238768510890451 0 -0.15427733994330539 -0.1598882230751475 0 -0.15427733994330539 -0.1598882230751475 0 -0.1654727862997698 -0.16957197889308359 0 -0.1791125461850146 -0.16327523598151919 0 -0.15427733994330539 -0.1598882230751475 0 -0.1791125461850146 -0.16327523598151919 0 -0.15427733994330539 -0.1598882230751475 0 -0.1791125461850146 -0.16327523598151919 0 -0.16299244719642869 -0.1493739921878314 0 -0.1791125461850146 -0.16327523598151919 0 -0.16299244719642869 -0.1493739921878314 0 -0.15046896911535651 -0.17238768510890451 0 -0.15427733994330539 -0.1598882230751475 0 -0.1654727862997698 -0.16957197889308359 0 -0.17329189698004011 -0.17891234852347421 0 -0.15684184437151949 -0.1875643893614688 0 -0.17235621589061789 -0.19377782027673929 0 -0.1604539079308234 -0.1771212672353849 0 -0.17329189698004011 -0.17891234852347421 0 -0.15684184437151949 -0.1875643893614688 0 -0.15046896911535651 -0.17238768510890451 0 -0.1654727862997698 -0.16957197889308359 0 -0.1604539079308234 -0.1771212672353849 0 -0.1654727862997698 -0.16957197889308359 0 -0.17329189698004011 -0.17891234852347421 0 -0.17423584195823849 -0.17082098636968571 0 -0.1654727862997698 -0.16957197889308359 0 -0.1604539079308234 -0.1771212672353849 0 -0.17329189698004011 -0.17891234852347421 0 -0.17329189698004011 -0.17891234852347421 0 -0.18685526255632079 -0.19428176759774091 0 -0.18783881611278549 -0.17080037622795011 0 -0.18685526255632079 -0.19428176759774091 0 -0.18783881611278549 -0.17080037622795011 0 -0.17329189698004011 -0.17891234852347421 0 -0.17423584195823849 -0.17082098636968571 0 -0.1786197753090201 -0.1709522367756573 0 -0.17329189698004011 -0.17891234852347421 0 -0.1786197753090201 -0.1709522367756573 0 -0.18783881611278549 -0.17080037622795011 0 -0.18049009114655909 -0.15511192419795999 0 -0.18897883784324179 -0.14358345830127461 0 -0.18783881611278549 -0.17080037622795011 0 -0.18075501651061349 -0.16349923525645921 0 -0.18049009114655909 -0.15511192419795999 0 -0.18783881611278549 -0.17080037622795011 0 -0.1791125461850146 -0.16327523598151919 0 -0.18049009114655909 -0.15511192419795999 0 -0.1736264551639865 -0.15123721049010519 0 -0.1654727862997698 -0.16957197889308359 0 -0.1791125461850146 -0.16327523598151919 0 -0.17423584195823849 -0.17082098636968571 0 -0.1791125461850146 -0.16327523598151919 0 -0.17423584195823849 -0.17082098636968571 0 -0.1786197753090201 -0.1709522367756573 0 -0.1791125461850146 -0.16327523598151919 0 -0.18783881611278549 -0.17080037622795011 0 -0.1791125461850146 -0.16327523598151919 0 -0.1786197753090201 -0.1709522367756573 0 -0.18783881611278549 -0.17080037622795011 0 -0.1791125461850146 -0.16327523598151919 0 -0.18075501651061349 -0.16349923525645921 0 -0.18783881611278549 -0.17080037622795011 0 -0.1791125461850146 -0.16327523598151919 0 -0.18075501651061349 -0.16349923525645921 0 -0.18049009114655909 -0.15511192419795999 0 -0.1791125461850146 -0.16327523598151919 0 -0.18075501651061349 -0.16349923525645921 0 -0.1791125461850146 -0.16327523598151919 0 -0.1736264551639865 -0.15123721049010519 0 -0.16299244719642869 -0.1493739921878314 0 -0.18049009114655909 -0.15511192419795999 0 -0.1736264551639865 -0.15123721049010519 0 -0.17382577328999141 -0.14008992782601989 0 -0.18049009114655909 -0.15511192419795999 0 -0.17382577328999141 -0.14008992782601989 0 -0.18897883784324179 -0.14358345830127461 0 -0.17572194195592569 -0.12594922947996751 0 -0.17382577328999141 -0.14008992782601989 0 -0.18897883784324179 -0.14358345830127461 0 -0.17572194195592569 -0.12594922947996751 0 -0.18897883784324179 -0.14358345830127461 0 -0.19011885957369681 -0.11636654037459911 0 -0.15258203782876109 -0.14122521982437231 0 -0.17572194195592569 -0.12594922947996751 0 -0.1625300074857437 -0.1237110143843189 0 -0.15258203782876109 -0.14122521982437231 0 -0.17572194195592569 -0.12594922947996751 0 -0.15258203782876109 -0.14122521982437231 0 -0.17572194195592569 -0.12594922947996751 0 -0.17382577328999141 -0.14008992782601989 0 -0.15258203782876109 -0.14122521982437231 0 -0.17382577328999141 -0.14008992782601989 0 -0.16299244719642869 -0.1493739921878314 0 -0.1736264551639865 -0.15123721049010519 0 -0.17382577328999141 -0.14008992782601989 0 -0.16299244719642869 -0.1493739921878314 0 -0.14602906781309299 -0.2524494609216309 0 -0.14144006320921201 -0.2332810964588844 0 -0.15793527120409401 -0.23548593072109811 0 -0.14602906781309299 -0.2524494609216309 0 -0.15793527120409401 -0.23548593072109811 0 -0.14602906781309299 -0.2524494609216309 0 -0.12970658661291981 -0.24250230616980631 0 -0.14144006320921201 -0.2332810964588844 0 -0.12970658661291981 -0.24250230616980631 0 -0.12559206385880539 -0.22291903087034021 0 -0.14144006320921201 -0.2332810964588844 0 -0.12559206385880539 -0.22291903087034021 0 -0.14144006320921201 -0.2332810964588844 0 -0.14435919701013089 -0.2178113753076179 0 -0.14144006320921201 -0.2332810964588844 0 -0.14435919701013089 -0.2178113753076179 0 -0.15793527120409401 -0.23548593072109811 0 -0.14435919701013089 -0.2178113753076179 0 -0.1569892281374167 -0.21401700170662991 0 -0.15793527120409401 -0.23548593072109811 0 -0.14435919701013089 -0.2178113753076179 0 -0.14197073321563339 -0.1957488344643141 0 -0.1569892281374167 -0.21401700170662991 0 -0.14197073321563339 -0.1957488344643141 0 -0.16321471962768391 -0.20274109361403261 0 -0.1569892281374167 -0.21401700170662991 0 -0.14435919701013089 -0.2178113753076179 0 -0.13215858954673371 -0.20859032246939049 0 -0.14197073321563339 -0.1957488344643141 0 -0.12559206385880539 -0.22291903087034021 0 -0.14435919701013089 -0.2178113753076179 0 -0.13215858954673371 -0.20859032246939049 0 -0.1208038108430409 -0.20820852192257669 0 -0.12559206385880539 -0.22291903087034021 0 -0.13215858954673371 -0.20859032246939049 0 -0.1208038108430409 -0.20820852192257669 0 -0.13215858954673371 -0.20859032246939049 0 -0.12593165599190059 -0.19965710542283349 0 -0.1207267468035822 -0.18875657531459769 0 -0.14197073321563339 -0.1957488344643141 0 -0.1207267468035822 -0.18875657531459769 0 -0.1334261763581156 -0.1806486634438946 0 -0.14197073321563339 -0.1957488344643141 0 -0.1207267468035822 -0.18875657531459769 0 -0.12593165599190059 -0.19965710542283349 0 -0.14197073321563339 -0.1957488344643141 0 -0.13215858954673371 -0.20859032246939049 0 -0.12593165599190059 -0.19965710542283349 0 -0.14197073321563339 -0.1957488344643141 0 -0.14522263497675539 -0.18351705652622799 0 -0.14197073321563339 -0.1957488344643141 0 -0.15684184437151949 -0.1875643893614688 0 -0.14197073321563339 -0.1957488344643141 0 -0.15684184437151949 -0.1875643893614688 0 -0.16321471962768391 -0.20274109361403261 0 -0.14197073321563339 -0.1957488344643141 0 -0.16321471962768391 -0.20274109361403261 0 -0.15684184437151949 -0.1875643893614688 0 -0.16321471962768391 -0.20274109361403261 0 -0.16321471962768391 -0.20274109361403261 0 -0.17235621589061789 -0.19377782027673929 0 -0.17759570031793059 -0.20747445871146761 0 -0.15684184437151949 -0.1875643893614688 0 -0.16321471962768391 -0.20274109361403261 0 -0.17235621589061789 -0.19377782027673929 0 -0.17329189698004011 -0.17891234852347421 0 -0.17235621589061789 -0.19377782027673929 0 -0.18685526255632079 -0.19428176759774091 0 -0.18685526255632079 -0.19428176759774091 0 -0.18618426012284719 -0.21030130272812561 0 -0.18685526255632079 -0.19428176759774091 0 -0.17759570031793059 -0.20747445871146761 0 -0.17235621589061789 -0.19377782027673929 0 -0.18685526255632079 -0.19428176759774091 0 -0.17759570031793059 -0.20747445871146761 0 -0.18685526255632079 -0.19428176759774091 0 -0.17759570031793059 -0.20747445871146761 0 -0.18618426012284719 -0.21030130272812561 0 -0.18020897452078519 -0.21449975562020851 0 -0.16984147459509341 -0.2185224005205641 0 -0.18681554231970851 -0.2193565134265931 0 -0.17759570031793059 -0.20747445871146761 0 -0.18618426012284719 -0.21030130272812561 0 -0.17759570031793059 -0.20747445871146761 0 -0.18618426012284719 -0.21030130272812561 0 -0.18020897452078519 -0.21449975562020851 0 -0.18618426012284719 -0.21030130272812561 0 -0.18020897452078519 -0.21449975562020851 0 -0.18681554231970851 -0.2193565134265931 0 -0.17759570031793059 -0.20747445871146761 0 -0.16984147459509341 -0.2185224005205641 0 -0.17759570031793059 -0.20747445871146761 0 -0.18020897452078519 -0.21449975562020851 0 -0.16984147459509341 -0.2185224005205641 0 -0.16321471962768391 -0.20274109361403261 0 -0.17759570031793059 -0.20747445871146761 0 -0.16984147459509341 -0.2185224005205641 0 -0.16321471962768391 -0.20274109361403261 0 -0.16984147459509341 -0.2185224005205641 0 -0.16321471962768391 -0.20274109361403261 0 -0.16984147459509341 -0.2185224005205641 0 -0.1569892281374167 -0.21401700170662991 0 -0.16321471962768391 -0.20274109361403261 0 -0.17759570031793059 -0.20747445871146761 0 -0.16984147459509341 -0.2185224005205641 0 -0.15793527120409401 -0.23548593072109811 0 -0.16984147459509341 -0.2185224005205641 0 -0.1811833936331812 -0.24553265005136821 0 -0.15793527120409401 -0.23548593072109811 0 -0.16984147459509341 -0.2185224005205641 0 -0.1569892281374167 -0.21401700170662991 0 -0.15793527120409401 -0.23548593072109811 0 -0.16984147459509341 -0.2185224005205641 0 -0.18681554231970851 -0.2193565134265931 0 -0.19108884221009359 -0.22947310169577079 0 -0.16984147459509341 -0.2185224005205641 0 -0.1811833936331812 -0.24553265005136821 0 -0.19108884221009359 -0.22947310169577079 0 -0.16984147459509341 -0.2185224005205641 0 -0.1811833936331812 -0.24553265005136821 0 -0.16530193415478339 -0.25707584513117598 0 -0.1811833936331812 -0.24553265005136821 0 -0.15793527120409401 -0.23548593072109811 0 -0.16530193415478339 -0.25707584513117598 0 -0.14602906781309299 -0.2524494609216309 0 -0.15793527120409401 -0.23548593072109811 0 -0.22211438525390581 -0.26831731389415958 0 -0.20599693829385629 -0.2419653887585361 0 -0.22719251964397941 -0.23902000411637531 0 -0.1811833936331812 -0.24553265005136821 0 -0.20599693829385629 -0.2419653887585361 0 -0.19108884221009359 -0.22947310169577079 0 -0.20599693829385629 -0.2419653887585361 0 -0.19108884221009359 -0.22947310169577079 0 -0.20468612492246979 -0.21639101823267759 0 -0.18681554231970851 -0.2193565134265931 0 -0.19108884221009359 -0.22947310169577079 0 -0.20468612492246979 -0.21639101823267759 0 -0.20468612492246979 -0.21639101823267759 0 -0.22318798972209211 -0.22248073373723029 0 -0.20599693829385629 -0.2419653887585361 0 -0.20468612492246979 -0.21639101823267759 0 -0.22318798972209211 -0.22248073373723029 0 -0.20468612492246979 -0.21639101823267759 0 -0.22272096324176591 -0.200881161192771 0 -0.22318798972209211 -0.22248073373723029 0 -0.20468612492246979 -0.21639101823267759 0 -0.2007340842187503 -0.2011390809651481 0 -0.22272096324176591 -0.200881161192771 0 -0.18618426012284719 -0.21030130272812561 0 -0.18681554231970851 -0.2193565134265931 0 -0.20468612492246979 -0.21639101823267759 0 -0.18618426012284719 -0.21030130272812561 0 -0.20468612492246979 -0.21639101823267759 0 -0.2007340842187503 -0.2011390809651481 0 -0.18618426012284719 -0.21030130272812561 0 -0.20468612492246979 -0.21639101823267759 0 -0.18685526255632079 -0.19428176759774091 0 -0.18618426012284719 -0.21030130272812561 0 -0.2007340842187503 -0.2011390809651481 0 -0.18685526255632079 -0.19428176759774091 0 -0.2007340842187503 -0.2011390809651481 0 -0.1987972984150258 -0.19113746854611779 0 -0.18685526255632079 -0.19428176759774091 0 -0.1987972984150258 -0.19113746854611779 0 -0.1974929101760991 -0.17912563001679691 0 -0.2007340842187503 -0.2011390809651481 0 -0.1987972984150258 -0.19113746854611779 0 -0.21010693670893199 -0.19000339560478449 0 -0.2007340842187503 -0.2011390809651481 0 -0.21010693670893199 -0.19000339560478449 0 -0.22272096324176591 -0.200881161192771 0 -0.21010693670893199 -0.19000339560478449 0 -0.22272096324176591 -0.200881161192771 0 -0.21010693670893199 -0.19000339560478449 0 -0.22272096324176591 -0.200881161192771 0 -0.22234546179417211 -0.18694646352342981 0 -0.22272096324176591 -0.200881161192771 0 -0.2346937578683187 -0.19096007793409209 0 -0.23546499137590221 -0.20615095869496661 0 -0.22272096324176591 -0.200881161192771 0 -0.2346937578683187 -0.19096007793409209 0 -0.22234546179417211 -0.18694646352342981 0 -0.2346937578683187 -0.19096007793409209 0 -0.23546499137590221 -0.20615095869496661 0 -0.25068167248394618 -0.20133368871448479 0 -0.2346937578683187 -0.19096007793409209 0 -0.24847591378357781 -0.17821474295514911 0 -0.25068167248394618 -0.20133368871448479 0 -0.23546499137590221 -0.20615095869496661 0 -0.24121165492318089 -0.22016302729097401 0 -0.25068167248394618 -0.20133368871448479 0 -0.23546499137590221 -0.20615095869496661 0 -0.22318798972209211 -0.22248073373723029 0 -0.24121165492318089 -0.22016302729097401 0 -0.22272096324176591 -0.200881161192771 0 -0.23546499137590221 -0.20615095869496661 0 -0.22318798972209211 -0.22248073373723029 0 -0.22318798972209211 -0.22248073373723029 0 -0.24121165492318089 -0.22016302729097401 0 -0.22719251964397941 -0.23902000411637531 0 -0.24121165492318089 -0.22016302729097401 0 -0.24671946227842109 -0.23717817740282399 0 -0.26132111345228481 -0.21974888114761029 0 -0.24121165492318089 -0.22016302729097401 0 -0.24671946227842109 -0.23717817740282399 0 -0.22719251964397941 -0.23902000411637531 0 -0.25170345783653902 -0.26409172820614801 0 -0.24671946227842109 -0.23717817740282399 0 -0.22719251964397941 -0.23902000411637531 0 -0.20599693829385629 -0.2419653887585361 0 -0.22318798972209211 -0.22248073373723029 0 -0.22719251964397941 -0.23902000411637531 0 -0.20463816197534029 -0.1509420615954099 0 -0.23068225001878381 -0.14533397017488461 0 -0.20463816197534029 -0.1509420615954099 0 -0.21278612484664569 -0.1384884947808889 0 -0.23068225001878381 -0.14533397017488461 0 -0.20463816197534029 -0.1509420615954099 0 -0.21945219155247089 -0.15952661045252639 0 -0.23068225001878381 -0.14533397017488461 0 -0.20463816197534029 -0.1509420615954099 0 -0.21278612484664569 -0.1384884947808889 0 -0.19805874900468809 -0.14409050228006731 0 -0.21278612484664569 -0.1384884947808889 0 -0.22107728411407179 -0.13268782650796351 0 -0.20947417912034141 -0.11938811334611769 0 -0.21278612484664569 -0.1384884947808889 0 -0.19805874900468809 -0.14409050228006731 0 -0.20947417912034141 -0.11938811334611769 0 -0.19805874900468809 -0.14409050228006731 0 -0.20947417912034141 -0.11938811334611769 0 -0.1980452530449463 -0.12909543054589351 0 -0.19805874900468809 -0.14409050228006731 0 -0.20947417912034141 -0.11938811334611769 0 -0.18897883784324179 -0.14358345830127461 0 -0.19011885957369681 -0.11636654037459911 0 -0.1980452530449463 -0.12909543054589351 0 -0.18897883784324179 -0.14358345830127461 0 -0.19011885957369681 -0.11636654037459911 0 -0.1980452530449463 -0.12909543054589351 0 -0.18897883784324179 -0.14358345830127461 0 -0.19805874900468809 -0.14409050228006731 0 -0.18897883784324179 -0.14358345830127461 0 -0.19804270760591031 -0.15156616921746399 0 -0.19502343951579279 -0.15984333524465011 0 -0.18897883784324179 -0.14358345830127461 0 -0.19805874900468809 -0.14409050228006731 0 -0.19804270760591031 -0.15156616921746399 0 -0.20463816197534029 -0.1509420615954099 0 -0.19804270760591031 -0.15156616921746399 0 -0.20351434969048829 -0.15937148866591819 0 -0.20463816197534029 -0.1509420615954099 0 -0.19805874900468809 -0.14409050228006731 0 -0.19804270760591031 -0.15156616921746399 0 -0.18897883784324179 -0.14358345830127461 0 -0.18783881611278549 -0.17080037622795011 0 -0.19502343951579279 -0.15984333524465011 0 -0.18783881611278549 -0.17080037622795011 0 -0.20556521803231589 -0.16762449622880629 0 -0.18897883784324179 -0.14358345830127461 0 -0.19502343951579279 -0.15984333524465011 0 -0.18783881611278549 -0.17080037622795011 0 -0.19502343951579279 -0.15984333524465011 0 -0.20351434969048829 -0.15937148866591819 0 -0.20556521803231589 -0.16762449622880629 0 -0.19804270760591031 -0.15156616921746399 0 -0.19502343951579279 -0.15984333524465011 0 -0.20351434969048829 -0.15937148866591819 0 -0.18783881611278549 -0.17080037622795011 0 -0.1974929101760991 -0.17912563001679691 0 -0.20556521803231589 -0.16762449622880629 0 -0.18685526255632079 -0.19428176759774091 0 -0.18783881611278549 -0.17080037622795011 0 -0.1974929101760991 -0.17912563001679691 0 -0.18685526255632079 -0.19428176759774091 0 -0.1974929101760991 -0.17912563001679691 0 -0.18783881611278549 -0.17080037622795011 0 -0.1974929101760991 -0.17912563001679691 0 -0.1974929101760991 -0.17912563001679691 0 -0.20556521803231589 -0.16762449622880629 0 -0.1987972984150258 -0.19113746854611779 0 -0.21010693670893199 -0.19000339560478449 0 -0.1974929101760991 -0.17912563001679691 0 -0.1974929101760991 -0.17912563001679691 0 -0.21449801818360989 -0.17746192853182399 0 -0.20556521803231589 -0.16762449622880629 0 -0.21010693670893199 -0.19000339560478449 0 -0.1974929101760991 -0.17912563001679691 0 -0.21449801818360989 -0.17746192853182399 0 -0.21010693670893199 -0.19000339560478449 0 -0.1974929101760991 -0.17912563001679691 0 -0.21010693670893199 -0.19000339560478449 0 -0.21449801818360989 -0.17746192853182399 0 -0.22234546179417211 -0.18694646352342981 0 -0.20351434969048829 -0.15937148866591819 0 -0.20556521803231589 -0.16762449622880629 0 -0.21945219155247089 -0.15952661045252639 0 -0.21449801818360989 -0.17746192853182399 0 -0.20556521803231589 -0.16762449622880629 0 -0.21945219155247089 -0.15952661045252639 0 -0.20463816197534029 -0.1509420615954099 0 -0.20351434969048829 -0.15937148866591819 0 -0.21945219155247089 -0.15952661045252639 0 -0.21449801818360989 -0.17746192853182399 0 -0.21945219155247089 -0.15952661045252639 0 -0.22970763296823421 -0.1754257543536776 0 -0.21945219155247089 -0.15952661045252639 0 -0.22970763296823421 -0.1754257543536776 0 -0.23666172883935799 -0.16309053370841109 0 -0.21449801818360989 -0.17746192853182399 0 -0.22234546179417211 -0.18694646352342981 0 -0.22970763296823421 -0.1754257543536776 0 -0.2346937578683187 -0.19096007793409209 0 -0.22234546179417211 -0.18694646352342981 0 -0.22970763296823421 -0.1754257543536776 0 -0.2346937578683187 -0.19096007793409209 0 -0.22970763296823421 -0.1754257543536776 0 -0.24847591378357781 -0.17821474295514911 0 -0.22970763296823421 -0.1754257543536776 0 -0.24847591378357781 -0.17821474295514911 0 -0.23666172883935799 -0.16309053370841109 0 -0.24847591378357781 -0.17821474295514911 0 -0.23666172883935799 -0.16309053370841109 0 -0.25499065587372288 -0.15695159060581779 0 -0.23068225001878381 -0.14533397017488461 0 -0.25672633806222739 -0.13972587875435921 0 -0.23068225001878381 -0.14533397017488461 0 -0.25499065587372288 -0.15695159060581779 0 -0.25672633806222739 -0.13972587875435921 0 -0.23666172883935799 -0.16309053370841109 0 -0.23068225001878381 -0.14533397017488461 0 -0.25499065587372288 -0.15695159060581779 0 -0.21945219155247089 -0.15952661045252639 0 -0.23666172883935799 -0.16309053370841109 0 -0.23068225001878381 -0.14533397017488461 0 -0.23068225001878381 -0.14533397017488461 0 -0.22107728411407179 -0.13268782650796351 0 -0.23735960205357631 -0.12374132694359261 0 -0.22107728411407179 -0.13268782650796351 0 -0.23735960205357631 -0.12374132694359261 0 -0.20947417912034141 -0.11938811334611769 0 -0.21278612484664569 -0.1384884947808889 0 -0.23068225001878381 -0.14533397017488461 0 -0.22107728411407179 -0.13268782650796351 0 -0.23068225001878381 -0.14533397017488461 0 -0.23735960205357631 -0.12374132694359261 0 -0.25672633806222739 -0.13972587875435921 0 -0.23735960205357631 -0.12374132694359261 0 -0.24336404637896769 -0.1023238364360409 0 -0.25263928511127681 -0.1162041113613589 0 -0.23735960205357631 -0.12374132694359261 0 -0.24336404637896769 -0.1023238364360409 0 -0.2251010986971323 -0.1107761717752148 0 -0.24336404637896769 -0.1023238364360409 0 -0.2251010986971323 -0.1107761717752148 0 -0.2355036697073622 -0.090422455667487633 0 -0.2251010986971323 -0.1107761717752148 0 -0.2355036697073622 -0.090422455667487633 0 -0.22153284880108931 -0.093293787905746162 0 -0.23735960205357631 -0.12374132694359261 0 -0.2251010986971323 -0.1107761717752148 0 -0.20947417912034141 -0.11938811334611769 0 -0.23735960205357631 -0.12374132694359261 0 -0.20947417912034141 -0.11938811334611769 0 -0.24681093409504121 -0.081729115821102774 0 -0.25025782181110651 -0.061134395206163393 0 -0.2335915184818308 -0.067199462465371645 0 -0.25025782181110651 -0.061134395206163393 0 -0.24681093409504121 -0.081729115821102774 0 -0.2335915184818308 -0.067199462465371645 0 -0.25025782181110651 -0.061134395206163393 0 -0.24336404637896769 -0.1023238364360409 0 -0.24681093409504121 -0.081729115821102774 0 -0.25584364201564819 -0.087195777053497042 0 -0.24336404637896769 -0.1023238364360409 0 -0.24681093409504121 -0.081729115821102774 0 -0.24336404637896769 -0.1023238364360409 0 -0.2355036697073622 -0.090422455667487633 0 -0.24681093409504121 -0.081729115821102774 0 -0.2355036697073622 -0.090422455667487633 0 -0.24681093409504121 -0.081729115821102774 0 -0.2335915184818308 -0.067199462465371645 0 -0.2355036697073622 -0.090422455667487633 0 -0.22153284880108931 -0.093293787905746162 0 -0.2335915184818308 -0.067199462465371645 0 -0.22153284880108931 -0.093293787905746162 0 -0.2335915184818308 -0.067199462465371645 0 -0.22153284880108931 -0.093293787905746162 0 -0.2335915184818308 -0.067199462465371645 0 -0.20616894796332499 -0.077178864095660896 0 -0.2335915184818308 -0.067199462465371645 0 -0.20616894796332499 -0.077178864095660896 0 -0.21780939350966139 -0.061200981588623783 0 -0.2335915184818308 -0.067199462465371645 0 -0.20616894796332499 -0.077178864095660896 0 -0.20616894796332499 -0.077178864095660896 0 -0.2029652857560785 -0.058447192183165637 0 -0.21780939350966139 -0.061200981588623783 0 -0.20616894796332499 -0.077178864095660896 0 -0.2029652857560785 -0.058447192183165637 0 -0.22153284880108931 -0.093293787905746162 0 -0.20616894796332499 -0.077178864095660896 0 -0.21106347758017369 -0.1057969633266176 0 -0.20616894796332499 -0.077178864095660896 0 -0.21106347758017369 -0.1057969633266176 0 -0.20616894796332499 -0.077178864095660896 0 -0.191537263804158 -0.082503509086670368 0 -0.19082806168892691 -0.099435024730634702 0 -0.191537263804158 -0.082503509086670368 0 -0.19082806168892691 -0.099435024730634702 0 -0.20616894796332499 -0.077178864095660896 0 -0.191537263804158 -0.082503509086670368 0 -0.191537263804158 -0.082503509086670368 0 -0.19221591706992761 -0.066301317723375261 0 -0.20616894796332499 -0.077178864095660896 0 -0.19221591706992761 -0.066301317723375261 0 -0.2029652857560785 -0.058447192183165637 0 -0.20616894796332499 -0.077178864095660896 0 -0.191537263804158 -0.082503509086670368 0 -0.19221591706992761 -0.066301317723375261 0 -0.20947417912034141 -0.11938811334611769 0 -0.21106347758017369 -0.1057969633266176 0 -0.20079448570501751 -0.1114846439968628 0 -0.2251010986971323 -0.1107761717752148 0 -0.22153284880108931 -0.093293787905746162 0 -0.20947417912034141 -0.11938811334611769 0 -0.22153284880108931 -0.093293787905746162 0 -0.20947417912034141 -0.11938811334611769 0 -0.21106347758017369 -0.1057969633266176 0 -0.22153284880108931 -0.093293787905746162 0 -0.20947417912034141 -0.11938811334611769 0 -0.20616894796332499 -0.077178864095660896 0 -0.21106347758017369 -0.1057969633266176 0 -0.19082806168892691 -0.099435024730634702 0 -0.19082806168892691 -0.099435024730634702 0 -0.19011885957369681 -0.11636654037459911 0 -0.20079448570501751 -0.1114846439968628 0 -0.19082806168892691 -0.099435024730634702 0 -0.19011885957369681 -0.11636654037459911 0 -0.21106347758017369 -0.1057969633266176 0 -0.19082806168892691 -0.099435024730634702 0 -0.20079448570501751 -0.1114846439968628 0 -0.1980452530449463 -0.12909543054589351 0 -0.20947417912034141 -0.11938811334611769 0 -0.19011885957369681 -0.11636654037459911 0 -0.20947417912034141 -0.11938811334611769 0 -0.19011885957369681 -0.11636654037459911 0 -0.20079448570501751 -0.1114846439968628 0 -0.20947417912034141 -0.11938811334611769 0 -0.19011885957369681 -0.11636654037459911 0 -0.17572194195592569 -0.12594922947996751 0 -0.19011885957369681 -0.11636654037459911 0 -0.17462248327532121 -0.11394738983220069 0 -0.19011885957369681 -0.11636654037459911 0 -0.17462248327532121 -0.11394738983220069 0 -0.19011885957369681 -0.11636654037459911 0 -0.17462248327532121 -0.11394738983220069 0 -0.17821331330297779 -0.1009424286546271 0 -0.17572194195592569 -0.12594922947996751 0 -0.17462248327532121 -0.11394738983220069 0 -0.1625300074857437 -0.1237110143843189 0 -0.17462248327532121 -0.11394738983220069 0 -0.15912610697694529 -0.111528239289805 0 -0.1648917287570428 -0.1034218355033994 0 -0.17462248327532121 -0.11394738983220069 0 -0.15912610697694529 -0.111528239289805 0 -0.1625300074857437 -0.1237110143843189 0 -0.17462248327532121 -0.11394738983220069 0 -0.15912610697694529 -0.111528239289805 0 -0.15059746739176519 -0.12590499349524931 0 -0.15912610697694529 -0.111528239289805 0 -0.1625300074857437 -0.1237110143843189 0 -0.1648917287570428 -0.1034218355033994 0 -0.1680113346780428 -0.091064876275678733 0 -0.14448540555192699 -0.099626243464685391 0 -0.1648917287570428 -0.1034218355033994 0 -0.17821331330297779 -0.1009424286546271 0 -0.1680113346780428 -0.091064876275678733 0 -0.191537263804158 -0.082503509086670368 0 -0.19082806168892691 -0.099435024730634702 0 -0.17821331330297779 -0.1009424286546271 0 -0.19082806168892691 -0.099435024730634702 0 -0.19011885957369681 -0.11636654037459911 0 -0.17821331330297779 -0.1009424286546271 0 -0.17462248327532121 -0.11394738983220069 0 -0.1648917287570428 -0.1034218355033994 0 -0.17821331330297779 -0.1009424286546271 0 -0.191537263804158 -0.082503509086670368 0 -0.17690106900868399 -0.073775141062900368 0 -0.1680113346780428 -0.091064876275678733 0 -0.191537263804158 -0.082503509086670368 0 -0.1680113346780428 -0.091064876275678733 0 -0.191537263804158 -0.082503509086670368 0 -0.17821331330297779 -0.1009424286546271 0 -0.1680113346780428 -0.091064876275678733 0 -0.191537263804158 -0.082503509086670368 0 -0.19221591706992761 -0.066301317723375261 0 -0.17690106900868399 -0.073775141062900368 0 -0.19221591706992761 -0.066301317723375261 0 -0.17690106900868399 -0.073775141062900368 0 -0.1798874554803527 -0.055604559087165842 0 -0.17690106900868399 -0.073775141062900368 0 -0.16001328741186241 -0.071493597903663872 0 -0.1798874554803527 -0.055604559087165842 0 -0.16001328741186241 -0.071493597903663872 0 -0.1798874554803527 -0.055604559087165842 0 -0.16001328741186241 -0.071493597903663872 0 -0.1680113346780428 -0.091064876275678733 0 -0.148785910555081 -0.082637391040642494 0 -0.17690106900868399 -0.073775141062900368 0 -0.16001328741186241 -0.071493597903663872 0 -0.1680113346780428 -0.091064876275678733 0 -0.1680113346780428 -0.091064876275678733 0 -0.148785910555081 -0.082637391040642494 0 -0.14448540555192699 -0.099626243464685391 0 -0.148785910555081 -0.082637391040642494 0 -0.13495518705303231 -0.09005689600765894 0 -0.14448540555192699 -0.099626243464685391 0 -0.16001328741186241 -0.071493597903663872 0 -0.14646089017053021 -0.067146341956103445 0 -0.15353786659420129 -0.057829090106786371 0 -0.16001328741186241 -0.071493597903663872 0 -0.148785910555081 -0.082637391040642494 0 -0.14646089017053021 -0.067146341956103445 0 -0.148785910555081 -0.082637391040642494 0 -0.14646089017053021 -0.067146341956103445 0 -0.13559606247384451 -0.078630614297465831 0 -0.119642867198838 -0.073302170836856362 0 -0.14646089017053021 -0.067146341956103445 0 -0.119642867198838 -0.073302170836856362 0 -0.14646089017053021 -0.067146341956103445 0 -0.13351321382320669 -0.065598503146448148 0 -0.119642867198838 -0.073302170836856362 0 -0.14646089017053021 -0.067146341956103445 0 -0.13559606247384451 -0.078630614297465831 0 -0.1222659998279787 -0.066934351433516059 0 -0.13351321382320669 -0.065598503146448148 0 -0.119642867198838 -0.073302170836856362 0 -0.1222659998279787 -0.066934351433516059 0 -0.13351321382320669 -0.065598503146448148 0 -0.119642867198838 -0.073302170836856362 0 -0.13559606247384451 -0.078630614297465831 0 -0.127429446573081 -0.082462269219444884 0 -0.148785910555081 -0.082637391040642494 0 -0.13495518705303231 -0.09005689600765894 0 -0.13559606247384451 -0.078630614297465831 0 -0.13495518705303231 -0.09005689600765894 0 -0.13559606247384451 -0.078630614297465831 0 -0.127429446573081 -0.082462269219444884 0 -0.1224440299586441 -0.090322099331281741 0 -0.13495518705303231 -0.09005689600765894 0 -0.127429446573081 -0.082462269219444884 0 -0.1209594764258113 -0.10818761065369201 0 -0.14448540555192699 -0.099626243464685391 0 -0.1209594764258113 -0.10818761065369201 0 -0.13495518705303231 -0.09005689600765894 0 -0.14448540555192699 -0.099626243464685391 0 -0.1209594764258113 -0.10818761065369201 0 -0.13170401298238199 -0.1142150949500024 0 -0.14448540555192699 -0.099626243464685391 0 -0.1209594764258113 -0.10818761065369201 0 -0.1224440299586441 -0.090322099331281741 0 -0.13495518705303231 -0.09005689600765894 0 -0.1163299610319649 -0.123559176195451 0 -0.13170401298238199 -0.1142150949500024 0 -0.13307603398775869 -0.124728085141914 0 -0.13170401298238199 -0.1142150949500024 0 -0.13307603398775869 -0.124728085141914 0 -0.14366918791444791 -0.1149743592942698 0 -0.13170401298238199 -0.1142150949500024 0 -0.14366918791444791 -0.1149743592942698 0 -0.14448540555192699 -0.099626243464685391 0 -0.15059746739176519 -0.12590499349524931 0 -0.13307603398775869 -0.124728085141914 0 -0.14366918791444791 -0.1149743592942698 0 -0.15059746739176519 -0.12590499349524931 0 -0.15912610697694529 -0.111528239289805 0 -0.14366918791444791 -0.1149743592942698 0 -0.15912610697694529 -0.111528239289805 0 -0.1648917287570428 -0.1034218355033994 0 -0.14448540555192699 -0.099626243464685391 0 -0.1680113346780428 -0.091064876275678733 0 -0.14448540555192699 -0.099626243464685391 0 -0.15912610697694529 -0.111528239289805 0 -0.14366918791444791 -0.1149743592942698 0 -0.14448540555192699 -0.099626243464685391 0 -0.15237332256215749 -0.01589907860722448 0 -0.14078236383619791 -0.0085897067193413806 0 -0.1387648288997185 -0.02663668504267435 0 -0.1506726103903526 -0.028986244210024568 0 -0.15237332256215749 -0.01589907860722448 0 -0.1387648288997185 -0.02663668504267435 0 -0.1506725034137911 -0.00072827641150988924 0 -0.14078236383619791 -0.0085897067193413806 0 -0.1356972964359357 0.0087647184508017305 0 -0.15237332256215749 -0.01589907860722448 0 -0.1506725034137911 -0.00072827641150988924 0 -0.14078236383619791 -0.0085897067193413806 0 -0.14078236383619791 -0.0085897067193413806 0 -0.12684239433194619 -0.0024106449572988912 0 -0.12656208370071809 -0.020532226921150191 0 -0.14078236383619791 -0.0085897067193413806 0 -0.12684239433194619 -0.0024106449572988912 0 -0.1356972964359357 0.0087647184508017305 0 -0.14078236383619791 -0.0085897067193413806 0 -0.12656208370071809 -0.020532226921150191 0 -0.14078236383619791 -0.0085897067193413806 0 -0.12656208370071809 -0.020532226921150191 0 -0.1387648288997185 -0.02663668504267435 0 -0.12656208370071809 -0.020532226921150191 0 -0.1387648288997185 -0.02663668504267435 0 -0.12556548126247061 -0.032941768348231711 0 -0.1387648288997185 -0.02663668504267435 0 -0.12556548126247061 -0.032941768348231711 0 -0.1339631020376629 -0.038538900290041027 0 -0.1238325117896016 -0.041547804325526752 0 -0.12556548126247061 -0.032941768348231711 0 -0.1339631020376629 -0.038538900290041027 0 -0.1238325117896016 -0.041547804325526752 0 -0.1339631020376629 -0.038538900290041027 0 -0.1281145509328212 -0.052736625861778713 0 -0.1339631020376629 -0.038538900290041027 0 -0.1281145509328212 -0.052736625861778713 0 -0.1387648288997185 -0.02663668504267435 0 -0.1339631020376629 -0.038538900290041027 0 -0.1456022959354295 -0.040923859009171677 0 -0.1222659998279787 -0.066934351433516059 0 -0.13351321382320669 -0.065598503146448148 0 -0.1281145509328212 -0.052736625861778713 0 -0.1222659998279787 -0.066934351433516059 0 -0.1281145509328212 -0.052736625861778713 0 -0.1339631020376629 -0.038538900290041027 0 -0.1281145509328212 -0.052736625861778713 0 -0.1431019767965761 -0.052538817764399712 0 -0.13351321382320669 -0.065598503146448148 0 -0.1281145509328212 -0.052736625861778713 0 -0.1431019767965761 -0.052538817764399712 0 -0.14646089017053021 -0.067146341956103445 0 -0.1431019767965761 -0.052538817764399712 0 -0.15353786659420129 -0.057829090106786371 0 -0.14646089017053021 -0.067146341956103445 0 -0.13351321382320669 -0.065598503146448148 0 -0.1431019767965761 -0.052538817764399712 0 -0.1431019767965761 -0.052538817764399712 0 -0.15353786659420129 -0.057829090106786371 0 -0.1566383878186392 -0.04752673504758656 0 -0.1431019767965761 -0.052538817764399712 0 -0.1456022959354295 -0.040923859009171677 0 -0.1566383878186392 -0.04752673504758656 0 -0.1456022959354295 -0.040923859009171677 0 -0.16230340431068421 -0.036045835132871629 0 -0.1566383878186392 -0.04752673504758656 0 -0.1506726103903526 -0.028986244210024568 0 -0.1456022959354295 -0.040923859009171677 0 -0.16230340431068421 -0.036045835132871629 0 -0.1506726103903526 -0.028986244210024568 0 -0.1387648288997185 -0.02663668504267435 0 -0.1456022959354295 -0.040923859009171677 0 -0.1339631020376629 -0.038538900290041027 0 -0.1431019767965761 -0.052538817764399712 0 -0.1456022959354295 -0.040923859009171677 0 -0.16230340431068421 -0.036045835132871629 0 -0.16919653775701521 -0.045587236372266048 0 -0.17838552058482071 -0.037125144146923181 0 -0.16230340431068421 -0.036045835132871629 0 -0.17838552058482071 -0.037125144146923181 0 -0.16708993638455449 -0.02343745294416209 0 -0.16230340431068421 -0.036045835132871629 0 -0.16919653775701521 -0.045587236372266048 0 -0.1566383878186392 -0.04752673504758656 0 -0.16919653775701521 -0.045587236372266048 0 -0.16403660732498221 -0.055466424152395978 0 -0.1798874554803527 -0.055604559087165842 0 -0.16001328741186241 -0.071493597903663872 0 -0.15353786659420129 -0.057829090106786371 0 -0.16403660732498221 -0.055466424152395978 0 -0.16001328741186241 -0.071493597903663872 0 -0.16403660732498221 -0.055466424152395978 0 -0.1798874554803527 -0.055604559087165842 0 -0.16919653775701521 -0.045587236372266048 0 -0.16403660732498221 -0.055466424152395978 0 -0.1566383878186392 -0.04752673504758656 0 -0.15353786659420129 -0.057829090106786371 0 -0.16403660732498221 -0.055466424152395978 0 -0.1566383878186392 -0.04752673504758656 0 -0.16919653775701521 -0.045587236372266048 0 -0.1798874554803527 -0.055604559087165842 0 -0.17838552058482071 -0.037125144146923181 0 -0.1798874554803527 -0.055604559087165842 0 -0.17838552058482071 -0.037125144146923181 0 -0.19976162354884361 -0.039715520270668457 0 -0.17838552058482071 -0.037125144146923181 0 -0.18445023546665101 -0.02525347386329051 0 -0.16708993638455449 -0.02343745294416209 0 -0.18445023546665101 -0.02525347386329051 0 -0.18103954239219089 -0.01326505090046317 0 -0.1969004561711365 -0.02298640055106246 0 -0.18445023546665101 -0.02525347386329051 0 -0.16708993638455449 -0.02343745294416209 0 -0.18103954239219089 -0.01326505090046317 0 -0.1506726103903526 -0.028986244210024568 0 -0.15237332256215749 -0.01589907860722448 0 -0.16708993638455449 -0.02343745294416209 0 -0.1506726103903526 -0.028986244210024568 0 -0.16230340431068421 -0.036045835132871629 0 -0.16708993638455449 -0.02343745294416209 0 -0.15237332256215749 -0.01589907860722448 0 -0.16708993638455449 -0.02343745294416209 0 -0.16572313506263431 -0.0068689691824014559 0 -0.16708993638455449 -0.02343745294416209 0 -0.16572313506263431 -0.0068689691824014559 0 -0.18103954239219089 -0.01326505090046317 0 -0.1506725034137911 -0.00072827641150988924 0 -0.16572313506263431 -0.0068689691824014559 0 -0.16561420801104579 0.0071696275992592772 0 -0.15237332256215749 -0.01589907860722448 0 -0.1506725034137911 -0.00072827641150988924 0 -0.16572313506263431 -0.0068689691824014559 0 -0.18103954239219089 -0.01326505090046317 0 -0.19383873418493161 -0.0051544447078166813 0 -0.17829992471754899 0.0033881526606483101 0 -0.16572313506263431 -0.0068689691824014559 0 -0.18103954239219089 -0.01326505090046317 0 -0.17829992471754899 0.0033881526606483101 0 -0.19383873418493161 -0.0051544447078166813 0 -0.1969004561711365 -0.02298640055106246 0 -0.2079112221019192 -0.017322018022009032 0 -0.18103954239219089 -0.01326505090046317 0 -0.19383873418493161 -0.0051544447078166813 0 -0.1969004561711365 -0.02298640055106246 0 -0.19383873418493161 -0.0051544447078166813 0 -0.2079112221019192 -0.017322018022009032 0 -0.2058593508946302 -0.002230877548247843 0 -0.1969004561711365 -0.02298640055106246 0 -0.2079112221019192 -0.017322018022009032 0 -0.19976162354884361 -0.039715520270668457 0 -0.18445023546665101 -0.02525347386329051 0 -0.1969004561711365 -0.02298640055106246 0 -0.19976162354884361 -0.039715520270668457 0 -0.2079112221019192 -0.017322018022009032 0 -0.21708027553342021 -0.0064990992034965958 0 -0.22057339919922131 -0.02307688110803607 0 -0.2079112221019192 -0.017322018022009032 0 -0.19976162354884361 -0.039715520270668457 0 -0.22057339919922131 -0.02307688110803607 0 -0.21708027553342021 -0.0064990992034965958 0 -0.2058593508946302 -0.002230877548247843 0 -0.21107591301114631 0.0075632626673277862 0 -0.2079112221019192 -0.017322018022009032 0 -0.21708027553342021 -0.0064990992034965958 0 -0.2058593508946302 -0.002230877548247843 0 -0.2029652857560785 -0.058447192183165637 0 -0.19976162354884361 -0.039715520270668457 0 -0.19221591706992761 -0.066301317723375261 0 -0.1798874554803527 -0.055604559087165842 0 -0.2029652857560785 -0.058447192183165637 0 -0.1798874554803527 -0.055604559087165842 0 -0.19976162354884361 -0.039715520270668457 0 -0.1798874554803527 -0.055604559087165842 0 -0.2029652857560785 -0.058447192183165637 0 -0.19976162354884361 -0.039715520270668457 0 -0.1969004561711365 -0.02298640055106246 0 -0.19976162354884361 -0.039715520270668457 0 -0.17838552058482071 -0.037125144146923181 0 -0.18445023546665101 -0.02525347386329051 0 -0.19976162354884361 -0.039715520270668457 0 -0.19976162354884361 -0.039715520270668457 0 -0.2172658114409208 -0.046889745741212338 0 -0.22057339919922131 -0.02307688110803607 0 -0.19976162354884361 -0.039715520270668457 0 -0.22057339919922131 -0.02307688110803607 0 -0.2029652857560785 -0.058447192183165637 0 -0.19976162354884361 -0.039715520270668457 0 -0.2172658114409208 -0.046889745741212338 0 -0.2029652857560785 -0.058447192183165637 0 -0.2172658114409208 -0.046889745741212338 0 -0.21780939350966139 -0.061200981588623783 0 -0.2335915184818308 -0.067199462465371645 0 -0.21780939350966139 -0.061200981588623783 0 -0.22808962900324989 -0.053799263896097287 0 -0.2335915184818308 -0.067199462465371645 0 -0.22808962900324989 -0.053799263896097287 0 -0.24030391454805389 -0.052674191264330233 0 -0.2172658114409208 -0.046889745741212338 0 -0.21780939350966139 -0.061200981588623783 0 -0.22808962900324989 -0.053799263896097287 0 -0.2172658114409208 -0.046889745741212338 0 -0.22808962900324989 -0.053799263896097287 0 -0.2314775070357836 -0.041031938420950972 0 -0.22808962900324989 -0.053799263896097287 0 -0.2314775070357836 -0.041031938420950972 0 -0.24030391454805389 -0.052674191264330233 0 -0.2172658114409208 -0.046889745741212338 0 -0.2314775070357836 -0.041031938420950972 0 -0.22057339919922131 -0.02307688110803607 0 -0.2314775070357836 -0.041031938420950972 0 -0.2470163106142633 -0.0381489200632825 0 -0.23465020250607979 -0.02911224889113128 0 -0.2470163106142633 -0.0381489200632825 0 -0.25166043788688769 -0.052753940549670718 0 -0.2470163106142633 -0.0381489200632825 0 -0.24030391454805389 -0.052674191264330233 0 -0.2314775070357836 -0.041031938420950972 0 -0.2470163106142633 -0.0381489200632825 0 -0.24030391454805389 -0.052674191264330233 0 -0.2335915184818308 -0.067199462465371645 0 -0.24030391454805389 -0.052674191264330233 0 -0.25025782181110651 -0.061134395206163393 0 -0.2470163106142633 -0.0381489200632825 0 -0.24030391454805389 -0.052674191264330233 0 -0.25166043788688769 -0.052753940549670718 0 -0.24030391454805389 -0.052674191264330233 0 -0.25166043788688769 -0.052753940549670718 0 -0.25025782181110651 -0.061134395206163393 0 -0.2335915184818308 -0.067199462465371645 0 -0.24030391454805389 -0.052674191264330233 0 -0.22057339919922131 -0.02307688110803607 0 -0.24138517484959959 -0.00643824194540428 0 -0.2395259569665191 -0.014592983274072 0 -0.21708027553342021 -0.0064990992034965958 0 -0.23283338722637109 -0.0071407950473802786 0 -0.22057339919922131 -0.02307688110803607 0 -0.22057339919922131 -0.02307688110803607 0 -0.24138517484959959 -0.00643824194540428 0 -0.23283338722637109 -0.0071407950473802786 0 -0.22057339919922131 -0.02307688110803607 0 -0.24138517484959959 -0.00643824194540428 0 -0.21708027553342021 -0.0064990992034965958 0 -0.23283338722637109 -0.0071407950473802786 0 -0.22341847121708561 0.0061320188341525408 0 -0.22057339919922131 -0.02307688110803607 0 -0.23465020250607979 -0.02911224889113128 0 -0.2395259569665191 -0.014592983274072 0 -0.2314775070357836 -0.041031938420950972 0 -0.22057339919922131 -0.02307688110803607 0 -0.23465020250607979 -0.02911224889113128 0 -0.2470163106142633 -0.0381489200632825 0 -0.23465020250607979 -0.02911224889113128 0 -0.2395259569665191 -0.014592983274072 0 -0.2470163106142633 -0.0381489200632825 0 -0.2395259569665191 -0.014592983274072 0 -0.2470163106142633 -0.0381489200632825 0 -0.2395259569665191 -0.014592983274072 0 -0.25812990511239498 -0.014099687492508711 0 -0.24138517484959959 -0.00643824194540428 0 -0.2395259569665191 -0.014592983274072 0 -0.25812990511239498 -0.014099687492508711 0 -0.25812990511239498 -0.014099687492508711 0 -0.26219695049997649 0.010200397217229189 0 -0.26584301990892367 0.00259108628171982 0 -0.25812990511239498 -0.014099687492508711 0 -0.26584301990892367 0.00259108628171982 0 -0.24138517484959959 -0.00643824194540428 0 -0.25812990511239498 -0.014099687492508711 0 -0.26219695049997649 0.010200397217229189 0 -0.25812990511239498 -0.014099687492508711 0 -0.26219695049997649 0.010200397217229189 0 -0.25812990511239498 -0.014099687492508711 0 -0.25489517149963958 -0.033426814021089393 0 -0.2470163106142633 -0.0381489200632825 0 -0.25812990511239498 -0.014099687492508711 0 -0.2470163106142633 -0.0381489200632825 0 -0.25812990511239498 -0.014099687492508711 0 -0.25489517149963958 -0.033426814021089393 0 -0.25812990511239498 -0.014099687492508711 0 -0.26673074646572692 -0.026698633185543399 0 -0.25489517149963958 -0.033426814021089393 0 -0.26673074646572692 -0.026698633185543399 0 -0.28030944872597918 -0.028853210161661001 0 -0.27632229945269587 -0.012229047098285919 0 -0.25812990511239498 -0.014099687492508711 0 -0.26673074646572692 -0.026698633185543399 0 -0.27632229945269587 -0.012229047098285919 0 -0.25812990511239498 -0.014099687492508711 0 -0.27632229945269587 -0.012229047098285919 0 -0.26584301990892367 0.00259108628171982 0 -0.27632229945269587 -0.012229047098285919 0 -0.26584301990892367 0.00259108628171982 0 -0.28178806972497322 0.0047021863176151838 0 -0.28902394801675352 -0.0073117154105768528 0 -0.29571507552162041 0.00098409570603152701 0 -0.28178806972497322 0.0047021863176151838 0 -0.27632229945269587 -0.012229047098285919 0 -0.28902394801675352 -0.0073117154105768528 0 -0.28178806972497322 0.0047021863176151838 0 -0.28902394801675352 -0.0073117154105768528 0 -0.29955349054904362 -0.010265122393890659 0 -0.29571507552162041 0.00098409570603152701 0 -0.28902394801675352 -0.0073117154105768528 0 -0.29068924238589711 -0.01945734915590706 0 -0.29955349054904362 -0.010265122393890659 0 -0.27632229945269587 -0.012229047098285919 0 -0.28902394801675352 -0.0073117154105768528 0 -0.29068924238589711 -0.01945734915590706 0 -0.28030944872597918 -0.028853210161661001 0 -0.27632229945269587 -0.012229047098285919 0 -0.29068924238589711 -0.01945734915590706 0 -0.28030944872597918 -0.028853210161661001 0 -0.29068924238589711 -0.01945734915590706 0 -0.29379062650788001 -0.032182798005854399 0 -0.29068924238589711 -0.01945734915590706 0 -0.30420517448988371 -0.021034625453682069 0 -0.29379062650788001 -0.032182798005854399 0 -0.30420517448988371 -0.021034625453682069 0 -0.31008566169130808 -0.02948168594476084 0 -0.29379062650788001 -0.032182798005854399 0 -0.29068924238589711 -0.01945734915590706 0 -0.30420517448988371 -0.021034625453682069 0 -0.29955349054904362 -0.010265122393890659 0 -0.30420517448988371 -0.021034625453682069 0 -0.31008566169130808 -0.02948168594476084 0 -0.31338504862321792 -0.020641086298220191 0 -0.30420517448988371 -0.021034625453682069 0 -0.31018632718741079 -0.011514157358561591 0 -0.31338504862321792 -0.020641086298220191 0 -0.31018632718741079 -0.011514157358561591 0 -0.30589562974355983 -0.003206164687927148 0 -0.29955349054904362 -0.010265122393890659 0 -0.30589562974355983 -0.003206164687927148 0 -0.31276107273044762 -0.0040066177982495338 0 -0.30909513318508558 0.003917776002563174 0 -0.31018632718741079 -0.011514157358561591 0 -0.30589562974355983 -0.003206164687927148 0 -0.31276107273044762 -0.0040066177982495338 0 -0.30589562974355983 -0.003206164687927148 0 -0.29955349054904362 -0.010265122393890659 0 -0.29571507552162041 0.00098409570603152701 0 -0.30420517448988371 -0.021034625453682069 0 -0.31018632718741079 -0.011514157358561591 0 -0.29955349054904362 -0.010265122393890659 0 -0.30202056647338948 -0.048211479288046262 0 -0.30327642477245759 -0.068591180815870123 0 -0.31600785484907751 -0.053768545164136303 0 -0.30202056647338948 -0.048211479288046262 0 -0.30033501772797161 -0.042910704241954749 0 -0.32355082142970137 -0.034462195406745999 0 -0.31008566169130808 -0.02948168594476084 0 -0.30033501772797161 -0.042910704241954749 0 -0.29379062650788001 -0.032182798005854399 0 -0.31008566169130808 -0.02948168594476084 0 -0.30033501772797161 -0.042910704241954749 0 -0.32355082142970137 -0.034462195406745999 0 -0.30033501772797161 -0.042910704241954749 0 -0.32355082142970137 -0.034462195406745999 0 -0.30033501772797161 -0.042910704241954749 0 -0.29379062650788001 -0.032182798005854399 0 -0.27711921402624062 -0.051359213077160723 0 -0.28030944872597918 -0.028853210161661001 0 -0.29379062650788001 -0.032182798005854399 0 -0.27711921402624062 -0.051359213077160723 0 -0.30202056647338948 -0.048211479288046262 0 -0.28049031151707909 -0.061960763169349072 0 -0.30202056647338948 -0.048211479288046262 0 -0.28049031151707909 -0.061960763169349072 0 -0.27711921402624062 -0.051359213077160723 0 -0.30202056647338948 -0.048211479288046262 0 -0.30033501772797161 -0.042910704241954749 0 -0.27711921402624062 -0.051359213077160723 0 -0.30033501772797161 -0.042910704241954749 0 -0.27711921402624062 -0.051359213077160723 0 -0.30202056647338948 -0.048211479288046262 0 -0.28049031151707909 -0.061960763169349072 0 -0.30327642477245759 -0.068591180815870123 0 -0.28049031151707909 -0.061960763169349072 0 -0.27711921402624062 -0.051359213077160723 0 -0.25390341032450958 -0.05980772191236633 0 -0.28030944872597918 -0.028853210161661001 0 -0.27711921402624062 -0.051359213077160723 0 -0.26399690753792138 -0.04488440715417031 0 -0.26673074646572692 -0.026698633185543399 0 -0.28030944872597918 -0.028853210161661001 0 -0.26399690753792138 -0.04488440715417031 0 -0.2470163106142633 -0.0381489200632825 0 -0.25489517149963958 -0.033426814021089393 0 -0.25166043788688769 -0.052753940549670718 0 -0.25489517149963958 -0.033426814021089393 0 -0.25166043788688769 -0.052753940549670718 0 -0.25489517149963958 -0.033426814021089393 0 -0.26399690753792138 -0.04488440715417031 0 -0.25166043788688769 -0.052753940549670718 0 -0.26673074646572692 -0.026698633185543399 0 -0.25489517149963958 -0.033426814021089393 0 -0.26399690753792138 -0.04488440715417031 0 -0.27711921402624062 -0.051359213077160723 0 -0.25390341032450958 -0.05980772191236633 0 -0.27711921402624062 -0.051359213077160723 0 -0.26399690753792138 -0.04488440715417031 0 -0.25390341032450958 -0.05980772191236633 0 -0.26399690753792138 -0.04488440715417031 0 -0.25166043788688769 -0.052753940549670718 0 -0.25390341032450958 -0.05980772191236633 0 -0.25166043788688769 -0.052753940549670718 0 -0.25025782181110651 -0.061134395206163393 0 -0.25166043788688769 -0.052753940549670718 0 -0.25390341032450958 -0.05980772191236633 0 -0.25166043788688769 -0.052753940549670718 0 -0.25390341032450958 -0.05980772191236633 0 -0.25025782181110651 -0.061134395206163393 0 -0.25390341032450958 -0.05980772191236633 0 -0.25025782181110651 -0.061134395206163393 0 -0.25390341032450958 -0.05980772191236633 0 -0.25896005656076732 -0.075710047050649376 0 -0.24681093409504121 -0.081729115821102774 0 -0.25025782181110651 -0.061134395206163393 0 -0.25734051553168208 -0.076744290695769754 0 -0.28049031151707909 -0.061960763169349072 0 -0.25390341032450958 -0.05980772191236633 0 -0.25896005656076732 -0.075710047050649376 0 -0.25390341032450958 -0.05980772191236633 0 -0.25025782181110651 -0.061134395206163393 0 -0.25896005656076732 -0.075710047050649376 0 -0.25896005656076732 -0.075710047050649376 0 -0.25734051553168208 -0.076744290695769754 0 -0.25025782181110651 -0.061134395206163393 0 -0.25896005656076732 -0.075710047050649376 0 -0.25734051553168208 -0.076744290695769754 0 -0.25896005656076732 -0.075710047050649376 0 -0.2645236718795097 -0.09320670701243261 0 -0.24681093409504121 -0.081729115821102774 0 -0.25734051553168208 -0.076744290695769754 0 -0.25584364201564819 -0.087195777053497042 0 -0.25896005656076732 -0.075710047050649376 0 -0.2645236718795097 -0.09320670701243261 0 -0.25584364201564819 -0.087195777053497042 0 -0.25896005656076732 -0.075710047050649376 0 -0.25734051553168208 -0.076744290695769754 0 -0.25584364201564819 -0.087195777053497042 0 -0.2645236718795097 -0.09320670701243261 0 -0.27403344994655388 -0.081134903744185236 0 -0.28261385890160651 -0.096442778869980317 0 -0.27403344994655388 -0.081134903744185236 0 -0.28261385890160651 -0.096442778869980317 0 -0.28673342195343382 -0.078521334919240904 0 -0.25896005656076732 -0.075710047050649376 0 -0.2645236718795097 -0.09320670701243261 0 -0.27403344994655388 -0.081134903744185236 0 -0.28049031151707909 -0.061960763169349072 0 -0.25896005656076732 -0.075710047050649376 0 -0.27403344994655388 -0.081134903744185236 0 -0.28049031151707909 -0.061960763169349072 0 -0.25896005656076732 -0.075710047050649376 0 -0.28049031151707909 -0.061960763169349072 0 -0.27403344994655388 -0.081134903744185236 0 -0.28673342195343382 -0.078521334919240904 0 -0.24336404637896769 -0.1023238364360409 0 -0.25263928511127681 -0.1162041113613589 0 -0.26458846702575373 -0.1106567415247225 0 -0.25263928511127681 -0.1162041113613589 0 -0.26458846702575373 -0.1106567415247225 0 -0.26524502498680919 -0.12809454054107949 0 -0.23735960205357631 -0.12374132694359261 0 -0.25263928511127681 -0.1162041113613589 0 -0.26524502498680919 -0.12809454054107949 0 -0.24336404637896769 -0.1023238364360409 0 -0.2645236718795097 -0.09320670701243261 0 -0.26458846702575373 -0.1106567415247225 0 -0.24336404637896769 -0.1023238364360409 0 -0.2645236718795097 -0.09320670701243261 0 -0.25584364201564819 -0.087195777053497042 0 -0.27427919903965808 -0.1049160779227824 0 -0.28237082561557059 -0.11297564035993241 0 -0.28261385890160651 -0.096442778869980317 0 -0.2645236718795097 -0.09320670701243261 0 -0.26458846702575373 -0.1106567415247225 0 -0.27427919903965808 -0.1049160779227824 0 -0.2645236718795097 -0.09320670701243261 0 -0.27427919903965808 -0.1049160779227824 0 -0.28261385890160651 -0.096442778869980317 0 -0.26458846702575373 -0.1106567415247225 0 -0.27422999655554059 -0.116059696956196 0 -0.26524502498680919 -0.12809454054107949 0 -0.27422999655554059 -0.116059696956196 0 -0.28466646610991142 -0.1236554844324633 0 -0.26524502498680919 -0.12809454054107949 0 -0.26458846702575373 -0.1106567415247225 0 -0.27427919903965808 -0.1049160779227824 0 -0.27422999655554059 -0.116059696956196 0 -0.27427919903965808 -0.1049160779227824 0 -0.27422999655554059 -0.116059696956196 0 -0.28237082561557059 -0.11297564035993241 0 -0.27422999655554059 -0.116059696956196 0 -0.28466646610991142 -0.1236554844324633 0 -0.28237082561557059 -0.11297564035993241 0 -0.29534455504457008 -0.11823194866202601 0 -0.28466646610991142 -0.1236554844324633 0 -0.29313044792004228 -0.13244775413856641 0 -0.29534455504457008 -0.11823194866202601 0 -0.28466646610991142 -0.1236554844324633 0 -0.28237082561557059 -0.11297564035993241 0 -0.29534455504457008 -0.11823194866202601 0 -0.28237082561557059 -0.11297564035993241 0 -0.29149682469475591 -0.10690719019930291 0 -0.28237082561557059 -0.11297564035993241 0 -0.29149682469475591 -0.10690719019930291 0 -0.28261385890160651 -0.096442778869980317 0 -0.28261385890160651 -0.096442778869980317 0 -0.29628725393684763 -0.098677294716570454 0 -0.29715690575935289 -0.086981080904335387 0 -0.29149682469475591 -0.10690719019930291 0 -0.28261385890160651 -0.096442778869980317 0 -0.29628725393684763 -0.098677294716570454 0 -0.29628725393684763 -0.098677294716570454 0 -0.30547851235012669 -0.1067926280055016 0 -0.30774751133215872 -0.093727192290981795 0 -0.30547851235012669 -0.1067926280055016 0 -0.30774751133215872 -0.093727192290981795 0 -0.31830637209111978 -0.1004428931179896 0 -0.29149682469475591 -0.10690719019930291 0 -0.29628725393684763 -0.098677294716570454 0 -0.30547851235012669 -0.1067926280055016 0 -0.29534455504457008 -0.11823194866202601 0 -0.30547851235012669 -0.1067926280055016 0 -0.30878565939874869 -0.1189002489677302 0 -0.29534455504457008 -0.11823194866202601 0 -0.29149682469475591 -0.10690719019930291 0 -0.30547851235012669 -0.1067926280055016 0 -0.30547851235012669 -0.1067926280055016 0 -0.30878565939874869 -0.1189002489677302 0 -0.31997331419071351 -0.1116723701812761 0 -0.30878565939874869 -0.1189002489677302 0 -0.30380912160102108 -0.12673670177513921 0 -0.31512700278849187 -0.12602651855045091 0 -0.29534455504457008 -0.11823194866202601 0 -0.30878565939874869 -0.1189002489677302 0 -0.30380912160102108 -0.12673670177513921 0 -0.28049031151707909 -0.061960763169349072 0 -0.28673342195343382 -0.078521334919240904 0 -0.30327642477245759 -0.068591180815870123 0 -0.28673342195343382 -0.078521334919240904 0 -0.29715690575935289 -0.086981080904335387 0 -0.30327642477245759 -0.068591180815870123 0 -0.28261385890160651 -0.096442778869980317 0 -0.28673342195343382 -0.078521334919240904 0 -0.29715690575935289 -0.086981080904335387 0 -0.29715690575935289 -0.086981080904335387 0 -0.3077147039849768 -0.08180495935579922 0 -0.30327642477245759 -0.068591180815870123 0 -0.29628725393684763 -0.098677294716570454 0 -0.29715690575935289 -0.086981080904335387 0 -0.30774751133215872 -0.093727192290981795 0 -0.29715690575935289 -0.086981080904335387 0 -0.30774751133215872 -0.093727192290981795 0 -0.3077147039849768 -0.08180495935579922 0 -0.30774751133215872 -0.093727192290981795 0 -0.3077147039849768 -0.08180495935579922 0 -0.31950284905412918 -0.08901050808249733 0 -0.3077147039849768 -0.08180495935579922 0 -0.30327642477245759 -0.068591180815870123 0 -0.31580720462030332 -0.07639897426353183 0 -0.30327642477245759 -0.068591180815870123 0 -0.31861044435988017 -0.066403046902206136 0 -0.31600785484907751 -0.053768545164136303 0 -0.31861044435988017 -0.066403046902206136 0 -0.32611272179655593 -0.078015684228754656 0 -0.33016782241674009 -0.068313269162764798 0 -0.30327642477245759 -0.068591180815870123 0 -0.31861044435988017 -0.066403046902206136 0 -0.31580720462030332 -0.07639897426353183 0 -0.31861044435988017 -0.066403046902206136 0 -0.32611272179655593 -0.078015684228754656 0 -0.31580720462030332 -0.07639897426353183 0 -0.3077147039849768 -0.08180495935579922 0 -0.31580720462030332 -0.07639897426353183 0 -0.31950284905412918 -0.08901050808249733 0 -0.32611272179655593 -0.078015684228754656 0 -0.31580720462030332 -0.07639897426353183 0 -0.31950284905412918 -0.08901050808249733 0 -0.32611272179655593 -0.078015684228754656 0 -0.34021043393669642 -0.1043631026881902 0 -0.32611272179655593 -0.078015684228754656 0 -0.34013893611991819 -0.085881851991493174 0 -0.34021043393669642 -0.1043631026881902 0 -0.32611272179655593 -0.078015684228754656 0 -0.31950284905412918 -0.08901050808249733 0 -0.34021043393669642 -0.1043631026881902 0 -0.32611272179655593 -0.078015684228754656 0 -0.34013893611991819 -0.085881851991493174 0 -0.33282099685069161 -0.0747451719480028 0 -0.34013893611991819 -0.085881851991493174 0 -0.33975038056998691 -0.075160142134915245 0 -0.33282099685069161 -0.0747451719480028 0 -0.33975038056998691 -0.075160142134915245 0 -0.3383004133812873 -0.07030923370436952 0 -0.33016782241674009 -0.068313269162764798 0 -0.3383004133812873 -0.07030923370436952 0 -0.33016782241674009 -0.068313269162764798 0 -0.33258101720996069 -0.051174823407815553 0 -0.33975038056998691 -0.075160142134915245 0 -0.3383004133812873 -0.07030923370436952 0 -0.33975038056998691 -0.075160142134915245 0 -0.33016782241674009 -0.068313269162764798 0 -0.33282099685069161 -0.0747451719480028 0 -0.32611272179655593 -0.078015684228754656 0 -0.33016782241674009 -0.068313269162764798 0 -0.33282099685069161 -0.0747451719480028 0 -0.31863727906203387 -0.1202810429172735 0 -0.32862709131347878 -0.1194068168474031 0 -0.3235925460353033 -0.1275661428124901 0 -0.31863727906203387 -0.1202810429172735 0 -0.3235925460353033 -0.1275661428124901 0 -0.31512700278849187 -0.12602651855045091 0 -0.30878565939874869 -0.1189002489677302 0 -0.31863727906203387 -0.1202810429172735 0 -0.31512700278849187 -0.12602651855045091 0 -0.30878565939874869 -0.1189002489677302 0 -0.31863727906203387 -0.1202810429172735 0 -0.31997331419071351 -0.1116723701812761 0 -0.31863727906203387 -0.1202810429172735 0 -0.31997331419071351 -0.1116723701812761 0 -0.32862709131347878 -0.1194068168474031 0 -0.31997331419071351 -0.1116723701812761 0 -0.31830637209111978 -0.1004428931179896 0 -0.34021043393669642 -0.1043631026881902 0 -0.31950284905412918 -0.08901050808249733 0 -0.31830637209111978 -0.1004428931179896 0 -0.34021043393669642 -0.1043631026881902 0 -0.30547851235012669 -0.1067926280055016 0 -0.31997331419071351 -0.1116723701812761 0 -0.31830637209111978 -0.1004428931179896 0 -0.30774751133215872 -0.093727192290981795 0 -0.31950284905412918 -0.08901050808249733 0 -0.31830637209111978 -0.1004428931179896 0 -0.34021043393669642 -0.1043631026881902 0 -0.32862709131347878 -0.1194068168474031 0 -0.35430814607683703 -0.13071052114762599 0 -0.31997331419071351 -0.1116723701812761 0 -0.34021043393669642 -0.1043631026881902 0 -0.32862709131347878 -0.1194068168474031 0 -0.34021043393669642 -0.1043631026881902 0 -0.35430814607683703 -0.13071052114762599 0 -0.34021043393669642 -0.1043631026881902 0 -0.35853206701140927 -0.10969207178449319 0 -0.35430814607683703 -0.13071052114762599 0 -0.34021043393669642 -0.1043631026881902 0 -0.35853206701140927 -0.10969207178449319 0 -0.35738427757252977 -0.090185114106173858 0 -0.35853206701140927 -0.10969207178449319 0 -0.35738427757252977 -0.090185114106173858 0 -0.37618085244823002 -0.1101468671001255 0 -0.35738427757252977 -0.090185114106173858 0 -0.37618085244823002 -0.1101468671001255 0 -0.35853206701140927 -0.10969207178449319 0 -0.37203980735022302 -0.1309930604667861 0 -0.37618085244823002 -0.1101468671001255 0 -0.35853206701140927 -0.10969207178449319 0 -0.35430814607683703 -0.13071052114762599 0 -0.37203980735022302 -0.1309930604667861 0 -0.35487125034235889 -0.071764547355001332 0 -0.35139851698631558 -0.054964602079184799 0 -0.34435962180886609 -0.062031833488555968 0 -0.3383004133812873 -0.07030923370436952 0 -0.35487125034235889 -0.071764547355001332 0 -0.34435962180886609 -0.062031833488555968 0 -0.3383004133812873 -0.07030923370436952 0 -0.35487125034235889 -0.071764547355001332 0 -0.35738427757252977 -0.090185114106173858 0 -0.33975038056998691 -0.075160142134915245 0 -0.3383004133812873 -0.07030923370436952 0 -0.35738427757252977 -0.090185114106173858 0 -0.34013893611991819 -0.085881851991493174 0 -0.34021043393669642 -0.1043631026881902 0 -0.35738427757252977 -0.090185114106173858 0 -0.3383004133812873 -0.07030923370436952 0 -0.35738427757252977 -0.090185114106173858 0 -0.34013893611991819 -0.085881851991493174 0 -0.33975038056998691 -0.075160142134915245 0 -0.35738427757252977 -0.090185114106173858 0 -0.35487125034235889 -0.071764547355001332 0 -0.35738427757252977 -0.090185114106173858 0 -0.36612641162762138 -0.072824611112735041 0 -0.35738427757252977 -0.090185114106173858 0 -0.37462747897890453 -0.080276741319370876 0 -0.36612641162762138 -0.072824611112735041 0 -0.35738427757252977 -0.090185114106173858 0 -0.37462747897890453 -0.080276741319370876 0 -0.37618085244823002 -0.1101468671001255 0 -0.37462747897890453 -0.080276741319370876 0 -0.36612641162762138 -0.072824611112735041 0 -0.37947217108997561 -0.065637003903253097 0 -0.35487125034235889 -0.071764547355001332 0 -0.36612641162762138 -0.072824611112735041 0 -0.36610820717508508 -0.059476859542473948 0 -0.36612641162762138 -0.072824611112735041 0 -0.36610820717508508 -0.059476859542473948 0 -0.37947217108997561 -0.065637003903253097 0 -0.36610820717508508 -0.059476859542473948 0 -0.35139851698631558 -0.054964602079184799 0 -0.36190823838496172 -0.042081341420002853 0 -0.36610820717508508 -0.059476859542473948 0 -0.36190823838496172 -0.042081341420002853 0 -0.37707205259782661 -0.04961681125270398 0 -0.36610820717508508 -0.059476859542473948 0 -0.37707205259782661 -0.04961681125270398 0 -0.37947217108997561 -0.065637003903253097 0 -0.35487125034235889 -0.071764547355001332 0 -0.36610820717508508 -0.059476859542473948 0 -0.35139851698631558 -0.054964602079184799 0 -0.34635223628488832 -0.036163899796189787 0 -0.36190823838496172 -0.042081341420002853 0 -0.36012345535981971 -0.021152976184567612 0 -0.35139851698631558 -0.054964602079184799 0 -0.34635223628488832 -0.036163899796189787 0 -0.36190823838496172 -0.042081341420002853 0 -0.36190823838496172 -0.042081341420002853 0 -0.37088760371306712 -0.031916364111270468 0 -0.37707205259782661 -0.04961681125270398 0 -0.36190823838496172 -0.042081341420002853 0 -0.37088760371306712 -0.031916364111270468 0 -0.36012345535981971 -0.021152976184567612 0 -0.37088760371306712 -0.031916364111270468 0 -0.37219282069997173 -0.0167607896800013 0 -0.36012345535981971 -0.021152976184567612 0 -0.37219282069997173 -0.0167607896800013 0 -0.36012345535981971 -0.021152976184567612 0 -0.37219282069997173 -0.0167607896800013 0 -0.36012345535981971 -0.021152976184567612 0 -0.36870810208001809 -0.011795527475880269 0 -0.36012345535981971 -0.021152976184567612 0 -0.36870810208001809 -0.011795527475880269 0 -0.36883020194267091 -0.00012660618860938191 0 -0.36870810208001809 -0.011795527475880269 0 -0.38267038653320551 0.00342366148846019 0 -0.36883020194267091 -0.00012660618860938191 0 -0.36870810208001809 -0.011795527475880269 0 -0.36490139795207521 -0.0063714785955443221 0 -0.37219282069997173 -0.0167607896800013 0 -0.36870810208001809 -0.011795527475880269 0 -0.36012345535981971 -0.021152976184567612 0 -0.36164112043044039 -0.011796726477470151 0 -0.35665200192576801 -0.01332368458231421 0 -0.36012345535981971 -0.021152976184567612 0 -0.36870810208001809 -0.011795527475880269 0 -0.36164112043044039 -0.011796726477470151 0 -0.36164112043044039 -0.011796726477470151 0 -0.36490139795207521 -0.0063714785955443221 0 -0.35782064483452752 -0.0063399655490501148 0 -0.36870810208001809 -0.011795527475880269 0 -0.36164112043044039 -0.011796726477470151 0 -0.36490139795207521 -0.0063714785955443221 0 -0.36870810208001809 -0.011795527475880269 0 -0.36490139795207521 -0.0063714785955443221 0 -0.36883020194267091 -0.00012660618860938191 0 -0.36490139795207521 -0.0063714785955443221 0 -0.36046762126310039 0.00156598350646622 0 -0.36490139795207521 -0.0063714785955443221 0 -0.35782064483452752 -0.0063399655490501148 0 -0.36046762126310039 0.00156598350646622 0 -0.35782064483452752 -0.0063399655490501148 0 -0.35135420548701002 0.00042926114579642079 0 -0.36046762126310039 0.00156598350646622 0 -0.35782064483452752 -0.0063399655490501148 0 -0.35055065275125308 -0.0075856605161562403 0 -0.35135420548701002 0.00042926114579642079 0 -0.35782064483452752 -0.0063399655490501148 0 -0.35665200192576801 -0.01332368458231421 0 -0.35055065275125308 -0.0075856605161562403 0 -0.36164112043044039 -0.011796726477470151 0 -0.35782064483452752 -0.0063399655490501148 0 -0.35665200192576801 -0.01332368458231421 0 -0.34560893459574821 -0.013006996735589711 0 -0.35055065275125308 -0.0075856605161562403 0 -0.34131747691321201 -0.0056869168596235904 0 -0.35665200192576801 -0.01332368458231421 0 -0.34560893459574821 -0.013006996735589711 0 -0.35055065275125308 -0.0075856605161562403 0 -0.35055065275125308 -0.0075856605161562403 0 -0.34131747691321201 -0.0056869168596235904 0 -0.35135420548701002 0.00042926114579642079 0 -0.36012345535981971 -0.021152976184567612 0 -0.34365657132991551 -0.027145472373906888 0 -0.34635223628488832 -0.036163899796189787 0 -0.36012345535981971 -0.021152976184567612 0 -0.34365657132991551 -0.027145472373906888 0 -0.36012345535981971 -0.021152976184567612 0 -0.35055685754336441 -0.021108321558946219 0 -0.34365657132991551 -0.027145472373906888 0 -0.34635223628488832 -0.036163899796189787 0 -0.36012345535981971 -0.021152976184567612 0 -0.36012345535981971 -0.021152976184567612 0 -0.35665200192576801 -0.01332368458231421 0 -0.35055685754336441 -0.021108321558946219 0 -0.35665200192576801 -0.01332368458231421 0 -0.34179540155795829 -0.022811153094999679 0 -0.35665200192576801 -0.01332368458231421 0 -0.34560893459574821 -0.013006996735589711 0 -0.34179540155795829 -0.022811153094999679 0 -0.35665200192576801 -0.01332368458231421 0 -0.35055685754336441 -0.021108321558946219 0 -0.34179540155795829 -0.022811153094999679 0 -0.35055685754336441 -0.021108321558946219 0 -0.34365657132991551 -0.027145472373906888 0 -0.34179540155795829 -0.022811153094999679 0 -0.33153304531890548 -0.02111315228875292 0 -0.33656886176205603 -0.014217744381867041 0 -0.32086309268017232 -0.01197215776609825 0 -0.34365657132991551 -0.027145472373906888 0 -0.34179540155795829 -0.022811153094999679 0 -0.32718968730001002 -0.033137968563242567 0 -0.34365657132991551 -0.027145472373906888 0 -0.32718968730001002 -0.033137968563242567 0 -0.34179540155795829 -0.022811153094999679 0 -0.33153304531890548 -0.02111315228875292 0 -0.33656886176205603 -0.014217744381867041 0 -0.34560893459574821 -0.013006996735589711 0 -0.34179540155795829 -0.022811153094999679 0 -0.33656886176205603 -0.014217744381867041 0 -0.34179540155795829 -0.022811153094999679 0 -0.32718968730001002 -0.033137968563242567 0 -0.34179540155795829 -0.022811153094999679 0 -0.33153304531890548 -0.02111315228875292 0 -0.32718968730001002 -0.033137968563242567 0 -0.33656886176205603 -0.014217744381867041 0 -0.33160500540305787 -0.0065123157280385022 0 -0.32086309268017232 -0.01197215776609825 0 -0.34131747691321201 -0.0056869168596235904 0 -0.33656886176205603 -0.014217744381867041 0 -0.33160500540305787 -0.0065123157280385022 0 -0.34560893459574821 -0.013006996735589711 0 -0.34131747691321201 -0.0056869168596235904 0 -0.33656886176205603 -0.014217744381867041 0 -0.34131747691321201 -0.0056869168596235904 0 -0.33160500540305787 -0.0065123157280385022 0 -0.32946910031326082 0.0040104116289027486 0 -0.3192259839497702 -0.0091230420562980197 0 -0.31478738417019458 0.0083543060754884615 0 -0.3192259839497702 -0.0091230420562980197 0 -0.31276107273044762 -0.0040066177982495338 0 -0.31478738417019458 0.0083543060754884615 0 -0.33160500540305787 -0.0065123157280385022 0 -0.32086309268017232 -0.01197215776609825 0 -0.32946910031326082 0.0040104116289027486 0 -0.32086309268017232 -0.01197215776609825 0 -0.3192259839497702 -0.0091230420562980197 0 -0.31478738417019458 0.0083543060754884615 0 -0.32086309268017232 -0.01197215776609825 0 -0.31478738417019458 0.0083543060754884615 0 -0.31018632718741079 -0.011514157358561591 0 -0.31620729265227931 -0.01540294597705421 0 -0.31459516912997698 -0.010011690797540841 0 -0.31018632718741079 -0.011514157358561591 0 -0.31459516912997698 -0.010011690797540841 0 -0.31276107273044762 -0.0040066177982495338 0 -0.31620729265227931 -0.01540294597705421 0 -0.31459516912997698 -0.010011690797540841 0 -0.3192259839497702 -0.0091230420562980197 0 -0.31459516912997698 -0.010011690797540841 0 -0.3192259839497702 -0.0091230420562980197 0 -0.31276107273044762 -0.0040066177982495338 0 -0.32086309268017232 -0.01197215776609825 0 -0.32718968730001002 -0.033137968563242567 0 -0.32086309268017232 -0.01197215776609825 0 -0.32366458372934598 -0.026600390188084421 0 -0.32718968730001002 -0.033137968563242567 0 -0.32086309268017232 -0.01197215776609825 0 -0.3192259839497702 -0.0091230420562980197 0 -0.32366458372934598 -0.026600390188084421 0 -0.31620729265227931 -0.01540294597705421 0 -0.3192259839497702 -0.0091230420562980197 0 -0.32366458372934598 -0.026600390188084421 0 -0.3192259839497702 -0.0091230420562980197 0 -0.32366458372934598 -0.026600390188084421 0 -0.33153304531890548 -0.02111315228875292 0 -0.32086309268017232 -0.01197215776609825 0 -0.32718968730001002 -0.033137968563242567 0 -0.31018632718741079 -0.011514157358561591 0 -0.31620729265227931 -0.01540294597705421 0 -0.31338504862321792 -0.020641086298220191 0 -0.31620729265227931 -0.01540294597705421 0 -0.32366458372934598 -0.026600390188084421 0 -0.31338504862321792 -0.020641086298220191 0 -0.31008566169130808 -0.02948168594476084 0 -0.32366458372934598 -0.026600390188084421 0 -0.31338504862321792 -0.020641086298220191 0 -0.31008566169130808 -0.02948168594476084 0 -0.32366458372934598 -0.026600390188084421 0 -0.32355082142970137 -0.034462195406745999 0 -0.32355082142970137 -0.034462195406745999 0 -0.32718968730001002 -0.033137968563242567 0 -0.33258101720996069 -0.051174823407815553 0 -0.30202056647338948 -0.048211479288046262 0 -0.32355082142970137 -0.034462195406745999 0 -0.30202056647338948 -0.048211479288046262 0 -0.32355082142970137 -0.034462195406745999 0 -0.31600785484907751 -0.053768545164136303 0 -0.32355082142970137 -0.034462195406745999 0 -0.31600785484907751 -0.053768545164136303 0 -0.33258101720996069 -0.051174823407815553 0 -0.32366458372934598 -0.026600390188084421 0 -0.32355082142970137 -0.034462195406745999 0 -0.32718968730001002 -0.033137968563242567 0 -0.32355082142970137 -0.034462195406745999 0 -0.32718968730001002 -0.033137968563242567 0 -0.31861044435988017 -0.066403046902206136 0 -0.33016782241674009 -0.068313269162764798 0 -0.33258101720996069 -0.051174823407815553 0 -0.31861044435988017 -0.066403046902206136 0 -0.31600785484907751 -0.053768545164136303 0 -0.33258101720996069 -0.051174823407815553 0 -0.31861044435988017 -0.066403046902206136 0 -0.33258101720996069 -0.051174823407815553 0 -0.3383004133812873 -0.07030923370436952 0 -0.34435962180886609 -0.062031833488555968 0 -0.33258101720996069 -0.051174823407815553 0 -0.35139851698631558 -0.054964602079184799 0 -0.34435962180886609 -0.062031833488555968 0 -0.33258101720996069 -0.051174823407815553 0 -0.3383004133812873 -0.07030923370436952 0 -0.33258101720996069 -0.051174823407815553 0 -0.35139851698631558 -0.054964602079184799 0 -0.34635223628488832 -0.036163899796189787 0 -0.33258101720996069 -0.051174823407815553 0 -0.32718968730001002 -0.033137968563242567 0 -0.33258101720996069 -0.051174823407815553 0 -0.34635223628488832 -0.036163899796189787 0 -0.33258101720996069 -0.051174823407815553 0 -0.34635223628488832 -0.036163899796189787 0 -0.32718968730001002 -0.033137968563242567 0 -0.33258101720996069 -0.051174823407815553 0 -0.34635223628488832 -0.036163899796189787 0 -0.34365657132991551 -0.027145472373906888 0 -0.32718968730001002 -0.033137968563242567 0 -0.3032200744027207 -0.23846922127844189 0 -0.3011436515486533 -0.21932194774459221 0 -0.31864499230983029 -0.22690925142060031 0 -0.3011436515486533 -0.21932194774459221 0 -0.28232532715946379 -0.23095369010685121 0 -0.28176111780146029 -0.21103223514228589 0 -0.3032200744027207 -0.23846922127844189 0 -0.3011436515486533 -0.21932194774459221 0 -0.28232532715946379 -0.23095369010685121 0 -0.2812925304191724 -0.25986614251813639 0 -0.3032200744027207 -0.23846922127844189 0 -0.28232532715946379 -0.23095369010685121 0 -0.2812925304191724 -0.25986614251813639 0 -0.28232532715946379 -0.23095369010685121 0 -0.26467237822917622 -0.242367723876314 0 -0.25170345783653902 -0.26409172820614801 0 -0.24671946227842109 -0.23717817740282399 0 -0.26467237822917622 -0.242367723876314 0 -0.24671946227842109 -0.23717817740282399 0 -0.26467237822917622 -0.242367723876314 0 -0.26132111345228481 -0.21974888114761029 0 -0.28232532715946379 -0.23095369010685121 0 -0.26467237822917622 -0.242367723876314 0 -0.26132111345228481 -0.21974888114761029 0 -0.28232532715946379 -0.23095369010685121 0 -0.26132111345228481 -0.21974888114761029 0 -0.28176111780146029 -0.21103223514228589 0 -0.26132111345228481 -0.21974888114761029 0 -0.26774111702589781 -0.20328744422914299 0 -0.28176111780146029 -0.21103223514228589 0 -0.24121165492318089 -0.22016302729097401 0 -0.26132111345228481 -0.21974888114761029 0 -0.25068167248394618 -0.20133368871448479 0 -0.26132111345228481 -0.21974888114761029 0 -0.26774111702589781 -0.20328744422914299 0 -0.25068167248394618 -0.20133368871448479 0 -0.26774111702589781 -0.20328744422914299 0 -0.26365524490517372 -0.18939327885313401 0 -0.25068167248394618 -0.20133368871448479 0 -0.24847591378357781 -0.17821474295514911 0 -0.26365524490517372 -0.18939327885313401 0 -0.25068167248394618 -0.20133368871448479 0 -0.26774111702589781 -0.20328744422914299 0 -0.2814027475138004 -0.18982717599903071 0 -0.28176111780146029 -0.21103223514228589 0 -0.26774111702589781 -0.20328744422914299 0 -0.26365524490517372 -0.18939327885313401 0 -0.2814027475138004 -0.18982717599903071 0 -0.2814027475138004 -0.18982717599903071 0 -0.29970926333012798 -0.19964494041729519 0 -0.30198197106959462 -0.17789908998637999 0 -0.2814027475138004 -0.18982717599903071 0 -0.28176111780146029 -0.21103223514228589 0 -0.29970926333012798 -0.19964494041729519 0 -0.3011436515486533 -0.21932194774459221 0 -0.28176111780146029 -0.21103223514228589 0 -0.29970926333012798 -0.19964494041729519 0 -0.3011436515486533 -0.21932194774459221 0 -0.29970926333012798 -0.19964494041729519 0 -0.31954261003001078 -0.21025097328799719 0 -0.29970926333012798 -0.19964494041729519 0 -0.30198197106959462 -0.17789908998637999 0 -0.31678819589616891 -0.19014468464814649 0 -0.29970926333012798 -0.19964494041729519 0 -0.31678819589616891 -0.19014468464814649 0 -0.31954261003001078 -0.21025097328799719 0 -0.30198197106959462 -0.17789908998637999 0 -0.31833693175007549 -0.17440165930136031 0 -0.31678819589616891 -0.19014468464814649 0 -0.30198197106959462 -0.17789908998637999 0 -0.31113933107733338 -0.16032818230496301 0 -0.31833693175007549 -0.17440165930136031 0 -0.30198197106959462 -0.17789908998637999 0 -0.31113933107733338 -0.16032818230496301 0 -0.29481785532202892 -0.16030672340862251 0 -0.31113933107733338 -0.16032818230496301 0 -0.29481785532202892 -0.16030672340862251 0 -0.30142930327058942 -0.1496806824591779 0 -0.30198197106959462 -0.17789908998637999 0 -0.29481785532202892 -0.16030672340862251 0 -0.28592553291097128 -0.1716352958166775 0 -0.29481785532202892 -0.16030672340862251 0 -0.28358767114196343 -0.15746822480830441 0 -0.28592553291097128 -0.1716352958166775 0 -0.2814027475138004 -0.18982717599903071 0 -0.30198197106959462 -0.17789908998637999 0 -0.28592553291097128 -0.1716352958166775 0 -0.2814027475138004 -0.18982717599903071 0 -0.28592553291097128 -0.1716352958166775 0 -0.27003292923223471 -0.1717523617232774 0 -0.26365524490517372 -0.18939327885313401 0 -0.2814027475138004 -0.18982717599903071 0 -0.27003292923223471 -0.1717523617232774 0 -0.24847591378357781 -0.17821474295514911 0 -0.26365524490517372 -0.18939327885313401 0 -0.27003292923223471 -0.1717523617232774 0 -0.24847591378357781 -0.17821474295514911 0 -0.25499065587372288 -0.15695159060581779 0 -0.27003292923223471 -0.1717523617232774 0 -0.25499065587372288 -0.15695159060581779 0 -0.27003292923223471 -0.1717523617232774 0 -0.27080410040637631 -0.15533242423567259 0 -0.28358767114196343 -0.15746822480830441 0 -0.27003292923223471 -0.1717523617232774 0 -0.27080410040637631 -0.15533242423567259 0 -0.28358767114196343 -0.15746822480830441 0 -0.28592553291097128 -0.1716352958166775 0 -0.27003292923223471 -0.1717523617232774 0 -0.28358767114196343 -0.15746822480830441 0 -0.27835986449823358 -0.14785057279778421 0 -0.27080410040637631 -0.15533242423567259 0 -0.27835986449823358 -0.14785057279778421 0 -0.26873027698924618 -0.1467956507454935 0 -0.28277042610567099 -0.13411778733383389 0 -0.27835986449823358 -0.14785057279778421 0 -0.26873027698924618 -0.1467956507454935 0 -0.27080410040637631 -0.15533242423567259 0 -0.25499065587372288 -0.15695159060581779 0 -0.26873027698924618 -0.1467956507454935 0 -0.25672633806222739 -0.13972587875435921 0 -0.25499065587372288 -0.15695159060581779 0 -0.26873027698924618 -0.1467956507454935 0 -0.27080410040637631 -0.15533242423567259 0 -0.23735960205357631 -0.12374132694359261 0 -0.26524502498680919 -0.12809454054107949 0 -0.23735960205357631 -0.12374132694359261 0 -0.25672633806222739 -0.13972587875435921 0 -0.26524502498680919 -0.12809454054107949 0 -0.26524502498680919 -0.12809454054107949 0 -0.29313044792004228 -0.13244775413856641 0 -0.28277042610567099 -0.13411778733383389 0 -0.25672633806222739 -0.13972587875435921 0 -0.28277042610567099 -0.13411778733383389 0 -0.25672633806222739 -0.13972587875435921 0 -0.26524502498680919 -0.12809454054107949 0 -0.28277042610567099 -0.13411778733383389 0 -0.26873027698924618 -0.1467956507454935 0 -0.25672633806222739 -0.13972587875435921 0 -0.28277042610567099 -0.13411778733383389 0 -0.28466646610991142 -0.1236554844324633 0 -0.26524502498680919 -0.12809454054107949 0 -0.29313044792004228 -0.13244775413856641 0 -0.26524502498680919 -0.12809454054107949 0 -0.29313044792004228 -0.13244775413856641 0 -0.29313044792004228 -0.13244775413856641 0 -0.28277042610567099 -0.13411778733383389 0 -0.29464834966765552 -0.1413789519850705 0 -0.28277042610567099 -0.13411778733383389 0 -0.28798311730256598 -0.14751450397394469 0 -0.29464834966765552 -0.1413789519850705 0 -0.27835986449823358 -0.14785057279778421 0 -0.28277042610567099 -0.13411778733383389 0 -0.28798311730256598 -0.14751450397394469 0 -0.29481785532202892 -0.16030672340862251 0 -0.28358767114196343 -0.15746822480830441 0 -0.28798311730256598 -0.14751450397394469 0 -0.28358767114196343 -0.15746822480830441 0 -0.27835986449823358 -0.14785057279778421 0 -0.28798311730256598 -0.14751450397394469 0 -0.29481785532202892 -0.16030672340862251 0 -0.28798311730256598 -0.14751450397394469 0 -0.30142930327058942 -0.1496806824591779 0 -0.28798311730256598 -0.14751450397394469 0 -0.29464834966765552 -0.1413789519850705 0 -0.30142930327058942 -0.1496806824591779 0 -0.29464834966765552 -0.1413789519850705 0 -0.30142930327058942 -0.1496806824591779 0 -0.30658027664218629 -0.14270725319163571 0 -0.31113933107733338 -0.16032818230496301 0 -0.30142930327058942 -0.1496806824591779 0 -0.30976245591528501 -0.14961407504675589 0 -0.30976245591528501 -0.14961407504675589 0 -0.30658027664218629 -0.14270725319163571 0 -0.31881909815167059 -0.14728926370576351 0 -0.30142930327058942 -0.1496806824591779 0 -0.30976245591528501 -0.14961407504675589 0 -0.30658027664218629 -0.14270725319163571 0 -0.29313044792004228 -0.13244775413856641 0 -0.32101587085327521 -0.13680096773605319 0 -0.29313044792004228 -0.13244775413856641 0 -0.30658027664218629 -0.14270725319163571 0 -0.32101587085327521 -0.13680096773605319 0 -0.29313044792004228 -0.13244775413856641 0 -0.30380912160102108 -0.12673670177513921 0 -0.32101587085327521 -0.13680096773605319 0 -0.29534455504457008 -0.11823194866202601 0 -0.29313044792004228 -0.13244775413856641 0 -0.30380912160102108 -0.12673670177513921 0 -0.29313044792004228 -0.13244775413856641 0 -0.29464834966765552 -0.1413789519850705 0 -0.30658027664218629 -0.14270725319163571 0 -0.30380912160102108 -0.12673670177513921 0 -0.32101587085327521 -0.13680096773605319 0 -0.31512700278849187 -0.12602651855045091 0 -0.32101587085327521 -0.13680096773605319 0 -0.3235925460353033 -0.1275661428124901 0 -0.33450447576995929 -0.13234091471072121 0 -0.32101587085327521 -0.13680096773605319 0 -0.3235925460353033 -0.1275661428124901 0 -0.31512700278849187 -0.12602651855045091 0 -0.30658027664218629 -0.14270725319163571 0 -0.32101587085327521 -0.13680096773605319 0 -0.31881909815167059 -0.14728926370576351 0 -0.31881909815167059 -0.14728926370576351 0 -0.3317139221310913 -0.1645259087213731 0 -0.32101587085327521 -0.13680096773605319 0 -0.31881909815167059 -0.14728926370576351 0 -0.3360034445472061 -0.14574373254282449 0 -0.31113933107733338 -0.16032818230496301 0 -0.30976245591528501 -0.14961407504675589 0 -0.31881909815167059 -0.14728926370576351 0 -0.31881909815167059 -0.14728926370576351 0 -0.3360034445472061 -0.14574373254282449 0 -0.3317139221310913 -0.1645259087213731 0 -0.3360034445472061 -0.14574373254282449 0 -0.33450447576995929 -0.13234091471072121 0 -0.35430814607683703 -0.13071052114762599 0 -0.32862709131347878 -0.1194068168474031 0 -0.33450447576995929 -0.13234091471072121 0 -0.35430814607683703 -0.13071052114762599 0 -0.32101587085327521 -0.13680096773605319 0 -0.3360034445472061 -0.14574373254282449 0 -0.33450447576995929 -0.13234091471072121 0 -0.32862709131347878 -0.1194068168474031 0 -0.3235925460353033 -0.1275661428124901 0 -0.33450447576995929 -0.13234091471072121 0 -0.3360034445472061 -0.14574373254282449 0 -0.35430814607683703 -0.13071052114762599 0 -0.35565915430040368 -0.16279481923540989 0 -0.35430814607683703 -0.13071052114762599 0 -0.35565915430040368 -0.16279481923540989 0 -0.36840585821697752 -0.1570579396070618 0 -0.35430814607683703 -0.13071052114762599 0 -0.37203980735022302 -0.1309930604667861 0 -0.36840585821697752 -0.1570579396070618 0 -0.35430814607683703 -0.13071052114762599 0 -0.36840585821697752 -0.1570579396070618 0 -0.37203980735022302 -0.1309930604667861 0 -0.36840585821697752 -0.1570579396070618 0 -0.38035977331164228 -0.14950489279892351 0 -0.35565915430040368 -0.16279481923540989 0 -0.34460874611051212 -0.18176255373698269 0 -0.3317139221310913 -0.1645259087213731 0 -0.36888315164039248 -0.17435711426376729 0 -0.38035977331164228 -0.14950489279892351 0 -0.35565915430040368 -0.16279481923540989 0 -0.36840585821697752 -0.1570579396070618 0 -0.36888315164039248 -0.17435711426376729 0 -0.36840585821697752 -0.1570579396070618 0 -0.36888315164039248 -0.17435711426376729 0 -0.38035977331164228 -0.14950489279892351 0 -0.35565915430040368 -0.16279481923540989 0 -0.36888315164039248 -0.17435711426376729 0 -0.36888315164039248 -0.17435711426376729 0 -0.35750357008993311 -0.19899919875259209 0 -0.36888315164039248 -0.17435711426376729 0 -0.34460874611051212 -0.18176255373698269 0 -0.35750357008993311 -0.19899919875259209 0 -0.35565915430040368 -0.16279481923540989 0 -0.36888315164039248 -0.17435711426376729 0 -0.34460874611051212 -0.18176255373698269 0 -0.34460874611051212 -0.18176255373698269 0 -0.3317139221310913 -0.1645259087213731 0 -0.34460874611051212 -0.18176255373698269 0 -0.32915989227150011 -0.18195231550275229 0 -0.33258126197714888 -0.1974226065229624 0 -0.34460874611051212 -0.18176255373698269 0 -0.32915989227150011 -0.18195231550275229 0 -0.3317139221310913 -0.1645259087213731 0 -0.3360034445472061 -0.14574373254282449 0 -0.35565915430040368 -0.16279481923540989 0 -0.3317139221310913 -0.1645259087213731 0 -0.31113933107733338 -0.16032818230496301 0 -0.31881909815167059 -0.14728926370576351 0 -0.3317139221310913 -0.1645259087213731 0 -0.31113933107733338 -0.16032818230496301 0 -0.3317139221310913 -0.1645259087213731 0 -0.31833693175007549 -0.17440165930136031 0 -0.32915989227150011 -0.18195231550275229 0 -0.3317139221310913 -0.1645259087213731 0 -0.31833693175007549 -0.17440165930136031 0 -0.32915989227150011 -0.18195231550275229 0 -0.31833693175007549 -0.17440165930136031 0 -0.31678819589616891 -0.19014468464814649 0 -0.32915989227150011 -0.18195231550275229 0 -0.31678819589616891 -0.19014468464814649 0 -0.33258126197714888 -0.1974226065229624 0 -0.31678819589616891 -0.19014468464814649 0 -0.31954261003001078 -0.21025097328799719 0 -0.33258126197714888 -0.1974226065229624 0 -0.33755109630538149 -0.2139606129327781 0 -0.34418568844035757 -0.20204862864151801 0 -0.34868376771881138 -0.2180981712622744 0 -0.31954261003001078 -0.21025097328799719 0 -0.33755109630538149 -0.2139606129327781 0 -0.33258126197714888 -0.1974226065229624 0 -0.31954261003001078 -0.21025097328799719 0 -0.33755109630538149 -0.2139606129327781 0 -0.33259792824361212 -0.2248868562916074 0 -0.33755109630538149 -0.2139606129327781 0 -0.33258126197714888 -0.1974226065229624 0 -0.34418568844035757 -0.20204862864151801 0 -0.33755109630538149 -0.2139606129327781 0 -0.34868376771881138 -0.2180981712622744 0 -0.34460874611051212 -0.18176255373698269 0 -0.33258126197714888 -0.1974226065229624 0 -0.34418568844035757 -0.20204862864151801 0 -0.34460874611051212 -0.18176255373698269 0 -0.34418568844035757 -0.20204862864151801 0 -0.35750357008993311 -0.19899919875259209 0 -0.34460874611051212 -0.18176255373698269 0 -0.35750357008993311 -0.19899919875259209 0 -0.36888315164039248 -0.17435711426376729 0 -0.36874107550273022 -0.20075835258688171 0 -0.37820748866006981 -0.19473797919232669 0 -0.36888315164039248 -0.17435711426376729 0 -0.35750357008993311 -0.19899919875259209 0 -0.36874107550273022 -0.20075835258688171 0 -0.36725598201742138 -0.21203534897134621 0 -0.36512596101444128 -0.2184231947428614 0 -0.34868376771881138 -0.2180981712622744 0 -0.36725598201742138 -0.21203534897134621 0 -0.3727959543764317 -0.21759162781222979 0 -0.36512596101444128 -0.2184231947428614 0 -0.36725598201742138 -0.21203534897134621 0 -0.3727959543764317 -0.21759162781222979 0 -0.37411684072842571 -0.21030199111028269 0 -0.36874107550273022 -0.20075835258688171 0 -0.36725598201742138 -0.21203534897134621 0 -0.37411684072842571 -0.21030199111028269 0 -0.36874107550273022 -0.20075835258688171 0 -0.37411684072842571 -0.21030199111028269 0 -0.38087381053160252 -0.20556843122967761 0 -0.35750357008993311 -0.19899919875259209 0 -0.36874107550273022 -0.20075835258688171 0 -0.36725598201742138 -0.21203534897134621 0 -0.35750357008993311 -0.19899919875259209 0 -0.36725598201742138 -0.21203534897134621 0 -0.35750357008993311 -0.19899919875259209 0 -0.36725598201742138 -0.21203534897134621 0 -0.34868376771881138 -0.2180981712622744 0 -0.34418568844035757 -0.20204862864151801 0 -0.35750357008993311 -0.19899919875259209 0 -0.34868376771881138 -0.2180981712622744 0 -0.35750357008993311 -0.19899919875259209 0 -0.34868376771881138 -0.2180981712622744 0 -0.34868376771881138 -0.2180981712622744 0 -0.34227384568308261 -0.23197863247878611 0 -0.34868376771881138 -0.2180981712622744 0 -0.3531401548239842 -0.2301628774130926 0 -0.36766973169970701 -0.22515447702172961 0 -0.34868376771881138 -0.2180981712622744 0 -0.36766973169970701 -0.22515447702172961 0 -0.3531401548239842 -0.2301628774130926 0 -0.36766973169970701 -0.22515447702172961 0 -0.3539332741943354 -0.24542022888958009 0 -0.34868376771881138 -0.2180981712622744 0 -0.3531401548239842 -0.2301628774130926 0 -0.34227384568308261 -0.23197863247878611 0 -0.3727959543764317 -0.21759162781222979 0 -0.36766973169970701 -0.22515447702172961 0 -0.38374362032031217 -0.23112848355436791 0 -0.36512596101444128 -0.2184231947428614 0 -0.34868376771881138 -0.2180981712622744 0 -0.36766973169970701 -0.22515447702172961 0 -0.3727959543764317 -0.21759162781222979 0 -0.36766973169970701 -0.22515447702172961 0 -0.3727959543764317 -0.21759162781222979 0 -0.36512596101444128 -0.2184231947428614 0 -0.36766973169970701 -0.22515447702172961 0 -0.36766973169970701 -0.22515447702172961 0 -0.37329009336983582 -0.24701193440318839 0 -0.3539332741943354 -0.24542022888958009 0 -0.36766973169970701 -0.22515447702172961 0 -0.37329009336983582 -0.24701193440318839 0 -0.38106667612793821 -0.23965608348018569 0 -0.36547778398137482 -0.25600809124793539 0 -0.37329009336983582 -0.24701193440318839 0 -0.3539332741943354 -0.24542022888958009 0 -0.36766973169970701 -0.22515447702172961 0 -0.3539332741943354 -0.24542022888958009 0 -0.34047067558443911 -0.2514149711421132 0 -0.3539332741943354 -0.24542022888958009 0 -0.34227384568308261 -0.23197863247878611 0 -0.3531401548239842 -0.2301628774130926 0 -0.3539332741943354 -0.24542022888958009 0 -0.34227384568308261 -0.23197863247878611 0 -0.34047067558443911 -0.2514149711421132 0 -0.34227384568308261 -0.23197863247878611 0 -0.32503234197739911 -0.2381237390503467 0 -0.34227384568308261 -0.23197863247878611 0 -0.33259792824361212 -0.2248868562916074 0 -0.32503234197739911 -0.2381237390503467 0 -0.34868376771881138 -0.2180981712622744 0 -0.34227384568308261 -0.23197863247878611 0 -0.33259792824361212 -0.2248868562916074 0 -0.33755109630538149 -0.2139606129327781 0 -0.34868376771881138 -0.2180981712622744 0 -0.33259792824361212 -0.2248868562916074 0 -0.33259792824361212 -0.2248868562916074 0 -0.31864499230983029 -0.22690925142060031 0 -0.32503234197739911 -0.2381237390503467 0 -0.31954261003001078 -0.21025097328799719 0 -0.33259792824361212 -0.2248868562916074 0 -0.31864499230983029 -0.22690925142060031 0 -0.3011436515486533 -0.21932194774459221 0 -0.31954261003001078 -0.21025097328799719 0 -0.31864499230983029 -0.22690925142060031 0 -0.31088160300180567 -0.25564055683012482 0 -0.3032200744027207 -0.23846922127844189 0 -0.32503234197739911 -0.2381237390503467 0 -0.3032200744027207 -0.23846922127844189 0 -0.31864499230983029 -0.22690925142060031 0 -0.32503234197739911 -0.2381237390503467 0 -0.34047067558443911 -0.2514149711421132 0 -0.31088160300180567 -0.25564055683012482 0 -0.32503234197739911 -0.2381237390503467 0 -0.41708911744681348 -0.25910795502086709 0 -0.43364843477101239 -0.23492290621915171 0 -0.41708911744681348 -0.25910795502086709 0 -0.43389645052110831 -0.25250213825564749 0 -0.43364843477101239 -0.23492290621915171 0 -0.41708911744681348 -0.25910795502086709 0 -0.43364843477101239 -0.23492290621915171 0 -0.42084058264017121 -0.2352627354654111 0 -0.43197807738648231 -0.22952365184785761 0 -0.41325237117756042 -0.2131509822052883 0 -0.44155934565651089 -0.21545305371511109 0 -0.43197807738648231 -0.22952365184785761 0 -0.41325237117756042 -0.2131509822052883 0 -0.43197807738648231 -0.22952365184785761 0 -0.42084058264017121 -0.2352627354654111 0 -0.41325237117756042 -0.2131509822052883 0 -0.43364843477101239 -0.23492290621915171 0 -0.43197807738648231 -0.22952365184785761 0 -0.42084058264017121 -0.2352627354654111 0 -0.42084058264017121 -0.2352627354654111 0 -0.40171734425667532 -0.22708834644436579 0 -0.41325237117756042 -0.2131509822052883 0 -0.41708911744681348 -0.25910795502086709 0 -0.41137459664158882 -0.2413977865800809 0 -0.42084058264017121 -0.2352627354654111 0 -0.41137459664158882 -0.2413977865800809 0 -0.42084058264017121 -0.2352627354654111 0 -0.40171734425667532 -0.22708834644436579 0 -0.41137459664158882 -0.2413977865800809 0 -0.39427694324533219 -0.24468440519333171 0 -0.38374362032031217 -0.23112848355436791 0 -0.41137459664158882 -0.2413977865800809 0 -0.38374362032031217 -0.23112848355436791 0 -0.40336899173835827 -0.25317939998793071 0 -0.41137459664158882 -0.2413977865800809 0 -0.39427694324533219 -0.24468440519333171 0 -0.39217757666982078 -0.25435668718018062 0 -0.39427694324533219 -0.24468440519333171 0 -0.3857421214741299 -0.24761256388671449 0 -0.39427694324533219 -0.24468440519333171 0 -0.3857421214741299 -0.24761256388671449 0 -0.38106667612793821 -0.23965608348018569 0 -0.39427694324533219 -0.24468440519333171 0 -0.38106667612793821 -0.23965608348018569 0 -0.38374362032031217 -0.23112848355436791 0 -0.38106667612793821 -0.23965608348018569 0 -0.38374362032031217 -0.23112848355436791 0 -0.37329009336983582 -0.24701193440318839 0 -0.3857421214741299 -0.24761256388671449 0 -0.38106667612793821 -0.23965608348018569 0 -0.38279029993493541 -0.25521283213244289 0 -0.37329009336983582 -0.24701193440318839 0 -0.3857421214741299 -0.24761256388671449 0 -0.38374362032031217 -0.23112848355436791 0 -0.38913514264447491 -0.21395339805854349 0 -0.36766973169970701 -0.22515447702172961 0 -0.38374362032031217 -0.23112848355436791 0 -0.38374362032031217 -0.23112848355436791 0 -0.38913514264447491 -0.21395339805854349 0 -0.3807132195381584 -0.215595915745151 0 -0.36766973169970701 -0.22515447702172961 0 -0.38106667612793821 -0.23965608348018569 0 -0.38374362032031217 -0.23112848355436791 0 -0.3727959543764317 -0.21759162781222979 0 -0.38374362032031217 -0.23112848355436791 0 -0.3807132195381584 -0.215595915745151 0 -0.41137459664158882 -0.2413977865800809 0 -0.38374362032031217 -0.23112848355436791 0 -0.40171734425667532 -0.22708834644436579 0 -0.38374362032031217 -0.23112848355436791 0 -0.40171734425667532 -0.22708834644436579 0 -0.38913514264447491 -0.21395339805854349 0 -0.39452666496863792 -0.1967783125627193 0 -0.41325237117756042 -0.2131509822052883 0 -0.40171734425667532 -0.22708834644436579 0 -0.38913514264447491 -0.21395339805854349 0 -0.41325237117756042 -0.2131509822052883 0 -0.38913514264447491 -0.21395339805854349 0 -0.39452666496863792 -0.1967783125627193 0 -0.41325237117756042 -0.2131509822052883 0 -0.38913514264447491 -0.21395339805854349 0 -0.39452666496863792 -0.1967783125627193 0 -0.38913514264447491 -0.21395339805854349 0 -0.38087381053160252 -0.20556843122967761 0 -0.39452666496863792 -0.1967783125627193 0 -0.38913514264447491 -0.21395339805854349 0 -0.38087381053160252 -0.20556843122967761 0 -0.3807132195381584 -0.215595915745151 0 -0.37411684072842571 -0.21030199111028269 0 -0.38087381053160252 -0.20556843122967761 0 -0.3807132195381584 -0.215595915745151 0 -0.3727959543764317 -0.21759162781222979 0 -0.37411684072842571 -0.21030199111028269 0 -0.3807132195381584 -0.215595915745151 0 -0.37820748866006981 -0.19473797919232669 0 -0.39452666496863792 -0.1967783125627193 0 -0.38170490830451609 -0.18556771341324241 0 -0.38087381053160252 -0.20556843122967761 0 -0.37820748866006981 -0.19473797919232669 0 -0.39452666496863792 -0.1967783125627193 0 -0.36874107550273022 -0.20075835258688171 0 -0.38087381053160252 -0.20556843122967761 0 -0.37820748866006981 -0.19473797919232669 0 -0.39452666496863792 -0.1967783125627193 0 -0.38170490830451609 -0.18556771341324241 0 -0.39452666496863792 -0.1967783125627193 0 -0.39054370200795518 -0.18562547474159771 0 -0.38170490830451609 -0.18556771341324241 0 -0.39452666496863792 -0.1967783125627193 0 -0.39937270799547192 -0.18134089094075451 0 -0.39452666496863792 -0.1967783125627193 0 -0.41131169052478278 -0.19356805473352209 0 -0.39937270799547192 -0.18134089094075451 0 -0.39452666496863792 -0.1967783125627193 0 -0.39705547755404103 -0.18171124586780041 0 -0.39054370200795518 -0.18562547474159771 0 -0.41131169052478278 -0.19356805473352209 0 -0.42789966516496192 -0.19767681800087289 0 -0.41939429932412209 -0.17814090924565901 0 -0.41131169052478278 -0.19356805473352209 0 -0.41325237117756042 -0.2131509822052883 0 -0.42789966516496192 -0.19767681800087289 0 -0.39452666496863792 -0.1967783125627193 0 -0.41131169052478278 -0.19356805473352209 0 -0.41325237117756042 -0.2131509822052883 0 -0.41325237117756042 -0.2131509822052883 0 -0.42789966516496192 -0.19767681800087289 0 -0.44155934565651089 -0.21545305371511109 0 -0.42789966516496192 -0.19767681800087289 0 -0.41939429932412209 -0.17814090924565901 0 -0.44012093567594202 -0.18935399453792839 0 -0.41939429932412209 -0.17814090924565901 0 -0.43941589065277248 -0.17494092755056501 0 -0.41939429932412209 -0.17814090924565901 0 -0.43941589065277248 -0.17494092755056501 0 -0.44012093567594202 -0.18935399453792839 0 -0.42495447535831288 -0.15763034021818181 0 -0.41939429932412209 -0.17814090924565901 0 -0.43941589065277248 -0.17494092755056501 0 -0.42495447535831288 -0.15763034021818181 0 -0.44353041384041519 -0.1520902992104369 0 -0.43941589065277248 -0.17494092755056501 0 -0.42495447535831288 -0.15763034021818181 0 -0.40669290567679739 -0.15802187017742769 0 -0.41939429932412209 -0.17814090924565901 0 -0.40669290567679739 -0.15802187017742769 0 -0.41939429932412209 -0.17814090924565901 0 -0.39937270799547192 -0.18134089094075451 0 -0.41131169052478278 -0.19356805473352209 0 -0.41939429932412209 -0.17814090924565901 0 -0.39937270799547192 -0.18134089094075451 0 -0.41939429932412209 -0.17814090924565901 0 -0.39937270799547192 -0.18134089094075451 0 -0.39937270799547192 -0.18134089094075451 0 -0.38888775720462537 -0.17844462712262929 0 -0.38950799885800841 -0.16620127184660791 0 -0.39452666496863792 -0.1967783125627193 0 -0.39937270799547192 -0.18134089094075451 0 -0.39705547755404103 -0.18171124586780041 0 -0.39705547755404103 -0.18171124586780041 0 -0.39054370200795518 -0.18562547474159771 0 -0.38888775720462537 -0.17844462712262929 0 -0.39937270799547192 -0.18134089094075451 0 -0.39705547755404103 -0.18171124586780041 0 -0.38888775720462537 -0.17844462712262929 0 -0.39937270799547192 -0.18134089094075451 0 -0.39705547755404103 -0.18171124586780041 0 -0.39054370200795518 -0.18562547474159771 0 -0.38888775720462537 -0.17844462712262929 0 -0.38170490830451609 -0.18556771341324241 0 -0.36888315164039248 -0.17435711426376729 0 -0.37820748866006981 -0.19473797919232669 0 -0.38170490830451609 -0.18556771341324241 0 -0.38888775720462537 -0.17844462712262929 0 -0.38170490830451609 -0.18556771341324241 0 -0.38094606009013648 -0.17164933910389851 0 -0.38888775720462537 -0.17844462712262929 0 -0.38094606009013648 -0.17164933910389851 0 -0.38950799885800841 -0.16620127184660791 0 -0.36888315164039248 -0.17435711426376729 0 -0.38170490830451609 -0.18556771341324241 0 -0.38094606009013648 -0.17164933910389851 0 -0.36888315164039248 -0.17435711426376729 0 -0.38170490830451609 -0.18556771341324241 0 -0.38094606009013648 -0.17164933910389851 0 -0.38950799885800841 -0.16620127184660791 0 -0.38035977331164228 -0.14950489279892351 0 -0.36888315164039248 -0.17435711426376729 0 -0.38094606009013648 -0.17164933910389851 0 -0.38035977331164228 -0.14950489279892351 0 -0.40669290567679739 -0.15802187017742769 0 -0.38950799885800841 -0.16620127184660791 0 -0.39622646562309771 -0.14884512678233419 0 -0.40669290567679739 -0.15802187017742769 0 -0.39937270799547192 -0.18134089094075451 0 -0.38950799885800841 -0.16620127184660791 0 -0.40669290567679739 -0.15802187017742769 0 -0.39937270799547192 -0.18134089094075451 0 -0.40669290567679739 -0.15802187017742769 0 -0.39622646562309771 -0.14884512678233419 0 -0.40959422294511022 -0.14038897899463459 0 -0.39622646562309771 -0.14884512678233419 0 -0.38035977331164228 -0.14950489279892351 0 -0.39497742732393021 -0.1301086200940772 0 -0.38950799885800841 -0.16620127184660791 0 -0.39622646562309771 -0.14884512678233419 0 -0.38035977331164228 -0.14950489279892351 0 -0.37203980735022302 -0.1309930604667861 0 -0.38035977331164228 -0.14950489279892351 0 -0.39497742732393021 -0.1301086200940772 0 -0.39622646562309771 -0.14884512678233419 0 -0.39497742732393021 -0.1301086200940772 0 -0.40959422294511022 -0.14038897899463459 0 -0.40959422294511022 -0.14038897899463459 0 -0.42642019842951201 -0.13437042083225731 0 -0.41601044702349338 -0.1188875209139191 0 -0.39497742732393021 -0.1301086200940772 0 -0.40959422294511022 -0.14038897899463459 0 -0.41601044702349338 -0.1188875209139191 0 -0.42495447535831288 -0.15763034021818181 0 -0.40669290567679739 -0.15802187017742769 0 -0.40959422294511022 -0.14038897899463459 0 -0.42495447535831288 -0.15763034021818181 0 -0.40959422294511022 -0.14038897899463459 0 -0.42642019842951201 -0.13437042083225731 0 -0.42495447535831288 -0.15763034021818181 0 -0.42642019842951201 -0.13437042083225731 0 -0.44353041384041519 -0.1520902992104369 0 -0.42642019842951201 -0.13437042083225731 0 -0.45199676199167532 -0.1304708296151392 0 -0.42642019842951201 -0.13437042083225731 0 -0.45199676199167532 -0.1304708296151392 0 -0.44353041384041519 -0.1520902992104369 0 -0.42642019842951201 -0.13437042083225731 0 -0.45199676199167532 -0.1304708296151392 0 -0.43867276531619059 -0.1114859001800548 0 -0.45199676199167532 -0.1304708296151392 0 -0.46674046343263592 -0.15147865018774731 0 -0.45199676199167532 -0.1304708296151392 0 -0.44353041384041519 -0.1520902992104369 0 -0.46674046343263592 -0.15147865018774731 0 -0.45199676199167532 -0.1304708296151392 0 -0.47560974395501943 -0.12687062050767081 0 -0.45199676199167532 -0.1304708296151392 0 -0.46674046343263592 -0.15147865018774731 0 -0.47560974395501943 -0.12687062050767081 0 -0.46674046343263592 -0.15147865018774731 0 -0.47560974395501943 -0.12687062050767081 0 -0.48353680176724839 -0.1382437790506382 0 -0.46674046343263592 -0.15147865018774731 0 -0.47560974395501943 -0.12687062050767081 0 -0.47560974395501943 -0.12687062050767081 0 -0.49098695692825789 -0.12452609738561531 0 -0.47560974395501943 -0.12687062050767081 0 -0.48353680176724839 -0.1382437790506382 0 -0.49098695692825789 -0.12452609738561531 0 -0.48353680176724839 -0.1382437790506382 0 -0.4999999999999995 -0.1387090520150529 0 -0.49098695692825789 -0.12452609738561531 0 -0.4999999999999995 -0.1387090520150529 0 -0.49999999999999939 -0.12315190247015551 0 -0.49098695692825789 -0.12452609738561531 0 -0.4999999999999995 -0.1387090520150529 0 -0.49098695692825789 -0.12452609738561531 0 -0.48353680176724839 -0.1382437790506382 0 -0.4999999999999995 -0.1387090520150529 0 -0.4843468445203285 -0.1496344751571039 0 -0.4999999999999995 -0.1387090520150529 0 -0.4843468445203285 -0.1496344751571039 0 -0.48884422123319649 -0.16135484713209339 0 -0.4843468445203285 -0.1496344751571039 0 -0.47955294429654433 -0.1575973215767798 0 -0.48884422123319649 -0.16135484713209339 0 -0.46674046343263592 -0.15147865018774731 0 -0.4843468445203285 -0.1496344751571039 0 -0.47955294429654433 -0.1575973215767798 0 -0.46674046343263592 -0.15147865018774731 0 -0.48353680176724839 -0.1382437790506382 0 -0.4843468445203285 -0.1496344751571039 0 -0.46674046343263592 -0.15147865018774731 0 -0.47828024800001578 -0.16792131383017461 0 -0.47955294429654433 -0.1575973215767798 0 -0.46674046343263592 -0.15147865018774731 0 -0.4727145712038171 -0.16961891460538761 0 -0.47828024800001578 -0.16792131383017461 0 -0.46674046343263592 -0.15147865018774731 0 -0.47828024800001578 -0.16792131383017461 0 -0.47828024800001578 -0.16792131383017461 0 -0.47955294429654433 -0.1575973215767798 0 -0.48884422123319649 -0.16135484713209339 0 -0.47828024800001578 -0.16792131383017461 0 -0.48884422123319649 -0.16135484713209339 0 -0.48982003256739631 -0.1843639774726015 0 -0.4999999999999995 -0.1387090520150529 0 -0.5 -0.16876685546401041 0 -0.48884422123319649 -0.16135484713209339 0 -0.5 -0.16876685546401041 0 -0.48884422123319649 -0.16135484713209339 0 -0.48982003256739631 -0.1843639774726015 0 -0.5 -0.16876685546401041 0 -0.48982003256739631 -0.1843639774726015 0 -0.5 -0.19882465891296769 0 -0.47828024800001578 -0.16792131383017461 0 -0.48982003256739631 -0.1843639774726015 0 -0.47622774214217761 -0.17814392633274759 0 -0.47828024800001578 -0.16792131383017461 0 -0.48982003256739631 -0.1843639774726015 0 -0.48982003256739631 -0.1843639774726015 0 -0.47622774214217761 -0.17814392633274759 0 -0.47300802198590791 -0.19037827103424981 0 -0.4727145712038171 -0.16961891460538761 0 -0.47828024800001578 -0.16792131383017461 0 -0.47622774214217761 -0.17814392633274759 0 -0.4727145712038171 -0.16961891460538761 0 -0.47622774214217761 -0.17814392633274759 0 -0.46717584360988151 -0.1789995946940259 0 -0.47622774214217761 -0.17814392633274759 0 -0.46717584360988151 -0.1789995946940259 0 -0.47300802198590791 -0.19037827103424981 0 -0.45421141404834248 -0.1862407955876772 0 -0.46717584360988151 -0.1789995946940259 0 -0.47300802198590791 -0.19037827103424981 0 -0.45421141404834248 -0.1862407955876772 0 -0.46717584360988151 -0.1789995946940259 0 -0.45943748198142292 -0.17174094585547081 0 -0.45421141404834248 -0.1862407955876772 0 -0.45943748198142292 -0.17174094585547081 0 -0.4727145712038171 -0.16961891460538761 0 -0.46717584360988151 -0.1789995946940259 0 -0.45943748198142292 -0.17174094585547081 0 -0.46674046343263592 -0.15147865018774731 0 -0.45943748198142292 -0.17174094585547081 0 -0.4727145712038171 -0.16961891460538761 0 -0.45943748198142292 -0.17174094585547081 0 -0.46674046343263592 -0.15147865018774731 0 -0.4727145712038171 -0.16961891460538761 0 -0.45943748198142292 -0.17174094585547081 0 -0.44353041384041519 -0.1520902992104369 0 -0.46674046343263592 -0.15147865018774731 0 -0.45943748198142292 -0.17174094585547081 0 -0.44353041384041519 -0.1520902992104369 0 -0.45943748198142292 -0.17174094585547081 0 -0.43941589065277248 -0.17494092755056501 0 -0.45421141404834248 -0.1862407955876772 0 -0.45943748198142292 -0.17174094585547081 0 -0.43941589065277248 -0.17494092755056501 0 -0.45943748198142292 -0.17174094585547081 0 -0.43941589065277248 -0.17494092755056501 0 -0.45421141404834248 -0.1862407955876772 0 -0.43941589065277248 -0.17494092755056501 0 -0.44012093567594202 -0.18935399453792839 0 -0.42789966516496192 -0.19767681800087289 0 -0.44898534611526197 -0.20074064531988359 0 -0.44012093567594202 -0.18935399453792839 0 -0.45421141404834248 -0.1862407955876772 0 -0.44898534611526197 -0.20074064531988359 0 -0.44012093567594202 -0.18935399453792839 0 -0.45421141404834248 -0.1862407955876772 0 -0.44898534611526197 -0.20074064531988359 0 -0.42789966516496192 -0.19767681800087289 0 -0.44898534611526197 -0.20074064531988359 0 -0.44155934565651089 -0.21545305371511109 0 -0.44155934565651089 -0.21545305371511109 0 -0.45662960214964687 -0.20850488917106211 0 -0.45813510481913611 -0.2198148430442422 0 -0.44898534611526197 -0.20074064531988359 0 -0.44155934565651089 -0.21545305371511109 0 -0.45662960214964687 -0.20850488917106211 0 -0.45662960214964687 -0.20850488917106211 0 -0.46220751633882118 -0.19889324157660199 0 -0.4722606978185041 -0.2076226621994719 0 -0.4722606978185041 -0.2076226621994719 0 -0.4713469101238914 -0.22444756422016671 0 -0.45813510481913611 -0.2198148430442422 0 -0.45662960214964687 -0.20850488917106211 0 -0.4722606978185041 -0.2076226621994719 0 -0.45813510481913611 -0.2198148430442422 0 -0.45421141404834248 -0.1862407955876772 0 -0.46220751633882118 -0.19889324157660199 0 -0.47300802198590791 -0.19037827103424981 0 -0.44898534611526197 -0.20074064531988359 0 -0.45662960214964687 -0.20850488917106211 0 -0.46220751633882118 -0.19889324157660199 0 -0.45421141404834248 -0.1862407955876772 0 -0.44898534611526197 -0.20074064531988359 0 -0.46220751633882118 -0.19889324157660199 0 -0.47300802198590791 -0.19037827103424981 0 -0.48426438459749582 -0.1991992799499242 0 -0.4722606978185041 -0.2076226621994719 0 -0.46220751633882118 -0.19889324157660199 0 -0.47300802198590791 -0.19037827103424981 0 -0.4722606978185041 -0.2076226621994719 0 -0.48982003256739631 -0.1843639774726015 0 -0.47300802198590791 -0.19037827103424981 0 -0.48426438459749582 -0.1991992799499242 0 -0.48982003256739631 -0.1843639774726015 0 -0.48426438459749582 -0.1991992799499242 0 -0.5 -0.19882465891296769 0 -0.5 -0.19882465891296769 0 -0.4862331706156704 -0.2148068301303302 0 -0.5 -0.2288824623619253 0 -0.48426438459749582 -0.1991992799499242 0 -0.5 -0.19882465891296769 0 -0.4862331706156704 -0.2148068301303302 0 -0.4862331706156704 -0.2148068301303302 0 -0.4722606978185041 -0.2076226621994719 0 -0.4713469101238914 -0.22444756422016671 0 -0.48426438459749582 -0.1991992799499242 0 -0.4862331706156704 -0.2148068301303302 0 -0.4722606978185041 -0.2076226621994719 0 -0.4713469101238914 -0.22444756422016671 0 -0.48654379102098072 -0.23181005802014029 0 -0.4686237873081921 -0.2388531897552848 0 -0.4862331706156704 -0.2148068301303302 0 -0.4713469101238914 -0.22444756422016671 0 -0.48654379102098072 -0.23181005802014029 0 -0.4862331706156704 -0.2148068301303302 0 -0.48654379102098072 -0.23181005802014029 0 -0.5 -0.2288824623619253 0 -0.5 -0.25894026581088281 0 -0.5 -0.2288824623619253 0 -0.48431189365409638 -0.2488967277830833 0 -0.48654379102098072 -0.23181005802014029 0 -0.5 -0.2288824623619253 0 -0.48431189365409638 -0.2488967277830833 0 -0.48654379102098072 -0.23181005802014029 0 -0.48431189365409638 -0.2488967277830833 0 -0.4686237873081921 -0.2388531897552848 0 -0.46713585573027022 -0.26026357074689799 0 -0.48431189365409638 -0.2488967277830833 0 -0.4686237873081921 -0.2388531897552848 0 -0.48654379102098072 -0.23181005802014029 0 -0.4686237873081921 -0.2388531897552848 0 -0.4686237873081921 -0.2388531897552848 0 -0.45497857871226211 -0.23133918066165859 0 -0.4507037835954032 -0.24589632149042839 0 -0.46713585573027022 -0.26026357074689799 0 -0.4686237873081921 -0.2388531897552848 0 -0.4507037835954032 -0.24589632149042839 0 -0.4686237873081921 -0.2388531897552848 0 -0.4507037835954032 -0.24589632149042839 0 -0.4713469101238914 -0.22444756422016671 0 -0.4686237873081921 -0.2388531897552848 0 -0.45497857871226211 -0.23133918066165859 0 -0.4713469101238914 -0.22444756422016671 0 -0.45813510481913611 -0.2198148430442422 0 -0.45497857871226211 -0.23133918066165859 0 -0.43197807738648231 -0.22952365184785761 0 -0.44155934565651089 -0.21545305371511109 0 -0.45497857871226211 -0.23133918066165859 0 -0.44155934565651089 -0.21545305371511109 0 -0.45813510481913611 -0.2198148430442422 0 -0.45497857871226211 -0.23133918066165859 0 -0.43389645052110831 -0.25250213825564749 0 -0.43364843477101239 -0.23492290621915171 0 -0.4507037835954032 -0.24589632149042839 0 -0.43389645052110831 -0.25250213825564749 0 -0.4507037835954032 -0.24589632149042839 0 -0.43197807738648231 -0.22952365184785761 0 -0.4507037835954032 -0.24589632149042839 0 -0.43197807738648231 -0.22952365184785761 0 -0.45497857871226211 -0.23133918066165859 0 -0.4507037835954032 -0.24589632149042839 0 -0.43364843477101239 -0.23492290621915171 0 -0.43197807738648231 -0.22952365184785761 0 -0.4507037835954032 -0.24589632149042839 0 -0.41108232474740769 -0.037597895119150231 0 -0.4320190163912187 -0.050351794278332009 0 -0.41108232474740769 -0.037597895119150231 0 -0.41566551206508412 -0.054570780036374833 0 -0.40168030653817838 -0.042649532876692008 0 -0.41108232474740769 -0.037597895119150231 0 -0.42495282759776931 -0.034122240498317843 0 -0.40987246065324717 -0.026026625881115661 0 -0.41108232474740769 -0.037597895119150231 0 -0.41566551206508412 -0.054570780036374833 0 -0.4320190163912187 -0.050351794278332009 0 -0.41566551206508412 -0.054570780036374833 0 -0.39874745487680202 -0.054597624099926557 0 -0.41202477196522258 -0.073516041309885274 0 -0.4320190163912187 -0.050351794278332009 0 -0.44003858195328732 -0.068771054559430361 0 -0.41566551206508412 -0.054570780036374833 0 -0.4320190163912187 -0.050351794278332009 0 -0.44003858195328732 -0.068771054559430361 0 -0.4320190163912187 -0.050351794278332009 0 -0.42495282759776931 -0.034122240498317843 0 -0.41108232474740769 -0.037597895119150231 0 -0.4320190163912187 -0.050351794278332009 0 -0.42495282759776931 -0.034122240498317843 0 -0.4320190163912187 -0.050351794278332009 0 -0.42495282759776931 -0.034122240498317843 0 -0.43969726542472748 -0.037355708242056432 0 -0.42495282759776931 -0.034122240498317843 0 -0.43969726542472748 -0.037355708242056432 0 -0.44598902988657108 -0.02269951896891027 0 -0.42495282759776931 -0.034122240498317843 0 -0.41788663880431909 -0.01789268671830406 0 -0.44598902988657108 -0.02269951896891027 0 -0.42010665761273303 -0.011531376411100389 0 -0.44598902988657108 -0.02269951896891027 0 -0.42010665761273303 -0.011531376411100389 0 -0.41788663880431909 -0.01789268671830406 0 -0.44598902988657108 -0.02269951896891027 0 -0.43474097910347309 -0.0074752998551253207 0 -0.42010665761273303 -0.011531376411100389 0 -0.44598902988657108 -0.02269951896891027 0 -0.43474097910347309 -0.0074752998551253207 0 -0.42010665761273303 -0.011531376411100389 0 -0.41333066850425898 -0.0017902344883215309 0 -0.43474097910347309 -0.0074752998551253207 0 -0.41333066850425898 -0.0017902344883215309 0 -0.4379668944722202 0.0071751830104823614 0 -0.42010665761273303 -0.011531376411100389 0 -0.4129777066703666 -0.013354589981656419 0 -0.41333066850425898 -0.0017902344883215309 0 -0.42010665761273303 -0.011531376411100389 0 -0.4129777066703666 -0.013354589981656419 0 -0.41788663880431909 -0.01789268671830406 0 -0.4129777066703666 -0.013354589981656419 0 -0.41333066850425898 -0.0017902344883215309 0 -0.40274436693295579 -0.016558151887176201 0 -0.42495282759776931 -0.034122240498317843 0 -0.41788663880431909 -0.01789268671830406 0 -0.42495282759776931 -0.034122240498317843 0 -0.41788663880431909 -0.01789268671830406 0 -0.40987246065324717 -0.026026625881115661 0 -0.4129777066703666 -0.013354589981656419 0 -0.4108202014975661 -0.019000500403379909 0 -0.40274436693295579 -0.016558151887176201 0 -0.4108202014975661 -0.019000500403379909 0 -0.40987246065324717 -0.026026625881115661 0 -0.40274436693295579 -0.016558151887176201 0 -0.41788663880431909 -0.01789268671830406 0 -0.4108202014975661 -0.019000500403379909 0 -0.40987246065324717 -0.026026625881115661 0 -0.4129777066703666 -0.013354589981656419 0 -0.41788663880431909 -0.01789268671830406 0 -0.4108202014975661 -0.019000500403379909 0 -0.39743610321321698 -0.030802158238040628 0 -0.38869444253629981 -0.010755651987131239 0 -0.38701012699435122 -0.023319691674284139 0 -0.39743610321321698 -0.030802158238040628 0 -0.38869444253629981 -0.010755651987131239 0 -0.40274436693295579 -0.016558151887176201 0 -0.39743610321321698 -0.030802158238040628 0 -0.38869444253629981 -0.010755651987131239 0 -0.40987246065324717 -0.026026625881115661 0 -0.40274436693295579 -0.016558151887176201 0 -0.39743610321321698 -0.030802158238040628 0 -0.41333066850425898 -0.0017902344883215309 0 -0.38869444253629981 -0.010755651987131239 0 -0.41333066850425898 -0.0017902344883215309 0 -0.38869444253629981 -0.010755651987131239 0 -0.39810529252901983 0.001715975070925703 0 -0.41333066850425898 -0.0017902344883215309 0 -0.40274436693295579 -0.016558151887176201 0 -0.38869444253629981 -0.010755651987131239 0 -0.37219282069997173 -0.0167607896800013 0 -0.38869444253629981 -0.010755651987131239 0 -0.37219282069997173 -0.0167607896800013 0 -0.36870810208001809 -0.011795527475880269 0 -0.38869444253629981 -0.010755651987131239 0 -0.36870810208001809 -0.011795527475880269 0 -0.38869444253629981 -0.010755651987131239 0 -0.38267038653320551 0.00342366148846019 0 -0.38869444253629981 -0.010755651987131239 0 -0.38267038653320551 0.00342366148846019 0 -0.39810529252901983 0.001715975070925703 0 -0.38869444253629981 -0.010755651987131239 0 -0.38267038653320551 0.00342366148846019 0 -0.36870810208001809 -0.011795527475880269 0 -0.38267038653320551 0.00342366148846019 0 -0.37219282069997173 -0.0167607896800013 0 -0.38701012699435122 -0.023319691674284139 0 -0.3854701377883813 -0.035679206889967799 0 -0.37219282069997173 -0.0167607896800013 0 -0.38869444253629981 -0.010755651987131239 0 -0.38701012699435122 -0.023319691674284139 0 -0.37219282069997173 -0.0167607896800013 0 -0.3854701377883813 -0.035679206889967799 0 -0.37088760371306712 -0.031916364111270468 0 -0.37219282069997173 -0.0167607896800013 0 -0.3854701377883813 -0.035679206889967799 0 -0.39743610321321698 -0.030802158238040628 0 -0.38701012699435122 -0.023319691674284139 0 -0.3854701377883813 -0.035679206889967799 0 -0.37088760371306712 -0.031916364111270468 0 -0.3854701377883813 -0.035679206889967799 0 -0.37707205259782661 -0.04961681125270398 0 -0.3854701377883813 -0.035679206889967799 0 -0.39874745487680202 -0.054597624099926557 0 -0.37707205259782661 -0.04961681125270398 0 -0.39743610321321698 -0.030802158238040628 0 -0.3854701377883813 -0.035679206889967799 0 -0.40168030653817838 -0.042649532876692008 0 -0.3854701377883813 -0.035679206889967799 0 -0.39874745487680202 -0.054597624099926557 0 -0.3854701377883813 -0.035679206889967799 0 -0.40168030653817838 -0.042649532876692008 0 -0.39874745487680202 -0.054597624099926557 0 -0.41108232474740769 -0.037597895119150231 0 -0.40987246065324717 -0.026026625881115661 0 -0.39743610321321698 -0.030802158238040628 0 -0.41108232474740769 -0.037597895119150231 0 -0.39743610321321698 -0.030802158238040628 0 -0.40168030653817838 -0.042649532876692008 0 -0.41566551206508412 -0.054570780036374833 0 -0.40168030653817838 -0.042649532876692008 0 -0.39874745487680202 -0.054597624099926557 0 -0.39874745487680202 -0.054597624099926557 0 -0.37707205259782661 -0.04961681125270398 0 -0.37947217108997561 -0.065637003903253097 0 -0.37462747897890453 -0.080276741319370876 0 -0.37947217108997561 -0.065637003903253097 0 -0.39416089349652889 -0.076541829900648076 0 -0.37462747897890453 -0.080276741319370876 0 -0.39023190115990991 -0.091711324561404475 0 -0.39416089349652889 -0.076541829900648076 0 -0.39023190115990991 -0.091711324561404475 0 -0.40499056113818832 -0.087284197033220406 0 -0.39416089349652889 -0.076541829900648076 0 -0.40499056113818832 -0.087284197033220406 0 -0.39416089349652889 -0.076541829900648076 0 -0.41202477196522258 -0.073516041309885274 0 -0.39416089349652889 -0.076541829900648076 0 -0.41202477196522258 -0.073516041309885274 0 -0.39874745487680202 -0.054597624099926557 0 -0.41202477196522258 -0.073516041309885274 0 -0.39874745487680202 -0.054597624099926557 0 -0.37947217108997561 -0.065637003903253097 0 -0.39416089349652889 -0.076541829900648076 0 -0.39874745487680202 -0.054597624099926557 0 -0.39416089349652889 -0.076541829900648076 0 -0.41202477196522258 -0.073516041309885274 0 -0.39497742732393021 -0.1301086200940772 0 -0.37618085244823002 -0.1101468671001255 0 -0.37203980735022302 -0.1309930604667861 0 -0.39497742732393021 -0.1301086200940772 0 -0.37618085244823002 -0.1101468671001255 0 -0.39023190115990991 -0.091711324561404475 0 -0.37618085244823002 -0.1101468671001255 0 -0.40104929948551132 -0.1044702346375206 0 -0.37462747897890453 -0.080276741319370876 0 -0.39023190115990991 -0.091711324561404475 0 -0.37618085244823002 -0.1101468671001255 0 -0.39023190115990991 -0.091711324561404475 0 -0.40499056113818832 -0.087284197033220406 0 -0.40104929948551132 -0.1044702346375206 0 -0.39497742732393021 -0.1301086200940772 0 -0.37618085244823002 -0.1101468671001255 0 -0.40104929948551132 -0.1044702346375206 0 -0.39497742732393021 -0.1301086200940772 0 -0.40104929948551132 -0.1044702346375206 0 -0.41601044702349338 -0.1188875209139191 0 -0.40104929948551132 -0.1044702346375206 0 -0.41601044702349338 -0.1188875209139191 0 -0.42534876864070659 -0.09250097074497006 0 -0.40499056113818832 -0.087284197033220406 0 -0.40104929948551132 -0.1044702346375206 0 -0.42534876864070659 -0.09250097074497006 0 -0.41601044702349338 -0.1188875209139191 0 -0.42534876864070659 -0.09250097074497006 0 -0.43867276531619059 -0.1114859001800548 0 -0.42534876864070659 -0.09250097074497006 0 -0.43867276531619059 -0.1114859001800548 0 -0.42642019842951201 -0.13437042083225731 0 -0.41601044702349338 -0.1188875209139191 0 -0.43867276531619059 -0.1114859001800548 0 -0.40499056113818832 -0.087284197033220406 0 -0.41202477196522258 -0.073516041309885274 0 -0.42534876864070659 -0.09250097074497006 0 -0.41202477196522258 -0.073516041309885274 0 -0.42534876864070659 -0.09250097074497006 0 -0.41202477196522258 -0.073516041309885274 0 -0.42534876864070659 -0.09250097074497006 0 -0.44003858195328732 -0.068771054559430361 0 -0.41202477196522258 -0.073516041309885274 0 -0.44003858195328732 -0.068771054559430361 0 -0.41566551206508412 -0.054570780036374833 0 -0.41202477196522258 -0.073516041309885274 0 -0.44003858195328732 -0.068771054559430361 0 -0.44003858195328732 -0.068771054559430361 0 -0.45739598612496962 -0.078868155314569935 0 -0.45742231396051131 -0.065826593306824097 0 -0.44003858195328732 -0.068771054559430361 0 -0.45742231396051131 -0.065826593306824097 0 -0.44003858195328732 -0.068771054559430361 0 -0.45059747659511501 -0.093022621203937519 0 -0.45739598612496962 -0.078868155314569935 0 -0.44003858195328732 -0.068771054559430361 0 -0.45059747659511501 -0.093022621203937519 0 -0.42534876864070659 -0.09250097074497006 0 -0.44003858195328732 -0.068771054559430361 0 -0.45059747659511501 -0.093022621203937519 0 -0.45739598612496962 -0.078868155314569935 0 -0.46385074046678682 -0.09014306395718702 0 -0.47507081764914783 -0.076577443545470275 0 -0.45059747659511501 -0.093022621203937519 0 -0.45739598612496962 -0.078868155314569935 0 -0.46385074046678682 -0.09014306395718702 0 -0.45742231396051131 -0.065826593306824097 0 -0.47507081764914783 -0.076577443545470275 0 -0.45742231396051131 -0.065826593306824097 0 -0.47507081764914783 -0.076577443545470275 0 -0.4692870162511017 -0.063816946807796579 0 -0.45739598612496962 -0.078868155314569935 0 -0.45742231396051131 -0.065826593306824097 0 -0.47507081764914783 -0.076577443545470275 0 -0.45742231396051131 -0.065826593306824097 0 -0.4692870162511017 -0.063816946807796579 0 -0.45199676199167532 -0.1304708296151392 0 -0.43867276531619059 -0.1114859001800548 0 -0.46138929473510398 -0.1135201365391421 0 -0.45199676199167532 -0.1304708296151392 0 -0.43867276531619059 -0.1114859001800548 0 -0.42534876864070659 -0.09250097074497006 0 -0.45059747659511501 -0.093022621203937519 0 -0.43867276531619059 -0.1114859001800548 0 -0.45059747659511501 -0.093022621203937519 0 -0.43867276531619059 -0.1114859001800548 0 -0.46138929473510398 -0.1135201365391421 0 -0.45059747659511501 -0.093022621203937519 0 -0.4628753094227176 -0.0992748079096646 0 -0.46138929473510398 -0.1135201365391421 0 -0.45059747659511501 -0.093022621203937519 0 -0.46385074046678682 -0.09014306395718702 0 -0.4628753094227176 -0.0992748079096646 0 -0.46385074046678682 -0.09014306395718702 0 -0.4628753094227176 -0.0992748079096646 0 -0.47566372589386452 -0.1004134099383918 0 -0.4628753094227176 -0.0992748079096646 0 -0.46138929473510398 -0.1135201365391421 0 -0.47566372589386452 -0.1004134099383918 0 -0.45199676199167532 -0.1304708296151392 0 -0.47560974395501943 -0.12687062050767081 0 -0.46138929473510398 -0.1135201365391421 0 -0.48074721922213842 -0.1126165732335004 0 -0.47566372589386452 -0.1004134099383918 0 -0.49098695692825789 -0.12452609738561531 0 -0.47566372589386452 -0.1004134099383918 0 -0.49098695692825789 -0.12452609738561531 0 -0.47560974395501943 -0.12687062050767081 0 -0.46138929473510398 -0.1135201365391421 0 -0.48074721922213842 -0.1126165732335004 0 -0.47560974395501943 -0.12687062050767081 0 -0.48074721922213842 -0.1126165732335004 0 -0.47560974395501943 -0.12687062050767081 0 -0.48074721922213842 -0.1126165732335004 0 -0.49098695692825789 -0.12452609738561531 0 -0.46138929473510398 -0.1135201365391421 0 -0.48074721922213842 -0.1126165732335004 0 -0.47566372589386452 -0.1004134099383918 0 -0.47566372589386452 -0.1004134099383918 0 -0.48882497850424073 -0.10481501385135281 0 -0.49271932133778379 -0.087328293784117328 0 -0.49999999999999789 -0.1059982474247281 0 -0.49271932133778379 -0.087328293784117328 0 -0.49999999999999789 -0.1059982474247281 0 -0.49271932133778379 -0.087328293784117328 0 -0.50000000000000233 -0.091763428190646423 0 -0.49999999999999789 -0.1059982474247281 0 -0.48882497850424073 -0.10481501385135281 0 -0.49271932133778379 -0.087328293784117328 0 -0.49999999999999789 -0.1059982474247281 0 -0.48882497850424073 -0.10481501385135281 0 -0.49466875600146831 -0.1143771688348289 0 -0.48882497850424073 -0.10481501385135281 0 -0.49466875600146831 -0.1143771688348289 0 -0.49098695692825789 -0.12452609738561531 0 -0.47566372589386452 -0.1004134099383918 0 -0.48882497850424073 -0.10481501385135281 0 -0.49098695692825789 -0.12452609738561531 0 -0.49999999999999789 -0.1059982474247281 0 -0.49466875600146831 -0.1143771688348289 0 -0.49999999999999939 -0.12315190247015551 0 -0.49999999999999939 -0.12315190247015551 0 -0.49098695692825789 -0.12452609738561531 0 -0.49466875600146831 -0.1143771688348289 0 -0.49999999999999939 -0.12315190247015551 0 -0.49098695692825789 -0.12452609738561531 0 -0.47507081764914783 -0.076577443545470275 0 -0.4692870162511017 -0.063816946807796579 0 -0.48229536174909449 -0.060597977655420257 0 -0.47507081764914783 -0.076577443545470275 0 -0.49271932133778379 -0.087328293784117328 0 -0.48229536174909449 -0.060597977655420257 0 -0.47566372589386452 -0.1004134099383918 0 -0.47507081764914783 -0.076577443545470275 0 -0.49271932133778379 -0.087328293784117328 0 -0.46385074046678682 -0.09014306395718702 0 -0.47566372589386452 -0.1004134099383918 0 -0.47507081764914783 -0.076577443545470275 0 -0.47507081764914783 -0.076577443545470275 0 -0.49271932133778379 -0.087328293784117328 0 -0.49271932133778379 -0.087328293784117328 0 -0.50000000000000233 -0.091763428190646423 0 -0.5 -0.068884234917310994 0 -0.49271932133778379 -0.087328293784117328 0 -0.50000000000000233 -0.091763428190646423 0 -0.49271932133778379 -0.087328293784117328 0 -0.48229536174909449 -0.060597977655420257 0 -0.49271932133778379 -0.087328293784117328 0 -0.5 -0.068884234917310994 0 -0.48229536174909449 -0.060597977655420257 0 -0.50000000000000144 -0.04600504164397555 0 -0.4859357010802054 -0.039936351585347543 0 -0.48229536174909449 -0.060597977655420257 0 -0.5 -0.068884234917310994 0 -0.50000000000000144 -0.04600504164397555 0 -0.48229536174909449 -0.060597977655420257 0 -0.49373390979125509 -0.034992794939967313 0 -0.50000000000000144 -0.04600504164397555 0 -0.5 -0.02075343690216325 0 -0.49373390979125509 -0.034992794939967313 0 -0.50000000000000144 -0.04600504164397555 0 -0.4859357010802054 -0.039936351585347543 0 -0.50000000000000144 -0.04600504164397555 0 -0.4859357010802054 -0.039936351585347543 0 -0.49373390979125509 -0.034992794939967313 0 -0.4859357010802054 -0.039936351585347543 0 -0.48252480259311709 -0.033078639060018553 0 -0.4859357010802054 -0.039936351585347543 0 -0.47187140216040829 -0.033867661526721729 0 -0.48229536174909449 -0.060597977655420257 0 -0.4859357010802054 -0.039936351585347543 0 -0.48252480259311709 -0.033078639060018553 0 -0.47187140216040829 -0.033867661526721729 0 -0.4859357010802054 -0.039936351585347543 0 -0.47187140216040829 -0.033867661526721729 0 -0.47187140216040829 -0.033867661526721729 0 -0.48229536174909449 -0.060597977655420257 0 -0.46723434592488511 -0.05121752159112325 0 -0.47187140216040829 -0.033867661526721729 0 -0.48229536174909449 -0.060597977655420257 0 -0.4692870162511017 -0.063816946807796579 0 -0.48229536174909449 -0.060597977655420257 0 -0.46723434592488511 -0.05121752159112325 0 -0.45742231396051131 -0.065826593306824097 0 -0.4692870162511017 -0.063816946807796579 0 -0.46723434592488511 -0.05121752159112325 0 -0.45742231396051131 -0.065826593306824097 0 -0.46723434592488511 -0.05121752159112325 0 -0.45296011455852608 -0.04456338424316373 0 -0.47187140216040829 -0.033867661526721729 0 -0.45296011455852608 -0.04456338424316373 0 -0.44598902988657108 -0.02269951896891027 0 -0.47187140216040829 -0.033867661526721729 0 -0.46723434592488511 -0.05121752159112325 0 -0.45296011455852608 -0.04456338424316373 0 -0.4320190163912187 -0.050351794278332009 0 -0.43969726542472748 -0.037355708242056432 0 -0.45296011455852608 -0.04456338424316373 0 -0.43969726542472748 -0.037355708242056432 0 -0.45296011455852608 -0.04456338424316373 0 -0.44598902988657108 -0.02269951896891027 0 -0.4320190163912187 -0.050351794278332009 0 -0.44003858195328732 -0.068771054559430361 0 -0.45742231396051131 -0.065826593306824097 0 -0.4320190163912187 -0.050351794278332009 0 -0.45742231396051131 -0.065826593306824097 0 -0.45296011455852608 -0.04456338424316373 0 -0.4320190163912187 -0.050351794278332009 0 -0.45742231396051131 -0.065826593306824097 0 -0.43474097910347309 -0.0074752998551253207 0 -0.45067468968107799 -0.0024337592128191548 0 -0.4379668944722202 0.0071751830104823614 0 -0.43474097910347309 -0.0074752998551253207 0 -0.45067468968107799 -0.0024337592128191548 0 -0.44598902988657108 -0.02269951896891027 0 -0.47187140216040829 -0.033867661526721729 0 -0.44598902988657108 -0.02269951896891027 0 -0.47187140216040829 -0.033867661526721729 0 -0.46336789657350019 -0.01206199443772253 0 -0.47187140216040829 -0.033867661526721729 0 -0.44598902988657108 -0.02269951896891027 0 -0.46336789657350019 -0.01206199443772253 0 -0.45067468968107799 -0.0024337592128191548 0 -0.46336789657350019 -0.01206199443772253 0 -0.46723252088542372 0.0031521656266658162 0 -0.45067468968107799 -0.0024337592128191548 0 -0.44598902988657108 -0.02269951896891027 0 -0.46336789657350019 -0.01206199443772253 0 -0.45067468968107799 -0.0024337592128191548 0 -0.46336789657350019 -0.01206199443772253 0 -0.46336789657350019 -0.01206199443772253 0 -0.48164305602952939 -0.0036655936381851232 0 -0.47855819734059901 -0.023517748188039311 0 -0.48164305602952939 -0.0036655936381851232 0 -0.47855819734059901 -0.023517748188039311 0 -0.49019644068198448 -0.01326085094476191 0 -0.46336789657350019 -0.01206199443772253 0 -0.48164305602952939 -0.0036655936381851232 0 -0.46723252088542372 0.0031521656266658162 0 -0.47187140216040829 -0.033867661526721729 0 -0.46336789657350019 -0.01206199443772253 0 -0.47855819734059901 -0.023517748188039311 0 -0.46336789657350019 -0.01206199443772253 0 -0.47855819734059901 -0.023517748188039311 0 -0.48252480259311709 -0.033078639060018553 0 -0.47187140216040829 -0.033867661526721729 0 -0.47855819734059901 -0.023517748188039311 0 -0.49373390979125509 -0.034992794939967313 0 -0.47855819734059901 -0.023517748188039311 0 -0.49373390979125509 -0.034992794939967313 0 -0.48252480259311709 -0.033078639060018553 0 -0.47855819734059901 -0.023517748188039311 0 -0.49373390979125509 -0.034992794939967313 0 -0.47855819734059901 -0.023517748188039311 0 -0.49078095003979377 -0.022865643835070861 0 -0.47855819734059901 -0.023517748188039311 0 -0.49078095003979377 -0.022865643835070861 0 -0.49019644068198448 -0.01326085094476191 0 -0.49078095003979377 -0.022865643835070861 0 -0.5 -0.02075343690216325 0 -0.49019644068198448 -0.01326085094476191 0 -0.49373390979125509 -0.034992794939967313 0 -0.49078095003979377 -0.022865643835070861 0 -0.5 -0.02075343690216325 0 -0.48164305602952939 -0.0036655936381851232 0 -0.49019644068198448 -0.01326085094476191 0 -0.5 0.0044981678396490143 0 -0.5 -0.02075343690216325 0 -0.49019644068198448 -0.01326085094476191 0 -0.5 0.0044981678396490143 0 -0.48164305602952939 -0.0036655936381851232 0 -0.5 0.0044981678396490143 0 -0.4793222981574114 0.022224909391135441 0 -0.50000000000000722 0.02974977258146129 0 -0.4793222981574114 0.022224909391135441 0 -0.5 0.0044981678396490143 0 -0.50000000000000722 0.02974977258146129 0 -0.4793222981574114 0.022224909391135441 0 -0.4793222981574114 0.022224909391135441 0 -0.45864459631481469 0.01470004620081186 0 -0.48164305602952939 -0.0036655936381851232 0 -0.4793222981574114 0.022224909391135441 0 -0.46723252088542372 0.0031521656266658162 0 -0.5 0.058124947043735782 0 -0.49026273795441871 0.043937359812598518 0 -0.48239646901477218 0.055821224383142597 0 -0.5 0.058124947043735782 0 -0.48239646901477218 0.055821224383142597 0 -0.48768616499259809 0.06641088579580795 0 -0.50000000000000722 0.02974977258146129 0 -0.4793222981574114 0.022224909391135441 0 -0.49026273795441871 0.043937359812598518 0 -0.50000000000000722 0.02974977258146129 0 -0.5 0.058124947043735782 0 -0.49026273795441871 0.043937359812598518 0 -0.4793222981574114 0.022224909391135441 0 -0.49026273795441871 0.043937359812598518 0 -0.47503912883669158 0.044022258442285293 0 -0.4793222981574114 0.022224909391135441 0 -0.47503912883669158 0.044022258442285293 0 -0.45840855215092602 0.039999325955745103 0 -0.48239646901477218 0.055821224383142597 0 -0.46310163613922412 0.056581344628290203 0 -0.47459239432392902 0.067335990413066496 0 -0.47503912883669158 0.044022258442285293 0 -0.48239646901477218 0.055821224383142597 0 -0.46310163613922412 0.056581344628290203 0 -0.49026273795441871 0.043937359812598518 0 -0.47503912883669158 0.044022258442285293 0 -0.48239646901477218 0.055821224383142597 0 -0.47503912883669158 0.044022258442285293 0 -0.46310163613922412 0.056581344628290203 0 -0.45840855215092602 0.039999325955745103 0 -0.45840855215092602 0.039999325955745103 0 -0.43772995608441639 0.051407624018648471 0 -0.45840855215092602 0.039999325955745103 0 -0.43772995608441639 0.051407624018648471 0 -0.43814342963842001 0.029967281544744089 0 -0.46310163613922412 0.056581344628290203 0 -0.45840855215092602 0.039999325955745103 0 -0.43772995608441639 0.051407624018648471 0 -0.46310163613922412 0.056581344628290203 0 -0.43772995608441639 0.051407624018648471 0 -0.44898098661029429 0.066749397778419234 0 -0.4793222981574114 0.022224909391135441 0 -0.45864459631481469 0.01470004620081186 0 -0.46723252088542372 0.0031521656266658162 0 -0.45067468968107799 -0.0024337592128191548 0 -0.45864459631481469 0.01470004620081186 0 -0.46723252088542372 0.0031521656266658162 0 -0.4793222981574114 0.022224909391135441 0 -0.45840855215092602 0.039999325955745103 0 -0.45864459631481469 0.01470004620081186 0 -0.45864459631481469 0.01470004620081186 0 -0.43814342963842001 0.029967281544744089 0 -0.4379668944722202 0.0071751830104823614 0 -0.45840855215092602 0.039999325955745103 0 -0.45864459631481469 0.01470004620081186 0 -0.43814342963842001 0.029967281544744089 0 -0.45864459631481469 0.01470004620081186 0 -0.4379668944722202 0.0071751830104823614 0 -0.45067468968107799 -0.0024337592128191548 0 -0.45864459631481469 0.01470004620081186 0 -0.4379668944722202 0.0071751830104823614 0 -0.45067468968107799 -0.0024337592128191548 0 -0.4379668944722202 0.0071751830104823614 0 -0.41333066850425898 -0.0017902344883215309 0 -0.4379668944722202 0.0071751830104823614 0 -0.41333066850425898 -0.0017902344883215309 0 -0.4379668944722202 0.0071751830104823614 0 -0.4164592905428075 0.023438061041033739 0 -0.4379668944722202 0.0071751830104823614 0 -0.4164592905428075 0.023438061041033739 0 -0.41333066850425898 -0.0017902344883215309 0 -0.4164592905428075 0.023438061041033739 0 -0.3962127126628191 0.017271230137523439 0 -0.43814342963842001 0.029967281544744089 0 -0.4379668944722202 0.0071751830104823614 0 -0.4164592905428075 0.023438061041033739 0 -0.43772995608441639 0.051407624018648471 0 -0.43814342963842001 0.029967281544744089 0 -0.42051975706108979 0.041928103691578081 0 -0.43814342963842001 0.029967281544744089 0 -0.4164592905428075 0.023438061041033739 0 -0.42051975706108979 0.041928103691578081 0 -0.43772995608441639 0.051407624018648471 0 -0.41705136001790682 0.062815922081551845 0 -0.43772995608441639 0.051407624018648471 0 -0.42051975706108979 0.041928103691578081 0 -0.41705136001790682 0.062815922081551845 0 -0.42051975706108979 0.041928103691578081 0 -0.39495168661340191 0.039700939071594332 0 -0.41705136001790682 0.062815922081551845 0 -0.4164592905428075 0.023438061041033739 0 -0.42051975706108979 0.041928103691578081 0 -0.39495168661340191 0.039700939071594332 0 -0.4164592905428075 0.023438061041033739 0 -0.39495168661340191 0.039700939071594332 0 -0.39495168661340191 0.039700939071594332 0 -0.39052358919088892 0.059040105730575547 0 -0.41705136001790682 0.062815922081551845 0 -0.37895169723653582 0.047600634916348999 0 -0.39052358919088892 0.059040105730575547 0 -0.3714698758611315 0.063800239954929866 0 -0.39495168661340191 0.039700939071594332 0 -0.37895169723653582 0.047600634916348999 0 -0.39052358919088892 0.059040105730575547 0 -0.39495168661340191 0.039700939071594332 0 -0.37895169723653582 0.047600634916348999 0 -0.37203917307885098 0.02743845959296563 0 -0.39495168661340191 0.039700939071594332 0 -0.3962127126628191 0.017271230137523439 0 -0.37203917307885098 0.02743845959296563 0 -0.38267038653320551 0.00342366148846019 0 -0.3962127126628191 0.017271230137523439 0 -0.37203917307885098 0.02743845959296563 0 -0.38267038653320551 0.00342366148846019 0 -0.37203917307885098 0.02743845959296563 0 -0.41333066850425898 -0.0017902344883215309 0 -0.39810529252901983 0.001715975070925703 0 -0.3962127126628191 0.017271230137523439 0 -0.38267038653320551 0.00342366148846019 0 -0.39810529252901983 0.001715975070925703 0 -0.3962127126628191 0.017271230137523439 0 -0.4164592905428075 0.023438061041033739 0 -0.39495168661340191 0.039700939071594332 0 -0.3962127126628191 0.017271230137523439 0 -0.39785366525457272 0.10414835292000039 0 -0.39146377826118411 0.091930955928978278 0 -0.40581145222401449 0.088645208978460843 0 -0.39785366525457272 0.10414835292000039 0 -0.40581145222401449 0.088645208978460843 0 -0.41244886524859309 0.10396968419125489 0 -0.39962305243798862 0.12007008638198111 0 -0.41244886524859309 0.10396968419125489 0 -0.39962305243798862 0.12007008638198111 0 -0.3818026015622874 0.10582295740955019 0 -0.39785366525457272 0.10414835292000039 0 -0.39962305243798862 0.12007008638198111 0 -0.3818026015622874 0.10582295740955019 0 -0.39785366525457272 0.10414835292000039 0 -0.39962305243798862 0.12007008638198111 0 -0.41244886524859309 0.10396968419125489 0 -0.38600292176634632 0.1223106683149927 0 -0.37664402232980337 0.11728716810266079 0 -0.3818026015622874 0.10582295740955019 0 -0.39962305243798862 0.12007008638198111 0 -0.38600292176634632 0.1223106683149927 0 -0.3818026015622874 0.10582295740955019 0 -0.38600292176634632 0.1223106683149927 0 -0.37664402232980337 0.11728716810266079 0 -0.37633061916794119 0.13321554238042471 0 -0.37664402232980337 0.11728716810266079 0 -0.3818026015622874 0.10582295740955019 0 -0.36808070926510039 0.10840152703442189 0 -0.3818026015622874 0.10582295740955019 0 -0.37569416788488752 0.085632518207358593 0 -0.39146377826118411 0.091930955928978278 0 -0.39785366525457272 0.10414835292000039 0 -0.3818026015622874 0.10582295740955019 0 -0.39146377826118411 0.091930955928978278 0 -0.37569416788488752 0.085632518207358593 0 -0.39637276395139709 0.074224220144455219 0 -0.39146377826118411 0.091930955928978278 0 -0.37569416788488752 0.085632518207358593 0 -0.39637276395139709 0.074224220144455219 0 -0.37569416788488752 0.085632518207358593 0 -0.38223441690127602 0.073042241234343025 0 -0.39637276395139709 0.074224220144455219 0 -0.37569416788488752 0.085632518207358593 0 -0.38223441690127602 0.073042241234343025 0 -0.3714698758611315 0.063800239954929866 0 -0.39052358919088892 0.059040105730575547 0 -0.38223441690127602 0.073042241234343025 0 -0.3714698758611315 0.063800239954929866 0 -0.39052358919088892 0.059040105730575547 0 -0.38223441690127602 0.073042241234343025 0 -0.39637276395139709 0.074224220144455219 0 -0.39052358919088892 0.059040105730575547 0 -0.39637276395139709 0.074224220144455219 0 -0.41705136001790682 0.062815922081551845 0 -0.39637276395139709 0.074224220144455219 0 -0.40581145222401449 0.088645208978460843 0 -0.41508176250321699 0.07649072819908985 0 -0.39637276395139709 0.074224220144455219 0 -0.39146377826118411 0.091930955928978278 0 -0.40581145222401449 0.088645208978460843 0 -0.41655210451245051 0.088778885226300841 0 -0.42527467805919772 0.087869282000528737 0 -0.41244886524859309 0.10396968419125489 0 -0.40581145222401449 0.088645208978460843 0 -0.41655210451245051 0.088778885226300841 0 -0.41508176250321699 0.07649072819908985 0 -0.41655210451245051 0.088778885226300841 0 -0.41508176250321699 0.07649072819908985 0 -0.42527467805919772 0.087869282000528737 0 -0.39637276395139709 0.074224220144455219 0 -0.41705136001790682 0.062815922081551845 0 -0.39637276395139709 0.074224220144455219 0 -0.41705136001790682 0.062815922081551845 0 -0.41508176250321699 0.07649072819908985 0 -0.43772995608441639 0.051407624018648471 0 -0.41705136001790682 0.062815922081551845 0 -0.43374330692010432 0.077238506962875403 0 -0.41705136001790682 0.062815922081551845 0 -0.41508176250321699 0.07649072819908985 0 -0.43374330692010432 0.077238506962875403 0 -0.42527467805919772 0.087869282000528737 0 -0.4429920100429432 0.10274858024475821 0 -0.43847850659137533 0.087802363215093104 0 -0.41508176250321699 0.07649072819908985 0 -0.43374330692010432 0.077238506962875403 0 -0.42527467805919772 0.087869282000528737 0 -0.43374330692010432 0.077238506962875403 0 -0.42527467805919772 0.087869282000528737 0 -0.43374330692010432 0.077238506962875403 0 -0.42527467805919772 0.087869282000528737 0 -0.43847850659137533 0.087802363215093104 0 -0.42527467805919772 0.087869282000528737 0 -0.4429920100429432 0.10274858024475821 0 -0.42527467805919772 0.087869282000528737 0 -0.42773333092070492 0.10606014568498361 0 -0.4429920100429432 0.10274858024475821 0 -0.42527467805919772 0.087869282000528737 0 -0.41244886524859309 0.10396968419125489 0 -0.42527467805919772 0.087869282000528737 0 -0.42773333092070492 0.10606014568498361 0 -0.41244886524859309 0.10396968419125489 0 -0.42773333092070492 0.10606014568498361 0 -0.41244886524859309 0.10396968419125489 0 -0.41879263586885818 0.11761113291379791 0 -0.40581145222401449 0.088645208978460843 0 -0.41655210451245051 0.088778885226300841 0 -0.41244886524859309 0.10396968419125489 0 -0.39962305243798862 0.12007008638198111 0 -0.41879263586885818 0.11761113291379791 0 -0.41718858059307551 0.13411340923839421 0 -0.39962305243798862 0.12007008638198111 0 -0.41244886524859309 0.10396968419125489 0 -0.41879263586885818 0.11761113291379791 0 -0.42773333092070492 0.10606014568498361 0 -0.41879263586885818 0.11761113291379791 0 -0.43696935014392901 0.1238423390723757 0 -0.42773333092070492 0.10606014568498361 0 -0.43696935014392901 0.1238423390723757 0 -0.4429920100429432 0.10274858024475821 0 -0.43696935014392901 0.1238423390723757 0 -0.4429920100429432 0.10274858024475821 0 -0.46070934202668729 0.1176278784889894 0 -0.4429920100429432 0.10274858024475821 0 -0.46070934202668729 0.1176278784889894 0 -0.4429920100429432 0.10274858024475821 0 -0.46595273813780852 0.096451530535276261 0 -0.46070934202668729 0.1176278784889894 0 -0.4429920100429432 0.10274858024475821 0 -0.46595273813780852 0.096451530535276261 0 -0.45190403134325607 0.08335308365221003 0 -0.46595273813780852 0.096451530535276261 0 -0.46070934202668729 0.1176278784889894 0 -0.47177218275609262 0.110867549976974 0 -0.43772995608441639 0.051407624018648471 0 -0.43374330692010432 0.077238506962875403 0 -0.44898098661029429 0.066749397778419234 0 -0.43374330692010432 0.077238506962875403 0 -0.44898098661029429 0.066749397778419234 0 -0.45190403134325607 0.08335308365221003 0 -0.43374330692010432 0.077238506962875403 0 -0.45190403134325607 0.08335308365221003 0 -0.43847850659137533 0.087802363215093104 0 -0.4429920100429432 0.10274858024475821 0 -0.45190403134325607 0.08335308365221003 0 -0.43847850659137533 0.087802363215093104 0 -0.46595273813780852 0.096451530535276261 0 -0.45190403134325607 0.08335308365221003 0 -0.46965066270418399 0.079895263144375478 0 -0.44898098661029429 0.066749397778419234 0 -0.45190403134325607 0.08335308365221003 0 -0.46256736583149299 0.070057300723060142 0 -0.45190403134325607 0.08335308365221003 0 -0.46256736583149299 0.070057300723060142 0 -0.46965066270418399 0.079895263144375478 0 -0.46310163613922412 0.056581344628290203 0 -0.46256736583149299 0.070057300723060142 0 -0.47459239432392902 0.067335990413066496 0 -0.46310163613922412 0.056581344628290203 0 -0.44898098661029429 0.066749397778419234 0 -0.46256736583149299 0.070057300723060142 0 -0.48239646901477218 0.055821224383142597 0 -0.47459239432392902 0.067335990413066496 0 -0.48768616499259809 0.06641088579580795 0 -0.47459239432392902 0.067335990413066496 0 -0.48215206726130239 0.075249923803722668 0 -0.48768616499259809 0.06641088579580795 0 -0.46256736583149299 0.070057300723060142 0 -0.47459239432392902 0.067335990413066496 0 -0.46965066270418399 0.079895263144375478 0 -0.47459239432392902 0.067335990413066496 0 -0.48215206726130239 0.075249923803722668 0 -0.46965066270418399 0.079895263144375478 0 -0.46595273813780852 0.096451530535276261 0 -0.46965066270418399 0.079895263144375478 0 -0.47959075458862233 0.087021023075510573 0 -0.48215206726130239 0.075249923803722668 0 -0.47959075458862233 0.087021023075510573 0 -0.48561329062483388 0.081881614841441769 0 -0.48215206726130239 0.075249923803722668 0 -0.46965066270418399 0.079895263144375478 0 -0.47959075458862233 0.087021023075510573 0 -0.47959075458862233 0.087021023075510573 0 -0.49104570179064227 0.089531615231823458 0 -0.47861951303474037 0.098978222960421247 0 -0.49104570179064227 0.089531615231823458 0 -0.49735521568074831 0.068043834481124943 0 -0.5 0.08650012150601033 0 -0.49104570179064227 0.089531615231823458 0 -0.49735521568074831 0.068043834481124943 0 -0.47959075458862233 0.087021023075510573 0 -0.49104570179064227 0.089531615231823458 0 -0.48561329062483388 0.081881614841441769 0 -0.49104570179064227 0.089531615231823458 0 -0.48561329062483388 0.081881614841441769 0 -0.48966463885876849 0.075723897254710404 0 -0.5 0.058124947043735782 0 -0.5 0.08650012150601033 0 -0.49735521568074831 0.068043834481124943 0 -0.49104570179064227 0.089531615231823458 0 -0.48966463885876849 0.075723897254710404 0 -0.49735521568074831 0.068043834481124943 0 -0.48215206726130239 0.075249923803722668 0 -0.48966463885876849 0.075723897254710404 0 -0.48768616499259809 0.06641088579580795 0 -0.48215206726130239 0.075249923803722668 0 -0.48561329062483388 0.081881614841441769 0 -0.48966463885876849 0.075723897254710404 0 -0.5 0.058124947043735782 0 -0.49735521568074831 0.068043834481124943 0 -0.48768616499259809 0.06641088579580795 0 -0.48966463885876849 0.075723897254710404 0 -0.49735521568074831 0.068043834481124943 0 -0.48768616499259809 0.06641088579580795 0 -0.48473618790053641 0.111019395982522 0 -0.47842667401043132 0.13250717673322079 0 -0.47177218275609262 0.110867549976974 0 -0.48473618790053641 0.111019395982522 0 -0.47842667401043132 0.13250717673322079 0 -0.46070934202668729 0.1176278784889894 0 -0.47177218275609262 0.110867549976974 0 -0.47842667401043132 0.13250717673322079 0 -0.46595273813780852 0.096451530535276261 0 -0.47177218275609262 0.110867549976974 0 -0.47861951303474037 0.098978222960421247 0 -0.46595273813780852 0.096451530535276261 0 -0.47959075458862233 0.087021023075510573 0 -0.47861951303474037 0.098978222960421247 0 -0.47177218275609262 0.110867549976974 0 -0.47861951303474037 0.098978222960421247 0 -0.48473618790053641 0.111019395982522 0 -0.49104570179064227 0.089531615231823458 0 -0.48473618790053641 0.111019395982522 0 -0.5 0.08650012150601033 0 -0.49104570179064227 0.089531615231823458 0 -0.5 0.1148752959682848 0 -0.49104570179064227 0.089531615231823458 0 -0.5 0.1148752959682848 0 -0.48473618790053641 0.111019395982522 0 -0.49104570179064227 0.089531615231823458 0 -0.47861951303474037 0.098978222960421247 0 -0.48473618790053641 0.111019395982522 0 -0.48473618790053641 0.111019395982522 0 -0.49079071547774189 0.12541308477864671 0 -0.47842667401043132 0.13250717673322079 0 -0.5 0.1148752959682848 0 -0.48473618790053641 0.111019395982522 0 -0.49079071547774189 0.12541308477864671 0 -0.5 0.1148752959682848 0 -0.49079071547774189 0.12541308477864671 0 -0.5 0.1432504704305593 0 -0.49079071547774189 0.12541308477864671 0 -0.47842667401043132 0.13250717673322079 0 -0.5 0.1432504704305593 0 -0.47842667401043132 0.13250717673322079 0 -0.49738152102477778 0.1484257598561762 0 -0.46070934202668729 0.1176278784889894 0 -0.47842667401043132 0.13250717673322079 0 -0.47842667401043132 0.13250717673322079 0 -0.47278964779497917 0.15170472277452449 0 -0.45654356864699852 0.13954643813737441 0 -0.47842667401043132 0.13250717673322079 0 -0.47278964779497917 0.15170472277452449 0 -0.4844365481741339 0.14629577561957019 0 -0.47842667401043132 0.13250717673322079 0 -0.47278964779497917 0.15170472277452449 0 -0.47278964779497917 0.15170472277452449 0 -0.48774619983591871 0.15233000137729391 0 -0.48659568373751422 0.16139082570113639 0 -0.47278964779497917 0.15170472277452449 0 -0.48774619983591871 0.15233000137729391 0 -0.4844365481741339 0.14629577561957019 0 -0.47842667401043132 0.13250717673322079 0 -0.5 0.1432504704305593 0 -0.49738152102477778 0.1484257598561762 0 -0.48774619983591871 0.15233000137729391 0 -0.4844365481741339 0.14629577561957019 0 -0.49738152102477778 0.1484257598561762 0 -0.48774619983591871 0.15233000137729391 0 -0.49738152102477778 0.1484257598561762 0 -0.48659568373751422 0.16139082570113639 0 -0.47842667401043132 0.13250717673322079 0 -0.4844365481741339 0.14629577561957019 0 -0.49738152102477778 0.1484257598561762 0 -0.5 0.1432504704305593 0 -0.49738152102477778 0.1484257598561762 0 -0.50000000000000089 0.1716256448928338 0 -0.49738152102477778 0.1484257598561762 0 -0.50000000000000089 0.1716256448928338 0 -0.48659568373751422 0.16139082570113639 0 -0.50000000000000089 0.1716256448928338 0 -0.48659568373751422 0.16139082570113639 0 -0.47204684118718571 0.17619433607976939 0 -0.49999999999999611 0.179120909615508 0 -0.47267972405602088 0.19073915895485591 0 -0.50000000000000089 0.1716256448928338 0 -0.49999999999999611 0.179120909615508 0 -0.47204684118718571 0.17619433607976939 0 -0.50000000000000089 0.1716256448928338 0 -0.47204684118718571 0.17619433607976939 0 -0.49999999999999611 0.179120909615508 0 -0.47204684118718571 0.17619433607976939 0 -0.47267972405602088 0.19073915895485591 0 -0.47278964779497917 0.15170472277452449 0 -0.48659568373751422 0.16139082570113639 0 -0.46847604536951032 0.16382995663029459 0 -0.48659568373751422 0.16139082570113639 0 -0.47204684118718571 0.17619433607976939 0 -0.46847604536951032 0.16382995663029459 0 -0.47204684118718571 0.17619433607976939 0 -0.45561228915780322 0.16343977966032769 0 -0.46847604536951032 0.16382995663029459 0 -0.47278964779497917 0.15170472277452449 0 -0.45561228915780322 0.16343977966032769 0 -0.46847604536951032 0.16382995663029459 0 -0.47204684118718571 0.17619433607976939 0 -0.44409368237437058 0.18076302726670479 0 -0.47204684118718571 0.17619433607976939 0 -0.45561228915780322 0.16343977966032769 0 -0.44409368237437058 0.18076302726670479 0 -0.46082884514507461 0.18438236012377399 0 -0.44409368237437058 0.18076302726670479 0 -0.45449513296272148 0.1898329181937658 0 -0.47204684118718571 0.17619433607976939 0 -0.46082884514507461 0.18438236012377399 0 -0.44409368237437058 0.18076302726670479 0 -0.47204684118718571 0.17619433607976939 0 -0.46082884514507461 0.18438236012377399 0 -0.47267972405602088 0.19073915895485591 0 -0.44409368237437058 0.18076302726670479 0 -0.45449513296272148 0.1898329181937658 0 -0.44354443941526078 0.1882558693310295 0 -0.44409368237437058 0.18076302726670479 0 -0.44354443941526078 0.1882558693310295 0 -0.43022949421190482 0.18007012356944219 0 -0.45561228915780322 0.16343977966032769 0 -0.44409368237437058 0.18076302726670479 0 -0.43793779710819442 0.16488554981117459 0 -0.45561228915780322 0.16343977966032769 0 -0.43793779710819442 0.16488554981117459 0 -0.43475410874816128 0.14815673209480851 0 -0.45561228915780322 0.16343977966032769 0 -0.45654356864699852 0.13954643813737441 0 -0.43475410874816128 0.14815673209480851 0 -0.43696935014392901 0.1238423390723757 0 -0.45654356864699852 0.13954643813737441 0 -0.43475410874816128 0.14815673209480851 0 -0.43696935014392901 0.1238423390723757 0 -0.46070934202668729 0.1176278784889894 0 -0.45654356864699852 0.13954643813737441 0 -0.46070934202668729 0.1176278784889894 0 -0.47842667401043132 0.13250717673322079 0 -0.45654356864699852 0.13954643813737441 0 -0.47278964779497917 0.15170472277452449 0 -0.45561228915780322 0.16343977966032769 0 -0.45654356864699852 0.13954643813737441 0 -0.4826171654445699 0.24774723882048039 0 -0.46523433088913752 0.23163424378542771 0 -0.46523433088913752 0.23163424378542771 0 -0.47829135555868169 0.25086798556607037 0 -0.4826171654445699 0.24774723882048039 0 -0.46523433088913752 0.23163424378542771 0 -0.47829135555868169 0.25086798556607037 0 -0.4826171654445699 0.24774723882048039 0 -0.48504085382287249 0.22701557276454259 0 -0.46523433088913752 0.23163424378542771 0 -0.4826171654445699 0.24774723882048039 0 -0.5 0.23561379244219191 0 -0.50000000000000155 0.26386023385553398 0 -0.4826171654445699 0.24774723882048039 0 -0.5 0.23561379244219191 0 -0.48504085382287249 0.22701557276454259 0 -0.5 0.23561379244219191 0 -0.48504085382287249 0.22701557276454259 0 -0.5 0.20736735102885001 0 -0.48504085382287249 0.22701557276454259 0 -0.4773527727806558 0.21271523774576309 0 -0.46523433088913752 0.23163424378542771 0 -0.4773527727806558 0.21271523774576309 0 -0.5 0.20736735102885001 0 -0.47267972405602088 0.19073915895485591 0 -0.48504085382287249 0.22701557276454259 0 -0.4773527727806558 0.21271523774576309 0 -0.5 0.20736735102885001 0 -0.49999999999999611 0.179120909615508 0 -0.5 0.20736735102885001 0 -0.47267972405602088 0.19073915895485591 0 -0.46082884514507461 0.18438236012377399 0 -0.47267972405602088 0.19073915895485591 0 -0.45449513296272148 0.1898329181937658 0 -0.47267972405602088 0.19073915895485591 0 -0.45449513296272148 0.1898329181937658 0 -0.44535944811204647 0.2023574082942049 0 -0.47267972405602088 0.19073915895485591 0 -0.44535944811204647 0.2023574082942049 0 -0.44535944811204647 0.2023574082942049 0 -0.43733270515642431 0.205770869462478 0 -0.43022949421190482 0.18007012356944219 0 -0.44354443941526078 0.1882558693310295 0 -0.44535944811204647 0.2023574082942049 0 -0.43022949421190482 0.18007012356944219 0 -0.44535944811204647 0.2023574082942049 0 -0.43022949421190482 0.18007012356944219 0 -0.45449513296272148 0.1898329181937658 0 -0.44354443941526078 0.1882558693310295 0 -0.44535944811204647 0.2023574082942049 0 -0.44992590169689051 0.2174441160026091 0 -0.42699738949816518 0.21016607669115969 0 -0.44535944811204647 0.2023574082942049 0 -0.45529688950059238 0.2169958260398159 0 -0.44992590169689051 0.2174441160026091 0 -0.43733270515642431 0.205770869462478 0 -0.42699738949816518 0.21016607669115969 0 -0.44535944811204647 0.2023574082942049 0 -0.43733270515642431 0.205770869462478 0 -0.44535944811204647 0.2023574082942049 0 -0.44992590169689051 0.2174441160026091 0 -0.43733270515642431 0.205770869462478 0 -0.44992590169689051 0.2174441160026091 0 -0.43733270515642431 0.205770869462478 0 -0.44535944811204647 0.2023574082942049 0 -0.44992590169689051 0.2174441160026091 0 -0.45529688950059238 0.2169958260398159 0 -0.44992590169689051 0.2174441160026091 0 -0.4522799136472318 0.2181913337621243 0 -0.45529688950059238 0.2169958260398159 0 -0.44992590169689051 0.2174441160026091 0 -0.4522799136472318 0.2181913337621243 0 -0.47267972405602088 0.19073915895485591 0 -0.44535944811204647 0.2023574082942049 0 -0.45529688950059238 0.2169958260398159 0 -0.4773527727806558 0.21271523774576309 0 -0.47267972405602088 0.19073915895485591 0 -0.45529688950059238 0.2169958260398159 0 -0.4773527727806558 0.21271523774576309 0 -0.45529688950059238 0.2169958260398159 0 -0.46523433088913752 0.23163424378542771 0 -0.44992590169689051 0.2174441160026091 0 -0.46523433088913752 0.23163424378542771 0 -0.4504453673423125 0.23223620706586171 0 -0.44992590169689051 0.2174441160026091 0 -0.46523433088913752 0.23163424378542771 0 -0.45529688950059238 0.2169958260398159 0 -0.46523433088913752 0.23163424378542771 0 -0.4522799136472318 0.2181913337621243 0 -0.45529688950059238 0.2169958260398159 0 -0.46523433088913752 0.23163424378542771 0 -0.44992590169689051 0.2174441160026091 0 -0.4522799136472318 0.2181913337621243 0 -0.46523433088913752 0.23163424378542771 0 -0.44992590169689051 0.2174441160026091 0 -0.4504453673423125 0.23223620706586171 0 -0.4355041216175648 0.2274722488140502 0 -0.4504453673423125 0.23223620706586171 0 -0.44503711006885482 0.24601396290069941 0 -0.45936083356487079 0.24743851944234591 0 -0.4504453673423125 0.23223620706586171 0 -0.44503711006885482 0.24601396290069941 0 -0.4355041216175648 0.2274722488140502 0 -0.46523433088913752 0.23163424378542771 0 -0.4504453673423125 0.23223620706586171 0 -0.45936083356487079 0.24743851944234591 0 -0.44503711006885482 0.24601396290069941 0 -0.45936083356487079 0.24743851944234591 0 -0.47095115864607168 0.25558355432171381 0 -0.46523433088913752 0.23163424378542771 0 -0.45936083356487079 0.24743851944234591 0 -0.47829135555868169 0.25086798556607037 0 -0.4088920851174907 0.24893012324785629 0 -0.41912306149163842 0.23644437147968361 0 -0.4088695446263933 0.23072448822481009 0 -0.4088920851174907 0.24893012324785629 0 -0.41912306149163842 0.23644437147968361 0 -0.4249621812384381 0.24707084139297381 0 -0.44503711006885482 0.24601396290069941 0 -0.41912306149163842 0.23644437147968361 0 -0.4249621812384381 0.24707084139297381 0 -0.44503711006885482 0.24601396290069941 0 -0.41912306149163842 0.23644437147968361 0 -0.4355041216175648 0.2274722488140502 0 -0.44503711006885482 0.24601396290069941 0 -0.41912306149163842 0.23644437147968361 0 -0.4355041216175648 0.2274722488140502 0 -0.42149589960752881 0.22252875874428729 0 -0.42699738949816518 0.21016607669115969 0 -0.41912306149163842 0.23644437147968361 0 -0.4355041216175648 0.2274722488140502 0 -0.42149589960752881 0.22252875874428729 0 -0.41912306149163842 0.23644437147968361 0 -0.42149589960752881 0.22252875874428729 0 -0.4088695446263933 0.23072448822481009 0 -0.42149589960752881 0.22252875874428729 0 -0.4088695446263933 0.23072448822481009 0 -0.40877511782762999 0.21791529914527469 0 -0.40782589472832792 0.20408060148087201 0 -0.42699738949816518 0.21016607669115969 0 -0.42229188557371988 0.20173793811124949 0 -0.42149589960752881 0.22252875874428729 0 -0.40877511782762999 0.21791529914527469 0 -0.42699738949816518 0.21016607669115969 0 -0.40877511782762999 0.21791529914527469 0 -0.40782589472832792 0.20408060148087201 0 -0.42699738949816518 0.21016607669115969 0 -0.40877511782762999 0.21791529914527469 0 -0.42699738949816518 0.21016607669115969 0 -0.40782589472832792 0.20408060148087201 0 -0.42699738949816518 0.21016607669115969 0 -0.44992590169689051 0.2174441160026091 0 -0.4355041216175648 0.2274722488140502 0 -0.42699738949816518 0.21016607669115969 0 -0.43733270515642431 0.205770869462478 0 -0.42699738949816518 0.21016607669115969 0 -0.43733270515642431 0.205770869462478 0 -0.42699738949816518 0.21016607669115969 0 -0.42229188557371988 0.20173793811124949 0 -0.43733270515642431 0.205770869462478 0 -0.41701155291196051 0.18693420481049089 0 -0.43733270515642431 0.205770869462478 0 -0.43022949421190482 0.18007012356944219 0 -0.41701155291196051 0.18693420481049089 0 -0.43733270515642431 0.205770869462478 0 -0.42229188557371988 0.20173793811124949 0 -0.41701155291196051 0.18693420481049089 0 -0.40782589472832792 0.20408060148087201 0 -0.42229188557371988 0.20173793811124949 0 -0.41701155291196051 0.18693420481049089 0 -0.40782589472832792 0.20408060148087201 0 -0.40022054383535849 0.19526141150945769 0 -0.41701155291196051 0.18693420481049089 0 -0.40022054383535849 0.19526141150945769 0 -0.41701155291196051 0.18693420481049089 0 -0.39809248964167487 0.18560464617463729 0 -0.40782589472832792 0.20408060148087201 0 -0.40022054383535849 0.19526141150945769 0 -0.39432065793202142 0.19979372741499171 0 -0.40782589472832792 0.20408060148087201 0 -0.39432065793202142 0.19979372741499171 0 -0.40022054383535849 0.19526141150945769 0 -0.39432065793202142 0.19979372741499171 0 -0.38865439995848999 0.1979951262705851 0 -0.39432065793202142 0.19979372741499171 0 -0.38865439995848999 0.1979951262705851 0 -0.40022054383535849 0.19526141150945769 0 -0.39366009795901741 0.1926018163410825 0 -0.39809248964167487 0.18560464617463729 0 -0.40022054383535849 0.19526141150945769 0 -0.39366009795901741 0.1926018163410825 0 -0.38865439995848999 0.1979951262705851 0 -0.39366009795901741 0.1926018163410825 0 -0.3880591445665772 0.19003771911785591 0 -0.39809248964167487 0.18560464617463729 0 -0.39432065793202142 0.19979372741499171 0 -0.3832004868960498 0.20708849212493821 0 -0.37427533270663982 0.19699781335706409 0 -0.38865439995848999 0.1979951262705851 0 -0.37427533270663982 0.19699781335706409 0 -0.36948290518865229 0.19190965106029831 0 -0.39432065793202142 0.19979372741499171 0 -0.38865439995848999 0.1979951262705851 0 -0.37427533270663982 0.19699781335706409 0 -0.38865439995848999 0.1979951262705851 0 -0.36948290518865229 0.19190965106029831 0 -0.38010624018850481 0.19139538561012959 0 -0.38865439995848999 0.1979951262705851 0 -0.36948290518865229 0.19190965106029831 0 -0.39432065793202142 0.19979372741499171 0 -0.37427533270663982 0.19699781335706409 0 -0.3880591445665772 0.19003771911785591 0 -0.38010624018850481 0.19139538561012959 0 -0.38865439995848999 0.1979951262705851 0 -0.39366009795901741 0.1926018163410825 0 -0.3880591445665772 0.19003771911785591 0 -0.38865439995848999 0.1979951262705851 0 -0.3880591445665772 0.19003771911785591 0 -0.38010624018850481 0.19139538561012959 0 -0.38368435403228612 0.18277853360388829 0 -0.38010624018850481 0.19139538561012959 0 -0.37686466762261461 0.1873894380927604 0 -0.36948290518865229 0.19190965106029831 0 -0.39432065793202142 0.19979372741499171 0 -0.3832004868960498 0.20708849212493821 0 -0.39083873117499129 0.20838342751174391 0 -0.3832004868960498 0.20708849212493821 0 -0.37233725061120898 0.20744499488199861 0 -0.37427533270663982 0.19699781335706409 0 -0.3832004868960498 0.20708849212493821 0 -0.38642897168464369 0.2201173574299097 0 -0.37233725061120898 0.20744499488199861 0 -0.3832004868960498 0.20708849212493821 0 -0.39083873117499129 0.20838342751174391 0 -0.38642897168464369 0.2201173574299097 0 -0.39779883269215571 0.2121766841161509 0 -0.39083873117499129 0.20838342751174391 0 -0.38642897168464369 0.2201173574299097 0 -0.39779883269215571 0.2121766841161509 0 -0.39965348622681718 0.22302172071271581 0 -0.38642897168464369 0.2201173574299097 0 -0.39432065793202142 0.19979372741499171 0 -0.39779883269215571 0.2121766841161509 0 -0.39083873117499129 0.20838342751174391 0 -0.40782589472832792 0.20408060148087201 0 -0.39432065793202142 0.19979372741499171 0 -0.39779883269215571 0.2121766841161509 0 -0.40877511782762999 0.21791529914527469 0 -0.39779883269215571 0.2121766841161509 0 -0.39965348622681718 0.22302172071271581 0 -0.40877511782762999 0.21791529914527469 0 -0.40782589472832792 0.20408060148087201 0 -0.39779883269215571 0.2121766841161509 0 -0.4088695446263933 0.23072448822481009 0 -0.40877511782762999 0.21791529914527469 0 -0.39965348622681718 0.22302172071271581 0 -0.4088695446263933 0.23072448822481009 0 -0.39965348622681718 0.22302172071271581 0 -0.39527761748725498 0.2355066560190428 0 -0.39965348622681718 0.22302172071271581 0 -0.38642897168464369 0.2201173574299097 0 -0.39527761748725498 0.2355066560190428 0 -0.38642897168464369 0.2201173574299097 0 -0.3762277089876811 0.2414577338236846 0 -0.39527761748725498 0.2355066560190428 0 -0.38642897168464369 0.2201173574299097 0 -0.3762277089876811 0.2414577338236846 0 -0.36526141479912888 0.217727251356959 0 -0.3762277089876811 0.2414577338236846 0 -0.39207380150510029 0.2494808218353517 0 -0.39527761748725498 0.2355066560190428 0 -0.4088920851174907 0.24893012324785629 0 -0.39207380150510029 0.2494808218353517 0 -0.39527761748725498 0.2355066560190428 0 -0.4088920851174907 0.24893012324785629 0 -0.4088695446263933 0.23072448822481009 0 -0.39527761748725498 0.2355066560190428 0 -0.41718858059307551 0.13411340923839421 0 -0.41509954031176199 0.15778283884468011 0 -0.39881172194460018 0.14853833536281341 0 -0.39962305243798862 0.12007008638198111 0 -0.41718858059307551 0.13411340923839421 0 -0.41879263586885818 0.11761113291379791 0 -0.43696935014392901 0.1238423390723757 0 -0.41718858059307551 0.13411340923839421 0 -0.43696935014392901 0.1238423390723757 0 -0.41718858059307551 0.13411340923839421 0 -0.43475410874816128 0.14815673209480851 0 -0.41718858059307551 0.13411340923839421 0 -0.43475410874816128 0.14815673209480851 0 -0.41509954031176199 0.15778283884468011 0 -0.41718858059307551 0.13411340923839421 0 -0.43475410874816128 0.14815673209480851 0 -0.43793779710819442 0.16488554981117459 0 -0.43475410874816128 0.14815673209480851 0 -0.41509954031176199 0.15778283884468011 0 -0.43793779710819442 0.16488554981117459 0 -0.43022949421190482 0.18007012356944219 0 -0.41509954031176199 0.15778283884468011 0 -0.43022949421190482 0.18007012356944219 0 -0.41509954031176199 0.15778283884468011 0 -0.44409368237437058 0.18076302726670479 0 -0.43793779710819442 0.16488554981117459 0 -0.43022949421190482 0.18007012356944219 0 -0.43022949421190482 0.18007012356944219 0 -0.41701155291196051 0.18693420481049089 0 -0.41509954031176199 0.15778283884468011 0 -0.41701155291196051 0.18693420481049089 0 -0.39669040066749478 0.1680975401585055 0 -0.41701155291196051 0.18693420481049089 0 -0.41509954031176199 0.15778283884468011 0 -0.39669040066749478 0.1680975401585055 0 -0.41509954031176199 0.15778283884468011 0 -0.39669040066749478 0.1680975401585055 0 -0.39881172194460018 0.14853833536281341 0 -0.41701155291196051 0.18693420481049089 0 -0.39669040066749478 0.1680975401585055 0 -0.39809248964167487 0.18560464617463729 0 -0.39669040066749478 0.1680975401585055 0 -0.39809248964167487 0.18560464617463729 0 -0.38368435403228612 0.18277853360388829 0 -0.39669040066749478 0.1680975401585055 0 -0.38368435403228612 0.18277853360388829 0 -0.37771056345250942 0.17028283796063451 0 -0.3880591445665772 0.19003771911785591 0 -0.39809248964167487 0.18560464617463729 0 -0.38368435403228612 0.18277853360388829 0 -0.38368435403228612 0.18277853360388829 0 -0.37771056345250942 0.17028283796063451 0 -0.37418517108101529 0.1834741820967257 0 -0.38368435403228612 0.18277853360388829 0 -0.37686466762261461 0.1873894380927604 0 -0.37418517108101529 0.1834741820967257 0 -0.38010624018850481 0.19139538561012959 0 -0.38368435403228612 0.18277853360388829 0 -0.37686466762261461 0.1873894380927604 0 -0.39669040066749478 0.1680975401585055 0 -0.37636924842303021 0.14926087550651909 0 -0.39669040066749478 0.1680975401585055 0 -0.37771056345250942 0.17028283796063451 0 -0.37636924842303021 0.14926087550651909 0 -0.37636924842303021 0.14926087550651909 0 -0.39881172194460018 0.14853833536281341 0 -0.38799615043050939 0.1346654809442501 0 -0.39669040066749478 0.1680975401585055 0 -0.37636924842303021 0.14926087550651909 0 -0.39881172194460018 0.14853833536281341 0 -0.37636924842303021 0.14926087550651909 0 -0.38799615043050939 0.1346654809442501 0 -0.41718858059307551 0.13411340923839421 0 -0.39881172194460018 0.14853833536281341 0 -0.40090487635154348 0.13434682798185971 0 -0.39962305243798862 0.12007008638198111 0 -0.41718858059307551 0.13411340923839421 0 -0.40090487635154348 0.13434682798185971 0 -0.39881172194460018 0.14853833536281341 0 -0.40090487635154348 0.13434682798185971 0 -0.38799615043050939 0.1346654809442501 0 -0.39962305243798862 0.12007008638198111 0 -0.38600292176634632 0.1223106683149927 0 -0.38799615043050939 0.1346654809442501 0 -0.39962305243798862 0.12007008638198111 0 -0.38799615043050939 0.1346654809442501 0 -0.39962305243798862 0.12007008638198111 0 -0.40090487635154348 0.13434682798185971 0 -0.38799615043050939 0.1346654809442501 0 -0.38600292176634632 0.1223106683149927 0 -0.38799615043050939 0.1346654809442501 0 -0.37633061916794119 0.13321554238042471 0 -0.37636924842303021 0.14926087550651909 0 -0.38799615043050939 0.1346654809442501 0 -0.37633061916794119 0.13321554238042471 0 -0.3679263783545399 0.14143476848920131 0 -0.36800354380982009 0.12491814776181159 0 -0.37633061916794119 0.13321554238042471 0 -0.3679263783545399 0.14143476848920131 0 -0.36800354380982009 0.12491814776181159 0 -0.37664402232980337 0.11728716810266079 0 -0.37633061916794119 0.13321554238042471 0 -0.36800354380982009 0.12491814776181159 0 -0.35401697746014982 0.12854146809925801 0 -0.3679263783545399 0.14143476848920131 0 -0.36800354380982009 0.12491814776181159 0 -0.35401697746014982 0.12854146809925801 0 -0.3679263783545399 0.14143476848920131 0 -0.35401697746014982 0.12854146809925801 0 -0.35101994995353908 0.13965889038078569 0 -0.3679263783545399 0.14143476848920131 0 -0.35101994995353908 0.13965889038078569 0 -0.34253429113533129 0.13061104429197631 0 -0.34245173665537437 0.15132526486117151 0 -0.35401697746014982 0.12854146809925801 0 -0.35101994995353908 0.13965889038078569 0 -0.35401697746014982 0.12854146809925801 0 -0.35101994995353908 0.13965889038078569 0 -0.34253429113533129 0.13061104429197631 0 -0.35401697746014982 0.12854146809925801 0 -0.34253429113533129 0.13061104429197631 0 -0.34261915974906049 0.117976276351988 0 -0.35101994995353908 0.13965889038078569 0 -0.35625705023461007 0.15077759800681501 0 -0.3679263783545399 0.14143476848920131 0 -0.35625705023461007 0.15077759800681501 0 -0.35204739493416548 0.1615010572546261 0 -0.34245173665537437 0.15132526486117151 0 -0.35101994995353908 0.13965889038078569 0 -0.35625705023461007 0.15077759800681501 0 -0.34245173665537437 0.15132526486117151 0 -0.37636924842303021 0.14926087550651909 0 -0.37633061916794119 0.13321554238042471 0 -0.3679263783545399 0.14143476848920131 0 -0.35625705023461007 0.15077759800681501 0 -0.3679263783545399 0.14143476848920131 0 -0.36783979127543059 0.1599680090482897 0 -0.37636924842303021 0.14926087550651909 0 -0.3679263783545399 0.14143476848920131 0 -0.36783979127543059 0.1599680090482897 0 -0.3679263783545399 0.14143476848920131 0 -0.36783979127543059 0.1599680090482897 0 -0.37636924842303021 0.14926087550651909 0 -0.3679263783545399 0.14143476848920131 0 -0.37636924842303021 0.14926087550651909 0 -0.36783979127543059 0.1599680090482897 0 -0.37771056345250942 0.17028283796063451 0 -0.37636924842303021 0.14926087550651909 0 -0.36783979127543059 0.1599680090482897 0 -0.36783979127543059 0.1599680090482897 0 -0.36775781168658878 0.1775150548260172 0 -0.37771056345250942 0.17028283796063451 0 -0.36783979127543059 0.1599680090482897 0 -0.36775781168658878 0.1775150548260172 0 -0.36775781168658878 0.1775150548260172 0 -0.36068326892345121 0.18686666511551159 0 -0.3676758320977484 0.19506210060374471 0 -0.36783979127543059 0.1599680090482897 0 -0.36775781168658878 0.1775150548260172 0 -0.3493156899950477 0.18322154356029921 0 -0.36775781168658878 0.1775150548260172 0 -0.3676758320977484 0.19506210060374471 0 -0.37418517108101529 0.1834741820967257 0 -0.36775781168658878 0.1775150548260172 0 -0.36948290518865229 0.19190965106029831 0 -0.37771056345250942 0.17028283796063451 0 -0.37418517108101529 0.1834741820967257 0 -0.36775781168658878 0.1775150548260172 0 -0.36775781168658878 0.1775150548260172 0 -0.36068326892345121 0.18686666511551159 0 -0.3493156899950477 0.18322154356029921 0 -0.36783979127543059 0.1599680090482897 0 -0.3493156899950477 0.18322154356029921 0 -0.35204739493416548 0.1615010572546261 0 -0.35625705023461007 0.15077759800681501 0 -0.36783979127543059 0.1599680090482897 0 -0.35204739493416548 0.1615010572546261 0 -0.3493156899950477 0.18322154356029921 0 -0.35204739493416548 0.1615010572546261 0 -0.33831400668615091 0.1594144809029007 0 -0.36783979127543059 0.1599680090482897 0 -0.3493156899950477 0.18322154356029921 0 -0.3493156899950477 0.18322154356029921 0 -0.33831400668615091 0.1594144809029007 0 -0.35204739493416548 0.1615010572546261 0 -0.33831400668615091 0.1594144809029007 0 -0.34245173665537437 0.15132526486117151 0 -0.33831400668615091 0.1594144809029007 0 -0.33457853219429362 0.17798236843680901 0 -0.31804543900369547 0.16549649626791391 0 -0.3493156899950477 0.18322154356029921 0 -0.33831400668615091 0.1594144809029007 0 -0.33457853219429362 0.17798236843680901 0 -0.33457853219429362 0.17798236843680901 0 -0.34218142024560982 0.19217728102498929 0 -0.32503610504096342 0.18960204042794249 0 -0.3493156899950477 0.18322154356029921 0 -0.33457853219429362 0.17798236843680901 0 -0.34218142024560982 0.19217728102498929 0 -0.31804543900369547 0.16549649626791391 0 -0.32503610504096342 0.18960204042794249 0 -0.30407821262706652 0.18645414756458309 0 -0.33457853219429362 0.17798236843680901 0 -0.31804543900369547 0.16549649626791391 0 -0.32503610504096342 0.18960204042794249 0 -0.31804543900369547 0.16549649626791391 0 -0.32503610504096342 0.18960204042794249 0 -0.33831400668615091 0.1594144809029007 0 -0.31804543900369547 0.16549649626791391 0 -0.32356948533401397 0.15082808238892631 0 -0.32356948533401397 0.15082808238892631 0 -0.32731232337725108 0.1356074182455034 0 -0.31105477296642658 0.1413909521078856 0 -0.31804543900369547 0.16549649626791391 0 -0.31105477296642658 0.1413909521078856 0 -0.31804543900369547 0.16549649626791391 0 -0.32356948533401397 0.15082808238892631 0 -0.31105477296642658 0.1413909521078856 0 -0.32731232337725108 0.1356074182455034 0 -0.31468546083529669 0.12652103347233809 0 -0.31105477296642658 0.1413909521078856 0 -0.32731232337725108 0.1356074182455034 0 -0.33076809179349598 0.1268813460663408 0 -0.34245173665537437 0.15132526486117151 0 -0.33076809179349598 0.1268813460663408 0 -0.34245173665537437 0.15132526486117151 0 -0.33076809179349598 0.1268813460663408 0 -0.34253429113533129 0.13061104429197631 0 -0.34245173665537437 0.15132526486117151 0 -0.33076809179349598 0.1268813460663408 0 -0.34253429113533129 0.13061104429197631 0 -0.33666217495045297 0.1218892254615512 0 -0.33831400668615091 0.1594144809029007 0 -0.32731232337725108 0.1356074182455034 0 -0.34245173665537437 0.15132526486117151 0 -0.33831400668615091 0.1594144809029007 0 -0.32731232337725108 0.1356074182455034 0 -0.33831400668615091 0.1594144809029007 0 -0.32356948533401397 0.15082808238892631 0 -0.32731232337725108 0.1356074182455034 0 -0.35680367322974249 0.2403001594147498 0 -0.34076034255671012 0.2394519696354756 0 -0.34673401697601558 0.25598335073781769 0 -0.35680367322974249 0.2403001594147498 0 -0.3476491707734426 0.22390602945299881 0 -0.34076034255671012 0.2394519696354756 0 -0.3762277089876811 0.2414577338236846 0 -0.35680367322974249 0.2403001594147498 0 -0.36418938528547712 0.26327462148156322 0 -0.3762277089876811 0.2414577338236846 0 -0.35680367322974249 0.2403001594147498 0 -0.36526141479912888 0.217727251356959 0 -0.3762277089876811 0.2414577338236846 0 -0.36526141479912888 0.217727251356959 0 -0.35680367322974249 0.2403001594147498 0 -0.3476491707734426 0.22390602945299881 0 -0.36526141479912888 0.217727251356959 0 -0.3476491707734426 0.22390602945299881 0 -0.34794140271013901 0.20821776780394399 0 -0.33951130254142398 0.21452035576940079 0 -0.34794140271013901 0.20821776780394399 0 -0.36526141479912888 0.217727251356959 0 -0.35429512061058488 0.1939967688902296 0 -0.3476491707734426 0.22390602945299881 0 -0.34794140271013901 0.20821776780394399 0 -0.36526141479912888 0.217727251356959 0 -0.36526141479912888 0.217727251356959 0 -0.37233725061120898 0.20744499488199861 0 -0.35429512061058488 0.1939967688902296 0 -0.38642897168464369 0.2201173574299097 0 -0.36526141479912888 0.217727251356959 0 -0.37233725061120898 0.20744499488199861 0 -0.36526141479912888 0.217727251356959 0 -0.35429512061058488 0.1939967688902296 0 -0.37427533270663982 0.19699781335706409 0 -0.3676758320977484 0.19506210060374471 0 -0.35429512061058488 0.1939967688902296 0 -0.36775781168658878 0.1775150548260172 0 -0.3676758320977484 0.19506210060374471 0 -0.36948290518865229 0.19190965106029831 0 -0.37233725061120898 0.20744499488199861 0 -0.37427533270663982 0.19699781335706409 0 -0.35429512061058488 0.1939967688902296 0 -0.37427533270663982 0.19699781335706409 0 -0.35429512061058488 0.1939967688902296 0 -0.37686466762261461 0.1873894380927604 0 -0.37418517108101529 0.1834741820967257 0 -0.36948290518865229 0.19190965106029831 0 -0.37427533270663982 0.19699781335706409 0 -0.3676758320977484 0.19506210060374471 0 -0.36948290518865229 0.19190965106029831 0 -0.36068326892345121 0.18686666511551159 0 -0.3676758320977484 0.19506210060374471 0 -0.35429512061058488 0.1939967688902296 0 -0.36068326892345121 0.18686666511551159 0 -0.3493156899950477 0.18322154356029921 0 -0.35429512061058488 0.1939967688902296 0 -0.3493156899950477 0.18322154356029921 0 -0.35429512061058488 0.1939967688902296 0 -0.34794140271013901 0.20821776780394399 0 -0.35429512061058488 0.1939967688902296 0 -0.34218142024560982 0.19217728102498929 0 -0.3493156899950477 0.18322154356029921 0 -0.34218142024560982 0.19217728102498929 0 -0.35429512061058488 0.1939967688902296 0 -0.34218142024560982 0.19217728102498929 0 -0.3493156899950477 0.18322154356029921 0 -0.35429512061058488 0.1939967688902296 0 -0.34218142024560982 0.19217728102498929 0 -0.34794140271013901 0.20821776780394399 0 -0.34218142024560982 0.19217728102498929 0 -0.33756975940355172 0.20745482302386181 0 -0.34218142024560982 0.19217728102498929 0 -0.32503610504096342 0.18960204042794249 0 -0.34218142024560982 0.19217728102498929 0 -0.32503610504096342 0.18960204042794249 0 -0.33015945204791991 0.20726860708479841 0 -0.34218142024560982 0.19217728102498929 0 -0.33015945204791991 0.20726860708479841 0 -0.34218142024560982 0.19217728102498929 0 -0.33015945204791991 0.20726860708479841 0 -0.33756975940355172 0.20745482302386181 0 -0.32503610504096342 0.18960204042794249 0 -0.30407821262706652 0.18645414756458309 0 -0.32503610504096342 0.18960204042794249 0 -0.32257502240176861 0.2034178743000655 0 -0.33015945204791991 0.20726860708479841 0 -0.32503610504096342 0.18960204042794249 0 -0.31430475389268692 0.19893019656602581 0 -0.30407821262706652 0.18645414756458309 0 -0.32503610504096342 0.18960204042794249 0 -0.33015945204791991 0.20726860708479841 0 -0.32503610504096342 0.18960204042794249 0 -0.31430475389268692 0.19893019656602581 0 -0.32257502240176861 0.2034178743000655 0 -0.32257502240176861 0.2034178743000655 0 -0.31689037382340052 0.2094066159853091 0 -0.32648442720387438 0.2118819114362511 0 -0.32257502240176861 0.2034178743000655 0 -0.32648442720387438 0.2118819114362511 0 -0.33015945204791991 0.20726860708479841 0 -0.31430475389268692 0.19893019656602581 0 -0.32257502240176861 0.2034178743000655 0 -0.31689037382340052 0.2094066159853091 0 -0.31689037382340052 0.2094066159853091 0 -0.32354718674605382 0.21789219224463491 0 -0.3109832630338476 0.21831114321703701 0 -0.31689037382340052 0.2094066159853091 0 -0.32354718674605382 0.21789219224463491 0 -0.32648442720387438 0.2118819114362511 0 -0.32354718674605382 0.21789219224463491 0 -0.32648442720387438 0.2118819114362511 0 -0.33172197193281799 0.2168633925064572 0 -0.33172197193281799 0.2168633925064572 0 -0.33951130254142398 0.21452035576940079 0 -0.33363764514000649 0.22473024784093179 0 -0.33172197193281799 0.2168633925064572 0 -0.33491593305707862 0.21213131223523471 0 -0.33086069835052079 0.20968667764121879 0 -0.33172197193281799 0.2168633925064572 0 -0.33491593305707862 0.21213131223523471 0 -0.33951130254142398 0.21452035576940079 0 -0.32648442720387438 0.2118819114362511 0 -0.33172197193281799 0.2168633925064572 0 -0.33086069835052079 0.20968667764121879 0 -0.32648442720387438 0.2118819114362511 0 -0.33015945204791991 0.20726860708479841 0 -0.32648442720387438 0.2118819114362511 0 -0.33015945204791991 0.20726860708479841 0 -0.33086069835052079 0.20968667764121879 0 -0.33015945204791991 0.20726860708479841 0 -0.33086069835052079 0.20968667764121879 0 -0.33491593305707862 0.21213131223523471 0 -0.33086069835052079 0.20968667764121879 0 -0.33756975940355172 0.20745482302386181 0 -0.33015945204791991 0.20726860708479841 0 -0.33086069835052079 0.20968667764121879 0 -0.33756975940355172 0.20745482302386181 0 -0.34794140271013901 0.20821776780394399 0 -0.33756975940355172 0.20745482302386181 0 -0.33951130254142398 0.21452035576940079 0 -0.33491593305707862 0.21213131223523471 0 -0.33756975940355172 0.20745482302386181 0 -0.33951130254142398 0.21452035576940079 0 -0.3476491707734426 0.22390602945299881 0 -0.33951130254142398 0.21452035576940079 0 -0.33363764514000649 0.22473024784093179 0 -0.3476491707734426 0.22390602945299881 0 -0.33363764514000649 0.22473024784093179 0 -0.34076034255671012 0.2394519696354756 0 -0.33363764514000649 0.22473024784093179 0 -0.32689146105862499 0.23861155875722881 0 -0.34076034255671012 0.2394519696354756 0 -0.32354718674605382 0.21789219224463491 0 -0.33172197193281799 0.2168633925064572 0 -0.33363764514000649 0.22473024784093179 0 -0.32354718674605382 0.21789219224463491 0 -0.33363764514000649 0.22473024784093179 0 -0.32156543934237591 0.22615984248182319 0 -0.32156543934237591 0.22615984248182319 0 -0.31102186370945872 0.24190991661535971 0 -0.3109832630338476 0.21831114321703701 0 -0.32354718674605382 0.21789219224463491 0 -0.32156543934237591 0.22615984248182319 0 -0.3109832630338476 0.21831114321703701 0 -0.33363764514000649 0.22473024784093179 0 -0.32156543934237591 0.22615984248182319 0 -0.32689146105862499 0.23861155875722881 0 -0.32156543934237591 0.22615984248182319 0 -0.32689146105862499 0.23861155875722881 0 -0.31102186370945872 0.24190991661535971 0 -0.32689146105862499 0.23861155875722881 0 -0.31102186370945872 0.24190991661535971 0 -0.32747201454457392 0.26080581721255391 0 -0.32689146105862499 0.23861155875722881 0 -0.34076034255671012 0.2394519696354756 0 -0.32747201454457392 0.26080581721255391 0 -0.28638785162830721 0.24757136013329381 0 -0.29400524111085302 0.2370881844910008 0 -0.26875140580645679 0.23423205549126411 0 -0.28638785162830721 0.24757136013329381 0 -0.29400524111085302 0.2370881844910008 0 -0.29677711184925942 0.2508983199382061 0 -0.29400524111085302 0.2370881844910008 0 -0.31102186370945872 0.24190991661535971 0 -0.29677711184925942 0.2508983199382061 0 -0.31102186370945872 0.24190991661535971 0 -0.29457171287434358 0.2230140160181654 0 -0.29400524111085302 0.2370881844910008 0 -0.31102186370945872 0.24190991661535971 0 -0.29457171287434358 0.2230140160181654 0 -0.31102186370945872 0.24190991661535971 0 -0.29457171287434358 0.2230140160181654 0 -0.3109832630338476 0.21831114321703701 0 -0.29400524111085302 0.2370881844910008 0 -0.29457171287434358 0.2230140160181654 0 -0.26875140580645679 0.23423205549126411 0 -0.29457171287434358 0.2230140160181654 0 -0.30126652986889552 0.2029585616349546 0 -0.27809231374861221 0.20578055270506659 0 -0.29457171287434358 0.2230140160181654 0 -0.3109832630338476 0.21831114321703701 0 -0.30126652986889552 0.2029585616349546 0 -0.31430475389268692 0.19893019656602581 0 -0.31689037382340052 0.2094066159853091 0 -0.30126652986889552 0.2029585616349546 0 -0.31689037382340052 0.2094066159853091 0 -0.3109832630338476 0.21831114321703701 0 -0.30126652986889552 0.2029585616349546 0 -0.31430475389268692 0.19893019656602581 0 -0.30126652986889552 0.2029585616349546 0 -0.30407821262706652 0.18645414756458309 0 -0.30126652986889552 0.2029585616349546 0 -0.30407821262706652 0.18645414756458309 0 -0.28312032021316968 0.18330625470122319 0 -0.30126652986889552 0.2029585616349546 0 -0.27809231374861221 0.20578055270506659 0 -0.28312032021316968 0.18330625470122319 0 -0.27809231374861221 0.20578055270506659 0 -0.28312032021316968 0.18330625470122319 0 -0.26248859064343749 0.17845226091426941 0 -0.25454920797491343 0.2079421238334275 0 -0.26248859064343749 0.17845226091426941 0 -0.2403470101433699 0.18165219217559081 0 -0.25454920797491343 0.2079421238334275 0 -0.27809231374861221 0.20578055270506659 0 -0.26248859064343749 0.17845226091426941 0 -0.25454920797491343 0.2079421238334275 0 -0.27809231374861221 0.20578055270506659 0 -0.26875140580645679 0.23423205549126411 0 -0.29457171287434358 0.2230140160181654 0 -0.27809231374861221 0.20578055270506659 0 -0.26875140580645679 0.23423205549126411 0 -0.25454920797491343 0.2079421238334275 0 -0.26875140580645679 0.23423205549126411 0 -0.25454920797491343 0.2079421238334275 0 -0.26875140580645679 0.23423205549126411 0 -0.24810890252628839 0.23272384076664679 0 -0.26875140580645679 0.23423205549126411 0 -0.26443735616512237 0.2477303344038003 0 -0.24810890252628839 0.23272384076664679 0 -0.26443735616512237 0.2477303344038003 0 -0.25321208583809113 0.25776932320358148 0 -0.24810890252628839 0.23272384076664679 0 -0.28638785162830721 0.24757136013329381 0 -0.26875140580645679 0.23423205549126411 0 -0.28295360363800037 0.26052198714910091 0 -0.26875140580645679 0.23423205549126411 0 -0.26443735616512237 0.2477303344038003 0 -0.27892452861441319 0.25656869405346722 0 -0.26875140580645679 0.23423205549126411 0 -0.28295360363800037 0.26052198714910091 0 -0.29523291272605889 0.14792832780184109 0 -0.28461699531615792 0.15045455210312059 0 -0.28959459946011618 0.16021083095099439 0 -0.29523291272605889 0.14792832780184109 0 -0.30276110915380261 0.15860045613954141 0 -0.28959459946011618 0.16021083095099439 0 -0.28461699531615792 0.15045455210312059 0 -0.28959459946011618 0.16021083095099439 0 -0.27867900224324138 0.15778129070375979 0 -0.28461699531615792 0.15045455210312059 0 -0.28455930905594412 0.13912365387162801 0 -0.27501915309542863 0.1472286571873796 0 -0.29523291272605889 0.14792832780184109 0 -0.28461699531615792 0.15045455210312059 0 -0.28455930905594412 0.13912365387162801 0 -0.28455930905594412 0.13912365387162801 0 -0.27833115850565371 0.12705470913842171 0 -0.28996124584350452 0.1236218264103405 0 -0.28455930905594412 0.13912365387162801 0 -0.29698162082161628 0.1340512199874595 0 -0.28996124584350452 0.1236218264103405 0 -0.29523291272605889 0.14792832780184109 0 -0.28455930905594412 0.13912365387162801 0 -0.29698162082161628 0.1340512199874595 0 -0.31468546083529669 0.12652103347233809 0 -0.31105477296642658 0.1413909521078856 0 -0.30406410692915781 0.1172854079478573 0 -0.29698162082161628 0.1340512199874595 0 -0.31105477296642658 0.1413909521078856 0 -0.30406410692915781 0.1172854079478573 0 -0.31105477296642658 0.1413909521078856 0 -0.30406410692915781 0.1172854079478573 0 -0.29523291272605889 0.14792832780184109 0 -0.31105477296642658 0.1413909521078856 0 -0.30276110915380261 0.15860045613954141 0 -0.29523291272605889 0.14792832780184109 0 -0.29698162082161628 0.1340512199874595 0 -0.31105477296642658 0.1413909521078856 0 -0.31804543900369547 0.16549649626791391 0 -0.31105477296642658 0.1413909521078856 0 -0.30276110915380261 0.15860045613954141 0 -0.31804543900369547 0.16549649626791391 0 -0.30276110915380261 0.15860045613954141 0 -0.29630876062917172 0.17153148850863931 0 -0.31804543900369547 0.16549649626791391 0 -0.30407821262706652 0.18645414756458309 0 -0.29630876062917172 0.17153148850863931 0 -0.30407821262706652 0.18645414756458309 0 -0.28312032021316968 0.18330625470122319 0 -0.29630876062917172 0.17153148850863931 0 -0.30407821262706652 0.18645414756458309 0 -0.28312032021316968 0.18330625470122319 0 -0.28312032021316968 0.18330625470122319 0 -0.29630876062917172 0.17153148850863931 0 -0.2777180837372511 0.17008526824142209 0 -0.28959459946011618 0.16021083095099439 0 -0.29630876062917172 0.17153148850863931 0 -0.2777180837372511 0.17008526824142209 0 -0.30276110915380261 0.15860045613954141 0 -0.28959459946011618 0.16021083095099439 0 -0.29630876062917172 0.17153148850863931 0 -0.28959459946011618 0.16021083095099439 0 -0.27867900224324138 0.15778129070375979 0 -0.2777180837372511 0.17008526824142209 0 -0.27867900224324138 0.15778129070375979 0 -0.2777180837372511 0.17008526824142209 0 -0.26876470378590539 0.1600217644999421 0 -0.2777180837372511 0.17008526824142209 0 -0.26876470378590539 0.1600217644999421 0 -0.26248859064343749 0.17845226091426941 0 -0.28312032021316968 0.18330625470122319 0 -0.2777180837372511 0.17008526824142209 0 -0.26248859064343749 0.17845226091426941 0 -0.26248859064343749 0.17845226091426941 0 -0.25577090009472719 0.15614666647147801 0 -0.24154618544955159 0.1626832646860045 0 -0.26876470378590539 0.1600217644999421 0 -0.26248859064343749 0.17845226091426941 0 -0.25577090009472719 0.15614666647147801 0 -0.25577090009472719 0.15614666647147801 0 -0.25097781289726051 0.14631568991468469 0 -0.26354307025812101 0.1486038323250139 0 -0.25097781289726051 0.14631568991468469 0 -0.26145920841163622 0.14120598408359561 0 -0.25836943693382541 0.1345203726751035 0 -0.25097781289726051 0.14631568991468469 0 -0.26145920841163622 0.14120598408359561 0 -0.26354307025812101 0.1486038323250139 0 -0.26145920841163622 0.14120598408359561 0 -0.26354307025812101 0.1486038323250139 0 -0.26771838376950108 0.14137516801852579 0 -0.26876470378590539 0.1600217644999421 0 -0.25577090009472719 0.15614666647147801 0 -0.26354307025812101 0.1486038323250139 0 -0.26876470378590539 0.1600217644999421 0 -0.26354307025812101 0.1486038323250139 0 -0.27501915309542863 0.1472286571873796 0 -0.26771838376950108 0.14137516801852579 0 -0.27501915309542863 0.1472286571873796 0 -0.27340524534269689 0.1357979756957664 0 -0.26354307025812101 0.1486038323250139 0 -0.26771838376950108 0.14137516801852579 0 -0.27501915309542863 0.1472286571873796 0 -0.28455930905594412 0.13912365387162801 0 -0.27501915309542863 0.1472286571873796 0 -0.27340524534269689 0.1357979756957664 0 -0.27867900224324138 0.15778129070375979 0 -0.26876470378590539 0.1600217644999421 0 -0.27501915309542863 0.1472286571873796 0 -0.28461699531615792 0.15045455210312059 0 -0.27867900224324138 0.15778129070375979 0 -0.27501915309542863 0.1472286571873796 0 -0.28455930905594412 0.13912365387162801 0 -0.27833115850565371 0.12705470913842171 0 -0.27340524534269689 0.1357979756957664 0 -0.26771838376950108 0.14137516801852579 0 -0.27340524534269689 0.1357979756957664 0 -0.26516524173962258 0.13403939080087349 0 -0.27340524534269689 0.1357979756957664 0 -0.26789935976096541 0.12509790326036149 0 -0.26516524173962258 0.13403939080087349 0 -0.27833115850565371 0.12705470913842171 0 -0.27340524534269689 0.1357979756957664 0 -0.26789935976096541 0.12509790326036149 0 -0.26789935976096541 0.12509790326036149 0 -0.25987906249068682 0.12950537174196811 0 -0.26516524173962258 0.13403939080087349 0 -0.25987906249068682 0.12950537174196811 0 -0.25836943693382541 0.1345203726751035 0 -0.24341729992139269 0.12711422740462039 0 -0.25987906249068682 0.12950537174196811 0 -0.26516524173962258 0.13403939080087349 0 -0.25836943693382541 0.1345203726751035 0 -0.26145920841163622 0.14120598408359561 0 -0.26771838376950108 0.14137516801852579 0 -0.26516524173962258 0.13403939080087349 0 -0.26145920841163622 0.14120598408359561 0 -0.26516524173962258 0.13403939080087349 0 -0.25836943693382541 0.1345203726751035 0 -0.26789935976096541 0.12509790326036149 0 -0.25987906249068682 0.12950537174196811 0 -0.26023793689621122 0.1136937247536606 0 -0.25987906249068682 0.12950537174196811 0 -0.26023793689621122 0.1136937247536606 0 -0.2441895661517656 0.1093356225558617 0 -0.25987906249068682 0.12950537174196811 0 -0.2441895661517656 0.1093356225558617 0 -0.26023793689621122 0.1136937247536606 0 -0.27729018204156031 0.1003805575183743 0 -0.25610820474316348 0.091003050049048156 0 -0.26023793689621122 0.1136937247536606 0 -0.25610820474316348 0.091003050049048156 0 -0.2441895661517656 0.1093356225558617 0 -0.27729018204156031 0.1003805575183743 0 -0.2728517592713135 0.11664327955204989 0 -0.28356526849759811 0.1149464679825095 0 -0.26023793689621122 0.1136937247536606 0 -0.27729018204156031 0.1003805575183743 0 -0.2728517592713135 0.11664327955204989 0 -0.27833115850565371 0.12705470913842171 0 -0.26789935976096541 0.12509790326036149 0 -0.2728517592713135 0.11664327955204989 0 -0.26789935976096541 0.12509790326036149 0 -0.26023793689621122 0.1136937247536606 0 -0.2728517592713135 0.11664327955204989 0 -0.27833115850565371 0.12705470913842171 0 -0.2728517592713135 0.11664327955204989 0 -0.28356526849759811 0.1149464679825095 0 -0.27833115850565371 0.12705470913842171 0 -0.28996124584350452 0.1236218264103405 0 -0.28356526849759811 0.1149464679825095 0 -0.28996124584350452 0.1236218264103405 0 -0.28356526849759811 0.1149464679825095 0 -0.29067054184676949 0.1076668335704485 0 -0.28996124584350452 0.1236218264103405 0 -0.29067054184676949 0.1076668335704485 0 -0.30406410692915781 0.1172854079478573 0 -0.27729018204156031 0.1003805575183743 0 -0.28356526849759811 0.1149464679825095 0 -0.29067054184676949 0.1076668335704485 0 -0.27729018204156031 0.1003805575183743 0 -0.28608165832866289 0.093757638784372668 0 -0.29067054184676949 0.1076668335704485 0 -0.28608165832866289 0.093757638784372668 0 -0.29067054184676949 0.1076668335704485 0 -0.29707344089188892 0.093179863787828984 0 -0.3056892861622123 0.10256473006362531 0 -0.30406410692915781 0.1172854079478573 0 -0.29707344089188892 0.093179863787828984 0 -0.30530895675945141 0.087993292930708761 0 -0.31631064006835119 0.11180035558810621 0 -0.30406410692915781 0.1172854079478573 0 -0.29707344089188892 0.093179863787828984 0 -0.3056892861622123 0.10256473006362531 0 -0.30530895675945141 0.087993292930708761 0 -0.31631064006835119 0.11180035558810621 0 -0.29067054184676949 0.1076668335704485 0 -0.30406410692915781 0.1172854079478573 0 -0.29707344089188892 0.093179863787828984 0 -0.3056892861622123 0.10256473006362531 0 -0.30530895675945141 0.087993292930708761 0 -0.29707344089188892 0.093179863787828984 0 -0.3056892861622123 0.10256473006362531 0 -0.30406410692915781 0.1172854079478573 0 -0.31631064006835119 0.11180035558810621 0 -0.29698162082161628 0.1340512199874595 0 -0.28996124584350452 0.1236218264103405 0 -0.30406410692915781 0.1172854079478573 0 -0.31468546083529669 0.12652103347233809 0 -0.30406410692915781 0.1172854079478573 0 -0.31631064006835119 0.11180035558810621 0 -0.29968454118815308 0.067822980361339227 0 -0.30740080206973908 0.077993508476679019 0 -0.30530895675945141 0.087993292930708761 0 -0.30530895675945141 0.087993292930708761 0 -0.29430727345055152 0.064186230273311537 0 -0.29968454118815308 0.067822980361339227 0 -0.30530895675945141 0.087993292930708761 0 -0.29430727345055152 0.064186230273311537 0 -0.29968454118815308 0.067822980361339227 0 -0.31222145986249078 0.068157649044022661 0 -0.31041059753757089 0.05909369936622013 0 -0.29968454118815308 0.067822980361339227 0 -0.31222145986249078 0.068157649044022661 0 -0.30740080206973908 0.077993508476679019 0 -0.30740080206973908 0.077993508476679019 0 -0.30530895675945141 0.087993292930708761 0 -0.31908444693161753 0.1024374272715099 0 -0.30530895675945141 0.087993292930708761 0 -0.29707344089188892 0.093179863787828984 0 -0.29008277485461997 0.069074319627800682 0 -0.29707344089188892 0.093179863787828984 0 -0.29008277485461997 0.069074319627800682 0 -0.29707344089188892 0.093179863787828984 0 -0.28584854878135091 0.082166869088813904 0 -0.29008277485461997 0.069074319627800682 0 -0.28608165832866289 0.093757638784372668 0 -0.29707344089188892 0.093179863787828984 0 -0.28584854878135091 0.082166869088813904 0 -0.28608165832866289 0.093757638784372668 0 -0.28584854878135091 0.082166869088813904 0 -0.27388980715215189 0.080063745193198921 0 -0.28584854878135091 0.082166869088813904 0 -0.29008277485461997 0.069074319627800682 0 -0.28066388068893111 0.069948608746784921 0 -0.30530895675945141 0.087993292930708761 0 -0.29430727345055152 0.064186230273311537 0 -0.29008277485461997 0.069074319627800682 0 -0.29430727345055152 0.064186230273311537 0 -0.29008277485461997 0.069074319627800682 0 -0.28300884039378921 0.058691176956087589 0 -0.29008277485461997 0.069074319627800682 0 -0.28066388068893111 0.069948608746784921 0 -0.28300884039378921 0.058691176956087589 0 -0.27388980715215189 0.080063745193198921 0 -0.27048943226274352 0.059746932868023489 0 -0.28066388068893111 0.069948608746784921 0 -0.27048943226274352 0.059746932868023489 0 -0.28300884039378921 0.058691176956087589 0 -0.27388980715215189 0.080063745193198921 0 -0.26170625468351688 0.071659914040378137 0 -0.27048943226274352 0.059746932868023489 0 -0.28066388068893111 0.069948608746784921 0 -0.27388980715215189 0.080063745193198921 0 -0.27048943226274352 0.059746932868023489 0 -0.28584854878135091 0.082166869088813904 0 -0.28066388068893111 0.069948608746784921 0 -0.27388980715215189 0.080063745193198921 0 -0.27729018204156031 0.1003805575183743 0 -0.27388980715215189 0.080063745193198921 0 -0.27729018204156031 0.1003805575183743 0 -0.28608165832866289 0.093757638784372668 0 -0.27388980715215189 0.080063745193198921 0 -0.27729018204156031 0.1003805575183743 0 -0.27388980715215189 0.080063745193198921 0 -0.25610820474316348 0.091003050049048156 0 -0.27388980715215189 0.080063745193198921 0 -0.25610820474316348 0.091003050049048156 0 -0.26170625468351688 0.071659914040378137 0 -0.25610820474316348 0.091003050049048156 0 -0.26170625468351688 0.071659914040378137 0 -0.24694361646409449 0.072721912912108361 0 -0.26170625468351688 0.071659914040378137 0 -0.25741030458238878 0.052600429353085509 0 -0.24694361646409449 0.072721912912108361 0 -0.25741030458238878 0.052600429353085509 0 -0.26708905737333549 0.039430120542847932 0 -0.27048943226274352 0.059746932868023489 0 -0.26170625468351688 0.071659914040378137 0 -0.25741030458238878 0.052600429353085509 0 -0.27048943226274352 0.059746932868023489 0 -0.26708905737333549 0.039430120542847932 0 -0.2407896513520853 0.037890989172118597 0 -0.26708905737333549 0.039430120542847932 0 -0.25172179462865718 0.025724150998640949 0 -0.2407896513520853 0.037890989172118597 0 -0.25741030458238878 0.052600429353085509 0 -0.26708905737333549 0.039430120542847932 0 -0.2407896513520853 0.037890989172118597 0 -0.26708905737333549 0.039430120542847932 0 -0.27355613470544959 0.019281860055949621 0 -0.28330559014164758 0.040379167615916089 0 -0.26708905737333549 0.039430120542847932 0 -0.27048943226274352 0.059746932868023489 0 -0.28330559014164758 0.040379167615916089 0 -0.26708905737333549 0.039430120542847932 0 -0.28330559014164758 0.040379167615916089 0 -0.26708905737333549 0.039430120542847932 0 -0.27048943226274352 0.059746932868023489 0 -0.27048943226274352 0.059746932868023489 0 -0.28300884039378921 0.058691176956087589 0 -0.28330559014164758 0.040379167615916089 0 -0.24138517484959959 -0.00643824194540428 0 -0.26219695049997649 0.010200397217229189 0 -0.26219695049997649 0.010200397217229189 0 -0.25172179462865718 0.025724150998640949 0 -0.23681151928923039 0.015375097062368819 0 -0.26708905737333549 0.039430120542847932 0 -0.26219695049997649 0.010200397217229189 0 -0.25172179462865718 0.025724150998640949 0 -0.26708905737333549 0.039430120542847932 0 -0.26219695049997649 0.010200397217229189 0 -0.27355613470544959 0.019281860055949621 0 -0.28330559014164758 0.040379167615916089 0 -0.26708905737333549 0.039430120542847932 0 -0.26219695049997649 0.010200397217229189 0 -0.27355613470544959 0.019281860055949621 0 -0.27355613470544959 0.019281860055949621 0 -0.28740760893623363 0.030355863805951379 0 -0.26219695049997649 0.010200397217229189 0 -0.27355613470544959 0.019281860055949621 0 -0.26584301990892367 0.00259108628171982 0 -0.27355613470544959 0.019281860055949621 0 -0.26584301990892367 0.00259108628171982 0 -0.28178806972497322 0.0047021863176151838 0 -0.27355613470544959 0.019281860055949621 0 -0.26584301990892367 0.00259108628171982 0 -0.26219695049997649 0.010200397217229189 0 -0.27355613470544959 0.019281860055949621 0 -0.27355613470544959 0.019281860055949621 0 -0.28178806972497322 0.0047021863176151838 0 -0.28425835270022798 0.01730369160780423 0 -0.29571507552162041 0.00098409570603152701 0 -0.28178806972497322 0.0047021863176151838 0 -0.29428159743425542 0.014874856251701421 0 -0.28178806972497322 0.0047021863176151838 0 -0.29428159743425542 0.014874856251701421 0 -0.28425835270022798 0.01730369160780423 0 -0.27355613470544959 0.019281860055949621 0 -0.28740760893623363 0.030355863805951379 0 -0.28330559014164758 0.040379167615916089 0 -0.29428159743425542 0.014874856251701421 0 -0.28425835270022798 0.01730369160780423 0 -0.28740760893623363 0.030355863805951379 0 -0.27355613470544959 0.019281860055949621 0 -0.28425835270022798 0.01730369160780423 0 -0.28740760893623363 0.030355863805951379 0 -0.29428159743425542 0.014874856251701421 0 -0.28740760893623363 0.030355863805951379 0 -0.29980709481036949 0.029230465519793181 0 -0.29980709481036949 0.029230465519793181 0 -0.31054984723036971 0.025039952900285149 0 -0.30590120428528961 0.016505601892539318 0 -0.31054984723036971 0.025039952900285149 0 -0.31408543485290402 0.0111182886822577 0 -0.31054984723036971 0.025039952900285149 0 -0.30590120428528961 0.016505601892539318 0 -0.31408543485290402 0.0111182886822577 0 -0.29428159743425542 0.014874856251701421 0 -0.29980709481036949 0.029230465519793181 0 -0.30590120428528961 0.016505601892539318 0 -0.29428159743425542 0.014874856251701421 0 -0.30590120428528961 0.016505601892539318 0 -0.30374771766113701 0.0071105341592672226 0 -0.30590120428528961 0.016505601892539318 0 -0.30950028323022549 0.0093954369502143326 0 -0.30374771766113701 0.0071105341592672226 0 -0.30590120428528961 0.016505601892539318 0 -0.30950028323022549 0.0093954369502143326 0 -0.31408543485290402 0.0111182886822577 0 -0.31276107273044762 -0.0040066177982495338 0 -0.30909513318508558 0.003917776002563174 0 -0.31478738417019458 0.0083543060754884615 0 -0.30589562974355983 -0.003206164687927148 0 -0.30909513318508558 0.003917776002563174 0 -0.30374771766113701 0.0071105341592672226 0 -0.30950028323022549 0.0093954369502143326 0 -0.30909513318508558 0.003917776002563174 0 -0.30374771766113701 0.0071105341592672226 0 -0.30950028323022549 0.0093954369502143326 0 -0.30909513318508558 0.003917776002563174 0 -0.31478738417019458 0.0083543060754884615 0 -0.30589562974355983 -0.003206164687927148 0 -0.29571507552162041 0.00098409570603152701 0 -0.30374771766113701 0.0071105341592672226 0 -0.29571507552162041 0.00098409570603152701 0 -0.29428159743425542 0.014874856251701421 0 -0.30374771766113701 0.0071105341592672226 0 -0.29968454118815308 0.067822980361339227 0 -0.29430727345055152 0.064186230273311537 0 -0.29634409229332248 0.05208370989840265 0 -0.29430727345055152 0.064186230273311537 0 -0.29634409229332248 0.05208370989840265 0 -0.28330559014164758 0.040379167615916089 0 -0.29430727345055152 0.064186230273311537 0 -0.28300884039378921 0.058691176956087589 0 -0.28330559014164758 0.040379167615916089 0 -0.29430727345055152 0.064186230273311537 0 -0.28330559014164758 0.040379167615916089 0 -0.28740760893623363 0.030355863805951379 0 -0.28330559014164758 0.040379167615916089 0 -0.30125908316701488 0.041429867555956637 0 -0.28330559014164758 0.040379167615916089 0 -0.30125908316701488 0.041429867555956637 0 -0.29634409229332248 0.05208370989840265 0 -0.28330559014164758 0.040379167615916089 0 -0.30125908316701488 0.041429867555956637 0 -0.28740760893623363 0.030355863805951379 0 -0.30125908316701488 0.041429867555956637 0 -0.28740760893623363 0.030355863805951379 0 -0.29980709481036949 0.029230465519793181 0 -0.30125908316701488 0.041429867555956637 0 -0.31054984723036971 0.025039952900285149 0 -0.30631231029054468 0.041725599725081872 0 -0.31543333215561647 0.035063177100048318 0 -0.31054984723036971 0.025039952900285149 0 -0.30631231029054468 0.041725599725081872 0 -0.29980709481036949 0.029230465519793181 0 -0.31054984723036971 0.025039952900285149 0 -0.30631231029054468 0.041725599725081872 0 -0.29634409229332248 0.05208370989840265 0 -0.30125908316701488 0.041429867555956637 0 -0.30552189829244408 0.04483791134234108 0 -0.30125908316701488 0.041429867555956637 0 -0.30631231029054468 0.041725599725081872 0 -0.30125908316701488 0.041429867555956637 0 -0.30552189829244408 0.04483791134234108 0 -0.30631231029054468 0.041725599725081872 0 -0.30125908316701488 0.041429867555956637 0 -0.30552189829244408 0.04483791134234108 0 -0.29980709481036949 0.029230465519793181 0 -0.30125908316701488 0.041429867555956637 0 -0.30631231029054468 0.041725599725081872 0 -0.30631231029054468 0.041725599725081872 0 -0.31351516575193911 0.042147135511497742 0 -0.31543333215561647 0.035063177100048318 0 -0.30552189829244408 0.04483791134234108 0 -0.30631231029054468 0.041725599725081872 0 -0.31351516575193911 0.042147135511497742 0 -0.30552189829244408 0.04483791134234108 0 -0.30631231029054468 0.041725599725081872 0 -0.30631231029054468 0.041725599725081872 0 -0.31351516575193911 0.042147135511497742 0 -0.29968454118815308 0.067822980361339227 0 -0.29634409229332248 0.05208370989840265 0 -0.30552189829244408 0.04483791134234108 0 -0.29968454118815308 0.067822980361339227 0 -0.30552189829244408 0.04483791134234108 0 -0.31041059753757089 0.05909369936622013 0 -0.29968454118815308 0.067822980361339227 0 -0.30552189829244408 0.04483791134234108 0 -0.30552189829244408 0.04483791134234108 0 -0.31041059753757089 0.05909369936622013 0 -0.32500864909049071 0.060417217040601497 0 -0.30552189829244408 0.04483791134234108 0 -0.32500864909049071 0.060417217040601497 0 -0.31351516575193911 0.042147135511497742 0 -0.30552189829244408 0.04483791134234108 0 -0.32500864909049071 0.060417217040601497 0 -0.32500864909049071 0.060417217040601497 0 -0.31351516575193911 0.042147135511497742 0 -0.32748676264945392 0.045495554741964671 0 -0.31351516575193911 0.042147135511497742 0 -0.31543333215561647 0.035063177100048318 0 -0.32146943130470279 0.039143754785672932 0 -0.3249424870686981 0.031443111438617097 0 -0.32146943130470279 0.039143754785672932 0 -0.32748676264945392 0.045495554741964671 0 -0.31543333215561647 0.035063177100048318 0 -0.3249424870686981 0.031443111438617097 0 -0.32146943130470279 0.039143754785672932 0 -0.31351516575193911 0.042147135511497742 0 -0.32146943130470279 0.039143754785672932 0 -0.32748676264945392 0.045495554741964671 0 -0.32748676264945392 0.045495554741964671 0 -0.33936454121220078 0.037412497917720937 0 -0.34316519561161207 0.055765956291238643 0 -0.3249424870686981 0.031443111438617097 0 -0.32748676264945392 0.045495554741964671 0 -0.33936454121220078 0.037412497917720937 0 -0.32500864909049071 0.060417217040601497 0 -0.32748676264945392 0.045495554741964671 0 -0.34316519561161207 0.055765956291238643 0 -0.32086309268017232 -0.01197215776609825 0 -0.31478738417019458 0.0083543060754884615 0 -0.32946910031326082 0.0040104116289027486 0 -0.31478738417019458 0.0083543060754884615 0 -0.31408543485290402 0.0111182886822577 0 -0.32441428369635428 0.017850030359889059 0 -0.30950028323022549 0.0093954369502143326 0 -0.31478738417019458 0.0083543060754884615 0 -0.31408543485290402 0.0111182886822577 0 -0.31478738417019458 0.0083543060754884615 0 -0.31408543485290402 0.0111182886822577 0 -0.31478738417019458 0.0083543060754884615 0 -0.32441428369635428 0.017850030359889059 0 -0.32946910031326082 0.0040104116289027486 0 -0.31054984723036971 0.025039952900285149 0 -0.31408543485290402 0.0111182886822577 0 -0.32441428369635428 0.017850030359889059 0 -0.31054984723036971 0.025039952900285149 0 -0.3249424870686981 0.031443111438617097 0 -0.32441428369635428 0.017850030359889059 0 -0.31054984723036971 0.025039952900285149 0 -0.31543333215561647 0.035063177100048318 0 -0.3249424870686981 0.031443111438617097 0 -0.32441428369635428 0.017850030359889059 0 -0.33654500103530099 0.02385914573792115 0 -0.34181462615462349 0.010751401202990649 0 -0.3249424870686981 0.031443111438617097 0 -0.32441428369635428 0.017850030359889059 0 -0.33654500103530099 0.02385914573792115 0 -0.3249424870686981 0.031443111438617097 0 -0.33936454121220078 0.037412497917720937 0 -0.33654500103530099 0.02385914573792115 0 -0.33936454121220078 0.037412497917720937 0 -0.33654500103530099 0.02385914573792115 0 -0.35183763316250011 0.023051390864991941 0 -0.33654500103530099 0.02385914573792115 0 -0.34181462615462349 0.010751401202990649 0 -0.35183763316250011 0.023051390864991941 0 -0.34131747691321201 -0.0056869168596235904 0 -0.34181462615462349 0.010751401202990649 0 -0.32946910031326082 0.0040104116289027486 0 -0.32441428369635428 0.017850030359889059 0 -0.34181462615462349 0.010751401202990649 0 -0.32946910031326082 0.0040104116289027486 0 -0.34131747691321201 -0.0056869168596235904 0 -0.34181462615462349 0.010751401202990649 0 -0.35135420548701002 0.00042926114579642079 0 -0.35135420548701002 0.00042926114579642079 0 -0.35390148924263959 0.01013231046957094 0 -0.36046762126310039 0.00156598350646622 0 -0.34181462615462349 0.010751401202990649 0 -0.35135420548701002 0.00042926114579642079 0 -0.35390148924263959 0.01013231046957094 0 -0.34181462615462349 0.010751401202990649 0 -0.35390148924263959 0.01013231046957094 0 -0.35183763316250011 0.023051390864991941 0 -0.35390148924263959 0.01013231046957094 0 -0.35183763316250011 0.023051390864991941 0 -0.36599778811967931 0.01167237975663379 0 -0.35183763316250011 0.023051390864991941 0 -0.37203917307885098 0.02743845959296563 0 -0.35358963874397359 0.039035967755766697 0 -0.35183763316250011 0.023051390864991941 0 -0.37203917307885098 0.02743845959296563 0 -0.36599778811967931 0.01167237975663379 0 -0.36883020194267091 -0.00012660618860938191 0 -0.38267038653320551 0.00342366148846019 0 -0.36599778811967931 0.01167237975663379 0 -0.38267038653320551 0.00342366148846019 0 -0.37203917307885098 0.02743845959296563 0 -0.36599778811967931 0.01167237975663379 0 -0.35390148924263959 0.01013231046957094 0 -0.36599778811967931 0.01167237975663379 0 -0.36046762126310039 0.00156598350646622 0 -0.36883020194267091 -0.00012660618860938191 0 -0.36599778811967931 0.01167237975663379 0 -0.36046762126310039 0.00156598350646622 0 -0.34316519561161207 0.055765956291238643 0 -0.35358963874397359 0.039035967755766697 0 -0.36154165065470367 0.0515115341119163 0 -0.34316519561161207 0.055765956291238643 0 -0.36154165065470367 0.0515115341119163 0 -0.35461432686920402 0.063404441719459206 0 -0.33936454121220078 0.037412497917720937 0 -0.35183763316250011 0.023051390864991941 0 -0.35358963874397359 0.039035967755766697 0 -0.33936454121220078 0.037412497917720937 0 -0.34316519561161207 0.055765956291238643 0 -0.35358963874397359 0.039035967755766697 0 -0.37203917307885098 0.02743845959296563 0 -0.35358963874397359 0.039035967755766697 0 -0.36154165065470367 0.0515115341119163 0 -0.37895169723653582 0.047600634916348999 0 -0.37203917307885098 0.02743845959296563 0 -0.36154165065470367 0.0515115341119163 0 -0.37203917307885098 0.02743845959296563 0 -0.36154165065470367 0.0515115341119163 0 -0.37895169723653582 0.047600634916348999 0 -0.36154165065470367 0.0515115341119163 0 -0.3714698758611315 0.063800239954929866 0 -0.36154165065470367 0.0515115341119163 0 -0.3714698758611315 0.063800239954929866 0 -0.35461432686920402 0.063404441719459206 0 -0.3714698758611315 0.063800239954929866 0 -0.35461432686920402 0.063404441719459206 0 -0.35864043832636472 0.073694258212592623 0 -0.3714698758611315 0.063800239954929866 0 -0.35864043832636472 0.073694258212592623 0 -0.3639821506865859 0.0915758284371197 0 -0.3714698758611315 0.063800239954929866 0 -0.3639821506865859 0.0915758284371197 0 -0.34316519561161207 0.055765956291238643 0 -0.35461432686920402 0.063404441719459206 0 -0.34449539988853811 0.075996522738861011 0 -0.35461432686920402 0.063404441719459206 0 -0.35864043832636472 0.073694258212592623 0 -0.34449539988853811 0.075996522738861011 0 -0.35864043832636472 0.073694258212592623 0 -0.34449539988853811 0.075996522738861011 0 -0.3639821506865859 0.0915758284371197 0 -0.34449539988853811 0.075996522738861011 0 -0.3639821506865859 0.0915758284371197 0 -0.35187437365078778 0.098224832890002958 0 -0.34449539988853811 0.075996522738861011 0 -0.35187437365078778 0.098224832890002958 0 -0.33809784495244249 0.099232196769996533 0 -0.34449539988853811 0.075996522738861011 0 -0.3639821506865859 0.0915758284371197 0 -0.37569416788488752 0.085632518207358593 0 -0.3714698758611315 0.063800239954929866 0 -0.3639821506865859 0.0915758284371197 0 -0.3639821506865859 0.0915758284371197 0 -0.35899956407336903 0.1100586482681892 0 -0.3818026015622874 0.10582295740955019 0 -0.37569416788488752 0.085632518207358593 0 -0.3639821506865859 0.0915758284371197 0 -0.3818026015622874 0.10582295740955019 0 -0.3639821506865859 0.0915758284371197 0 -0.3818026015622874 0.10582295740955019 0 -0.3639821506865859 0.0915758284371197 0 -0.36808070926510039 0.10840152703442189 0 -0.3639821506865859 0.0915758284371197 0 -0.36808070926510039 0.10840152703442189 0 -0.35899956407336903 0.1100586482681892 0 -0.36808070926510039 0.10840152703442189 0 -0.36800354380982009 0.12491814776181159 0 -0.37664402232980337 0.11728716810266079 0 -0.36808070926510039 0.10840152703442189 0 -0.36800354380982009 0.12491814776181159 0 -0.35401697746014982 0.12854146809925801 0 -0.36800354380982009 0.12491814776181159 0 -0.35899956407336903 0.1100586482681892 0 -0.36808070926510039 0.10840152703442189 0 -0.36800354380982009 0.12491814776181159 0 -0.35899956407336903 0.1100586482681892 0 -0.35401697746014982 0.12854146809925801 0 -0.35899956407336903 0.1100586482681892 0 -0.34261915974906049 0.117976276351988 0 -0.35401697746014982 0.12854146809925801 0 -0.35899956407336903 0.1100586482681892 0 -0.35401697746014982 0.12854146809925801 0 -0.34261915974906049 0.117976276351988 0 -0.3639821506865859 0.0915758284371197 0 -0.35899956407336903 0.1100586482681892 0 -0.35187437365078778 0.098224832890002958 0 -0.35187437365078778 0.098224832890002958 0 -0.33809784495244249 0.099232196769996533 0 -0.34261915974906049 0.117976276351988 0 -0.35899956407336903 0.1100586482681892 0 -0.35187437365078778 0.098224832890002958 0 -0.34261915974906049 0.117976276351988 0 -0.33809784495244249 0.099232196769996533 0 -0.32888473833030318 0.10222205546275499 0 -0.33072715712392398 0.1120882351358997 0 -0.33809784495244249 0.099232196769996533 0 -0.32888473833030318 0.10222205546275499 0 -0.3276295043132289 0.095130362673613855 0 -0.33809784495244249 0.099232196769996533 0 -0.34261915974906049 0.117976276351988 0 -0.33072715712392398 0.1120882351358997 0 -0.33666217495045297 0.1218892254615512 0 -0.34261915974906049 0.117976276351988 0 -0.33072715712392398 0.1120882351358997 0 -0.34253429113533129 0.13061104429197631 0 -0.33666217495045297 0.1218892254615512 0 -0.34261915974906049 0.117976276351988 0 -0.33076809179349598 0.1268813460663408 0 -0.33666217495045297 0.1218892254615512 0 -0.33072715712392398 0.1120882351358997 0 -0.32731232337725108 0.1356074182455034 0 -0.31468546083529669 0.12652103347233809 0 -0.31631064006835119 0.11180035558810621 0 -0.33076809179349598 0.1268813460663408 0 -0.33072715712392398 0.1120882351358997 0 -0.31908444693161753 0.1024374272715099 0 -0.32731232337725108 0.1356074182455034 0 -0.31631064006835119 0.11180035558810621 0 -0.33076809179349598 0.1268813460663408 0 -0.31631064006835119 0.11180035558810621 0 -0.31908444693161753 0.1024374272715099 0 -0.32731232337725108 0.1356074182455034 0 -0.33076809179349598 0.1268813460663408 0 -0.31631064006835119 0.11180035558810621 0 -0.33076809179349598 0.1268813460663408 0 -0.31908444693161753 0.1024374272715099 0 -0.30530895675945141 0.087993292930708761 0 -0.31631064006835119 0.11180035558810621 0 -0.31908444693161753 0.1024374272715099 0 -0.3276295043132289 0.095130362673613855 0 -0.31908444693161753 0.1024374272715099 0 -0.32632323442400879 0.08396322975287826 0 -0.32888473833030318 0.10222205546275499 0 -0.3276295043132289 0.095130362673613855 0 -0.31908444693161753 0.1024374272715099 0 -0.32888473833030318 0.10222205546275499 0 -0.33072715712392398 0.1120882351358997 0 -0.31908444693161753 0.1024374272715099 0 -0.30740080206973908 0.077993508476679019 0 -0.31908444693161753 0.1024374272715099 0 -0.32632323442400879 0.08396322975287826 0 -0.30740080206973908 0.077993508476679019 0 -0.32632323442400879 0.08396322975287826 0 -0.31798544295163039 0.07344088362046769 0 -0.30740080206973908 0.077993508476679019 0 -0.31908444693161753 0.1024374272715099 0 -0.32500864909049071 0.060417217040601497 0 -0.32632323442400879 0.08396322975287826 0 -0.31798544295163039 0.07344088362046769 0 -0.31222145986249078 0.068157649044022661 0 -0.30740080206973908 0.077993508476679019 0 -0.31798544295163039 0.07344088362046769 0 -0.31222145986249078 0.068157649044022661 0 -0.32500864909049071 0.060417217040601497 0 -0.31798544295163039 0.07344088362046769 0 -0.31222145986249078 0.068157649044022661 0 -0.31041059753757089 0.05909369936622013 0 -0.32500864909049071 0.060417217040601497 0 -0.32500864909049071 0.060417217040601497 0 -0.34316519561161207 0.055765956291238643 0 -0.34449539988853811 0.075996522738861011 0 -0.32500864909049071 0.060417217040601497 0 -0.34449539988853811 0.075996522738861011 0 -0.32632323442400879 0.08396322975287826 0 -0.32500864909049071 0.060417217040601497 0 -0.34449539988853811 0.075996522738861011 0 -0.34449539988853811 0.075996522738861011 0 -0.33809784495244249 0.099232196769996533 0 -0.32632323442400879 0.08396322975287826 0 -0.33809784495244249 0.099232196769996533 0 -0.3276295043132289 0.095130362673613855 0 -0.32632323442400879 0.08396322975287826 0 -0.39415892809955139 0.48245536460990512 0 -0.38336537052096242 0.46862074180030622 0 -0.39675013459666569 0.46479914819657608 0 -0.39415892809955139 0.48245536460990512 0 -0.39675013459666569 0.46479914819657608 0 -0.41603508494936398 0.47441758083916491 0 -0.39415892809955139 0.48245536460990512 0 -0.38471258854203449 0.5 0 -0.40924884657631222 0.5 0 -0.39415892809955139 0.48245536460990512 0 -0.38471258854203449 0.5 0 -0.37486924979315511 0.48081207315808172 0 -0.38336537052096242 0.46862074180030622 0 -0.36924227982466801 0.46400003439982968 0 -0.37486924979315511 0.48081207315808172 0 -0.39415892809955139 0.48245536460990512 0 -0.38336537052096242 0.46862074180030622 0 -0.37486924979315511 0.48081207315808172 0 -0.38467572257486599 0.45462334623912232 0 -0.38336537052096242 0.46862074180030622 0 -0.36924227982466801 0.46400003439982968 0 -0.38467572257486599 0.45462334623912232 0 -0.38336537052096242 0.46862074180030622 0 -0.39675013459666569 0.46479914819657608 0 -0.38467572257486599 0.45462334623912232 0 -0.38851793510409671 0.43714309891359171 0 -0.36361530985618068 0.44718799564157757 0 -0.38851793510409671 0.43714309891359171 0 -0.36361530985618068 0.44718799564157757 0 -0.38467572257486599 0.45462334623912232 0 -0.40606035099413179 0.44744443414811469 0 -0.38851793510409671 0.43714309891359171 0 -0.38467572257486599 0.45462334623912232 0 -0.40606035099413179 0.44744443414811469 0 -0.39675013459666569 0.46479914819657608 0 -0.40606035099413179 0.44744443414811469 0 -0.39675013459666569 0.46479914819657608 0 -0.41603508494936398 0.47441758083916491 0 -0.40606035099413179 0.44744443414811469 0 -0.42838749444963242 0.45139880145707623 0 -0.41603508494936398 0.47441758083916491 0 -0.42838749444963242 0.45139880145707623 0 -0.41342056035201602 0.42709820218561401 0 -0.40606035099413179 0.44744443414811469 0 -0.42838749444963242 0.45139880145707623 0 -0.41342056035201602 0.42709820218561401 0 -0.42838749444963242 0.45139880145707623 0 -0.43847952704619891 0.43458187579164759 0 -0.41342056035201602 0.42709820218561401 0 -0.42838749444963242 0.45139880145707623 0 -0.41603508494936398 0.47441758083916491 0 -0.44335442854725021 0.47569940072853789 0 -0.42838749444963242 0.45139880145707623 0 -0.44335442854725021 0.47569940072853789 0 -0.41603508494936398 0.47441758083916491 0 -0.43378510461058989 0.5 0 -0.44335442854725021 0.47569940072853789 0 -0.39415892809955139 0.48245536460990512 0 -0.41603508494936398 0.47441758083916491 0 -0.40924884657631222 0.5 0 -0.41603508494936398 0.47441758083916491 0 -0.40924884657631222 0.5 0 -0.43378510461058989 0.5 0 -0.43378510461058989 0.5 0 -0.44335442854725021 0.47569940072853789 0 -0.45832136264486772 0.49999999999999972 0 -0.48460279784442772 0.47597571243395681 0 -0.5 0.5 0 -0.5 0.41533483100206731 0 -0.44335442854725021 0.47569940072853789 0 -0.45832136264486772 0.49999999999999972 0 -0.44335442854725021 0.47569940072853789 0 -0.46463071861486732 0.47523372343625458 0 -0.45832136264486772 0.49999999999999972 0 -0.46463071861486732 0.47523372343625458 0 -0.45832136264486772 0.49999999999999972 0 -0.47701311372003802 0.5 0 -0.46463071861486732 0.47523372343625458 0 -0.47701311372003802 0.5 0 -0.48460279784442772 0.47597571243395681 0 -0.47701311372003802 0.5 0 -0.48460279784442772 0.47597571243395681 0 -0.49570486479520831 0.50000000000001388 0 -0.48460279784442772 0.47597571243395681 0 -0.49570486479520831 0.50000000000001388 0 -0.48460279784442772 0.47597571243395681 0 -0.49570486479520831 0.50000000000001388 0 -0.5 0.5 0 -0.48460279784442772 0.47597571243395681 0 -0.47350073089365241 0.4519514248678973 0 -0.5 0.41533483100206731 0 -0.48460279784442772 0.47597571243395681 0 -0.47350073089365241 0.4519514248678973 0 -0.46463071861486732 0.47523372343625458 0 -0.48460279784442772 0.47597571243395681 0 -0.47350073089365241 0.4519514248678973 0 -0.47350073089365241 0.4519514248678973 0 -0.46239866394287699 0.42792713730183762 0 -0.47350073089365241 0.4519514248678973 0 -0.45083151608614752 0.44904317343123262 0 -0.46239866394287699 0.42792713730183762 0 -0.46463071861486732 0.47523372343625458 0 -0.47350073089365241 0.4519514248678973 0 -0.45083151608614752 0.44904317343123262 0 -0.42838749444963242 0.45139880145707623 0 -0.44335442854725021 0.47569940072853789 0 -0.45083151608614752 0.44904317343123262 0 -0.44335442854725021 0.47569940072853789 0 -0.46463071861486732 0.47523372343625458 0 -0.45083151608614752 0.44904317343123262 0 -0.42838749444963242 0.45139880145707623 0 -0.45083151608614752 0.44904317343123262 0 -0.43847952704619891 0.43458187579164759 0 -0.45083151608614752 0.44904317343123262 0 -0.43847952704619891 0.43458187579164759 0 -0.46239866394287699 0.42792713730183762 0 -0.43847952704619891 0.43458187579164759 0 -0.46239866394287699 0.42792713730183762 0 -0.43735940040032151 0.41744206458247762 0 -0.46239866394287699 0.42792713730183762 0 -0.45129659699210167 0.40390284973577789 0 -0.43735940040032151 0.41744206458247762 0 -0.45129659699210167 0.40390284973577789 0 -0.43648753512079391 0.40260152516945519 0 -0.43735940040032151 0.41744206458247762 0 -0.46239866394287699 0.42792713730183762 0 -0.47337383243459707 0.40652910657686853 0 -0.45129659699210167 0.40390284973577789 0 -0.46239866394287699 0.42792713730183762 0 -0.45129659699210167 0.40390284973577789 0 -0.47350073089365241 0.4519514248678973 0 -0.46239866394287699 0.42792713730183762 0 -0.5 0.41533483100206731 0 -0.46239866394287699 0.42792713730183762 0 -0.5 0.41533483100206731 0 -0.47337383243459707 0.40652910657686853 0 -0.5 0.41533483100206731 0 -0.47515328408752411 0.37830085519238388 0 -0.5 0.35365852672826398 0 -0.5 0.41533483100206731 0 -0.47337383243459707 0.40652910657686853 0 -0.47515328408752411 0.37830085519238388 0 -0.47515328408752411 0.37830085519238388 0 -0.45129659699210167 0.40390284973577789 0 -0.44019453004132619 0.37987856216971821 0 -0.47337383243459707 0.40652910657686853 0 -0.47515328408752411 0.37830085519238388 0 -0.45129659699210167 0.40390284973577789 0 -0.45129659699210167 0.40390284973577789 0 -0.44019453004132619 0.37987856216971821 0 -0.43648753512079391 0.40260152516945519 0 -0.45129659699210167 0.40390284973577789 0 -0.44019453004132619 0.37987856216971821 0 -0.44019453004132619 0.37987856216971821 0 -0.42880336755885129 0.38928828643534102 0 -0.4219939675281279 0.373486128560377 0 -0.42880336755885129 0.38928828643534102 0 -0.41836788774876282 0.38713064370726502 0 -0.4219939675281279 0.373486128560377 0 -0.44019453004132619 0.37987856216971821 0 -0.42880336755885129 0.38928828643534102 0 -0.43648753512079391 0.40260152516945519 0 -0.41836788774876282 0.38713064370726502 0 -0.41182110331223187 0.37860944187347811 0 -0.4219939675281279 0.373486128560377 0 -0.41836788774876282 0.38713064370726502 0 -0.40758332192594082 0.38538362713304808 0 -0.41182110331223187 0.37860944187347811 0 -0.41836788774876282 0.38713064370726502 0 -0.40758332192594082 0.38538362713304808 0 -0.40924378741284922 0.39441512182801047 0 -0.41182110331223187 0.37860944187347811 0 -0.40267155144712169 0.37823819300015782 0 -0.40743695905094057 0.37107690919693709 0 -0.40758332192594082 0.38538362713304808 0 -0.41182110331223187 0.37860944187347811 0 -0.40267155144712169 0.37823819300015782 0 -0.40924378741284922 0.39441512182801047 0 -0.41344625593598322 0.40744847049607619 0 -0.39855109619539719 0.40295585696684089 0 -0.41836788774876282 0.38713064370726502 0 -0.40924378741284922 0.39441512182801047 0 -0.42194804884875559 0.39950231590250518 0 -0.40924378741284922 0.39441512182801047 0 -0.42194804884875559 0.39950231590250518 0 -0.41344625593598322 0.40744847049607619 0 -0.42194804884875559 0.39950231590250518 0 -0.42453236013157403 0.41081851566722571 0 -0.41344625593598322 0.40744847049607619 0 -0.42194804884875559 0.39950231590250518 0 -0.43648753512079391 0.40260152516945519 0 -0.42453236013157403 0.41081851566722571 0 -0.42880336755885129 0.38928828643534102 0 -0.42194804884875559 0.39950231590250518 0 -0.43648753512079391 0.40260152516945519 0 -0.42880336755885129 0.38928828643534102 0 -0.41836788774876282 0.38713064370726502 0 -0.42194804884875559 0.39950231590250518 0 -0.43735940040032151 0.41744206458247762 0 -0.42453236013157403 0.41081851566722571 0 -0.41342056035201602 0.42709820218561401 0 -0.43648753512079391 0.40260152516945519 0 -0.43735940040032151 0.41744206458247762 0 -0.42453236013157403 0.41081851566722571 0 -0.43847952704619891 0.43458187579164759 0 -0.43735940040032151 0.41744206458247762 0 -0.41342056035201602 0.42709820218561401 0 -0.43735940040032151 0.41744206458247762 0 -0.41342056035201602 0.42709820218561401 0 -0.41342056035201602 0.42709820218561401 0 -0.39947424731355857 0.40445470270526168 0 -0.42453236013157403 0.41081851566722571 0 -0.41342056035201602 0.42709820218561401 0 -0.41344625593598322 0.40744847049607619 0 -0.41342056035201602 0.42709820218561401 0 -0.41344625593598322 0.40744847049607619 0 -0.39947424731355857 0.40445470270526168 0 -0.39666370332032969 0.42175808793784331 0 -0.39152110763730669 0.4124241985205705 0 -0.39947424731355857 0.40445470270526168 0 -0.41342056035201602 0.42709820218561401 0 -0.39666370332032969 0.42175808793784331 0 -0.39947424731355857 0.40445470270526168 0 -0.39152110763730669 0.4124241985205705 0 -0.3827479592569249 0.40747354048270651 0 -0.39947424731355857 0.40445470270526168 0 -0.40606035099413179 0.44744443414811469 0 -0.41342056035201602 0.42709820218561401 0 -0.38851793510409671 0.43714309891359171 0 -0.41342056035201602 0.42709820218561401 0 -0.39666370332032969 0.42175808793784331 0 -0.38851793510409671 0.43714309891359171 0 -0.41342056035201602 0.42709820218561401 0 -0.38851793510409671 0.43714309891359171 0 -0.38851793510409671 0.43714309891359171 0 -0.38054117311253233 0.41787986349552919 0 -0.37165210743183069 0.43109507384766188 0 -0.39666370332032969 0.42175808793784331 0 -0.38851793510409671 0.43714309891359171 0 -0.38054117311253233 0.41787986349552919 0 -0.39666370332032969 0.42175808793784331 0 -0.39152110763730669 0.4124241985205705 0 -0.38054117311253233 0.41787986349552919 0 -0.38054117311253233 0.41787986349552919 0 -0.3827479592569249 0.40747354048270651 0 -0.36554971641522249 0.40853500640931428 0 -0.39152110763730669 0.4124241985205705 0 -0.38054117311253233 0.41787986349552919 0 -0.3827479592569249 0.40747354048270651 0 -0.37621307571556151 0.39414895141023071 0 -0.3836816320387797 0.37881351174806699 0 -0.39855109619539719 0.40295585696684089 0 -0.37621307571556151 0.39414895141023071 0 -0.39947424731355857 0.40445470270526168 0 -0.3827479592569249 0.40747354048270651 0 -0.37621307571556151 0.39414895141023071 0 -0.39947424731355857 0.40445470270526168 0 -0.37621307571556151 0.39414895141023071 0 -0.3836816320387797 0.37881351174806699 0 -0.36739051842845249 0.37548801163723738 0 -0.3836816320387797 0.37881351174806699 0 -0.39796296690036947 0.3866678067609296 0 -0.39855109619539719 0.40295585696684089 0 -0.3836816320387797 0.37881351174806699 0 -0.39796296690036947 0.3866678067609296 0 -0.39409345850971228 0.37616773577337598 0 -0.39796296690036947 0.3866678067609296 0 -0.39409345850971228 0.37616773577337598 0 -0.40267155144712169 0.37823819300015782 0 -0.40758332192594082 0.38538362713304808 0 -0.40924378741284922 0.39441512182801047 0 -0.39796296690036947 0.3866678067609296 0 -0.40758332192594082 0.38538362713304808 0 -0.39796296690036947 0.3866678067609296 0 -0.40267155144712169 0.37823819300015782 0 -0.37621307571556151 0.39414895141023071 0 -0.39855109619539719 0.40295585696684089 0 -0.39947424731355857 0.40445470270526168 0 -0.3836816320387797 0.37881351174806699 0 -0.39855109619539719 0.40295585696684089 0 -0.40924378741284922 0.39441512182801047 0 -0.39796296690036947 0.3866678067609296 0 -0.39855109619539719 0.40295585696684089 0 -0.41344625593598322 0.40744847049607619 0 -0.39855109619539719 0.40295585696684089 0 -0.39947424731355857 0.40445470270526168 0 -0.39855109619539719 0.40295585696684089 0 -0.39947424731355857 0.40445470270526168 0 -0.39765517582011728 0.3558721242216823 0 -0.39889554401019051 0.34446228000948759 0 -0.38642553310344258 0.34747596534755948 0 -0.39765517582011728 0.3558721242216823 0 -0.39889554401019051 0.34446228000948759 0 -0.40930344846324812 0.34961196618052442 0 -0.39889554401019051 0.34446228000948759 0 -0.40745277373862948 0.33728709027779558 0 -0.40930344846324812 0.34961196618052442 0 -0.39765517582011728 0.3558721242216823 0 -0.40930344846324812 0.34961196618052442 0 -0.41106365516096832 0.36173475873128819 0 -0.39933597034863672 0.368317304770792 0 -0.40743695905094057 0.37107690919693709 0 -0.41106365516096832 0.36173475873128819 0 -0.39765517582011728 0.3558721242216823 0 -0.39933597034863672 0.368317304770792 0 -0.41106365516096832 0.36173475873128819 0 -0.39409345850971228 0.37616773577337598 0 -0.40267155144712169 0.37823819300015782 0 -0.39933597034863672 0.368317304770792 0 -0.40267155144712169 0.37823819300015782 0 -0.39933597034863672 0.368317304770792 0 -0.40743695905094057 0.37107690919693709 0 -0.39409345850971228 0.37616773577337598 0 -0.39933597034863672 0.368317304770792 0 -0.38770779495605701 0.36354211695462718 0 -0.39765517582011728 0.3558721242216823 0 -0.39933597034863672 0.368317304770792 0 -0.38770779495605701 0.36354211695462718 0 -0.3836816320387797 0.37881351174806699 0 -0.36881216788216209 0.35467116652929309 0 -0.3836816320387797 0.37881351174806699 0 -0.38770779495605701 0.36354211695462718 0 -0.36881216788216209 0.35467116652929309 0 -0.3836816320387797 0.37881351174806699 0 -0.39409345850971228 0.37616773577337598 0 -0.38770779495605701 0.36354211695462718 0 -0.38642553310344258 0.34747596534755948 0 -0.3733352967290931 0.33290723816004752 0 -0.36881216788216209 0.35467116652929309 0 -0.39765517582011728 0.3558721242216823 0 -0.38770779495605701 0.36354211695462718 0 -0.38642553310344258 0.34747596534755948 0 -0.38770779495605701 0.36354211695462718 0 -0.38642553310344258 0.34747596534755948 0 -0.36881216788216209 0.35467116652929309 0 -0.38642553310344258 0.34747596534755948 0 -0.39364078892551507 0.33206425401987621 0 -0.3733352967290931 0.33290723816004752 0 -0.37682246704991912 0.31749351900413653 0 -0.39259356272196499 0.31751484704086991 0 -0.39364078892551507 0.33206425401987621 0 -0.37682246704991912 0.31749351900413653 0 -0.39364078892551507 0.33206425401987621 0 -0.3733352967290931 0.33290723816004752 0 -0.39259356272196499 0.31751484704086991 0 -0.4038192750246779 0.32585611141433241 0 -0.39364078892551507 0.33206425401987621 0 -0.39259356272196499 0.31751484704086991 0 -0.4038192750246779 0.32585611141433241 0 -0.40807534675228058 0.31037434289736721 0 -0.39889554401019051 0.34446228000948759 0 -0.38642553310344258 0.34747596534755948 0 -0.39364078892551507 0.33206425401987621 0 -0.4038192750246779 0.32585611141433241 0 -0.39364078892551507 0.33206425401987621 0 -0.40745277373862948 0.33728709027779558 0 -0.39889554401019051 0.34446228000948759 0 -0.39364078892551507 0.33206425401987621 0 -0.40745277373862948 0.33728709027779558 0 -0.41799039613976929 0.33182998703760169 0 -0.41758572864558441 0.33674971284543159 0 -0.42909246309055088 0.35585427460365848 0 -0.40745277373862948 0.33728709027779558 0 -0.41758572864558441 0.33674971284543159 0 -0.41585860348450321 0.34487576097685252 0 -0.4038192750246779 0.32585611141433241 0 -0.40745277373862948 0.33728709027779558 0 -0.41799039613976929 0.33182998703760169 0 -0.40745277373862948 0.33728709027779558 0 -0.41799039613976929 0.33182998703760169 0 -0.41758572864558441 0.33674971284543159 0 -0.41799039613976929 0.33182998703760169 0 -0.41758572864558441 0.33674971284543159 0 -0.41799039613976929 0.33182998703760169 0 -0.40807534675228058 0.31037434289736721 0 -0.4038192750246779 0.32585611141433241 0 -0.41799039613976929 0.33182998703760169 0 -0.40807534675228058 0.31037434289736721 0 -0.41799039613976929 0.33182998703760169 0 -0.41940145336455431 0.31467512596022562 0 -0.41799039613976929 0.33182998703760169 0 -0.41940145336455431 0.31467512596022562 0 -0.40807534675228058 0.31037434289736721 0 -0.41940145336455431 0.31467512596022562 0 -0.43151447652306429 0.32332904725731137 0 -0.4411783622229723 0.30525364695005852 0 -0.41799039613976929 0.33182998703760169 0 -0.41940145336455431 0.31467512596022562 0 -0.43151447652306429 0.32332904725731137 0 -0.41799039613976929 0.33182998703760169 0 -0.43151447652306429 0.32332904725731137 0 -0.43893165477826013 0.34086340891221478 0 -0.41799039613976929 0.33182998703760169 0 -0.42909246309055088 0.35585427460365848 0 -0.43893165477826013 0.34086340891221478 0 -0.41799039613976929 0.33182998703760169 0 -0.42909246309055088 0.35585427460365848 0 -0.41758572864558441 0.33674971284543159 0 -0.42909246309055088 0.35585427460365848 0 -0.41585860348450321 0.34487576097685252 0 -0.42909246309055088 0.35585427460365848 0 -0.40930344846324812 0.34961196618052442 0 -0.41106365516096832 0.36173475873128819 0 -0.42909246309055088 0.35585427460365848 0 -0.41585860348450321 0.34487576097685252 0 -0.40930344846324812 0.34961196618052442 0 -0.40745277373862948 0.33728709027779558 0 -0.41585860348450321 0.34487576097685252 0 -0.40930344846324812 0.34961196618052442 0 -0.42909246309055088 0.35585427460365848 0 -0.41106365516096832 0.36173475873128819 0 -0.4219939675281279 0.373486128560377 0 -0.41182110331223187 0.37860944187347811 0 -0.40743695905094057 0.37107690919693709 0 -0.4219939675281279 0.373486128560377 0 -0.40743695905094057 0.37107690919693709 0 -0.41106365516096832 0.36173475873128819 0 -0.4219939675281279 0.373486128560377 0 -0.44019453004132619 0.37987856216971821 0 -0.42909246309055088 0.35585427460365848 0 -0.44019453004132619 0.37987856216971821 0 -0.42909246309055088 0.35585427460365848 0 -0.4219939675281279 0.373486128560377 0 -0.47515328408752411 0.37830085519238388 0 -0.44019453004132619 0.37987856216971821 0 -0.44819220491012252 0.36160531005121499 0 -0.47515328408752411 0.37830085519238388 0 -0.44819220491012252 0.36160531005121499 0 -0.45867510140865547 0.34637400293345438 0 -0.44019453004132619 0.37987856216971821 0 -0.42909246309055088 0.35585427460365848 0 -0.44819220491012252 0.36160531005121499 0 -0.42909246309055088 0.35585427460365848 0 -0.44819220491012252 0.36160531005121499 0 -0.43893165477826013 0.34086340891221478 0 -0.44819220491012252 0.36160531005121499 0 -0.45867510140865547 0.34637400293345438 0 -0.43893165477826013 0.34086340891221478 0 -0.47515328408752411 0.37830085519238388 0 -0.45867510140865547 0.34637400293345438 0 -0.48295105264146382 0.34069268142871689 0 -0.47515328408752411 0.37830085519238388 0 -0.5 0.35365852672826398 0 -0.48295105264146382 0.34069268142871689 0 -0.48295105264146382 0.34069268142871689 0 -0.48191006549022603 0.32072041108447091 0 -0.5 0.30872960561299062 0 -0.5 0.35365852672826398 0 -0.48295105264146382 0.34069268142871689 0 -0.5 0.30872960561299062 0 -0.48295105264146382 0.34069268142871689 0 -0.48191006549022603 0.32072041108447091 0 -0.46681884923102929 0.32947332405340762 0 -0.45867510140865547 0.34637400293345438 0 -0.48295105264146382 0.34069268142871689 0 -0.46681884923102929 0.32947332405340762 0 -0.48191006549022603 0.32072041108447091 0 -0.46154421385659922 0.31298702901726472 0 -0.47902430808232838 0.3067848228902994 0 -0.48191006549022603 0.32072041108447091 0 -0.46154421385659922 0.31298702901726472 0 -0.46681884923102929 0.32947332405340762 0 -0.48191006549022603 0.32072041108447091 0 -0.46154421385659922 0.31298702901726472 0 -0.46154421385659922 0.31298702901726472 0 -0.46681884923102929 0.32947332405340762 0 -0.44812528659739181 0.32618783159005083 0 -0.45867510140865547 0.34637400293345438 0 -0.46681884923102929 0.32947332405340762 0 -0.44812528659739181 0.32618783159005083 0 -0.43151447652306429 0.32332904725731137 0 -0.43893165477826013 0.34086340891221478 0 -0.44812528659739181 0.32618783159005083 0 -0.45867510140865547 0.34637400293345438 0 -0.43893165477826013 0.34086340891221478 0 -0.44812528659739181 0.32618783159005083 0 -0.46154421385659922 0.31298702901726472 0 -0.44812528659739181 0.32618783159005083 0 -0.4411783622229723 0.30525364695005852 0 -0.43151447652306429 0.32332904725731137 0 -0.44812528659739181 0.32618783159005083 0 -0.4411783622229723 0.30525364695005852 0 -0.46154421385659922 0.31298702901726472 0 -0.4411783622229723 0.30525364695005852 0 -0.46154421385659922 0.31298702901726472 0 -0.4411783622229723 0.30525364695005852 0 -0.4545559480596989 0.29609559706492339 0 -0.44270486011464372 0.28186108089334422 0 -0.4605444218667421 0.2836350805470233 0 -0.4545559480596989 0.29609559706492339 0 -0.4411783622229723 0.30525364695005852 0 -0.44270486011464372 0.28186108089334422 0 -0.4545559480596989 0.29609559706492339 0 -0.4605444218667421 0.2836350805470233 0 -0.4689677796757295 0.296526804194508 0 -0.47593309648043369 0.28040484456129472 0 -0.4605444218667421 0.2836350805470233 0 -0.4545559480596989 0.29609559706492339 0 -0.4689677796757295 0.296526804194508 0 -0.46154421385659922 0.31298702901726472 0 -0.4545559480596989 0.29609559706492339 0 -0.4689677796757295 0.296526804194508 0 -0.48882163143851171 0.28517653697195899 0 -0.5 0.30872960561299062 0 -0.50000000000000044 0.27599746198826069 0 -0.46154421385659922 0.31298702901726472 0 -0.47902430808232838 0.3067848228902994 0 -0.4689677796757295 0.296526804194508 0 -0.47902430808232838 0.3067848228902994 0 -0.4689677796757295 0.296526804194508 0 -0.48269948138908719 0.29496026454226271 0 -0.4689677796757295 0.296526804194508 0 -0.48269948138908719 0.29496026454226271 0 -0.47593309648043369 0.28040484456129472 0 -0.48269948138908719 0.29496026454226271 0 -0.48882163143851171 0.28517653697195899 0 -0.47593309648043369 0.28040484456129472 0 -0.48269948138908719 0.29496026454226271 0 -0.48882163143851171 0.28517653697195899 0 -0.5 0.30872960561299062 0 -0.48191006549022603 0.32072041108447091 0 -0.47902430808232838 0.3067848228902994 0 -0.5 0.30872960561299062 0 -0.47902430808232838 0.3067848228902994 0 -0.48269948138908719 0.29496026454226271 0 -0.5 0.30872960561299062 0 -0.4826171654445699 0.24774723882048039 0 -0.48547557932303631 0.26094716128923912 0 -0.50000000000000155 0.26386023385553398 0 -0.4826171654445699 0.24774723882048039 0 -0.50000000000000155 0.26386023385553398 0 -0.48547557932303631 0.26094716128923912 0 -0.50000000000000133 0.26631076825676347 0 -0.48547557932303659 0.26579050815498639 0 -0.48547557932303631 0.26094716128923912 0 -0.50000000000000155 0.26386023385553398 0 -0.50000000000000133 0.26631076825676347 0 -0.48547557932303631 0.26094716128923912 0 -0.50000000000000133 0.26631076825676347 0 -0.50000000000000133 0.26631076825676347 0 -0.50000000000000044 0.27599746198826069 0 -0.48547557932303659 0.26579050815498639 0 -0.50000000000000044 0.27599746198826069 0 -0.48547557932303659 0.26579050815498639 0 -0.48882163143851171 0.28517653697195899 0 -0.50000000000000044 0.27599746198826069 0 -0.48547557932303659 0.26579050815498639 0 -0.48547557932303659 0.26579050815498639 0 -0.47593309648043369 0.28040484456129472 0 -0.46668081038686338 0.26964305768855118 0 -0.48882163143851171 0.28517653697195899 0 -0.48547557932303659 0.26579050815498639 0 -0.47593309648043369 0.28040484456129472 0 -0.45936083356487079 0.24743851944234591 0 -0.47829135555868169 0.25086798556607037 0 -0.47095115864607168 0.25558355432171381 0 -0.48547557932303659 0.26579050815498639 0 -0.47095115864607168 0.25558355432171381 0 -0.46668081038686338 0.26964305768855118 0 -0.48547557932303631 0.26094716128923912 0 -0.47095115864607168 0.25558355432171381 0 -0.48547557932303659 0.26579050815498639 0 -0.47095115864607168 0.25558355432171381 0 -0.48547557932303631 0.26094716128923912 0 -0.48547557932303659 0.26579050815498639 0 -0.47095115864607168 0.25558355432171381 0 -0.48547557932303631 0.26094716128923912 0 -0.47829135555868169 0.25086798556607037 0 -0.47095115864607168 0.25558355432171381 0 -0.4826171654445699 0.24774723882048039 0 -0.48547557932303631 0.26094716128923912 0 -0.47829135555868169 0.25086798556607037 0 -0.44503711006885482 0.24601396290069941 0 -0.47095115864607168 0.25558355432171381 0 -0.45905581648917032 0.26165270610300562 0 -0.44503711006885482 0.24601396290069941 0 -0.47095115864607168 0.25558355432171381 0 -0.45936083356487079 0.24743851944234591 0 -0.47095115864607168 0.25558355432171381 0 -0.47095115864607168 0.25558355432171381 0 -0.45905581648917032 0.26165270610300562 0 -0.46668081038686338 0.26964305768855118 0 -0.44270486011464372 0.28186108089334422 0 -0.4605444218667421 0.2836350805470233 0 -0.45657499062204221 0.27333626681985079 0 -0.4605444218667421 0.2836350805470233 0 -0.47593309648043369 0.28040484456129472 0 -0.46668081038686338 0.26964305768855118 0 -0.4605444218667421 0.2836350805470233 0 -0.46668081038686338 0.26964305768855118 0 -0.45657499062204221 0.27333626681985079 0 -0.45905581648917032 0.26165270610300562 0 -0.46668081038686338 0.26964305768855118 0 -0.45657499062204221 0.27333626681985079 0 -0.45905581648917032 0.26165270610300562 0 -0.45657499062204221 0.27333626681985079 0 -0.44951038943844962 0.26496358717919533 0 -0.44270486011464372 0.28186108089334422 0 -0.44951038943844962 0.26496358717919533 0 -0.43574264117011441 0.26065526585203419 0 -0.44270486011464372 0.28186108089334422 0 -0.45657499062204221 0.27333626681985079 0 -0.44951038943844962 0.26496358717919533 0 -0.44503711006885482 0.24601396290069941 0 -0.44951038943844962 0.26496358717919533 0 -0.43574264117011441 0.26065526585203419 0 -0.44503711006885482 0.24601396290069941 0 -0.45905581648917032 0.26165270610300562 0 -0.44951038943844962 0.26496358717919533 0 -0.4249621812384381 0.24707084139297381 0 -0.4228873459138926 0.27229555313791193 0 -0.4249621812384381 0.24707084139297381 0 -0.43574264117011441 0.26065526585203419 0 -0.4228873459138926 0.27229555313791193 0 -0.44503711006885482 0.24601396290069941 0 -0.4249621812384381 0.24707084139297381 0 -0.43574264117011441 0.26065526585203419 0 -0.4088920851174907 0.24893012324785629 0 -0.4228873459138926 0.27229555313791193 0 -0.40443815321680909 0.26660181065845617 0 -0.4088920851174907 0.24893012324785629 0 -0.4249621812384381 0.24707084139297381 0 -0.4228873459138926 0.27229555313791193 0 -0.4228873459138926 0.27229555313791193 0 -0.39816029736478881 0.28891869875713411 0 -0.40443815321680909 0.26660181065845617 0 -0.44270486011464372 0.28186108089334422 0 -0.43574264117011441 0.26065526585203419 0 -0.4228873459138926 0.27229555313791193 0 -0.4411783622229723 0.30525364695005852 0 -0.44270486011464372 0.28186108089334422 0 -0.42081251058934638 0.29752026488284988 0 -0.44270486011464372 0.28186108089334422 0 -0.4228873459138926 0.27229555313791193 0 -0.42081251058934638 0.29752026488284988 0 -0.41940145336455431 0.31467512596022562 0 -0.4411783622229723 0.30525364695005852 0 -0.42081251058934638 0.29752026488284988 0 -0.4411783622229723 0.30525364695005852 0 -0.42081251058934638 0.29752026488284988 0 -0.42081251058934638 0.29752026488284988 0 -0.40807534675228058 0.31037434289736721 0 -0.39816029736478881 0.28891869875713411 0 -0.41940145336455431 0.31467512596022562 0 -0.42081251058934638 0.29752026488284988 0 -0.40807534675228058 0.31037434289736721 0 -0.41940145336455431 0.31467512596022562 0 -0.42081251058934638 0.29752026488284988 0 -0.4228873459138926 0.27229555313791193 0 -0.42081251058934638 0.29752026488284988 0 -0.42081251058934638 0.29752026488284988 0 -0.39816029736478881 0.28891869875713411 0 -0.4228873459138926 0.27229555313791193 0 -0.42081251058934638 0.29752026488284988 0 -0.39816029736478881 0.28891869875713411 0 -0.40807534675228058 0.31037434289736721 0 -0.39816029736478881 0.28891869875713411 0 -0.3837611030003576 0.30077783603749703 0 -0.40807534675228058 0.31037434289736721 0 -0.39816029736478881 0.28891869875713411 0 -0.39259356272196499 0.31751484704086991 0 -0.40807534675228058 0.31037434289736721 0 -0.3837611030003576 0.30077783603749703 0 -0.37682246704991912 0.31749351900413653 0 -0.39259356272196499 0.31751484704086991 0 -0.3837611030003576 0.30077783603749703 0 -0.39816029736478881 0.28891869875713411 0 -0.3837611030003576 0.30077783603749703 0 -0.37686163737530037 0.28083110791235061 0 -0.39816029736478881 0.28891869875713411 0 -0.37686163737530037 0.28083110791235061 0 -0.37686163737530037 0.28083110791235061 0 -0.38719400317623331 0.26518821629041012 0 -0.36418938528547712 0.26327462148156322 0 -0.39816029736478881 0.28891869875713411 0 -0.37686163737530037 0.28083110791235061 0 -0.38719400317623331 0.26518821629041012 0 -0.3762277089876811 0.2414577338236846 0 -0.38719400317623331 0.26518821629041012 0 -0.36418938528547712 0.26327462148156322 0 -0.3762277089876811 0.2414577338236846 0 -0.39207380150510029 0.2494808218353517 0 -0.38719400317623331 0.26518821629041012 0 -0.3762277089876811 0.2414577338236846 0 -0.38719400317623331 0.26518821629041012 0 -0.4088920851174907 0.24893012324785629 0 -0.39207380150510029 0.2494808218353517 0 -0.40443815321680909 0.26660181065845617 0 -0.39207380150510029 0.2494808218353517 0 -0.38719400317623331 0.26518821629041012 0 -0.40443815321680909 0.26660181065845617 0 -0.39816029736478881 0.28891869875713411 0 -0.38719400317623331 0.26518821629041012 0 -0.40443815321680909 0.26660181065845617 0 -0.39816029736478881 0.28891869875713411 0 -0.38719400317623331 0.26518821629041012 0 -0.34392216537968889 0.27970171780974817 0 -0.36418938528547712 0.26327462148156322 0 -0.36104930235986471 0.2810079382494412 0 -0.34392216537968889 0.27970171780974817 0 -0.34673401697601558 0.25598335073781769 0 -0.36418938528547712 0.26327462148156322 0 -0.35680367322974249 0.2403001594147498 0 -0.34673401697601558 0.25598335073781769 0 -0.36418938528547712 0.26327462148156322 0 -0.37686163737530037 0.28083110791235061 0 -0.36418938528547712 0.26327462148156322 0 -0.36104930235986471 0.2810079382494412 0 -0.3837611030003576 0.30077783603749703 0 -0.37686163737530037 0.28083110791235061 0 -0.36037231621480398 0.29859761840694232 0 -0.37686163737530037 0.28083110791235061 0 -0.36104930235986471 0.2810079382494412 0 -0.36037231621480398 0.29859761840694232 0 -0.37682246704991912 0.31749351900413653 0 -0.36037231621480398 0.29859761840694232 0 -0.36036811968797522 0.31520970274890081 0 -0.37682246704991912 0.31749351900413653 0 -0.36037231621480398 0.29859761840694232 0 -0.37682246704991912 0.31749351900413653 0 -0.3837611030003576 0.30077783603749703 0 -0.36037231621480398 0.29859761840694232 0 -0.36037231621480398 0.29859761840694232 0 -0.33907323956892699 0.3063864760917453 0 -0.36036811968797522 0.31520970274890081 0 -0.34392216537968889 0.27970171780974817 0 -0.36104930235986471 0.2810079382494412 0 -0.36037231621480398 0.29859761840694232 0 -0.34392216537968889 0.27970171780974817 0 -0.36037231621480398 0.29859761840694232 0 -0.34392216537968889 0.27970171780974817 0 -0.36037231621480398 0.29859761840694232 0 -0.33907323956892699 0.3063864760917453 0 -0.34392216537968889 0.27970171780974817 0 -0.32368865480854447 0.2916186708506614 0 -0.32584808495788681 0.27633729826336162 0 -0.34392216537968889 0.27970171780974817 0 -0.33907323956892699 0.3063864760917453 0 -0.32368865480854447 0.2916186708506614 0 -0.33907323956892699 0.3063864760917453 0 -0.32454545001981949 0.30697828526009918 0 -0.32368865480854447 0.2916186708506614 0 -0.33907323956892699 0.3063864760917453 0 -0.32454545001981949 0.30697828526009918 0 -0.3297265939678915 0.31906393658694432 0 -0.31689926115553302 0.30069082124461788 0 -0.31081582767413618 0.29343661863246268 0 -0.31135799930108721 0.31310185046477412 0 -0.32454545001981949 0.30697828526009918 0 -0.31689926115553302 0.30069082124461788 0 -0.32368865480854447 0.2916186708506614 0 -0.32454545001981949 0.30697828526009918 0 -0.31689926115553302 0.30069082124461788 0 -0.31135799930108721 0.31310185046477412 0 -0.31689926115553302 0.30069082124461788 0 -0.32368865480854447 0.2916186708506614 0 -0.31081582767413618 0.29343661863246268 0 -0.32368865480854447 0.2916186708506614 0 -0.3105991959988828 0.27970411225437392 0 -0.31081582767413618 0.29343661863246268 0 -0.32368865480854447 0.2916186708506614 0 -0.32584808495788681 0.27633729826336162 0 -0.3105991959988828 0.27970411225437392 0 -0.32584808495788681 0.27633729826336162 0 -0.30708557982118428 0.26459108676297122 0 -0.3105991959988828 0.27970411225437392 0 -0.32584808495788681 0.27633729826336162 0 -0.32747201454457392 0.26080581721255391 0 -0.30708557982118428 0.26459108676297122 0 -0.34392216537968889 0.27970171780974817 0 -0.32584808495788681 0.27633729826336162 0 -0.32747201454457392 0.26080581721255391 0 -0.34392216537968889 0.27970171780974817 0 -0.32747201454457392 0.26080581721255391 0 -0.34076034255671012 0.2394519696354756 0 -0.34673401697601558 0.25598335073781769 0 -0.32747201454457392 0.26080581721255391 0 -0.34392216537968889 0.27970171780974817 0 -0.34673401697601558 0.25598335073781769 0 -0.32747201454457392 0.26080581721255391 0 -0.31102186370945872 0.24190991661535971 0 -0.32747201454457392 0.26080581721255391 0 -0.30708557982118428 0.26459108676297122 0 -0.31102186370945872 0.24190991661535971 0 -0.32747201454457392 0.26080581721255391 0 -0.31102186370945872 0.24190991661535971 0 -0.30708557982118428 0.26459108676297122 0 -0.29677711184925942 0.2508983199382061 0 -0.30708557982118428 0.26459108676297122 0 -0.29846521694188549 0.2705451109181824 0 -0.29453190378181637 0.26109644961752831 0 -0.30708557982118428 0.26459108676297122 0 -0.29677711184925942 0.2508983199382061 0 -0.29453190378181637 0.26109644961752831 0 -0.3105991959988828 0.27970411225437392 0 -0.29846521694188549 0.2705451109181824 0 -0.29715580146954379 0.28681191880693763 0 -0.30708557982118428 0.26459108676297122 0 -0.3105991959988828 0.27970411225437392 0 -0.29846521694188549 0.2705451109181824 0 -0.28295360363800037 0.26052198714910091 0 -0.2800882132956154 0.27915390975583659 0 -0.29715580146954379 0.28681191880693763 0 -0.28295360363800037 0.26052198714910091 0 -0.29715580146954379 0.28681191880693763 0 -0.29846521694188549 0.2705451109181824 0 -0.28295360363800037 0.26052198714910091 0 -0.29715580146954379 0.28681191880693763 0 -0.28638785162830721 0.24757136013329381 0 -0.29016261772434582 0.25502202920953232 0 -0.29677711184925942 0.2508983199382061 0 -0.29016261772434582 0.25502202920953232 0 -0.29677711184925942 0.2508983199382061 0 -0.29453190378181637 0.26109644961752831 0 -0.29016261772434582 0.25502202920953232 0 -0.29453190378181637 0.26109644961752831 0 -0.28295360363800037 0.26052198714910091 0 -0.29846521694188549 0.2705451109181824 0 -0.29453190378181637 0.26109644961752831 0 -0.28295360363800037 0.26052198714910091 0 -0.28638785162830721 0.24757136013329381 0 -0.29016261772434582 0.25502202920953232 0 -0.28295360363800037 0.26052198714910091 0 -0.27892452861441319 0.25656869405346722 0 -0.2713878964940129 0.26827959963045178 0 -0.25321208583809113 0.25776932320358148 0 -0.26875140580645679 0.23423205549126411 0 -0.28295360363800037 0.26052198714910091 0 -0.27892452861441319 0.25656869405346722 0 -0.27892452861441319 0.25656869405346722 0 -0.25321208583809113 0.25776932320358148 0 -0.28295360363800037 0.26052198714910091 0 -0.27892452861441319 0.25656869405346722 0 -0.2713878964940129 0.26827959963045178 0 -0.28295360363800037 0.26052198714910091 0 -0.2800882132956154 0.27915390975583659 0 -0.2713878964940129 0.26827959963045178 0 -0.2800882132956154 0.27915390975583659 0 -0.2713878964940129 0.26827959963045178 0 -0.26570280771006732 0.28162771110201612 0 -0.2713878964940129 0.26827959963045178 0 -0.2582137684506427 0.27246071206433448 0 -0.25321208583809113 0.25776932320358148 0 -0.2713878964940129 0.26827959963045178 0 -0.2582137684506427 0.27246071206433448 0 -0.26570280771006732 0.28162771110201612 0 -0.2582137684506427 0.27246071206433448 0 -0.2531308452622959 0.28333887266024699 0 -0.26570280771006732 0.28162771110201612 0 -0.2582137684506427 0.27246071206433448 0 -0.2531308452622959 0.28333887266024699 0 -0.2476352069487463 0.27128805372537601 0 -0.2582137684506427 0.27246071206433448 0 -0.25321208583809113 0.25776932320358148 0 -0.2476352069487463 0.27128805372537601 0 -0.26443735616512237 0.2477303344038003 0 -0.27892452861441319 0.25656869405346722 0 -0.25321208583809113 0.25776932320358148 0 -0.253125343896132 0.30612727322062938 0 -0.26879052357574168 0.29626538534905078 0 -0.27455364659235287 0.3138563233536445 0 -0.253125343896132 0.30612727322062938 0 -0.25729865991794632 0.29345757370707137 0 -0.26879052357574168 0.29626538534905078 0 -0.253125343896132 0.30612727322062938 0 -0.25729865991794632 0.29345757370707137 0 -0.24456495273004911 0.29373588757663432 0 -0.25729865991794632 0.29345757370707137 0 -0.2531308452622959 0.28333887266024699 0 -0.24456495273004911 0.29373588757663432 0 -0.25729865991794632 0.29345757370707137 0 -0.2531308452622959 0.28333887266024699 0 -0.26570280771006732 0.28162771110201612 0 -0.25729865991794632 0.29345757370707137 0 -0.26879052357574168 0.29626538534905078 0 -0.26570280771006732 0.28162771110201612 0 -0.2800882132956154 0.27915390975583659 0 -0.26879052357574168 0.29626538534905078 0 -0.26570280771006732 0.28162771110201612 0 -0.2800882132956154 0.27915390975583659 0 -0.26879052357574168 0.29626538534905078 0 -0.2808874308995753 0.30333225528380381 0 -0.26879052357574168 0.29626538534905078 0 -0.2808874308995753 0.30333225528380381 0 -0.27455364659235287 0.3138563233536445 0 -0.28900714364898172 0.31085856243101417 0 -0.29166538756623001 0.29744086474499409 0 -0.30324256183684462 0.31572781973415148 0 -0.2808874308995753 0.30333225528380381 0 -0.28900714364898172 0.31085856243101417 0 -0.27455364659235287 0.3138563233536445 0 -0.2808874308995753 0.30333225528380381 0 -0.28900714364898172 0.31085856243101417 0 -0.29166538756623001 0.29744086474499409 0 -0.2800882132956154 0.27915390975583659 0 -0.2808874308995753 0.30333225528380381 0 -0.29166538756623001 0.29744086474499409 0 -0.2800882132956154 0.27915390975583659 0 -0.29166538756623001 0.29744086474499409 0 -0.29715580146954379 0.28681191880693763 0 -0.2800882132956154 0.27915390975583659 0 -0.29166538756623001 0.29744086474499409 0 -0.3105991959988828 0.27970411225437392 0 -0.29715580146954379 0.28681191880693763 0 -0.31081582767413618 0.29343661863246268 0 -0.29166538756623001 0.29744086474499409 0 -0.29715580146954379 0.28681191880693763 0 -0.31135799930108721 0.31310185046477412 0 -0.29715580146954379 0.28681191880693763 0 -0.31135799930108721 0.31310185046477412 0 -0.29715580146954379 0.28681191880693763 0 -0.31081582767413618 0.29343661863246268 0 -0.31135799930108721 0.31310185046477412 0 -0.29166538756623001 0.29744086474499409 0 -0.31135799930108721 0.31310185046477412 0 -0.30324256183684462 0.31572781973415148 0 -0.29166538756623001 0.29744086474499409 0 -0.30324256183684462 0.31572781973415148 0 -0.30324256183684462 0.31572781973415148 0 -0.31481973610745911 0.33401477472330909 0 -0.30324256183684462 0.31572781973415148 0 -0.29468669134990588 0.32393554903847688 0 -0.31481973610745911 0.33401477472330909 0 -0.31135799930108721 0.31310185046477412 0 -0.30324256183684462 0.31572781973415148 0 -0.31481973610745911 0.33401477472330909 0 -0.29468669134990588 0.32393554903847688 0 -0.31481973610745911 0.33401477472330909 0 -0.30528314136128598 0.34138420040589629 0 -0.29868226894608951 0.33418447274274882 0 -0.31481973610745911 0.33401477472330909 0 -0.29868226894608951 0.33418447274274882 0 -0.29468669134990588 0.32393554903847688 0 -0.31481973610745911 0.33401477472330909 0 -0.30528314136128598 0.34138420040589629 0 -0.31355999107499549 0.34516602675612768 0 -0.31481973610745911 0.33401477472330909 0 -0.30528314136128598 0.34138420040589629 0 -0.29868226894608951 0.33418447274274882 0 -0.29467814609138898 0.33975057830990318 0 -0.30528314136128598 0.34138420040589629 0 -0.29467814609138898 0.33975057830990318 0 -0.29893495885200388 0.34886672050459522 0 -0.29467814609138898 0.33975057830990318 0 -0.28394362982040727 0.33183726123615848 0 -0.28568643625298279 0.34855201289227189 0 -0.29868226894608951 0.33418447274274882 0 -0.28394362982040727 0.33183726123615848 0 -0.29468669134990588 0.32393554903847688 0 -0.29868226894608951 0.33418447274274882 0 -0.29467814609138898 0.33975057830990318 0 -0.28394362982040727 0.33183726123615848 0 -0.29468669134990588 0.32393554903847688 0 -0.27455364659235287 0.3138563233536445 0 -0.28394362982040727 0.33183726123615848 0 -0.29468669134990588 0.32393554903847688 0 -0.27455364659235287 0.3138563233536445 0 -0.28900714364898172 0.31085856243101417 0 -0.29468669134990588 0.32393554903847688 0 -0.27455364659235287 0.3138563233536445 0 -0.28900714364898172 0.31085856243101417 0 -0.30324256183684462 0.31572781973415148 0 -0.29468669134990588 0.32393554903847688 0 -0.28394362982040727 0.33183726123615848 0 -0.27455364659235287 0.3138563233536445 0 -0.25840354832154122 0.32923234000076917 0 -0.28394362982040727 0.33183726123615848 0 -0.27180062869884969 0.34235687269032611 0 -0.28568643625298279 0.34855201289227189 0 -0.28394362982040727 0.33183726123615848 0 -0.27180062869884969 0.34235687269032611 0 -0.25840354832154122 0.32923234000076917 0 -0.27180062869884969 0.34235687269032611 0 -0.25840354832154122 0.32923234000076917 0 -0.25277859539906522 0.35725990955902481 0 -0.253125343896132 0.30612727322062938 0 -0.25840354832154122 0.32923234000076917 0 -0.23930374569037821 0.31749895667389327 0 -0.253125343896132 0.30612727322062938 0 -0.27455364659235287 0.3138563233536445 0 -0.25840354832154122 0.32923234000076917 0 -0.25277859539906522 0.35725990955902481 0 -0.27223794264452789 0.37883003584634017 0 -0.2470272302378157 0.37266842589205329 0 -0.25277859539906522 0.35725990955902481 0 -0.27223794264452789 0.37883003584634017 0 -0.27260385898936512 0.35773694231919317 0 -0.28508869142359949 0.36422409183720339 0 -0.28568643625298279 0.34855201289227189 0 -0.27180062869884969 0.34235687269032611 0 -0.25277859539906522 0.35725990955902481 0 -0.27260385898936512 0.35773694231919317 0 -0.27180062869884969 0.34235687269032611 0 -0.27260385898936512 0.35773694231919317 0 -0.28568643625298279 0.34855201289227189 0 -0.25277859539906522 0.35725990955902481 0 -0.27260385898936512 0.35773694231919317 0 -0.27223794264452789 0.37883003584634017 0 -0.27260385898936512 0.35773694231919317 0 -0.28508869142359949 0.36422409183720339 0 -0.27223794264452789 0.37883003584634017 0 -0.28760100497370122 0.37410898743663362 0 -0.28508869142359949 0.36422409183720339 0 -0.27223794264452789 0.37883003584634017 0 -0.28508869142359949 0.36422409183720339 0 -0.29449935873161481 0.35789636768568678 0 -0.29898876907182192 0.36921138452811381 0 -0.28760100497370122 0.37410898743663362 0 -0.28508869142359949 0.36422409183720339 0 -0.29898876907182192 0.36921138452811381 0 -0.28508869142359949 0.36422409183720339 0 -0.28568643625298279 0.34855201289227189 0 -0.29449935873161481 0.35789636768568678 0 -0.28568643625298279 0.34855201289227189 0 -0.29449935873161481 0.35789636768568678 0 -0.29893495885200388 0.34886672050459522 0 -0.29467814609138898 0.33975057830990318 0 -0.28568643625298279 0.34855201289227189 0 -0.29893495885200388 0.34886672050459522 0 -0.29893495885200388 0.34886672050459522 0 -0.30506478404498832 0.35698909613185342 0 -0.30839788662976281 0.34862806760196002 0 -0.30528314136128598 0.34138420040589629 0 -0.29893495885200388 0.34886672050459522 0 -0.30839788662976281 0.34862806760196002 0 -0.29449935873161481 0.35789636768568678 0 -0.29893495885200388 0.34886672050459522 0 -0.30506478404498832 0.35698909613185342 0 -0.30506478404498832 0.35698909613185342 0 -0.30839788662976281 0.34862806760196002 0 -0.31590896765424359 0.3542506329714718 0 -0.30506478404498832 0.35698909613185342 0 -0.31311648243073298 0.3646170422218547 0 -0.31590896765424359 0.3542506329714718 0 -0.30528314136128598 0.34138420040589629 0 -0.30839788662976281 0.34862806760196002 0 -0.31355999107499549 0.34516602675612768 0 -0.29449935873161481 0.35789636768568678 0 -0.30506478404498832 0.35698909613185342 0 -0.29898876907182192 0.36921138452811381 0 -0.30506478404498832 0.35698909613185342 0 -0.29898876907182192 0.36921138452811381 0 -0.31311648243073298 0.3646170422218547 0 -0.29898876907182192 0.36921138452811381 0 -0.31311648243073298 0.3646170422218547 0 -0.31081490781150989 0.37602249237407281 0 -0.31311648243073298 0.3646170422218547 0 -0.32039776373708018 0.37032187217238732 0 -0.31081490781150989 0.37602249237407281 0 -0.31311648243073298 0.3646170422218547 0 -0.32466400739486512 0.36070888940192902 0 -0.31590896765424359 0.3542506329714718 0 -0.31311648243073298 0.3646170422218547 0 -0.32466400739486512 0.36070888940192902 0 -0.32039776373708018 0.37032187217238732 0 -0.32466400739486512 0.36070888940192902 0 -0.32039776373708018 0.37032187217238732 0 -0.33000920761438729 0.37334129745358491 0 -0.32039776373708018 0.37032187217238732 0 -0.33000920761438729 0.37334129745358491 0 -0.32183919521750981 0.37958730587087069 0 -0.33000920761438729 0.37334129745358491 0 -0.33779542937894119 0.36204063009590409 0 -0.35311114166497443 0.38374512443190778 0 -0.32466400739486512 0.36070888940192902 0 -0.33000920761438729 0.37334129745358491 0 -0.33779542937894119 0.36204063009590409 0 -0.33779542937894119 0.36204063009590409 0 -0.32556019713263012 0.3393917821226109 0 -0.33779542937894119 0.36204063009590409 0 -0.32339022362222603 0.34755245807800172 0 -0.32556019713263012 0.3393917821226109 0 -0.34335703268308448 0.34830142913075129 0 -0.32556019713263012 0.3393917821226109 0 -0.33779542937894119 0.36204063009590409 0 -0.34335703268308448 0.34830142913075129 0 -0.32556019713263012 0.3393917821226109 0 -0.32466400739486512 0.36070888940192902 0 -0.33779542937894119 0.36204063009590409 0 -0.32339022362222603 0.34755245807800172 0 -0.32466400739486512 0.36070888940192902 0 -0.32339022362222603 0.34755245807800172 0 -0.31590896765424359 0.3542506329714718 0 -0.32339022362222603 0.34755245807800172 0 -0.31590896765424359 0.3542506329714718 0 -0.31355999107499549 0.34516602675612768 0 -0.30839788662976281 0.34862806760196002 0 -0.31590896765424359 0.3542506329714718 0 -0.31355999107499549 0.34516602675612768 0 -0.31481973610745911 0.33401477472330909 0 -0.32556019713263012 0.3393917821226109 0 -0.32339022362222603 0.34755245807800172 0 -0.31355999107499549 0.34516602675612768 0 -0.31481973610745911 0.33401477472330909 0 -0.31135799930108721 0.31310185046477412 0 -0.31481973610745911 0.33401477472330909 0 -0.32556019713263012 0.3393917821226109 0 -0.32339022362222603 0.34755245807800172 0 -0.31481973610745911 0.33401477472330909 0 -0.32556019713263012 0.3393917821226109 0 -0.32294572283039208 0.31938342827916488 0 -0.32850424130907863 0.32625256395951441 0 -0.32339022362222603 0.34755245807800172 0 -0.31481973610745911 0.33401477472330909 0 -0.32556019713263012 0.3393917821226109 0 -0.31135799930108721 0.31310185046477412 0 -0.32556019713263012 0.3393917821226109 0 -0.31135799930108721 0.31310185046477412 0 -0.32556019713263012 0.3393917821226109 0 -0.32294572283039208 0.31938342827916488 0 -0.32454545001981949 0.30697828526009918 0 -0.31135799930108721 0.31310185046477412 0 -0.32294572283039208 0.31938342827916488 0 -0.32294572283039208 0.31938342827916488 0 -0.3297265939678915 0.31906393658694432 0 -0.32850424130907863 0.32625256395951441 0 -0.32454545001981949 0.30697828526009918 0 -0.32294572283039208 0.31938342827916488 0 -0.3297265939678915 0.31906393658694432 0 -0.33907323956892699 0.3063864760917453 0 -0.3297265939678915 0.31906393658694432 0 -0.33826738509467369 0.33110674734839668 0 -0.3297265939678915 0.31906393658694432 0 -0.32850424130907863 0.32625256395951441 0 -0.33826738509467369 0.33110674734839668 0 -0.34335703268308448 0.34830142913075129 0 -0.32556019713263012 0.3393917821226109 0 -0.33826738509467369 0.33110674734839668 0 -0.32556019713263012 0.3393917821226109 0 -0.32850424130907863 0.32625256395951441 0 -0.33826738509467369 0.33110674734839668 0 -0.34335703268308448 0.34830142913075129 0 -0.33826738509467369 0.33110674734839668 0 -0.35394270372554459 0.33052882131051919 0 -0.33907323956892699 0.3063864760917453 0 -0.33826738509467369 0.33110674734839668 0 -0.35394270372554459 0.33052882131051919 0 -0.33907323956892699 0.3063864760917453 0 -0.35394270372554459 0.33052882131051919 0 -0.36036811968797522 0.31520970274890081 0 -0.33907323956892699 0.3063864760917453 0 -0.35394270372554459 0.33052882131051919 0 -0.35394270372554459 0.33052882131051919 0 -0.36036811968797522 0.31520970274890081 0 -0.3733352967290931 0.33290723816004752 0 -0.37682246704991912 0.31749351900413653 0 -0.36036811968797522 0.31520970274890081 0 -0.3733352967290931 0.33290723816004752 0 -0.35394270372554459 0.33052882131051919 0 -0.3733352967290931 0.33290723816004752 0 -0.36881216788216209 0.35467116652929309 0 -0.35394270372554459 0.33052882131051919 0 -0.36881216788216209 0.35467116652929309 0 -0.36881216788216209 0.35467116652929309 0 -0.35513457484078492 0.36606130406668891 0 -0.36739051842845249 0.37548801163723738 0 -0.3836816320387797 0.37881351174806699 0 -0.36881216788216209 0.35467116652929309 0 -0.36739051842845249 0.37548801163723738 0 -0.33779542937894119 0.36204063009590409 0 -0.35513457484078492 0.36606130406668891 0 -0.35311114166497443 0.38374512443190778 0 -0.34335703268308448 0.34830142913075129 0 -0.36881216788216209 0.35467116652929309 0 -0.35513457484078492 0.36606130406668891 0 -0.34335703268308448 0.34830142913075129 0 -0.35394270372554459 0.33052882131051919 0 -0.36881216788216209 0.35467116652929309 0 -0.33779542937894119 0.36204063009590409 0 -0.34335703268308448 0.34830142913075129 0 -0.35513457484078492 0.36606130406668891 0 -0.34826939610138991 0.40133808027483542 0 -0.36078583247428708 0.39694179063157198 0 -0.36554971641522249 0.40853500640931428 0 -0.34826939610138991 0.40133808027483542 0 -0.35311114166497443 0.38374512443190778 0 -0.36078583247428708 0.39694179063157198 0 -0.34826939610138991 0.40133808027483542 0 -0.35311114166497443 0.38374512443190778 0 -0.3344653370961162 0.38826093126905559 0 -0.35513457484078492 0.36606130406668891 0 -0.35311114166497443 0.38374512443190778 0 -0.36739051842845249 0.37548801163723738 0 -0.37621307571556151 0.39414895141023071 0 -0.35311114166497443 0.38374512443190778 0 -0.37621307571556151 0.39414895141023071 0 -0.35311114166497443 0.38374512443190778 0 -0.36739051842845249 0.37548801163723738 0 -0.3827479592569249 0.40747354048270651 0 -0.37621307571556151 0.39414895141023071 0 -0.36554971641522249 0.40853500640931428 0 -0.37621307571556151 0.39414895141023071 0 -0.35311114166497443 0.38374512443190778 0 -0.36078583247428708 0.39694179063157198 0 -0.37621307571556151 0.39414895141023071 0 -0.36078583247428708 0.39694179063157198 0 -0.36554971641522249 0.40853500640931428 0 -0.36813519951675272 0.42043619570702712 0 -0.36554971641522249 0.40853500640931428 0 -0.35594235297878529 0.42426303795820652 0 -0.38054117311253233 0.41787986349552919 0 -0.36813519951675272 0.42043619570702712 0 -0.36554971641522249 0.40853500640931428 0 -0.35594235297878529 0.42426303795820652 0 -0.36361530985618068 0.44718799564157757 0 -0.37165210743183069 0.43109507384766188 0 -0.35594235297878529 0.42426303795820652 0 -0.36361530985618068 0.44718799564157757 0 -0.36813519951675272 0.42043619570702712 0 -0.37165210743183069 0.43109507384766188 0 -0.35594235297878529 0.42426303795820652 0 -0.38054117311253233 0.41787986349552919 0 -0.36813519951675272 0.42043619570702712 0 -0.37165210743183069 0.43109507384766188 0 -0.35594235297878529 0.42426303795820652 0 -0.35017414119994922 0.43457640658508678 0 -0.36361530985618068 0.44718799564157757 0 -0.35594235297878529 0.42426303795820652 0 -0.34732090668839438 0.42436222981683669 0 -0.35017414119994922 0.43457640658508678 0 -0.34826939610138991 0.40133808027483542 0 -0.35594235297878529 0.42426303795820652 0 -0.34732090668839438 0.42436222981683669 0 -0.34826939610138991 0.40133808027483542 0 -0.34732090668839438 0.42436222981683669 0 -0.33761690914190667 0.41243085812447777 0 -0.34826939610138991 0.40133808027483542 0 -0.36554971641522249 0.40853500640931428 0 -0.35594235297878529 0.42426303795820652 0 -0.34826939610138991 0.40133808027483542 0 -0.35594235297878529 0.42426303795820652 0 -0.34732090668839438 0.42436222981683669 0 -0.33761690914190667 0.41243085812447777 0 -0.33304780084566832 0.42577216229918308 0 -0.33761690914190667 0.41243085812447777 0 -0.33304780084566832 0.42577216229918308 0 -0.32378827547407918 0.4192154451649881 0 -0.33761690914190667 0.41243085812447777 0 -0.32741187280431527 0.40974482194131401 0 -0.32378827547407918 0.4192154451649881 0 -0.33761690914190667 0.41243085812447777 0 -0.32741187280431527 0.40974482194131401 0 -0.33177239344133141 0.40076370571371989 0 -0.34732090668839438 0.42436222981683669 0 -0.33271653236305182 0.441333266496862 0 -0.34732090668839438 0.42436222981683669 0 -0.33304780084566832 0.42577216229918308 0 -0.33271653236305182 0.441333266496862 0 -0.34732090668839438 0.42436222981683669 0 -0.35017414119994922 0.43457640658508678 0 -0.33271653236305182 0.441333266496862 0 -0.33304780084566832 0.42577216229918308 0 -0.32379638056090981 0.43151901189275038 0 -0.33271653236305182 0.441333266496862 0 -0.32379638056090981 0.43151901189275038 0 -0.31776051461001759 0.42602021460301231 0 -0.32378827547407918 0.4192154451649881 0 -0.33304780084566832 0.42577216229918308 0 -0.32379638056090981 0.43151901189275038 0 -0.32378827547407918 0.4192154451649881 0 -0.32379638056090981 0.43151901189275038 0 -0.31776051461001759 0.42602021460301231 0 -0.31154220659956638 0.43131182068225909 0 -0.31776051461001759 0.42602021460301231 0 -0.31096017961700961 0.42085020826682179 0 -0.31154220659956638 0.43131182068225909 0 -0.31776051461001759 0.42602021460301231 0 -0.32378827547407918 0.4192154451649881 0 -0.31096017961700961 0.42085020826682179 0 -0.32379638056090981 0.43151901189275038 0 -0.31154220659956638 0.43131182068225909 0 -0.3167836407876341 0.44057285872214308 0 -0.32741187280431527 0.40974482194131401 0 -0.32378827547407918 0.4192154451649881 0 -0.31528554503640022 0.41195283103244018 0 -0.32741187280431527 0.40974482194131401 0 -0.31528554503640022 0.41195283103244018 0 -0.31992270507577308 0.40365655533463263 0 -0.32378827547407918 0.4192154451649881 0 -0.31528554503640022 0.41195283103244018 0 -0.31096017961700961 0.42085020826682179 0 -0.33177239344133141 0.40076370571371989 0 -0.3344653370961162 0.38826093126905559 0 -0.31593929086518541 0.38951083922341367 0 -0.31992270507577308 0.40365655533463263 0 -0.33177239344133141 0.40076370571371989 0 -0.31593929086518541 0.38951083922341367 0 -0.31528554503640022 0.41195283103244018 0 -0.31992270507577308 0.40365655533463263 0 -0.31062380669962009 0.40184060103333691 0 -0.31992270507577308 0.40365655533463263 0 -0.31593929086518541 0.38951083922341367 0 -0.31062380669962009 0.40184060103333691 0 -0.32741187280431527 0.40974482194131401 0 -0.31992270507577308 0.40365655533463263 0 -0.33177239344133141 0.40076370571371989 0 -0.34826939610138991 0.40133808027483542 0 -0.33177239344133141 0.40076370571371989 0 -0.3344653370961162 0.38826093126905559 0 -0.34826939610138991 0.40133808027483542 0 -0.33761690914190667 0.41243085812447777 0 -0.33177239344133141 0.40076370571371989 0 -0.33000920761438729 0.37334129745358491 0 -0.35311114166497443 0.38374512443190778 0 -0.3344653370961162 0.38826093126905559 0 -0.33000920761438729 0.37334129745358491 0 -0.35311114166497443 0.38374512443190778 0 -0.33000920761438729 0.37334129745358491 0 -0.3344653370961162 0.38826093126905559 0 -0.32183919521750981 0.37958730587087069 0 -0.3344653370961162 0.38826093126905559 0 -0.32183919521750981 0.37958730587087069 0 -0.31593929086518541 0.38951083922341367 0 -0.32039776373708018 0.37032187217238732 0 -0.32183919521750981 0.37958730587087069 0 -0.31081490781150989 0.37602249237407281 0 -0.32183919521750981 0.37958730587087069 0 -0.31593929086518541 0.38951083922341367 0 -0.31081490781150989 0.37602249237407281 0 -0.31593929086518541 0.38951083922341367 0 -0.29408861675485681 0.38417043753487612 0 -0.29898876907182192 0.36921138452811381 0 -0.31081490781150989 0.37602249237407281 0 -0.29408861675485681 0.38417043753487612 0 -0.31593929086518541 0.38951083922341367 0 -0.31081490781150989 0.37602249237407281 0 -0.29408861675485681 0.38417043753487612 0 -0.31593929086518541 0.38951083922341367 0 -0.30339628636007487 0.39591104471691879 0 -0.29408861675485681 0.38417043753487612 0 -0.31062380669962009 0.40184060103333691 0 -0.30339628636007487 0.39591104471691879 0 -0.30489708053482018 0.40929094716492509 0 -0.31593929086518541 0.38951083922341367 0 -0.31062380669962009 0.40184060103333691 0 -0.30339628636007487 0.39591104471691879 0 -0.30339628636007487 0.39591104471691879 0 -0.29694752441867778 0.40008901263916308 0 -0.29380363811882382 0.39428694029885408 0 -0.30339628636007487 0.39591104471691879 0 -0.29380363811882382 0.39428694029885408 0 -0.29408861675485681 0.38417043753487612 0 -0.30339628636007487 0.39591104471691879 0 -0.29694752441867778 0.40008901263916308 0 -0.30489708053482018 0.40929094716492509 0 -0.29694752441867778 0.40008901263916308 0 -0.29575257863946908 0.40726556087328702 0 -0.30489708053482018 0.40929094716492509 0 -0.29694752441867778 0.40008901263916308 0 -0.28950102399964511 0.39819386672249413 0 -0.29575257863946908 0.40726556087328702 0 -0.28950102399964511 0.39819386672249413 0 -0.29380363811882382 0.39428694029885408 0 -0.2850847390608644 0.39307033988081852 0 -0.29694752441867778 0.40008901263916308 0 -0.28950102399964511 0.39819386672249413 0 -0.29380363811882382 0.39428694029885408 0 -0.28760100497370122 0.37410898743663362 0 -0.29408861675485681 0.38417043753487612 0 -0.27223794264452789 0.37883003584634017 0 -0.29408861675485681 0.38417043753487612 0 -0.27223794264452789 0.37883003584634017 0 -0.2850847390608644 0.39307033988081852 0 -0.29408861675485681 0.38417043753487612 0 -0.27223794264452789 0.37883003584634017 0 -0.28760100497370122 0.37410898743663362 0 -0.29898876907182192 0.36921138452811381 0 -0.29408861675485681 0.38417043753487612 0 -0.29380363811882382 0.39428694029885408 0 -0.2850847390608644 0.39307033988081852 0 -0.29408861675485681 0.38417043753487612 0 -0.2850847390608644 0.39307033988081852 0 -0.27223794264452789 0.37883003584634017 0 -0.26707217298463448 0.39640527926298341 0 -0.2850847390608644 0.39307033988081852 0 -0.27223794264452789 0.37883003584634017 0 -0.28950102399964511 0.39819386672249413 0 -0.26707217298463448 0.39640527926298341 0 -0.26787632552643248 0.41470630917998003 0 -0.28950102399964511 0.39819386672249413 0 -0.2850847390608644 0.39307033988081852 0 -0.26707217298463448 0.39640527926298341 0 -0.26707217298463448 0.39640527926298341 0 -0.26787632552643248 0.41470630917998003 0 -0.2464920066270202 0.40121550698264929 0 -0.27223794264452789 0.37883003584634017 0 -0.26707217298463448 0.39640527926298341 0 -0.2470272302378157 0.37266842589205329 0 -0.26707217298463448 0.39640527926298341 0 -0.2464920066270202 0.40121550698264929 0 -0.2470272302378157 0.37266842589205329 0 -0.27223794264452789 0.37883003584634017 0 -0.2470272302378157 0.37266842589205329 0 -0.26787632552643248 0.41470630917998003 0 -0.2462516270532201 0.43121875163746609 0 -0.26876140454927849 0.43111794567112832 0 -0.26533701260627007 0.44590428104395002 0 -0.2462516270532201 0.43121875163746609 0 -0.26787632552643248 0.41470630917998003 0 -0.26876140454927849 0.43111794567112832 0 -0.2462516270532201 0.43121875163746609 0 -0.26787632552643248 0.41470630917998003 0 -0.24545548128985861 0.41624710173295421 0 -0.2464920066270202 0.40121550698264929 0 -0.26787632552643248 0.41470630917998003 0 -0.24545548128985861 0.41624710173295421 0 -0.2462516270532201 0.43121875163746609 0 -0.28950102399964511 0.39819386672249413 0 -0.26787632552643248 0.41470630917998003 0 -0.26787632552643248 0.41470630917998003 0 -0.28046646568787192 0.42516085993767999 0 -0.28918925201315432 0.41570612102490218 0 -0.26787632552643248 0.41470630917998003 0 -0.28046646568787192 0.42516085993767999 0 -0.26876140454927849 0.43111794567112832 0 -0.28046646568787192 0.42516085993767999 0 -0.26876140454927849 0.43111794567112832 0 -0.2838755918725982 0.43859952655656542 0 -0.28046646568787192 0.42516085993767999 0 -0.29235160109924901 0.42739317518274311 0 -0.2838755918725982 0.43859952655656542 0 -0.28046646568787192 0.42516085993767999 0 -0.29235160109924901 0.42739317518274311 0 -0.28918925201315432 0.41570612102490218 0 -0.29235160109924901 0.42739317518274311 0 -0.2948078547449241 0.43688545500226211 0 -0.2838755918725982 0.43859952655656542 0 -0.29235160109924901 0.42739317518274311 0 -0.2948078547449241 0.43688545500226211 0 -0.30270243210515718 0.42872688085527411 0 -0.28950102399964511 0.39819386672249413 0 -0.26787632552643248 0.41470630917998003 0 -0.28918925201315432 0.41570612102490218 0 -0.28950102399964511 0.39819386672249413 0 -0.28918925201315432 0.41570612102490218 0 -0.29575257863946908 0.40726556087328702 0 -0.28918925201315432 0.41570612102490218 0 -0.29826810391951952 0.41272794449596628 0 -0.30112650917414441 0.41901871582508682 0 -0.29235160109924901 0.42739317518274311 0 -0.28918925201315432 0.41570612102490218 0 -0.30112650917414441 0.41901871582508682 0 -0.28918925201315432 0.41570612102490218 0 -0.29575257863946908 0.40726556087328702 0 -0.29826810391951952 0.41272794449596628 0 -0.29575257863946908 0.40726556087328702 0 -0.29826810391951952 0.41272794449596628 0 -0.30489708053482018 0.40929094716492509 0 -0.29826810391951952 0.41272794449596628 0 -0.30112650917414441 0.41901871582508682 0 -0.30489708053482018 0.40929094716492509 0 -0.30112650917414441 0.41901871582508682 0 -0.31096017961700961 0.42085020826682179 0 -0.30489708053482018 0.40929094716492509 0 -0.31528554503640022 0.41195283103244018 0 -0.31062380669962009 0.40184060103333691 0 -0.30489708053482018 0.40929094716492509 0 -0.31528554503640022 0.41195283103244018 0 -0.31096017961700961 0.42085020826682179 0 -0.30489708053482018 0.40929094716492509 0 -0.2948078547449241 0.43688545500226211 0 -0.30270243210515718 0.42872688085527411 0 -0.30477973693213112 0.43917015943864501 0 -0.29235160109924901 0.42739317518274311 0 -0.30112650917414441 0.41901871582508682 0 -0.30270243210515718 0.42872688085527411 0 -0.30112650917414441 0.41901871582508682 0 -0.31096017961700961 0.42085020826682179 0 -0.30270243210515718 0.42872688085527411 0 -0.31096017961700961 0.42085020826682179 0 -0.30270243210515718 0.42872688085527411 0 -0.31154220659956638 0.43131182068225909 0 -0.30270243210515718 0.42872688085527411 0 -0.31154220659956638 0.43131182068225909 0 -0.30477973693213112 0.43917015943864501 0 -0.31154220659956638 0.43131182068225909 0 -0.30477973693213112 0.43917015943864501 0 -0.3167836407876341 0.44057285872214308 0 -0.30477973693213112 0.43917015943864501 0 -0.30954151024758292 0.44993224156256001 0 -0.3167836407876341 0.44057285872214308 0 -0.30954151024758292 0.44993224156256001 0 -0.30281917085330251 0.45918288434277638 0 -0.29672876173478968 0.44785086291864568 0 -0.30477973693213112 0.43917015943864501 0 -0.30954151024758292 0.44993224156256001 0 -0.29672876173478968 0.44785086291864568 0 -0.2948078547449241 0.43688545500226211 0 -0.30477973693213112 0.43917015943864501 0 -0.29672876173478968 0.44785086291864568 0 -0.30350778371237142 0.47527533985691639 0 -0.31811215803770931 0.4583043031768872 0 -0.30281917085330251 0.45918288434277638 0 -0.28442239815932058 0.46058981045043329 0 -0.30350778371237142 0.47527533985691639 0 -0.30281917085330251 0.45918288434277638 0 -0.30350778371237142 0.47527533985691639 0 -0.31811215803770931 0.4583043031768872 0 -0.30954151024758292 0.44993224156256001 0 -0.30281917085330251 0.45918288434277638 0 -0.31811215803770931 0.4583043031768872 0 -0.30281917085330251 0.45918288434277638 0 -0.28442239815932058 0.46058981045043329 0 -0.29672876173478968 0.44785086291864568 0 -0.28442239815932058 0.46058981045043329 0 -0.30350778371237142 0.47527533985691639 0 -0.28442239815932058 0.46058981045043329 0 -0.29672876173478968 0.44785086291864568 0 -0.2838755918725982 0.43859952655656542 0 -0.2948078547449241 0.43688545500226211 0 -0.29672876173478968 0.44785086291864568 0 -0.2838755918725982 0.43859952655656542 0 -0.28442239815932058 0.46058981045043329 0 -0.2838755918725982 0.43859952655656542 0 -0.26533701260627007 0.44590428104395002 0 -0.26876140454927849 0.43111794567112832 0 -0.2838755918725982 0.43859952655656542 0 -0.26533701260627007 0.44590428104395002 0 -0.28442239815932058 0.46058981045043329 0 -0.26107088112654631 0.46261180363744597 0 -0.26533701260627007 0.44590428104395002 0 -0.28442239815932058 0.46058981045043329 0 -0.26533701260627007 0.44590428104395002 0 -0.28442239815932058 0.46058981045043329 0 -0.26107088112654631 0.46261180363744597 0 -0.26733789877728947 0.4788588420054315 0 -0.26107088112654631 0.46261180363744597 0 -0.243817137775376 0.47097574039803902 0 -0.24751695674797339 0.45243528226169127 0 -0.26107088112654631 0.46261180363744597 0 -0.26533701260627007 0.44590428104395002 0 -0.24751695674797339 0.45243528226169127 0 -0.26533701260627007 0.44590428104395002 0 -0.2462516270532201 0.43121875163746609 0 -0.26533701260627007 0.44590428104395002 0 -0.24751695674797339 0.45243528226169127 0 -0.2462516270532201 0.43121875163746609 0 -0.25788830219434672 0.5 0 -0.26733789877728947 0.4788588420054315 0 -0.24492967381449121 0.48835940448335308 0 -0.26733789877728947 0.4788588420054315 0 -0.243817137775376 0.47097574039803902 0 -0.24492967381449121 0.48835940448335308 0 -0.26107088112654631 0.46261180363744597 0 -0.26733789877728947 0.4788588420054315 0 -0.243817137775376 0.47097574039803902 0 -0.26733789877728947 0.4788588420054315 0 -0.27453285330752492 0.49068991913171078 0 -0.28672459889090368 0.4773423538852829 0 -0.28442239815932058 0.46058981045043329 0 -0.26733789877728947 0.4788588420054315 0 -0.28672459889090368 0.4773423538852829 0 -0.25788830219434672 0.5 0 -0.26733789877728947 0.4788588420054315 0 -0.27453285330752492 0.49068991913171078 0 -0.25788830219434672 0.5 0 -0.27453285330752492 0.49068991913171078 0 -0.28380555895405751 0.5 0 -0.28718251471042638 0.49424614496442337 0 -0.30350778371237142 0.47527533985691639 0 -0.28718251471042638 0.49424614496442337 0 -0.28380555895405751 0.5 0 -0.30972281571376842 0.5 0 -0.27453285330752492 0.49068991913171078 0 -0.28718251471042638 0.49424614496442337 0 -0.28380555895405751 0.5 0 -0.27453285330752492 0.49068991913171078 0 -0.28718251471042638 0.49424614496442337 0 -0.28672459889090368 0.4773423538852829 0 -0.28718251471042638 0.49424614496442337 0 -0.28672459889090368 0.4773423538852829 0 -0.30350778371237142 0.47527533985691639 0 -0.28442239815932058 0.46058981045043329 0 -0.28672459889090368 0.4773423538852829 0 -0.30350778371237142 0.47527533985691639 0 -0.30350778371237142 0.47527533985691639 0 -0.30278463531444388 0.4892359234186251 0 -0.3195739280929254 0.48763766992845781 0 -0.30350778371237142 0.47527533985691639 0 -0.3195739280929254 0.48763766992845781 0 -0.28718251471042638 0.49424614496442337 0 -0.30972281571376842 0.5 0 -0.30278463531444388 0.4892359234186251 0 -0.30972281571376842 0.5 0 -0.30278463531444388 0.4892359234186251 0 -0.3195739280929254 0.48763766992845781 0 -0.28718251471042638 0.49424614496442337 0 -0.30350778371237142 0.47527533985691639 0 -0.30278463531444388 0.4892359234186251 0 -0.30972281571376842 0.5 0 -0.3195739280929254 0.48763766992845781 0 -0.33564007247347921 0.49999999999999928 0 -0.3195739280929254 0.48763766992845781 0 -0.33564007247347921 0.49999999999999928 0 -0.3195739280929254 0.48763766992845781 0 -0.33564007247347921 0.49999999999999928 0 -0.32955120467661758 0.47578348877403848 0 -0.33564007247347921 0.49999999999999928 0 -0.32955120467661758 0.47578348877403848 0 -0.34407247041481631 0.47861894738618799 0 -0.32955120467661758 0.47578348877403848 0 -0.33945361474310032 0.46681226065710862 0 -0.34407247041481631 0.47861894738618799 0 -0.32955120467661758 0.47578348877403848 0 -0.31935318516725891 0.4718706321130135 0 -0.32602085131667058 0.46235235882876802 0 -0.3195739280929254 0.48763766992845781 0 -0.32955120467661758 0.47578348877403848 0 -0.31935318516725891 0.4718706321130135 0 -0.30350778371237142 0.47527533985691639 0 -0.3195739280929254 0.48763766992845781 0 -0.31935318516725891 0.4718706321130135 0 -0.30350778371237142 0.47527533985691639 0 -0.31935318516725891 0.4718706321130135 0 -0.31811215803770931 0.4583043031768872 0 -0.31811215803770931 0.4583043031768872 0 -0.32602085131667058 0.46235235882876802 0 -0.33320202072960331 0.45306392855051808 0 -0.31935318516725891 0.4718706321130135 0 -0.31811215803770931 0.4583043031768872 0 -0.32602085131667058 0.46235235882876802 0 -0.3167836407876341 0.44057285872214308 0 -0.31928846035899461 0.4475356674896131 0 -0.33271653236305182 0.441333266496862 0 -0.32379638056090981 0.43151901189275038 0 -0.3167836407876341 0.44057285872214308 0 -0.33271653236305182 0.441333266496862 0 -0.31811215803770931 0.4583043031768872 0 -0.33271653236305182 0.441333266496862 0 -0.31811215803770931 0.4583043031768872 0 -0.31928846035899461 0.4475356674896131 0 -0.33271653236305182 0.441333266496862 0 -0.31811215803770931 0.4583043031768872 0 -0.33271653236305182 0.441333266496862 0 -0.33320202072960331 0.45306392855051808 0 -0.30954151024758292 0.44993224156256001 0 -0.31811215803770931 0.4583043031768872 0 -0.31928846035899461 0.4475356674896131 0 -0.30954151024758292 0.44993224156256001 0 -0.3167836407876341 0.44057285872214308 0 -0.31928846035899461 0.4475356674896131 0 -0.35017414119994922 0.43457640658508678 0 -0.33271653236305182 0.441333266496862 0 -0.34821374801383881 0.44349679943659442 0 -0.33271653236305182 0.441333266496862 0 -0.33320202072960331 0.45306392855051808 0 -0.34481808058642549 0.45477017723517249 0 -0.33271653236305182 0.441333266496862 0 -0.34481808058642549 0.45477017723517249 0 -0.34821374801383881 0.44349679943659442 0 -0.32602085131667058 0.46235235882876802 0 -0.33320202072960331 0.45306392855051808 0 -0.34481808058642549 0.45477017723517249 0 -0.32602085131667058 0.46235235882876802 0 -0.34481808058642549 0.45477017723517249 0 -0.32602085131667058 0.46235235882876802 0 -0.33945361474310032 0.46681226065710862 0 -0.34481808058642549 0.45477017723517249 0 -0.32955120467661758 0.47578348877403848 0 -0.32602085131667058 0.46235235882876802 0 -0.33945361474310032 0.46681226065710862 0 -0.33945361474310032 0.46681226065710862 0 -0.34481808058642549 0.45477017723517249 0 -0.35549325581061503 0.46345214033019938 0 -0.34481808058642549 0.45477017723517249 0 -0.35549325581061503 0.46345214033019938 0 -0.36361530985618068 0.44718799564157757 0 -0.34481808058642549 0.45477017723517249 0 -0.36361530985618068 0.44718799564157757 0 -0.34481808058642549 0.45477017723517249 0 -0.34821374801383881 0.44349679943659442 0 -0.36361530985618068 0.44718799564157757 0 -0.35017414119994922 0.43457640658508678 0 -0.34821374801383881 0.44349679943659442 0 -0.36361530985618068 0.44718799564157757 0 -0.38851793510409671 0.43714309891359171 0 -0.37165210743183069 0.43109507384766188 0 -0.36361530985618068 0.44718799564157757 0 -0.38467572257486599 0.45462334623912232 0 -0.36361530985618068 0.44718799564157757 0 -0.36924227982466801 0.46400003439982968 0 -0.36361530985618068 0.44718799564157757 0 -0.36924227982466801 0.46400003439982968 0 -0.35549325581061503 0.46345214033019938 0 -0.36361530985618068 0.44718799564157757 0 -0.36924227982466801 0.46400003439982968 0 -0.35549325581061503 0.46345214033019938 0 -0.36924227982466801 0.46400003439982968 0 -0.36035280826579258 0.47717551474786268 0 -0.36924227982466801 0.46400003439982968 0 -0.37486924979315511 0.48081207315808172 0 -0.36035280826579258 0.47717551474786268 0 -0.36924227982466801 0.46400003439982968 0 -0.37486924979315511 0.48081207315808172 0 -0.37486924979315511 0.48081207315808172 0 -0.36035280826579258 0.47717551474786268 0 -0.36017633050775688 0.5 0 -0.38471258854203449 0.5 0 -0.37486924979315511 0.48081207315808172 0 -0.36017633050775688 0.5 0 -0.33564007247347921 0.49999999999999928 0 -0.36017633050775688 0.5 0 -0.34407247041481631 0.47861894738618799 0 -0.36035280826579258 0.47717551474786268 0 -0.36017633050775688 0.5 0 -0.34407247041481631 0.47861894738618799 0 -0.35549325581061503 0.46345214033019938 0 -0.36035280826579258 0.47717551474786268 0 -0.34407247041481631 0.47861894738618799 0 -0.33945361474310032 0.46681226065710862 0 -0.35549325581061503 0.46345214033019938 0 -0.34407247041481631 0.47861894738618799 0 -0.14866608645342669 0.46918940109706309 0 -0.15130944870239271 0.48385549266668759 0 -0.14040461204233121 0.47710892176535308 0 -0.15130944870239271 0.48385549266668759 0 -0.13624655151226731 0.48625031831840482 0 -0.14040461204233121 0.47710892176535308 0 -0.1415279106155492 0.46955364227804502 0 -0.14866608645342669 0.46918940109706309 0 -0.14040461204233121 0.47710892176535308 0 -0.14866608645342669 0.46918940109706309 0 -0.15130944870239271 0.48385549266668759 0 -0.14866608645342669 0.46918940109706309 0 -0.15130944870239271 0.48385549266668759 0 -0.15420219670526911 0.48339557934232502 0 -0.15130944870239271 0.48385549266668759 0 -0.15420219670526911 0.48339557934232502 0 -0.15130944870239271 0.48385549266668759 0 -0.15421927515550349 0.50000000000000477 0 -0.16048943723546949 0.49169133172300861 0 -0.15421927515550349 0.50000000000000477 0 -0.14499585940771451 0.49271295766401901 0 -0.13692027212539001 0.5 0 -0.15130944870239271 0.48385549266668759 0 -0.15421927515550349 0.50000000000000477 0 -0.14499585940771451 0.49271295766401901 0 -0.15130944870239271 0.48385549266668759 0 -0.15420219670526911 0.48339557934232502 0 -0.16048943723546949 0.49169133172300861 0 -0.15130944870239271 0.48385549266668759 0 -0.15421927515550349 0.50000000000000477 0 -0.15130944870239271 0.48385549266668759 0 -0.14499585940771451 0.49271295766401901 0 -0.13624655151226731 0.48625031831840482 0 -0.15130944870239271 0.48385549266668759 0 -0.13624655151226731 0.48625031831840482 0 -0.13692027212539001 0.5 0 -0.12849293676376911 0.4937238655721326 0 -0.11962126909527659 0.50000000000000355 0 -0.13624655151226731 0.48625031831840482 0 -0.13692027212539001 0.5 0 -0.12849293676376911 0.4937238655721326 0 -0.14499585940771451 0.49271295766401901 0 -0.13624655151226731 0.48625031831840482 0 -0.13692027212539001 0.5 0 -0.13624655151226731 0.48625031831840482 0 -0.12939058826336489 0.48505086830706079 0 -0.121183654322142 0.48864514397012188 0 -0.13624655151226731 0.48625031831840482 0 -0.12849293676376911 0.4937238655721326 0 -0.121183654322142 0.48864514397012188 0 -0.13624655151226731 0.48625031831840482 0 -0.121183654322142 0.48864514397012188 0 -0.12939058826336489 0.48505086830706079 0 -0.14040461204233121 0.47710892176535308 0 -0.1344385710105499 0.46796102051426858 0 -0.12939058826336489 0.48505086830706079 0 -0.1344385710105499 0.46796102051426858 0 -0.12327607099828899 0.47343820927589081 0 -0.12939058826336489 0.48505086830706079 0 -0.1344385710105499 0.46796102051426858 0 -0.13624655151226731 0.48625031831840482 0 -0.12939058826336489 0.48505086830706079 0 -0.14040461204233121 0.47710892176535308 0 -0.1415279106155492 0.46955364227804502 0 -0.14040461204233121 0.47710892176535308 0 -0.1344385710105499 0.46796102051426858 0 -0.1344385710105499 0.46796102051426858 0 -0.12327607099828899 0.47343820927589081 0 -0.1344385710105499 0.46796102051426858 0 -0.12649411281499101 0.45005063436893278 0 -0.12327607099828899 0.47343820927589081 0 -0.13704002997869669 0.4591538315773438 0 -0.1344385710105499 0.46796102051426858 0 -0.12649411281499101 0.45005063436893278 0 -0.13704002997869669 0.4591538315773438 0 -0.12649411281499101 0.45005063436893278 0 -0.13704002997869669 0.4591538315773438 0 -0.1344385710105499 0.46796102051426858 0 -0.14260237295589129 0.46395522573549802 0 -0.1415279106155492 0.46955364227804502 0 -0.1344385710105499 0.46796102051426858 0 -0.14260237295589129 0.46395522573549802 0 -0.1344385710105499 0.46796102051426858 0 -0.14260237295589129 0.46395522573549802 0 -0.13704002997869669 0.4591538315773438 0 -0.1344385710105499 0.46796102051426858 0 -0.13704002997869669 0.4591538315773438 0 -0.14260237295589129 0.46395522573549802 0 -0.12649411281499101 0.45005063436893278 0 -0.12898965497755871 0.43191392807833717 0 -0.1241546511004496 0.44172091405448421 0 -0.13704002997869669 0.4591538315773438 0 -0.14313701451529631 0.43851260854947088 0 -0.13704002997869669 0.4591538315773438 0 -0.12649411281499101 0.45005063436893278 0 -0.14313701451529631 0.43851260854947088 0 -0.12649411281499101 0.45005063436893278 0 -0.12898965497755871 0.43191392807833717 0 -0.12649411281499101 0.45005063436893278 0 -0.14313701451529631 0.43851260854947088 0 -0.12898965497755871 0.43191392807833717 0 -0.13704002997869669 0.4591538315773438 0 -0.14313701451529631 0.43851260854947088 0 -0.14730666057333411 0.46164693715843241 0 -0.14313701451529631 0.43851260854947088 0 -0.15443606137228361 0.44650309411853623 0 -0.14730666057333411 0.46164693715843241 0 -0.14313701451529631 0.43851260854947088 0 -0.14730666057333411 0.46164693715843241 0 -0.14313701451529631 0.43851260854947088 0 -0.15443606137228361 0.44650309411853623 0 -0.15375230676599491 0.4330902936002955 0 -0.13704002997869669 0.4591538315773438 0 -0.14730666057333411 0.46164693715843241 0 -0.14260237295589129 0.46395522573549802 0 -0.14730666057333411 0.46164693715843241 0 -0.14260237295589129 0.46395522573549802 0 -0.14866608645342669 0.46918940109706309 0 -0.14260237295589129 0.46395522573549802 0 -0.14866608645342669 0.46918940109706309 0 -0.14730666057333411 0.46164693715843241 0 -0.14260237295589129 0.46395522573549802 0 -0.14866608645342669 0.46918940109706309 0 -0.14730666057333411 0.46164693715843241 0 -0.1415279106155492 0.46955364227804502 0 -0.14866608645342669 0.46918940109706309 0 -0.14260237295589129 0.46395522573549802 0 -0.14730666057333411 0.46164693715843241 0 -0.15571990323284449 0.45751874740767667 0 -0.15443606137228361 0.44650309411853623 0 -0.14730666057333411 0.46164693715843241 0 -0.15571990323284449 0.45751874740767667 0 -0.14730666057333411 0.46164693715843241 0 -0.15571990323284449 0.45751874740767667 0 -0.15645368504449669 0.46401672152766499 0 -0.14866608645342669 0.46918940109706309 0 -0.14730666057333411 0.46164693715843241 0 -0.15645368504449669 0.46401672152766499 0 -0.14866608645342669 0.46918940109706309 0 -0.15645368504449669 0.46401672152766499 0 -0.16547481778018569 0.47138169189814461 0 -0.15645368504449669 0.46401672152766499 0 -0.16455594401299731 0.46056138067183522 0 -0.16547481778018569 0.47138169189814461 0 -0.15571990323284449 0.45751874740767667 0 -0.16455594401299731 0.46056138067183522 0 -0.16466817270614251 0.44992680521104739 0 -0.15571990323284449 0.45751874740767667 0 -0.15645368504449669 0.46401672152766499 0 -0.16455594401299731 0.46056138067183522 0 -0.16455594401299731 0.46056138067183522 0 -0.17345055420821009 0.46481115468218892 0 -0.1741291929556579 0.45459567320743699 0 -0.16455594401299731 0.46056138067183522 0 -0.16466817270614251 0.44992680521104739 0 -0.1741291929556579 0.45459567320743699 0 -0.16455594401299731 0.46056138067183522 0 -0.17345055420821009 0.46481115468218892 0 -0.16547481778018569 0.47138169189814461 0 -0.15443606137228361 0.44650309411853623 0 -0.16466817270614251 0.44992680521104739 0 -0.16458321971050691 0.43798256864644691 0 -0.15443606137228361 0.44650309411853623 0 -0.16458321971050691 0.43798256864644691 0 -0.15375230676599491 0.4330902936002955 0 -0.15443606137228361 0.44650309411853623 0 -0.15571990323284449 0.45751874740767667 0 -0.16466817270614251 0.44992680521104739 0 -0.16466817270614251 0.44992680521104739 0 -0.174485599419339 0.44182943205973141 0 -0.1741291929556579 0.45459567320743699 0 -0.16466817270614251 0.44992680521104739 0 -0.16458321971050691 0.43798256864644691 0 -0.174485599419339 0.44182943205973141 0 -0.174485599419339 0.44182943205973141 0 -0.18509879951233879 0.44646465478628289 0 -0.1741291929556579 0.45459567320743699 0 -0.174485599419339 0.44182943205973141 0 -0.18509879951233879 0.44646465478628289 0 -0.18477877523308731 0.4322622798022111 0 -0.17345055420821009 0.46481115468218892 0 -0.18497554501065949 0.46208816426710991 0 -0.17813677643982689 0.47387509144840972 0 -0.17345055420821009 0.46481115468218892 0 -0.1741291929556579 0.45459567320743699 0 -0.18497554501065949 0.46208816426710991 0 -0.18509879951233879 0.44646465478628289 0 -0.1741291929556579 0.45459567320743699 0 -0.18497554501065949 0.46208816426710991 0 -0.17813677643982689 0.47387509144840972 0 -0.17009869623300861 0.4876899516405338 0 -0.18926305277891861 0.4816796739505792 0 -0.18497554501065949 0.46208816426710991 0 -0.17813677643982689 0.47387509144840972 0 -0.18926305277891861 0.4816796739505792 0 -0.17345055420821009 0.46481115468218892 0 -0.17813677643982689 0.47387509144840972 0 -0.16547481778018569 0.47138169189814461 0 -0.17813677643982689 0.47387509144840972 0 -0.16547481778018569 0.47138169189814461 0 -0.17009869623300861 0.4876899516405338 0 -0.14866608645342669 0.46918940109706309 0 -0.17009869623300861 0.4876899516405338 0 -0.14866608645342669 0.46918940109706309 0 -0.15420219670526911 0.48339557934232502 0 -0.17009869623300861 0.4876899516405338 0 -0.14866608645342669 0.46918940109706309 0 -0.16547481778018569 0.47138169189814461 0 -0.17009869623300861 0.4876899516405338 0 -0.15421927515550349 0.50000000000000477 0 -0.16048943723546949 0.49169133172300861 0 -0.18013653191521431 0.5 0 -0.15420219670526911 0.48339557934232502 0 -0.17009869623300861 0.4876899516405338 0 -0.16048943723546949 0.49169133172300861 0 -0.17009869623300861 0.4876899516405338 0 -0.16048943723546949 0.49169133172300861 0 -0.18013653191521431 0.5 0 -0.17009869623300861 0.4876899516405338 0 -0.18013653191521431 0.5 0 -0.18926305277891861 0.4816796739505792 0 -0.18013653191521431 0.5 0 -0.18926305277891861 0.4816796739505792 0 -0.2060537886749251 0.5 0 -0.18926305277891861 0.4816796739505792 0 -0.20889009819463139 0.47537657700778058 0 -0.2060537886749251 0.5 0 -0.18926305277891861 0.4816796739505792 0 -0.20889009819463139 0.47537657700778058 0 -0.19959509274060491 0.46205017525671171 0 -0.20889009819463139 0.47537657700778058 0 -0.2060537886749251 0.5 0 -0.22090772382804 0.48701382872940391 0 -0.2060537886749251 0.5 0 -0.22090772382804 0.48701382872940391 0 -0.2319710454346359 0.5 0 -0.22090772382804 0.48701382872940391 0 -0.2319710454346359 0.5 0 -0.24492967381449121 0.48835940448335308 0 -0.20889009819463139 0.47537657700778058 0 -0.22090772382804 0.48701382872940391 0 -0.22820659253516681 0.47183513795214532 0 -0.22090772382804 0.48701382872940391 0 -0.22820659253516681 0.47183513795214532 0 -0.24492967381449121 0.48835940448335308 0 -0.22820659253516681 0.47183513795214532 0 -0.243817137775376 0.47097574039803902 0 -0.24492967381449121 0.48835940448335308 0 -0.25788830219434672 0.5 0 -0.2319710454346359 0.5 0 -0.24492967381449121 0.48835940448335308 0 -0.24751695674797339 0.45243528226169127 0 -0.232441941056621 0.44176371464156328 0 -0.2462516270532201 0.43121875163746609 0 -0.24751695674797339 0.45243528226169127 0 -0.23340659250661039 0.45723365543844019 0 -0.232441941056621 0.44176371464156328 0 -0.243817137775376 0.47097574039803902 0 -0.24751695674797339 0.45243528226169127 0 -0.23340659250661039 0.45723365543844019 0 -0.22820659253516681 0.47183513795214532 0 -0.243817137775376 0.47097574039803902 0 -0.23340659250661039 0.45723365543844019 0 -0.22820659253516681 0.47183513795214532 0 -0.23340659250661039 0.45723365543844019 0 -0.21863225506002201 0.45230867764566068 0 -0.232441941056621 0.44176371464156328 0 -0.21863225506002201 0.45230867764566068 0 -0.23340659250661039 0.45723365543844019 0 -0.232441941056621 0.44176371464156328 0 -0.21863225506002201 0.45230867764566068 0 -0.232441941056621 0.44176371464156328 0 -0.21848324029062399 0.43779846237453968 0 -0.21863225506002201 0.45230867764566068 0 -0.21848324029062399 0.43779846237453968 0 -0.19985208227504489 0.44839020231738191 0 -0.1979536432690647 0.43466183098125488 0 -0.21848324029062399 0.43779846237453968 0 -0.21863225506002201 0.45230867764566068 0 -0.19985208227504489 0.44839020231738191 0 -0.20889009819463139 0.47537657700778058 0 -0.22820659253516681 0.47183513795214532 0 -0.21863225506002201 0.45230867764566068 0 -0.20889009819463139 0.47537657700778058 0 -0.21863225506002201 0.45230867764566068 0 -0.19959509274060491 0.46205017525671171 0 -0.21863225506002201 0.45230867764566068 0 -0.19959509274060491 0.46205017525671171 0 -0.19985208227504489 0.44839020231738191 0 -0.18497554501065949 0.46208816426710991 0 -0.18926305277891861 0.4816796739505792 0 -0.19959509274060491 0.46205017525671171 0 -0.18497554501065949 0.46208816426710991 0 -0.19959509274060491 0.46205017525671171 0 -0.19985208227504489 0.44839020231738191 0 -0.18509879951233879 0.44646465478628289 0 -0.18497554501065949 0.46208816426710991 0 -0.19985208227504489 0.44839020231738191 0 -0.18509879951233879 0.44646465478628289 0 -0.19985208227504489 0.44839020231738191 0 -0.1979536432690647 0.43466183098125488 0 -0.18509879951233879 0.44646465478628289 0 -0.1979536432690647 0.43466183098125488 0 -0.18477877523308731 0.4322622798022111 0 -0.1979536432690647 0.43466183098125488 0 -0.19409746765943731 0.41830121870056192 0 -0.18477877523308731 0.4322622798022111 0 -0.1979536432690647 0.43466183098125488 0 -0.19409746765943731 0.41830121870056192 0 -0.20914546201968151 0.42579021882891011 0 -0.19409746765943731 0.41830121870056192 0 -0.2018618044312584 0.40453330576809238 0 -0.19099900751150439 0.40219221811671019 0 -0.19409746765943731 0.41830121870056192 0 -0.19099900751150439 0.40219221811671019 0 -0.1803820773153636 0.40870285413724911 0 -0.19409746765943731 0.41830121870056192 0 -0.20480096798281669 0.4151326145314328 0 -0.20914546201968151 0.42579021882891011 0 -0.19409746765943731 0.41830121870056192 0 -0.20480096798281669 0.4151326145314328 0 -0.2018618044312584 0.40453330576809238 0 -0.21411981705909991 0.41147816882886318 0 -0.20914546201968151 0.42579021882891011 0 -0.230779624110342 0.41931359239594929 0 -0.20480096798281669 0.4151326145314328 0 -0.21411981705909991 0.41147816882886318 0 -0.2018618044312584 0.40453330576809238 0 -0.20480096798281669 0.4151326145314328 0 -0.21411981705909991 0.41147816882886318 0 -0.20914546201968151 0.42579021882891011 0 -0.21848324029062399 0.43779846237453968 0 -0.1979536432690647 0.43466183098125488 0 -0.20914546201968151 0.42579021882891011 0 -0.232441941056621 0.44176371464156328 0 -0.21848324029062399 0.43779846237453968 0 -0.230779624110342 0.41931359239594929 0 -0.21848324029062399 0.43779846237453968 0 -0.20914546201968151 0.42579021882891011 0 -0.230779624110342 0.41931359239594929 0 -0.21411981705909991 0.41147816882886318 0 -0.230779624110342 0.41931359239594929 0 -0.22590481645804719 0.40336626781761492 0 -0.230779624110342 0.41931359239594929 0 -0.2464920066270202 0.40121550698264929 0 -0.22590481645804719 0.40336626781761492 0 -0.230779624110342 0.41931359239594929 0 -0.24545548128985861 0.41624710173295421 0 -0.2464920066270202 0.40121550698264929 0 -0.232441941056621 0.44176371464156328 0 -0.230779624110342 0.41931359239594929 0 -0.2462516270532201 0.43121875163746609 0 -0.232441941056621 0.44176371464156328 0 -0.2462516270532201 0.43121875163746609 0 -0.230779624110342 0.41931359239594929 0 -0.24545548128985861 0.41624710173295421 0 -0.2462516270532201 0.43121875163746609 0 -0.230779624110342 0.41931359239594929 0 -0.2462516270532201 0.43121875163746609 0 -0.2464920066270202 0.40121550698264929 0 -0.22532976819137249 0.38522766746171089 0 -0.2470272302378157 0.37266842589205329 0 -0.2464920066270202 0.40121550698264929 0 -0.22590481645804719 0.40336626781761492 0 -0.22532976819137249 0.38522766746171089 0 -0.22590481645804719 0.40336626781761492 0 -0.22532976819137249 0.38522766746171089 0 -0.2130370749786972 0.39676836553732459 0 -0.22532976819137249 0.38522766746171089 0 -0.20886459277111599 0.38236242076028581 0 -0.2130370749786972 0.39676836553732459 0 -0.22532976819137249 0.38522766746171089 0 -0.20886459277111599 0.38236242076028581 0 -0.22181651783110309 0.36650681593776802 0 -0.21411981705909991 0.41147816882886318 0 -0.22590481645804719 0.40336626781761492 0 -0.2130370749786972 0.39676836553732459 0 -0.20886459277111599 0.38236242076028581 0 -0.2130370749786972 0.39676836553732459 0 -0.2021416509612893 0.39364236258738061 0 -0.2130370749786972 0.39676836553732459 0 -0.2018618044312584 0.40453330576809238 0 -0.2021416509612893 0.39364236258738061 0 -0.21411981705909991 0.41147816882886318 0 -0.2130370749786972 0.39676836553732459 0 -0.2018618044312584 0.40453330576809238 0 -0.2018618044312584 0.40453330576809238 0 -0.2021416509612893 0.39364236258738061 0 -0.19099900751150439 0.40219221811671019 0 -0.2021416509612893 0.39364236258738061 0 -0.1929999923715352 0.39099557291777037 0 -0.19099900751150439 0.40219221811671019 0 -0.1929999923715352 0.39099557291777037 0 -0.19099900751150439 0.40219221811671019 0 -0.1850919184113099 0.39500946592575292 0 -0.20886459277111599 0.38236242076028581 0 -0.19675979234249019 0.38115290258107881 0 -0.1951741664294942 0.37038609576778159 0 -0.2021416509612893 0.39364236258738061 0 -0.1929999923715352 0.39099557291777037 0 -0.19675979234249019 0.38115290258107881 0 -0.20886459277111599 0.38236242076028581 0 -0.2021416509612893 0.39364236258738061 0 -0.19675979234249019 0.38115290258107881 0 -0.1929999923715352 0.39099557291777037 0 -0.19675979234249019 0.38115290258107881 0 -0.18923196534509529 0.3842471445867256 0 -0.1929999923715352 0.39099557291777037 0 -0.18923196534509529 0.3842471445867256 0 -0.1850919184113099 0.39500946592575292 0 -0.18923196534509529 0.3842471445867256 0 -0.1914746853144641 0.37856145835753202 0 -0.1866298301437147 0.37585083503948868 0 -0.19675979234249019 0.38115290258107881 0 -0.1914746853144641 0.37856145835753202 0 -0.1951741664294942 0.37038609576778159 0 -0.19675979234249019 0.38115290258107881 0 -0.18923196534509529 0.3842471445867256 0 -0.1914746853144641 0.37856145835753202 0 -0.18923196534509529 0.3842471445867256 0 -0.1866298301437147 0.37585083503948868 0 -0.18243557348705799 0.38391263269873099 0 -0.16643679139041201 0.37988335872890122 0 -0.16789261764788291 0.39073685269590402 0 -0.18337756739262109 0.37434671428059318 0 -0.18243557348705799 0.38391263269873099 0 -0.16789261764788291 0.39073685269590402 0 -0.18337756739262109 0.37434671428059318 0 -0.16789261764788291 0.39073685269590402 0 -0.18337756739262109 0.37434671428059318 0 -0.1866298301437147 0.37585083503948868 0 -0.18243557348705799 0.38391263269873099 0 -0.18337756739262109 0.37434671428059318 0 -0.18243557348705799 0.38391263269873099 0 -0.16789261764788291 0.39073685269590402 0 -0.1850919184113099 0.39500946592575292 0 -0.1866298301437147 0.37585083503948868 0 -0.18337756739262109 0.37434671428059318 0 -0.18923196534509529 0.3842471445867256 0 -0.18243557348705799 0.38391263269873099 0 -0.1850919184113099 0.39500946592575292 0 -0.16643679139041201 0.37988335872890122 0 -0.15809090168982601 0.38788651323134482 0 -0.16377413547650521 0.36864603535147339 0 -0.15809090168982601 0.38788651323134482 0 -0.1486352883143181 0.3783636932454123 0 -0.16377413547650521 0.36864603535147339 0 -0.15809090168982601 0.38788651323134482 0 -0.16377413547650521 0.36864603535147339 0 -0.16643679139041201 0.37988335872890122 0 -0.15809090168982601 0.38788651323134482 0 -0.16789261764788291 0.39073685269590402 0 -0.16789261764788291 0.39073685269590402 0 -0.16749685878670631 0.40523624888716969 0 -0.15240766790314569 0.40712699111121581 0 -0.15809090168982601 0.38788651323134482 0 -0.16789261764788291 0.39073685269590402 0 -0.15240766790314569 0.40712699111121581 0 -0.16789261764788291 0.39073685269590402 0 -0.15240766790314569 0.40712699111121581 0 -0.16749685878670631 0.40523624888716969 0 -0.1850919184113099 0.39500946592575292 0 -0.1803820773153636 0.40870285413724911 0 -0.16789261764788291 0.39073685269590402 0 -0.16749685878670631 0.40523624888716969 0 -0.1850919184113099 0.39500946592575292 0 -0.19099900751150439 0.40219221811671019 0 -0.1850919184113099 0.39500946592575292 0 -0.1803820773153636 0.40870285413724911 0 -0.19409746765943731 0.41830121870056192 0 -0.1803820773153636 0.40870285413724911 0 -0.18046106349826951 0.4215119357898171 0 -0.1803820773153636 0.40870285413724911 0 -0.18046106349826951 0.4215119357898171 0 -0.1654705777553746 0.42021197026493262 0 -0.19409746765943731 0.41830121870056192 0 -0.18046106349826951 0.4215119357898171 0 -0.18477877523308731 0.4322622798022111 0 -0.18046106349826951 0.4215119357898171 0 -0.17365543639830061 0.42974461070496273 0 -0.1654705777553746 0.42021197026493262 0 -0.18046106349826951 0.4215119357898171 0 -0.18477877523308731 0.4322622798022111 0 -0.17365543639830061 0.42974461070496273 0 -0.174485599419339 0.44182943205973141 0 -0.18477877523308731 0.4322622798022111 0 -0.17365543639830061 0.42974461070496273 0 -0.16458321971050691 0.43798256864644691 0 -0.17365543639830061 0.42974461070496273 0 -0.1654705777553746 0.42021197026493262 0 -0.16458321971050691 0.43798256864644691 0 -0.1654705777553746 0.42021197026493262 0 -0.15375230676599491 0.4330902936002955 0 -0.16458321971050691 0.43798256864644691 0 -0.174485599419339 0.44182943205973141 0 -0.17365543639830061 0.42974461070496273 0 -0.16749685878670631 0.40523624888716969 0 -0.1803820773153636 0.40870285413724911 0 -0.1654705777553746 0.42021197026493262 0 -0.16749685878670631 0.40523624888716969 0 -0.1654705777553746 0.42021197026493262 0 -0.15240766790314569 0.40712699111121581 0 -0.1654705777553746 0.42021197026493262 0 -0.15240766790314569 0.40712699111121581 0 -0.14777234120922189 0.42281979983034362 0 -0.15240766790314569 0.40712699111121581 0 -0.139871700757356 0.42039576111539612 0 -0.1347593457287409 0.39203102714243482 0 -0.15240766790314569 0.40712699111121581 0 -0.14777234120922189 0.42281979983034362 0 -0.15240766790314569 0.40712699111121581 0 -0.14777234120922189 0.42281979983034362 0 -0.139871700757356 0.42039576111539612 0 -0.15240766790314569 0.40712699111121581 0 -0.139871700757356 0.42039576111539612 0 -0.14313701451529631 0.43851260854947088 0 -0.14777234120922189 0.42281979983034362 0 -0.14313701451529631 0.43851260854947088 0 -0.139871700757356 0.42039576111539612 0 -0.14313701451529631 0.43851260854947088 0 -0.14777234120922189 0.42281979983034362 0 -0.139871700757356 0.42039576111539612 0 -0.14313701451529631 0.43851260854947088 0 -0.14777234120922189 0.42281979983034362 0 -0.15375230676599491 0.4330902936002955 0 -0.1654705777553746 0.42021197026493262 0 -0.14777234120922189 0.42281979983034362 0 -0.15375230676599491 0.4330902936002955 0 -0.14313701451529631 0.43851260854947088 0 -0.12898965497755871 0.43191392807833717 0 -0.139871700757356 0.42039576111539612 0 -0.12898965497755871 0.43191392807833717 0 -0.139871700757356 0.42039576111539612 0 -0.12898965497755871 0.43191392807833717 0 -0.139871700757356 0.42039576111539612 0 -0.13085386809190069 0.41836549510649312 0 -0.12898965497755871 0.43191392807833717 0 -0.13085386809190069 0.41836549510649312 0 -0.12315032222220849 0.42176833801847202 0 -0.12898965497755871 0.43191392807833717 0 -0.13085386809190069 0.41836549510649312 0 -0.12898965497755871 0.43191392807833717 0 -0.1212935115654475 0.44005995747254878 0 -0.13085386809190069 0.41836549510649312 0 -0.1347593457287409 0.39203102714243482 0 -0.116922696394459 0.40959952316007558 0 -0.139871700757356 0.42039576111539612 0 -0.13085386809190069 0.41836549510649312 0 -0.1347593457287409 0.39203102714243482 0 -0.1347593457287409 0.39203102714243482 0 -0.1262379107146222 0.39265898073090139 0 -0.116922696394459 0.40959952316007558 0 -0.139871700757356 0.42039576111539612 0 -0.1347593457287409 0.39203102714243482 0 -0.1347593457287409 0.39203102714243482 0 -0.116922696394459 0.40959952316007558 0 -0.1347593457287409 0.39203102714243482 0 -0.1262379107146222 0.39265898073090139 0 -0.13409660535949769 0.38835396360488422 0 -0.1262379107146222 0.39265898073090139 0 -0.12915077140937711 0.38490894193308689 0 -0.1247475464846413 0.3806129323962732 0 -0.12915077140937711 0.38490894193308689 0 -0.13354649641650931 0.37572020154044511 0 -0.13409660535949769 0.38835396360488422 0 -0.1262379107146222 0.39265898073090139 0 -0.12915077140937711 0.38490894193308689 0 -0.13409660535949769 0.38835396360488422 0 -0.13354649641650931 0.37572020154044511 0 -0.1199139301177919 0.36938522126397533 0 -0.1247475464846413 0.3806129323962732 0 -0.12915077140937711 0.38490894193308689 0 -0.13354649641650931 0.37572020154044511 0 -0.1247475464846413 0.3806129323962732 0 -0.13354649641650931 0.37572020154044511 0 -0.13409660535949769 0.38835396360488422 0 -0.1486352883143181 0.3783636932454123 0 -0.1347593457287409 0.39203102714243482 0 -0.13409660535949769 0.38835396360488422 0 -0.1486352883143181 0.3783636932454123 0 -0.1347593457287409 0.39203102714243482 0 -0.13409660535949769 0.38835396360488422 0 -0.1347593457287409 0.39203102714243482 0 -0.1486352883143181 0.3783636932454123 0 -0.1347593457287409 0.39203102714243482 0 -0.1486352883143181 0.3783636932454123 0 -0.1474742050297792 0.39069267168404131 0 -0.15809090168982601 0.38788651323134482 0 -0.1486352883143181 0.3783636932454123 0 -0.1474742050297792 0.39069267168404131 0 -0.15240766790314569 0.40712699111121581 0 -0.1347593457287409 0.39203102714243482 0 -0.1474742050297792 0.39069267168404131 0 -0.15809090168982601 0.38788651323134482 0 -0.15240766790314569 0.40712699111121581 0 -0.15809090168982601 0.38788651323134482 0 -0.15240766790314569 0.40712699111121581 0 -0.1474742050297792 0.39069267168404131 0 -0.13867242508476191 0.35367128375087548 0 -0.16251123089989741 0.36469635934839201 0 -0.14840938419295549 0.34856578682111639 0 -0.13867242508476191 0.35367128375087548 0 -0.16251123089989741 0.36469635934839201 0 -0.1486352883143181 0.3783636932454123 0 -0.14292294557505469 0.36705869034581567 0 -0.16251123089989741 0.36469635934839201 0 -0.14292294557505469 0.36705869034581567 0 -0.13867242508476191 0.35367128375087548 0 -0.16251123089989741 0.36469635934839201 0 -0.1486352883143181 0.3783636932454123 0 -0.16251123089989741 0.36469635934839201 0 -0.13354649641650931 0.37572020154044511 0 -0.1486352883143181 0.3783636932454123 0 -0.14292294557505469 0.36705869034581567 0 -0.14292294557505469 0.36705869034581567 0 -0.12971477536096671 0.36338879779660149 0 -0.13867242508476191 0.35367128375087548 0 -0.13354649641650931 0.37572020154044511 0 -0.14292294557505469 0.36705869034581567 0 -0.12971477536096671 0.36338879779660149 0 -0.13354649641650931 0.37572020154044511 0 -0.12971477536096671 0.36338879779660149 0 -0.1199139301177919 0.36938522126397533 0 -0.13867242508476191 0.35367128375087548 0 -0.11483361926962971 0.34264620815335178 0 -0.14840938419295549 0.34856578682111639 0 -0.13867242508476191 0.35367128375087548 0 -0.1239900476571317 0.34259759264045092 0 -0.14840938419295549 0.34856578682111639 0 -0.1239900476571317 0.34259759264045092 0 -0.13867242508476191 0.35367128375087548 0 -0.11483361926962971 0.34264620815335178 0 -0.12403371433339661 0.35411275033671941 0 -0.13867242508476191 0.35367128375087548 0 -0.1239900476571317 0.34259759264045092 0 -0.11483361926962971 0.34264620815335178 0 -0.12971477536096671 0.36338879779660149 0 -0.13867242508476191 0.35367128375087548 0 -0.12403371433339661 0.35411275033671941 0 -0.13770607761391471 0.3360120693880651 0 -0.12783876801739619 0.32515980312000742 0 -0.1239900476571317 0.34259759264045092 0 -0.14840938419295549 0.34856578682111639 0 -0.13770607761391471 0.3360120693880651 0 -0.1239900476571317 0.34259759264045092 0 -0.12783876801739619 0.32515980312000742 0 -0.1446308484910766 0.32246414915719929 0 -0.13598252948796319 0.3091676558053707 0 -0.12783876801739619 0.32515980312000742 0 -0.13598252948796319 0.3091676558053707 0 -0.1203896417197225 0.31207488955618601 0 -0.13770607761391471 0.3360120693880651 0 -0.12783876801739619 0.32515980312000742 0 -0.1446308484910766 0.32246414915719929 0 -0.1446308484910766 0.32246414915719929 0 -0.16050681552340601 0.31292876366819661 0 -0.13598252948796319 0.3091676558053707 0 -0.1446308484910766 0.32246414915719929 0 -0.1635729594775252 0.33258290456163991 0 -0.16050681552340601 0.31292876366819661 0 -0.13770607761391471 0.3360120693880651 0 -0.1446308484910766 0.32246414915719929 0 -0.1635729594775252 0.33258290456163991 0 -0.14840938419295549 0.34856578682111639 0 -0.13770607761391471 0.3360120693880651 0 -0.1635729594775252 0.33258290456163991 0 -0.1635729594775252 0.33258290456163991 0 -0.16050681552340601 0.31292876366819661 0 -0.18713140654446231 0.31215297230331868 0 -0.1874334290563934 0.34014883750964298 0 -0.18713140654446231 0.31215297230331868 0 -0.1635729594775252 0.33258290456163991 0 -0.1874334290563934 0.34014883750964298 0 -0.17282872072877961 0.35453398100178007 0 -0.1635729594775252 0.33258290456163991 0 -0.1874334290563934 0.34014883750964298 0 -0.18713140654446231 0.31215297230331868 0 -0.1874334290563934 0.34014883750964298 0 -0.18745551711815139 0.34219628223750842 0 -0.18745551711815139 0.34219628223750842 0 -0.17282872072877961 0.35453398100178007 0 -0.19388347629497371 0.3492435382695922 0 -0.1874334290563934 0.34014883750964298 0 -0.17282872072877961 0.35453398100178007 0 -0.1874334290563934 0.34014883750964298 0 -0.18745551711815139 0.34219628223750842 0 -0.17282872072877961 0.35453398100178007 0 -0.17282872072877961 0.35453398100178007 0 -0.19660580542439079 0.36034520598348108 0 -0.14840938419295549 0.34856578682111639 0 -0.17282872072877961 0.35453398100178007 0 -0.14840938419295549 0.34856578682111639 0 -0.1635729594775252 0.33258290456163991 0 -0.17282872072877961 0.35453398100178007 0 -0.14840938419295549 0.34856578682111639 0 -0.17282872072877961 0.35453398100178007 0 -0.16251123089989741 0.36469635934839201 0 -0.16643679139041201 0.37988335872890122 0 -0.16377413547650521 0.36864603535147339 0 -0.18337756739262109 0.37434671428059318 0 -0.16377413547650521 0.36864603535147339 0 -0.16251123089989741 0.36469635934839201 0 -0.18337756739262109 0.37434671428059318 0 -0.1486352883143181 0.3783636932454123 0 -0.16377413547650521 0.36864603535147339 0 -0.16251123089989741 0.36469635934839201 0 -0.17282872072877961 0.35453398100178007 0 -0.16251123089989741 0.36469635934839201 0 -0.16251123089989741 0.36469635934839201 0 -0.18337756739262109 0.37434671428059318 0 -0.17282872072877961 0.35453398100178007 0 -0.16251123089989741 0.36469635934839201 0 -0.18337756739262109 0.37434671428059318 0 -0.17282872072877961 0.35453398100178007 0 -0.18337756739262109 0.37434671428059318 0 -0.19660580542439079 0.36034520598348108 0 -0.18337756739262109 0.37434671428059318 0 -0.1951741664294942 0.37038609576778159 0 -0.19660580542439079 0.36034520598348108 0 -0.1914746853144641 0.37856145835753202 0 -0.1866298301437147 0.37585083503948868 0 -0.1951741664294942 0.37038609576778159 0 -0.18337756739262109 0.37434671428059318 0 -0.19660580542439079 0.36034520598348108 0 -0.1866298301437147 0.37585083503948868 0 -0.18337756739262109 0.37434671428059318 0 -0.1951741664294942 0.37038609576778159 0 -0.19660580542439079 0.36034520598348108 0 -0.19388347629497371 0.3492435382695922 0 -0.20131050499890621 0.34102297157699968 0 -0.17282872072877961 0.35453398100178007 0 -0.19660580542439079 0.36034520598348108 0 -0.19388347629497371 0.3492435382695922 0 -0.18745551711815139 0.34219628223750842 0 -0.19388347629497371 0.3492435382695922 0 -0.19424083118820101 0.34051194992072681 0 -0.19660580542439079 0.36034520598348108 0 -0.21663914670513301 0.33914079512485512 0 -0.20131050499890621 0.34102297157699968 0 -0.19660580542439079 0.36034520598348108 0 -0.22181651783110309 0.36650681593776802 0 -0.21663914670513301 0.33914079512485512 0 -0.19660580542439079 0.36034520598348108 0 -0.21663914670513301 0.33914079512485512 0 -0.20886459277111599 0.38236242076028581 0 -0.1951741664294942 0.37038609576778159 0 -0.22181651783110309 0.36650681593776802 0 -0.19660580542439079 0.36034520598348108 0 -0.22181651783110309 0.36650681593776802 0 -0.1951741664294942 0.37038609576778159 0 -0.19660580542439079 0.36034520598348108 0 -0.22181651783110309 0.36650681593776802 0 -0.22532976819137249 0.38522766746171089 0 -0.22181651783110309 0.36650681593776802 0 -0.2470272302378157 0.37266842589205329 0 -0.22181651783110309 0.36650681593776802 0 -0.23431614766534409 0.35425314595708191 0 -0.21663914670513301 0.33914079512485512 0 -0.25277859539906522 0.35725990955902481 0 -0.2333192481536035 0.33568978327170829 0 -0.25277859539906522 0.35725990955902481 0 -0.23431614766534409 0.35425314595708191 0 -0.2333192481536035 0.33568978327170829 0 -0.25277859539906522 0.35725990955902481 0 -0.23431614766534409 0.35425314595708191 0 -0.2470272302378157 0.37266842589205329 0 -0.22181651783110309 0.36650681593776802 0 -0.2470272302378157 0.37266842589205329 0 -0.22181651783110309 0.36650681593776802 0 -0.23431614766534409 0.35425314595708191 0 -0.2470272302378157 0.37266842589205329 0 -0.25840354832154122 0.32923234000076917 0 -0.23930374569037821 0.31749895667389327 0 -0.2333192481536035 0.33568978327170829 0 -0.25840354832154122 0.32923234000076917 0 -0.25277859539906522 0.35725990955902481 0 -0.2333192481536035 0.33568978327170829 0 -0.2333192481536035 0.33568978327170829 0 -0.21385990090814161 0.31411965698439198 0 -0.21663914670513301 0.33914079512485512 0 -0.23431614766534409 0.35425314595708191 0 -0.2333192481536035 0.33568978327170829 0 -0.21663914670513301 0.33914079512485512 0 -0.23930374569037821 0.31749895667389327 0 -0.2333192481536035 0.33568978327170829 0 -0.21385990090814161 0.31411965698439198 0 -0.2333192481536035 0.33568978327170829 0 -0.21385990090814161 0.31411965698439198 0 -0.21385990090814161 0.31411965698439198 0 -0.21663914670513301 0.33914079512485512 0 -0.20064666498226741 0.32713424724701751 0 -0.21385990090814161 0.31411965698439198 0 -0.20064666498226741 0.32713424724701751 0 -0.21385990090814161 0.31411965698439198 0 -0.2004956537263021 0.31313631464385538 0 -0.20064666498226741 0.32713424724701751 0 -0.21663914670513301 0.33914079512485512 0 -0.20131050499890621 0.34102297157699968 0 -0.20064666498226741 0.32713424724701751 0 -0.20131050499890621 0.34102297157699968 0 -0.19424083118820101 0.34051194992072681 0 -0.20064666498226741 0.32713424724701751 0 -0.19388347629497371 0.3492435382695922 0 -0.20131050499890621 0.34102297157699968 0 -0.19424083118820101 0.34051194992072681 0 -0.1874334290563934 0.34014883750964298 0 -0.20064666498226741 0.32713424724701751 0 -0.1874334290563934 0.34014883750964298 0 -0.19424083118820101 0.34051194992072681 0 -0.20064666498226741 0.32713424724701751 0 -0.1874334290563934 0.34014883750964298 0 -0.18745551711815139 0.34219628223750842 0 -0.19424083118820101 0.34051194992072681 0 -0.1874334290563934 0.34014883750964298 0 -0.20064666498226741 0.32713424724701751 0 -0.18713140654446231 0.31215297230331868 0 -0.2004956537263021 0.31313631464385538 0 -0.20064666498226741 0.32713424724701751 0 -0.18713140654446231 0.31215297230331868 0 -0.2003446424703372 0.29913838204069348 0 -0.18682938403253341 0.28415710709699449 0 -0.18713140654446231 0.31215297230331868 0 -0.2004956537263021 0.31313631464385538 0 -0.2003446424703372 0.29913838204069348 0 -0.18713140654446231 0.31215297230331868 0 -0.2003446424703372 0.29913838204069348 0 -0.20200212295062639 0.28158806969591921 0 -0.18682938403253341 0.28415710709699449 0 -0.2003446424703372 0.29913838204069348 0 -0.18682938403253341 0.28415710709699449 0 -0.21160963857413001 0.29208510945586319 0 -0.22498779951354689 0.29561810948777723 0 -0.2137158542128936 0.27787901316180941 0 -0.2003446424703372 0.29913838204069348 0 -0.20200212295062639 0.28158806969591921 0 -0.21160963857413001 0.29208510945586319 0 -0.20200212295062639 0.28158806969591921 0 -0.21160963857413001 0.29208510945586319 0 -0.2137158542128936 0.27787901316180941 0 -0.21385990090814161 0.31411965698439198 0 -0.21160963857413001 0.29208510945586319 0 -0.22498779951354689 0.29561810948777723 0 -0.21385990090814161 0.31411965698439198 0 -0.2003446424703372 0.29913838204069348 0 -0.21160963857413001 0.29208510945586319 0 -0.21385990090814161 0.31411965698439198 0 -0.2004956537263021 0.31313631464385538 0 -0.2003446424703372 0.29913838204069348 0 -0.21385990090814161 0.31411965698439198 0 -0.2003446424703372 0.29913838204069348 0 -0.21385990090814161 0.31411965698439198 0 -0.23322026189498091 0.29505035655004908 0 -0.23840772162244669 0.30484021228530522 0 -0.21385990090814161 0.31411965698439198 0 -0.22498779951354689 0.29561810948777723 0 -0.23322026189498091 0.29505035655004908 0 -0.21385990090814161 0.31411965698439198 0 -0.23322026189498091 0.29505035655004908 0 -0.23930374569037821 0.31749895667389327 0 -0.21385990090814161 0.31411965698439198 0 -0.23840772162244669 0.30484021228530522 0 -0.22498779951354689 0.29561810948777723 0 -0.22828720943996261 0.28349026025564272 0 -0.2137158542128936 0.27787901316180941 0 -0.22498779951354689 0.29561810948777723 0 -0.2137158542128936 0.27787901316180941 0 -0.22828720943996261 0.28349026025564272 0 -0.2305512986494736 0.29061252394516718 0 -0.23563638695667749 0.28879147297044389 0 -0.22498779951354689 0.29561810948777723 0 -0.2305512986494736 0.29061252394516718 0 -0.23322026189498091 0.29505035655004908 0 -0.22498779951354689 0.29561810948777723 0 -0.22828720943996261 0.28349026025564272 0 -0.2305512986494736 0.29061252394516718 0 -0.2305512986494736 0.29061252394516718 0 -0.23322026189498091 0.29505035655004908 0 -0.23563638695667749 0.28879147297044389 0 -0.23322026189498091 0.29505035655004908 0 -0.23563638695667749 0.28879147297044389 0 -0.24456495273004911 0.29373588757663432 0 -0.22828720943996261 0.28349026025564272 0 -0.24120523546383441 0.28346883324429872 0 -0.23563638695667749 0.28879147297044389 0 -0.24120523546383441 0.28346883324429872 0 -0.23563638695667749 0.28879147297044389 0 -0.24456495273004911 0.29373588757663432 0 -0.2531308452622959 0.28333887266024699 0 -0.24120523546383441 0.28346883324429872 0 -0.24456495273004911 0.29373588757663432 0 -0.253125343896132 0.30612727322062938 0 -0.24456495273004911 0.29373588757663432 0 -0.23840772162244669 0.30484021228530522 0 -0.253125343896132 0.30612727322062938 0 -0.23930374569037821 0.31749895667389327 0 -0.23840772162244669 0.30484021228530522 0 -0.23322026189498091 0.29505035655004908 0 -0.24456495273004911 0.29373588757663432 0 -0.23840772162244669 0.30484021228530522 0 -0.25321208583809113 0.25776932320358148 0 -0.22749964306176901 0.25896995235369452 0 -0.23457729305289701 0.24355637189820481 0 -0.25321208583809113 0.25776932320358148 0 -0.2476352069487463 0.27128805372537601 0 -0.22749964306176901 0.25896995235369452 0 -0.25321208583809113 0.25776932320358148 0 -0.22749964306176901 0.25896995235369452 0 -0.2476352069487463 0.27128805372537601 0 -0.23319749186623159 0.27192047376866813 0 -0.22749964306176901 0.25896995235369452 0 -0.2531308452622959 0.28333887266024699 0 -0.24120523546383441 0.28346883324429872 0 -0.2476352069487463 0.27128805372537601 0 -0.24120523546383441 0.28346883324429872 0 -0.2476352069487463 0.27128805372537601 0 -0.23319749186623159 0.27192047376866813 0 -0.23319749186623159 0.27192047376866813 0 -0.22136998473659561 0.26987220715979793 0 -0.22749964306176901 0.25896995235369452 0 -0.22828720943996261 0.28349026025564272 0 -0.23319749186623159 0.27192047376866813 0 -0.22136998473659561 0.26987220715979793 0 -0.22828720943996261 0.28349026025564272 0 -0.24120523546383441 0.28346883324429872 0 -0.23319749186623159 0.27192047376866813 0 -0.22828720943996261 0.28349026025564272 0 -0.22136998473659561 0.26987220715979793 0 -0.2137158542128936 0.27787901316180941 0 -0.23319749186623159 0.27192047376866813 0 -0.22749964306176901 0.25896995235369452 0 -0.22749964306176901 0.25896995235369452 0 -0.20244390891224109 0.26013991683584092 0 -0.22749964306176901 0.25896995235369452 0 -0.20244390891224109 0.26013991683584092 0 -0.209517222891585 0.2494718154920991 0 -0.22136998473659561 0.26987220715979793 0 -0.22749964306176901 0.25896995235369452 0 -0.20244390891224109 0.26013991683584092 0 -0.22136998473659561 0.26987220715979793 0 -0.2137158542128936 0.27787901316180941 0 -0.20244390891224109 0.26013991683584092 0 -0.2137158542128936 0.27787901316180941 0 -0.20244390891224109 0.26013991683584092 0 -0.20156154017416589 0.26293447518213392 0 -0.2137158542128936 0.27787901316180941 0 -0.20244390891224109 0.26013991683584092 0 -0.2137158542128936 0.27787901316180941 0 -0.20166801672972079 0.27130995997211699 0 -0.20156154017416589 0.26293447518213392 0 -0.20200212295062639 0.28158806969591921 0 -0.2137158542128936 0.27787901316180941 0 -0.20166801672972079 0.27130995997211699 0 -0.1935654209820781 0.26987798757989689 0 -0.18656275817447099 0.25944232164862657 0 -0.18682938403253341 0.28415710709699449 0 -0.20200212295062639 0.28158806969591921 0 -0.20166801672972079 0.27130995997211699 0 -0.1935654209820781 0.26987798757989689 0 -0.20166801672972079 0.27130995997211699 0 -0.20156154017416589 0.26293447518213392 0 -0.19710725081744659 0.26468709977788241 0 -0.20166801672972079 0.27130995997211699 0 -0.1935654209820781 0.26987798757989689 0 -0.19710725081744659 0.26468709977788241 0 -0.20200212295062639 0.28158806969591921 0 -0.1935654209820781 0.26987798757989689 0 -0.18682938403253341 0.28415710709699449 0 -0.20244390891224109 0.26013991683584092 0 -0.19427039761083101 0.24727694594396901 0 -0.20244390891224109 0.26013991683584092 0 -0.19427039761083101 0.24727694594396901 0 -0.209517222891585 0.2494718154920991 0 -0.20244390891224109 0.26013991683584092 0 -0.2003066874514671 0.2602397132810223 0 -0.19427039761083101 0.24727694594396901 0 -0.2003066874514671 0.2602397132810223 0 -0.19427039761083101 0.24727694594396901 0 -0.2003066874514671 0.2602397132810223 0 -0.19710725081744659 0.26468709977788241 0 -0.1903686916745875 0.26070376282805402 0 -0.2003066874514671 0.2602397132810223 0 -0.1903686916745875 0.26070376282805402 0 -0.20244390891224109 0.26013991683584092 0 -0.2003066874514671 0.2602397132810223 0 -0.20156154017416589 0.26293447518213392 0 -0.20244390891224109 0.26013991683584092 0 -0.2003066874514671 0.2602397132810223 0 -0.2003066874514671 0.2602397132810223 0 -0.20156154017416589 0.26293447518213392 0 -0.2003066874514671 0.2602397132810223 0 -0.20156154017416589 0.26293447518213392 0 -0.19710725081744659 0.26468709977788241 0 -0.1935654209820781 0.26987798757989689 0 -0.1903686916745875 0.26070376282805402 0 -0.18656275817447099 0.25944232164862657 0 -0.1935654209820781 0.26987798757989689 0 -0.19710725081744659 0.26468709977788241 0 -0.1903686916745875 0.26070376282805402 0 -0.1903686916745875 0.26070376282805402 0 -0.18656275817447099 0.25944232164862657 0 -0.19427039761083101 0.24727694594396901 0 -0.2003066874514671 0.2602397132810223 0 -0.1903686916745875 0.26070376282805402 0 -0.19427039761083101 0.24727694594396901 0 -0.18656275817447099 0.25944232164862657 0 -0.17017718807889651 0.26569862721325488 0 -0.17306513709700391 0.24697109140888909 0 -0.17017718807889651 0.26569862721325488 0 -0.15130467300678349 0.26410535819758579 0 -0.15352499212526041 0.2472401473295146 0 -0.17017718807889651 0.26569862721325488 0 -0.15352499212526041 0.2472401473295146 0 -0.17017718807889651 0.26569862721325488 0 -0.17306513709700391 0.24697109140888909 0 -0.15352499212526041 0.2472401473295146 0 -0.17017718807889651 0.26569862721325488 0 -0.16880657185354361 0.29190082060654732 0 -0.1548076659258657 0.27888106814959052 0 -0.17017718807889651 0.26569862721325488 0 -0.15130467300678349 0.26410535819758579 0 -0.1548076659258657 0.27888106814959052 0 -0.17017718807889651 0.26569862721325488 0 -0.18682938403253341 0.28415710709699449 0 -0.16880657185354361 0.29190082060654732 0 -0.17017718807889651 0.26569862721325488 0 -0.18682938403253341 0.28415710709699449 0 -0.18656275817447099 0.25944232164862657 0 -0.17017718807889651 0.26569862721325488 0 -0.18682938403253341 0.28415710709699449 0 -0.18656275817447099 0.25944232164862657 0 -0.18682938403253341 0.28415710709699449 0 -0.18682938403253341 0.28415710709699449 0 -0.18713140654446231 0.31215297230331868 0 -0.16880657185354361 0.29190082060654732 0 -0.16050681552340601 0.31292876366819661 0 -0.18713140654446231 0.31215297230331868 0 -0.16880657185354361 0.29190082060654732 0 -0.18682938403253341 0.28415710709699449 0 -0.18713140654446231 0.31215297230331868 0 -0.16050681552340601 0.31292876366819661 0 -0.16880657185354361 0.29190082060654732 0 -0.1533869710160968 0.29758638520792879 0 -0.16880657185354361 0.29190082060654732 0 -0.1533869710160968 0.29758638520792879 0 -0.1548076659258657 0.27888106814959052 0 -0.1445068408167392 0.2862423632672777 0 -0.1533869710160968 0.29758638520792879 0 -0.13204597791456599 0.2938023143270691 0 -0.1445068408167392 0.2862423632672777 0 -0.1533869710160968 0.29758638520792879 0 -0.1548076659258657 0.27888106814959052 0 -0.16050681552340601 0.31292876366819661 0 -0.1533869710160968 0.29758638520792879 0 -0.13598252948796319 0.3091676558053707 0 -0.13598252948796319 0.3091676558053707 0 -0.13204597791456599 0.2938023143270691 0 -0.1203896417197225 0.31207488955618601 0 -0.1533869710160968 0.29758638520792879 0 -0.13598252948796319 0.3091676558053707 0 -0.13204597791456599 0.2938023143270691 0 -0.1445068408167392 0.2862423632672777 0 -0.13204597791456599 0.2938023143270691 0 -0.13778674841042829 0.27469968538452239 0 -0.13204597791456599 0.2938023143270691 0 -0.13778674841042829 0.27469968538452239 0 -0.1226199688243322 0.28144760088106069 0 -0.13778674841042829 0.27469968538452239 0 -0.1198359960768561 0.26275014732450791 0 -0.1226199688243322 0.28144760088106069 0 -0.13778674841042829 0.27469968538452239 0 -0.1402267704934668 0.25400726291104692 0 -0.1198359960768561 0.26275014732450791 0 -0.1402267704934668 0.25400726291104692 0 -0.1198359960768561 0.26275014732450791 0 -0.1289841473711173 0.2377456195045379 0 -0.1402267704934668 0.25400726291104692 0 -0.15130467300678349 0.26410535819758579 0 -0.15352499212526041 0.2472401473295146 0 -0.13778674841042829 0.27469968538452239 0 -0.1402267704934668 0.25400726291104692 0 -0.15130467300678349 0.26410535819758579 0 -0.13778674841042829 0.27469968538452239 0 -0.15130467300678349 0.26410535819758579 0 -0.1548076659258657 0.27888106814959052 0 -0.1445068408167392 0.2862423632672777 0 -0.13778674841042829 0.27469968538452239 0 -0.1548076659258657 0.27888106814959052 0 -0.1040477046386082 0.27553670583740569 0 -0.1025993193740137 0.26199876067000211 0 -0.1198359960768561 0.26275014732450791 0 -0.1040477046386082 0.27553670583740569 0 -0.085322782506830244 0.2776179826388584 0 -0.092718279731067943 0.26646906986907598 0 -0.1040477046386082 0.27553670583740569 0 -0.093553866136339203 0.28783705189773401 0 -0.085322782506830244 0.2776179826388584 0 -0.1040477046386082 0.27553670583740569 0 -0.1025993193740137 0.26199876067000211 0 -0.092718279731067943 0.26646906986907598 0 -0.1025993193740137 0.26199876067000211 0 -0.092718279731067943 0.26646906986907598 0 -0.087935028491984882 0.25757671371116819 0 -0.087935028491984882 0.25757671371116819 0 -0.1084595879315511 0.24766116660785301 0 -0.1025993193740137 0.26199876067000211 0 -0.087935028491984882 0.25757671371116819 0 -0.1084595879315511 0.24766116660785301 0 -0.1025993193740137 0.26199876067000211 0 -0.1198359960768561 0.26275014732450791 0 -0.1084595879315511 0.24766116660785301 0 -0.1040477046386082 0.27553670583740569 0 -0.1198359960768561 0.26275014732450791 0 -0.1226199688243322 0.28144760088106069 0 -0.13204597791456599 0.2938023143270691 0 -0.1226199688243322 0.28144760088106069 0 -0.1099745441618345 0.29047986675443083 0 -0.1040477046386082 0.27553670583740569 0 -0.1226199688243322 0.28144760088106069 0 -0.1099745441618345 0.29047986675443083 0 -0.1099745441618345 0.29047986675443083 0 -0.1203896417197225 0.31207488955618601 0 -0.1045345282380626 0.3091834221359312 0 -0.13204597791456599 0.2938023143270691 0 -0.1099745441618345 0.29047986675443083 0 -0.1203896417197225 0.31207488955618601 0 -0.1045345282380626 0.3091834221359312 0 -0.086851092903681343 0.30426583584013828 0 -0.096364859762632385 0.32129880202607081 0 -0.1099745441618345 0.29047986675443083 0 -0.1045345282380626 0.3091834221359312 0 -0.086851092903681343 0.30426583584013828 0 -0.1099745441618345 0.29047986675443083 0 -0.086851092903681343 0.30426583584013828 0 -0.1099745441618345 0.29047986675443083 0 -0.093553866136339203 0.28783705189773401 0 -0.086851092903681343 0.30426583584013828 0 -0.1040477046386082 0.27553670583740569 0 -0.1099745441618345 0.29047986675443083 0 -0.093553866136339203 0.28783705189773401 0 -0.093553866136339203 0.28783705189773401 0 -0.08079833683538476 0.29048295599882951 0 -0.085322782506830244 0.2776179826388584 0 -0.093553866136339203 0.28783705189773401 0 -0.08079833683538476 0.29048295599882951 0 -0.086851092903681343 0.30426583584013828 0 -0.08079833683538476 0.29048295599882951 0 -0.06969772937747673 0.28384614243651601 0 -0.085322782506830244 0.2776179826388584 0 -0.08079833683538476 0.29048295599882951 0 -0.086851092903681343 0.30426583584013828 0 -0.068566213252596236 0.29884776718090089 0 -0.086851092903681343 0.30426583584013828 0 -0.063727641645528063 0.31805180492584578 0 -0.086851092903681343 0.30426583584013828 0 -0.068566213252596236 0.29884776718090089 0 -0.063727641645528063 0.31805180492584578 0 -0.08079833683538476 0.29048295599882951 0 -0.068566213252596236 0.29884776718090089 0 -0.06969772937747673 0.28384614243651601 0 -0.068566213252596236 0.29884776718090089 0 -0.06969772937747673 0.28384614243651601 0 -0.055924847568880817 0.29051277784096979 0 -0.06969772937747673 0.28384614243651601 0 -0.07259400071595988 0.26984145221248429 0 -0.085322782506830244 0.2776179826388584 0 -0.06969772937747673 0.28384614243651601 0 -0.07259400071595988 0.26984145221248429 0 -0.057942529778990802 0.27411325199314518 0 -0.07259400071595988 0.26984145221248429 0 -0.057390474112463452 0.25529612272236962 0 -0.057942529778990802 0.27411325199314518 0 -0.07259400071595988 0.26984145221248429 0 -0.085030075845206735 0.2693266025230634 0 -0.084172971663611984 0.26144817110610868 0 -0.07259400071595988 0.26984145221248429 0 -0.085322782506830244 0.2776179826388584 0 -0.085030075845206735 0.2693266025230634 0 -0.085322782506830244 0.2776179826388584 0 -0.085030075845206735 0.2693266025230634 0 -0.092718279731067943 0.26646906986907598 0 -0.085030075845206735 0.2693266025230634 0 -0.092718279731067943 0.26646906986907598 0 -0.084172971663611984 0.26144817110610868 0 -0.087935028491984882 0.25757671371116819 0 -0.083689519318301361 0.2496791884595774 0 -0.092313062287334366 0.2439339110423025 0 -0.092718279731067943 0.26646906986907598 0 -0.087935028491984882 0.25757671371116819 0 -0.084172971663611984 0.26144817110610868 0 -0.084172971663611984 0.26144817110610868 0 -0.073881830798883275 0.2478657501268112 0 -0.083689519318301361 0.2496791884595774 0 -0.087935028491984882 0.25757671371116819 0 -0.084172971663611984 0.26144817110610868 0 -0.083689519318301361 0.2496791884595774 0 -0.084172971663611984 0.26144817110610868 0 -0.057390474112463452 0.25529612272236962 0 -0.073881830798883275 0.2478657501268112 0 -0.07259400071595988 0.26984145221248429 0 -0.084172971663611984 0.26144817110610868 0 -0.057390474112463452 0.25529612272236962 0 -0.084172971663611984 0.26144817110610868 0 -0.057390474112463452 0.25529612272236962 0 -0.057390474112463452 0.25529612272236962 0 -0.057942529778990802 0.27411325199314518 0 -0.040880178367518741 0.2625235012930256 0 -0.057942529778990802 0.27411325199314518 0 -0.044649551012183437 0.28045105741908949 0 -0.040880178367518741 0.2625235012930256 0 -0.044649551012183437 0.28045105741908949 0 -0.040880178367518741 0.2625235012930256 0 -0.030483630928514551 0.27850999202659382 0 -0.040880178367518741 0.2625235012930256 0 -0.026666311324582831 0.26608723924726663 0 -0.030483630928514551 0.27850999202659382 0 -0.057390474112463452 0.25529612272236962 0 -0.040880178367518741 0.2625235012930256 0 -0.030607976561314879 0.24914407433863051 0 -0.057390474112463452 0.25529612272236962 0 -0.030607976561314879 0.24914407433863051 0 -0.040880178367518741 0.2625235012930256 0 -0.025474625308750529 0.25714297813187909 0 -0.030607976561314879 0.24914407433863051 0 -0.017766725528309251 0.25374651462337983 0 -0.01039659283100491 0.2485002137533103 0 -0.030607976561314879 0.24914407433863051 0 -0.025474625308750529 0.25714297813187909 0 -0.017766725528309251 0.25374651462337983 0 -0.030607976561314879 0.24914407433863051 0 -0.025474625308750529 0.25714297813187909 0 -0.017766725528309251 0.25374651462337983 0 -0.018339863272443541 0.26257737332559961 0 -0.017766725528309251 0.25374651462337983 0 -0.018339863272443541 0.26257737332559961 0 -0.01098257605142351 0.25769916710476942 0 -0.025474625308750529 0.25714297813187909 0 -0.018339863272443541 0.26257737332559961 0 -0.026666311324582831 0.26608723924726663 0 -0.040880178367518741 0.2625235012930256 0 -0.025474625308750529 0.25714297813187909 0 -0.026666311324582831 0.26608723924726663 0 -0.026666311324582831 0.26608723924726663 0 -0.030483630928514551 0.27850999202659382 0 -0.01858471997537536 0.27369399885492879 0 -0.030483630928514551 0.27850999202659382 0 -0.01858471997537536 0.27369399885492879 0 -0.020235948310369189 0.28881667595551191 0 -0.018339863272443541 0.26257737332559961 0 -0.026666311324582831 0.26608723924726663 0 -0.01858471997537536 0.27369399885492879 0 -0.01858471997537536 0.27369399885492879 0 -0.0098615702761468901 0.26643998048420908 0 -0.0018737250005754109 0.27596360980912138 0 -0.018339863272443541 0.26257737332559961 0 -0.01858471997537536 0.27369399885492879 0 -0.0098615702761468901 0.26643998048420908 0 -0.01858471997537536 0.27369399885492879 0 -0.0018737250005754109 0.27596360980912138 0 -0.020235948310369189 0.28881667595551191 0 -0.0098615702761468901 0.26643998048420908 0 -0.0018737250005754109 0.27596360980912138 0 -0.0011349209720409371 0.26279785135494871 0 -0.0098615702761468901 0.26643998048420908 0 -0.0011349209720409371 0.26279785135494871 0 -0.01098257605142351 0.25769916710476942 0 -0.0011349209720409371 0.26279785135494871 0 -0.0045345189142265169 0.25350634819326018 0 -0.01098257605142351 0.25769916710476942 0 -0.0045345189142265169 0.25350634819326018 0 -0.002005662434308564 0.24836598281606709 0 0.0025002592476698329 0.2499952992231734 0 -0.0045345189142265169 0.25350634819326018 0 -0.01098257605142351 0.25769916710476942 0 -0.01039659283100491 0.2485002137533103 0 -0.017766725528309251 0.25374651462337983 0 -0.01098257605142351 0.25769916710476942 0 -0.01039659283100491 0.2485002137533103 0 -0.018339863272443541 0.26257737332559961 0 -0.0098615702761468901 0.26643998048420908 0 -0.01098257605142351 0.25769916710476942 0 -0.0018737250005754109 0.27596360980912138 0 -0.020235948310369189 0.28881667595551191 0 0.0051532246264746244 0.29057742891331739 0 -0.020235948310369189 0.28881667595551191 0 0.0051532246264746244 0.29057742891331739 0 -0.01138623567278192 0.30772728779636788 0 -0.020235948310369189 0.28881667595551191 0 0.0051532246264746244 0.29057742891331739 0 -0.030483630928514551 0.27850999202659382 0 -0.020235948310369189 0.28881667595551191 0 -0.036143798149243997 0.29758672422383031 0 -0.01138623567278192 0.30772728779636788 0 -0.020235948310369189 0.28881667595551191 0 -0.036143798149243997 0.29758672422383031 0 -0.01138623567278192 0.30772728779636788 0 -0.036143798149243997 0.29758672422383031 0 -0.033937961625685298 0.31788602370780678 0 -0.036143798149243997 0.29758672422383031 0 -0.053622761549268663 0.30512517362409902 0 -0.033937961625685298 0.31788602370780678 0 -0.053622761549268663 0.30512517362409902 0 -0.033937961625685298 0.31788602370780678 0 -0.044649551012183437 0.28045105741908949 0 -0.030483630928514551 0.27850999202659382 0 -0.036143798149243997 0.29758672422383031 0 -0.044649551012183437 0.28045105741908949 0 -0.036143798149243997 0.29758672422383031 0 -0.055924847568880817 0.29051277784096979 0 -0.06969772937747673 0.28384614243651601 0 -0.057942529778990802 0.27411325199314518 0 -0.055924847568880817 0.29051277784096979 0 -0.057942529778990802 0.27411325199314518 0 -0.044649551012183437 0.28045105741908949 0 -0.055924847568880817 0.29051277784096979 0 -0.036143798149243997 0.29758672422383031 0 -0.055924847568880817 0.29051277784096979 0 -0.053622761549268663 0.30512517362409902 0 -0.068566213252596236 0.29884776718090089 0 -0.053622761549268663 0.30512517362409902 0 -0.063727641645528063 0.31805180492584578 0 -0.068566213252596236 0.29884776718090089 0 -0.055924847568880817 0.29051277784096979 0 -0.053622761549268663 0.30512517362409902 0 -0.062204869137883867 0.32749702091324628 0 -0.040604190387374783 0.33183777401155329 0 -0.063727641645528063 0.31805180492584578 0 -0.040604190387374783 0.33183777401155329 0 -0.063727641645528063 0.31805180492584578 0 -0.053622761549268663 0.30512517362409902 0 -0.047973138801964209 0.31822519406732619 0 -0.063727641645528063 0.31805180492584578 0 -0.047973138801964209 0.31822519406732619 0 -0.040604190387374783 0.33183777401155329 0 -0.063727641645528063 0.31805180492584578 0 -0.062204869137883867 0.32749702091324628 0 -0.054220666950960998 0.33848580494990421 0 -0.040604190387374783 0.33183777401155329 0 -0.054220666950960998 0.33848580494990421 0 -0.040604190387374783 0.33183777401155329 0 -0.047614532902556538 0.34848878619659152 0 -0.054220666950960998 0.33848580494990421 0 -0.057354318644597259 0.34735263853690351 0 -0.067804677079304834 0.34195628659720262 0 -0.062204869137883867 0.32749702091324628 0 -0.054220666950960998 0.33848580494990421 0 -0.067804677079304834 0.34195628659720262 0 -0.040604190387374783 0.33183777401155329 0 -0.035549090591290841 0.34921950470529639 0 -0.047614532902556538 0.34848878619659152 0 -0.040604190387374783 0.33183777401155329 0 -0.026801950284500671 0.35016745782869801 0 -0.035549090591290841 0.34921950470529639 0 -0.053622761549268663 0.30512517362409902 0 -0.047973138801964209 0.31822519406732619 0 -0.033937961625685298 0.31788602370780678 0 -0.047973138801964209 0.31822519406732619 0 -0.040604190387374783 0.33183777401155329 0 -0.033937961625685298 0.31788602370780678 0 -0.040604190387374783 0.33183777401155329 0 -0.033937961625685298 0.31788602370780678 0 -0.027563226606919171 0.32932529334059302 0 -0.01138623567278192 0.30772728779636788 0 -0.033937961625685298 0.31788602370780678 0 -0.01425316170210192 0.33064687379151458 0 -0.033937961625685298 0.31788602370780678 0 -0.01425316170210192 0.33064687379151458 0 -0.033937961625685298 0.31788602370780678 0 -0.027563226606919171 0.32932529334059302 0 -0.01425316170210192 0.33064687379151458 0 -0.040604190387374783 0.33183777401155329 0 -0.024975329456404349 0.3343584210602305 0 -0.027563226606919171 0.32932529334059302 0 -0.040604190387374783 0.33183777401155329 0 -0.024975329456404349 0.3343584210602305 0 -0.017480739129221511 0.34562374309726079 0 -0.040604190387374783 0.33183777401155329 0 -0.017480739129221511 0.34562374309726079 0 -0.026801950284500671 0.35016745782869801 0 -0.040604190387374783 0.33183777401155329 0 -0.017480739129221511 0.34562374309726079 0 -0.024975329456404349 0.3343584210602305 0 -0.01425316170210192 0.33064687379151458 0 -0.017480739129221511 0.34562374309726079 0 -0.024975329456404349 0.3343584210602305 0 -0.027563226606919171 0.32932529334059302 0 -0.01425316170210192 0.33064687379151458 0 -0.01425316170210192 0.33064687379151458 0 0.0054719494297279236 0.32178229628192118 0 0.0054316382214814139 0.34340772387522239 0 -0.01425316170210192 0.33064687379151458 0 -0.017480739129221511 0.34562374309726079 0 0.0054316382214814139 0.34340772387522239 0 -0.01425316170210192 0.33064687379151458 0 0.0054316382214814139 0.34340772387522239 0 -0.01138623567278192 0.30772728779636788 0 -0.01425316170210192 0.33064687379151458 0 0.0054719494297279236 0.32178229628192118 0 -0.0088227212088813605 0.36617083869272438 0 -0.017266643687468521 0.35543191062693158 0 -0.017321877398428519 0.36427419405377132 0 -0.0088227212088813605 0.36617083869272438 0 -0.0062544524671355028 0.37638733941255759 0 -0.014363464625527751 0.37636725084904188 0 -0.0088227212088813605 0.36617083869272438 0 -0.020982512590372721 0.37195142628342592 0 -0.014363464625527751 0.37636725084904188 0 -0.0088227212088813605 0.36617083869272438 0 -0.0062544524671355028 0.37638733941255759 0 0.0044235126858082636 0.3702359270180301 0 -0.0088227212088813605 0.36617083869272438 0 -0.00058261298582594902 0.36214223963337289 0 -0.0052547447410189289 0.35493171298831649 0 -0.0088227212088813605 0.36617083869272438 0 -0.00058261298582594902 0.36214223963337289 0 0.0044235126858082636 0.3702359270180301 0 -0.0052547447410189289 0.35493171298831649 0 -0.017480739129221511 0.34562374309726079 0 0.0054316382214814139 0.34340772387522239 0 -0.0052547447410189289 0.35493171298831649 0 -0.017266643687468521 0.35543191062693158 0 -0.017480739129221511 0.34562374309726079 0 -0.0088227212088813605 0.36617083869272438 0 -0.0052547447410189289 0.35493171298831649 0 -0.017266643687468521 0.35543191062693158 0 -0.017266643687468521 0.35543191062693158 0 -0.026801950284500671 0.35016745782869801 0 -0.042995346014015008 0.36422142213142622 0 -0.017266643687468521 0.35543191062693158 0 -0.017480739129221511 0.34562374309726079 0 -0.026801950284500671 0.35016745782869801 0 -0.017266643687468521 0.35543191062693158 0 -0.042995346014015008 0.36422142213142622 0 -0.017266643687468521 0.35543191062693158 0 -0.025830943054945259 0.36550501268008118 0 -0.042995346014015008 0.36422142213142622 0 -0.017266643687468521 0.35543191062693158 0 -0.025830943054945259 0.36550501268008118 0 -0.017321877398428519 0.36427419405377132 0 -0.0088227212088813605 0.36617083869272438 0 -0.017321877398428519 0.36427419405377132 0 -0.020982512590372721 0.37195142628342592 0 -0.025830943054945259 0.36550501268008118 0 -0.017321877398428519 0.36427419405377132 0 -0.020982512590372721 0.37195142628342592 0 -0.025830943054945259 0.36550501268008118 0 -0.020982512590372721 0.37195142628342592 0 -0.03058833558444151 0.37164611030485101 0 -0.020982512590372721 0.37195142628342592 0 -0.03058833558444151 0.37164611030485101 0 -0.022737046824898979 0.3776766889005268 0 -0.03058833558444151 0.37164611030485101 0 -0.042995346014015008 0.36422142213142622 0 -0.035523698828227299 0.38062644686119751 0 -0.025830943054945259 0.36550501268008118 0 -0.03058833558444151 0.37164611030485101 0 -0.042995346014015008 0.36422142213142622 0 -0.042995346014015008 0.36422142213142622 0 -0.059613542700953641 0.37531843427013362 0 -0.035523698828227299 0.38062644686119751 0 -0.042995346014015008 0.36422142213142622 0 -0.035549090591290841 0.34921950470529639 0 -0.047614532902556538 0.34848878619659152 0 -0.026801950284500671 0.35016745782869801 0 -0.042995346014015008 0.36422142213142622 0 -0.035549090591290841 0.34921950470529639 0 -0.042995346014015008 0.36422142213142622 0 -0.047614532902556538 0.34848878619659152 0 -0.056820458959669362 0.35802519743178057 0 -0.047614532902556538 0.34848878619659152 0 -0.056820458959669362 0.35802519743178057 0 -0.057354318644597259 0.34735263853690351 0 -0.054220666950960998 0.33848580494990421 0 -0.047614532902556538 0.34848878619659152 0 -0.057354318644597259 0.34735263853690351 0 -0.056820458959669362 0.35802519743178057 0 -0.057354318644597259 0.34735263853690351 0 -0.067414048896616383 0.35705220665806098 0 -0.042995346014015008 0.36422142213142622 0 -0.056820458959669362 0.35802519743178057 0 -0.068724048340561394 0.37301093363592153 0 -0.042995346014015008 0.36422142213142622 0 -0.068724048340561394 0.37301093363592153 0 -0.059613542700953641 0.37531843427013362 0 -0.042995346014015008 0.36422142213142622 0 -0.068724048340561394 0.37301093363592153 0 -0.068724048340561394 0.37301093363592153 0 -0.084147379730933419 0.35482016604785122 0 -0.068724048340561394 0.37301093363592153 0 -0.066634054950687013 0.37547593831315668 0 -0.059613542700953641 0.37531843427013362 0 -0.056820458959669362 0.35802519743178057 0 -0.068724048340561394 0.37301093363592153 0 -0.067414048896616383 0.35705220665806098 0 -0.068724048340561394 0.37301093363592153 0 -0.084147379730933419 0.35482016604785122 0 -0.067414048896616383 0.35705220665806098 0 -0.068724048340561394 0.37301093363592153 0 -0.066634054950687013 0.37547593831315668 0 -0.084147379730933419 0.35482016604785122 0 -0.095371160409545089 0.35814662894829152 0 -0.082849534566267438 0.37783652188796818 0 -0.095371160409545089 0.35814662894829152 0 -0.082849534566267438 0.37783652188796818 0 -0.068724048340561394 0.37301093363592153 0 -0.084147379730933419 0.35482016604785122 0 -0.082849534566267438 0.37783652188796818 0 -0.084147379730933419 0.35482016604785122 0 -0.09957071112130858 0.33662939845978362 0 -0.084147379730933419 0.35482016604785122 0 -0.067414048896616383 0.35705220665806098 0 -0.067804677079304834 0.34195628659720262 0 -0.057354318644597259 0.34735263853690351 0 -0.067414048896616383 0.35705220665806098 0 -0.067804677079304834 0.34195628659720262 0 -0.062204869137883867 0.32749702091324628 0 -0.080887790129596016 0.33206320968651593 0 -0.062204869137883867 0.32749702091324628 0 -0.067804677079304834 0.34195628659720262 0 -0.080887790129596016 0.33206320968651593 0 -0.084147379730933419 0.35482016604785122 0 -0.067804677079304834 0.34195628659720262 0 -0.080887790129596016 0.33206320968651593 0 -0.062204869137883867 0.32749702091324628 0 -0.063727641645528063 0.31805180492584578 0 -0.080887790129596016 0.33206320968651593 0 -0.086851092903681343 0.30426583584013828 0 -0.063727641645528063 0.31805180492584578 0 -0.080887790129596016 0.33206320968651593 0 -0.086851092903681343 0.30426583584013828 0 -0.080887790129596016 0.33206320968651593 0 -0.096364859762632385 0.32129880202607081 0 -0.080887790129596016 0.33206320968651593 0 -0.09957071112130858 0.33662939845978362 0 -0.096364859762632385 0.32129880202607081 0 -0.080887790129596016 0.33206320968651593 0 -0.09957071112130858 0.33662939845978362 0 -0.084147379730933419 0.35482016604785122 0 -0.080887790129596016 0.33206320968651593 0 -0.09957071112130858 0.33662939845978362 0 -0.09957071112130858 0.33662939845978362 0 -0.1099801764205139 0.3243521440079834 0 -0.09957071112130858 0.33662939845978362 0 -0.11483361926962971 0.34264620815335178 0 -0.1035095271806739 0.34968276797572911 0 -0.09957071112130858 0.33662939845978362 0 -0.096364859762632385 0.32129880202607081 0 -0.1099801764205139 0.3243521440079834 0 -0.1045345282380626 0.3091834221359312 0 -0.096364859762632385 0.32129880202607081 0 -0.1099801764205139 0.3243521440079834 0 -0.12783876801739619 0.32515980312000742 0 -0.1203896417197225 0.31207488955618601 0 -0.1099801764205139 0.3243521440079834 0 -0.1203896417197225 0.31207488955618601 0 -0.1045345282380626 0.3091834221359312 0 -0.1099801764205139 0.3243521440079834 0 -0.1203896417197225 0.31207488955618601 0 -0.1099801764205139 0.3243521440079834 0 -0.09957071112130858 0.33662939845978362 0 -0.1099801764205139 0.3243521440079834 0 -0.1239900476571317 0.34259759264045092 0 -0.09957071112130858 0.33662939845978362 0 -0.1239900476571317 0.34259759264045092 0 -0.12783876801739619 0.32515980312000742 0 -0.1099801764205139 0.3243521440079834 0 -0.1239900476571317 0.34259759264045092 0 -0.09957071112130858 0.33662939845978362 0 -0.1239900476571317 0.34259759264045092 0 -0.11483361926962971 0.34264620815335178 0 -0.11483361926962971 0.34264620815335178 0 -0.1142578085989244 0.35326996026001423 0 -0.12403371433339661 0.35411275033671941 0 -0.11483361926962971 0.34264620815335178 0 -0.1142578085989244 0.35326996026001423 0 -0.1035095271806739 0.34968276797572911 0 -0.1142578085989244 0.35326996026001423 0 -0.11943307875146961 0.36006420629047992 0 -0.1097130415726363 0.3595234352924922 0 -0.1142578085989244 0.35326996026001423 0 -0.12403371433339661 0.35411275033671941 0 -0.11943307875146961 0.36006420629047992 0 -0.12971477536096671 0.36338879779660149 0 -0.12403371433339661 0.35411275033671941 0 -0.11943307875146961 0.36006420629047992 0 -0.1199139301177919 0.36938522126397533 0 -0.1097130415726363 0.3595234352924922 0 -0.1035674117977233 0.37047537073197467 0 -0.12971477536096671 0.36338879779660149 0 -0.11943307875146961 0.36006420629047992 0 -0.1199139301177919 0.36938522126397533 0 -0.1199139301177919 0.36938522126397533 0 -0.1035674117977233 0.37047537073197467 0 -0.1151306790565212 0.37911935855770768 0 -0.11943307875146961 0.36006420629047992 0 -0.1199139301177919 0.36938522126397533 0 -0.1097130415726363 0.3595234352924922 0 -0.1035674117977233 0.37047537073197467 0 -0.095371160409545089 0.35814662894829152 0 -0.082849534566267438 0.37783652188796818 0 -0.1097130415726363 0.3595234352924922 0 -0.1035674117977233 0.37047537073197467 0 -0.095371160409545089 0.35814662894829152 0 -0.084147379730933419 0.35482016604785122 0 -0.095371160409545089 0.35814662894829152 0 -0.1035095271806739 0.34968276797572911 0 -0.084147379730933419 0.35482016604785122 0 -0.09957071112130858 0.33662939845978362 0 -0.1035095271806739 0.34968276797572911 0 -0.1142578085989244 0.35326996026001423 0 -0.1097130415726363 0.3595234352924922 0 -0.1035095271806739 0.34968276797572911 0 -0.1097130415726363 0.3595234352924922 0 -0.095371160409545089 0.35814662894829152 0 -0.1035095271806739 0.34968276797572911 0 -0.1073527831583838 0.4032101027151842 0 -0.099663909784913615 0.39540318481818593 0 -0.08788770124753853 0.40186626488119398 0 -0.1073527831583838 0.4032101027151842 0 -0.08788770124753853 0.40186626488119398 0 -0.10800117181676309 0.39707058921688421 0 -0.099663909784913615 0.39540318481818593 0 -0.1045437226404448 0.38524775130943512 0 -0.10800117181676309 0.39707058921688421 0 -0.1073527831583838 0.4032101027151842 0 -0.099663909784913615 0.39540318481818593 0 -0.1035674117977233 0.37047537073197467 0 -0.1045437226404448 0.38524775130943512 0 -0.082849534566267438 0.37783652188796818 0 -0.099663909784913615 0.39540318481818593 0 -0.1045437226404448 0.38524775130943512 0 -0.090534170061437824 0.38962121596823202 0 -0.1035674117977233 0.37047537073197467 0 -0.1045437226404448 0.38524775130943512 0 -0.1151306790565212 0.37911935855770768 0 -0.1262379107146222 0.39265898073090139 0 -0.1045437226404448 0.38524775130943512 0 -0.1262379107146222 0.39265898073090139 0 -0.1045437226404448 0.38524775130943512 0 -0.1151306790565212 0.37911935855770768 0 -0.1199139301177919 0.36938522126397533 0 -0.1151306790565212 0.37911935855770768 0 -0.1247475464846413 0.3806129323962732 0 -0.1262379107146222 0.39265898073090139 0 -0.1151306790565212 0.37911935855770768 0 -0.1247475464846413 0.3806129323962732 0 -0.1262379107146222 0.39265898073090139 0 -0.1045437226404448 0.38524775130943512 0 -0.1165902711568374 0.39756748291513122 0 -0.1262379107146222 0.39265898073090139 0 -0.1165902711568374 0.39756748291513122 0 -0.116922696394459 0.40959952316007558 0 -0.10800117181676309 0.39707058921688421 0 -0.1045437226404448 0.38524775130943512 0 -0.1165902711568374 0.39756748291513122 0 -0.10800117181676309 0.39707058921688421 0 -0.1165902711568374 0.39756748291513122 0 -0.1131700669007359 0.40235091269654422 0 -0.1165902711568374 0.39756748291513122 0 -0.1131700669007359 0.40235091269654422 0 -0.116922696394459 0.40959952316007558 0 -0.1073527831583838 0.4032101027151842 0 -0.1131700669007359 0.40235091269654422 0 -0.1142384554625345 0.4081334332117007 0 -0.10800117181676309 0.39707058921688421 0 -0.1073527831583838 0.4032101027151842 0 -0.1131700669007359 0.40235091269654422 0 -0.116922696394459 0.40959952316007558 0 -0.1142384554625345 0.4081334332117007 0 -0.099086047060177332 0.42716801917771691 0 -0.12315032222220849 0.42176833801847202 0 -0.116922696394459 0.40959952316007558 0 -0.11583506942491489 0.42719440572898149 0 -0.13085386809190069 0.41836549510649312 0 -0.12315032222220849 0.42176833801847202 0 -0.116922696394459 0.40959952316007558 0 -0.1131700669007359 0.40235091269654422 0 -0.116922696394459 0.40959952316007558 0 -0.1142384554625345 0.4081334332117007 0 -0.11583506942491489 0.42719440572898149 0 -0.10194234012647881 0.4288576337858529 0 -0.1212935115654475 0.44005995747254878 0 -0.10194234012647881 0.4288576337858529 0 -0.1184305916449776 0.44309023232278227 0 -0.116922696394459 0.40959952316007558 0 -0.11583506942491489 0.42719440572898149 0 -0.10194234012647881 0.4288576337858529 0 -0.10194234012647881 0.4288576337858529 0 -0.1184305916449776 0.44309023232278227 0 -0.1212935115654475 0.44005995747254878 0 -0.10194234012647881 0.4288576337858529 0 -0.1212935115654475 0.44005995747254878 0 -0.12898965497755871 0.43191392807833717 0 -0.11583506942491489 0.42719440572898149 0 -0.1212935115654475 0.44005995747254878 0 -0.12898965497755871 0.43191392807833717 0 -0.12315032222220849 0.42176833801847202 0 -0.11583506942491489 0.42719440572898149 0 -0.116922696394459 0.40959952316007558 0 -0.10194234012647881 0.4288576337858529 0 -0.099086047060177332 0.42716801917771691 0 -0.10194234012647881 0.4288576337858529 0 -0.098329018528649226 0.44103409794011161 0 -0.1064656926464367 0.44091077614249907 0 -0.10194234012647881 0.4288576337858529 0 -0.099086047060177332 0.42716801917771691 0 -0.10194234012647881 0.4288576337858529 0 -0.099086047060177332 0.42716801917771691 0 -0.098329018528649226 0.44103409794011161 0 -0.1073527831583838 0.4032101027151842 0 -0.1142384554625345 0.4081334332117007 0 -0.086742228777044905 0.42000215188156897 0 -0.116922696394459 0.40959952316007558 0 -0.099086047060177332 0.42716801917771691 0 -0.1142384554625345 0.4081334332117007 0 -0.086742228777044905 0.42000215188156897 0 -0.1142384554625345 0.4081334332117007 0 -0.099086047060177332 0.42716801917771691 0 -0.086742228777044905 0.42000215188156897 0 -0.1073527831583838 0.4032101027151842 0 -0.086742228777044905 0.42000215188156897 0 -0.08788770124753853 0.40186626488119398 0 -0.086742228777044905 0.42000215188156897 0 -0.068422619336692997 0.40052242704720709 0 -0.08788770124753853 0.40186626488119398 0 -0.099086047060177332 0.42716801917771691 0 -0.080600137666687138 0.44537601438328489 0 -0.099086047060177332 0.42716801917771691 0 -0.086742228777044905 0.42000215188156897 0 -0.080600137666687138 0.44537601438328489 0 -0.099086047060177332 0.42716801917771691 0 -0.086742228777044905 0.42000215188156897 0 -0.086742228777044905 0.42000215188156897 0 -0.065579076076859422 0.42913720551780349 0 -0.086742228777044905 0.42000215188156897 0 -0.065579076076859422 0.42913720551780349 0 -0.080600137666687138 0.44537601438328489 0 -0.086742228777044905 0.42000215188156897 0 -0.065579076076859422 0.42913720551780349 0 -0.064314490810223418 0.40698233983178211 0 -0.086742228777044905 0.42000215188156897 0 -0.064314490810223418 0.40698233983178211 0 -0.086742228777044905 0.42000215188156897 0 -0.064314490810223418 0.40698233983178211 0 -0.068422619336692997 0.40052242704720709 0 -0.064314490810223418 0.40698233983178211 0 -0.068422619336692997 0.40052242704720709 0 -0.068422619336692997 0.40052242704720709 0 -0.08788770124753853 0.40186626488119398 0 -0.090534170061437824 0.38962121596823202 0 -0.068422619336692997 0.40052242704720709 0 -0.08788770124753853 0.40186626488119398 0 -0.099663909784913615 0.39540318481818593 0 -0.08788770124753853 0.40186626488119398 0 -0.090534170061437824 0.38962121596823202 0 -0.1045437226404448 0.38524775130943512 0 -0.090534170061437824 0.38962121596823202 0 -0.082849534566267438 0.37783652188796818 0 -0.1045437226404448 0.38524775130943512 0 -0.082849534566267438 0.37783652188796818 0 -0.068422619336692997 0.40052242704720709 0 -0.090534170061437824 0.38962121596823202 0 -0.082849534566267438 0.37783652188796818 0 -0.068422619336692997 0.40052242704720709 0 -0.082849534566267438 0.37783652188796818 0 -0.068422619336692997 0.40052242704720709 0 -0.082849534566267438 0.37783652188796818 0 -0.062833553743031748 0.38833443615541402 0 -0.068724048340561394 0.37301093363592153 0 -0.082849534566267438 0.37783652188796818 0 -0.082849534566267438 0.37783652188796818 0 -0.062833553743031748 0.38833443615541402 0 -0.062989360153438839 0.38138959339547868 0 -0.082849534566267438 0.37783652188796818 0 -0.066634054950687013 0.37547593831315668 0 -0.062989360153438839 0.38138959339547868 0 -0.068724048340561394 0.37301093363592153 0 -0.082849534566267438 0.37783652188796818 0 -0.066634054950687013 0.37547593831315668 0 -0.066634054950687013 0.37547593831315668 0 -0.062989360153438839 0.38138959339547868 0 -0.059613542700953641 0.37531843427013362 0 -0.062989360153438839 0.38138959339547868 0 -0.059613542700953641 0.37531843427013362 0 -0.054250833230206137 0.38334153627757472 0 -0.059613542700953641 0.37531843427013362 0 -0.035523698828227299 0.38062644686119751 0 -0.059613542700953641 0.37531843427013362 0 -0.054250833230206137 0.38334153627757472 0 -0.035523698828227299 0.38062644686119751 0 -0.062833553743031748 0.38833443615541402 0 -0.062989360153438839 0.38138959339547868 0 -0.054250833230206137 0.38334153627757472 0 -0.062833553743031748 0.38833443615541402 0 -0.054250833230206137 0.38334153627757472 0 -0.055496944071475977 0.39162982342796082 0 -0.054250833230206137 0.38334153627757472 0 -0.055496944071475977 0.39162982342796082 0 -0.046453405194761467 0.38717500833411223 0 -0.064314490810223418 0.40698233983178211 0 -0.068422619336692997 0.40052242704720709 0 -0.051130253207069279 0.39932859000348281 0 -0.068422619336692997 0.40052242704720709 0 -0.055496944071475977 0.39162982342796082 0 -0.051130253207069279 0.39932859000348281 0 -0.064314490810223418 0.40698233983178211 0 -0.051130253207069279 0.39932859000348281 0 -0.047715587897773047 0.40949912924140752 0 -0.068422619336692997 0.40052242704720709 0 -0.051130253207069279 0.39932859000348281 0 -0.064314490810223418 0.40698233983178211 0 -0.051130253207069279 0.39932859000348281 0 -0.068422619336692997 0.40052242704720709 0 -0.062833553743031748 0.38833443615541402 0 -0.055496944071475977 0.39162982342796082 0 -0.055496944071475977 0.39162982342796082 0 -0.051130253207069279 0.39932859000348281 0 -0.046453405194761467 0.38717500833411223 0 -0.051130253207069279 0.39932859000348281 0 -0.038910138857898652 0.40168950401058712 0 -0.02738722054709242 0.397689409355374 0 -0.051130253207069279 0.39932859000348281 0 -0.02738722054709242 0.397689409355374 0 -0.051130253207069279 0.39932859000348281 0 -0.046453405194761467 0.38717500833411223 0 -0.02977763564068055 0.38693290980173323 0 -0.051130253207069279 0.39932859000348281 0 -0.02977763564068055 0.38693290980173323 0 -0.051130253207069279 0.39932859000348281 0 -0.02977763564068055 0.38693290980173323 0 -0.02738722054709242 0.397689409355374 0 -0.051130253207069279 0.39932859000348281 0 -0.038910138857898652 0.40168950401058712 0 -0.047715587897773047 0.40949912924140752 0 -0.054250833230206137 0.38334153627757472 0 -0.046453405194761467 0.38717500833411223 0 -0.035523698828227299 0.38062644686119751 0 -0.046453405194761467 0.38717500833411223 0 -0.035523698828227299 0.38062644686119751 0 -0.02977763564068055 0.38693290980173323 0 -0.02977763564068055 0.38693290980173323 0 -0.02738722054709242 0.397689409355374 0 -0.01143385495550101 0.3859344594522614 0 -0.035523698828227299 0.38062644686119751 0 -0.02977763564068055 0.38693290980173323 0 -0.01143385495550101 0.3859344594522614 0 -0.03058833558444151 0.37164611030485101 0 -0.035523698828227299 0.38062644686119751 0 -0.022737046824898979 0.3776766889005268 0 -0.035523698828227299 0.38062644686119751 0 -0.01143385495550101 0.3859344594522614 0 -0.035523698828227299 0.38062644686119751 0 -0.022737046824898979 0.3776766889005268 0 -0.01143385495550101 0.3859344594522614 0 -0.022737046824898979 0.3776766889005268 0 -0.014363464625527751 0.37636725084904188 0 -0.01143385495550101 0.3859344594522614 0 -0.020982512590372721 0.37195142628342592 0 -0.022737046824898979 0.3776766889005268 0 -0.014363464625527751 0.37636725084904188 0 -0.038910138857898652 0.40168950401058712 0 -0.01369148164194851 0.3999764975518546 0 -0.02562396677766007 0.40989495960056299 0 -0.038910138857898652 0.40168950401058712 0 -0.02738722054709242 0.397689409355374 0 -0.01369148164194851 0.3999764975518546 0 -0.038910138857898652 0.40168950401058712 0 -0.01369148164194851 0.3999764975518546 0 -0.01369148164194851 0.3999764975518546 0 -0.0059382469552465506 0.40862953640632599 0 0.0044069364506871553 0.40568486893445671 0 -0.0036441878871156619 0.39605022870726359 0 -0.01143385495550101 0.3859344594522614 0 0.01265598891722541 0.39124247204332541 0 -0.0036441878871156619 0.39605022870726359 0 -0.01369148164194851 0.3999764975518546 0 0.011527175574001659 0.39826349109312198 0 -0.02738722054709242 0.397689409355374 0 -0.0036441878871156619 0.39605022870726359 0 -0.01143385495550101 0.3859344594522614 0 -0.02738722054709242 0.397689409355374 0 -0.0036441878871156619 0.39605022870726359 0 -0.01369148164194851 0.3999764975518546 0 -0.01369148164194851 0.3999764975518546 0 0.011527175574001659 0.39826349109312198 0 -0.02738722054709242 0.397689409355374 0 -0.0036441878871156619 0.39605022870726359 0 -0.0062544524671355028 0.37638733941255759 0 -0.01143385495550101 0.3859344594522614 0 0.0022235162913747282 0.38095520847074132 0 -0.0062544524671355028 0.37638733941255759 0 -0.014363464625527751 0.37636725084904188 0 -0.01143385495550101 0.3859344594522614 0 -0.01421264569587957 0.42738359555489203 0 -0.02203129008766997 0.43879609747763548 0 -0.010181783456634419 0.44106657131768923 0 -0.01421264569587957 0.42738359555489203 0 -0.0014430470430802831 0.43092486066266011 0 -0.010181783456634419 0.44106657131768923 0 -0.01421264569587957 0.42738359555489203 0 -0.0014430470430802831 0.43092486066266011 0 -0.00038355306998572887 0.41585143691210003 0 -0.00038355306998572887 0.41585143691210003 0 -0.0059382469552465506 0.40862953640632599 0 0.0044069364506871553 0.40568486893445671 0 -0.00038355306998572887 0.41585143691210003 0 -0.0059382469552465506 0.40862953640632599 0 -0.014084889559739119 0.41300534222689278 0 -0.01369148164194851 0.3999764975518546 0 -0.0059382469552465506 0.40862953640632599 0 -0.014084889559739119 0.41300534222689278 0 -0.01421264569587957 0.42738359555489203 0 -0.00038355306998572887 0.41585143691210003 0 -0.014084889559739119 0.41300534222689278 0 -0.014084889559739119 0.41300534222689278 0 -0.02562396677766007 0.40989495960056299 0 -0.025216428175120671 0.41978252822869339 0 -0.01421264569587957 0.42738359555489203 0 -0.014084889559739119 0.41300534222689278 0 -0.025216428175120671 0.41978252822869339 0 -0.01369148164194851 0.3999764975518546 0 -0.014084889559739119 0.41300534222689278 0 -0.02562396677766007 0.40989495960056299 0 -0.02562396677766007 0.40989495960056299 0 -0.025216428175120671 0.41978252822869339 0 -0.037930112975762993 0.41538755520294651 0 -0.025216428175120671 0.41978252822869339 0 -0.0257995516578878 0.43031195663595262 0 -0.036675067338863797 0.4286621448562114 0 -0.01421264569587957 0.42738359555489203 0 -0.025216428175120671 0.41978252822869339 0 -0.0257995516578878 0.43031195663595262 0 -0.01421264569587957 0.42738359555489203 0 -0.0257995516578878 0.43031195663595262 0 -0.02203129008766997 0.43879609747763548 0 -0.0257995516578878 0.43031195663595262 0 -0.030862326991904981 0.43693541706233091 0 -0.02203129008766997 0.43879609747763548 0 -0.0257995516578878 0.43031195663595262 0 -0.030862326991904981 0.43693541706233091 0 -0.036675067338863797 0.4286621448562114 0 -0.030862326991904981 0.43693541706233091 0 -0.036675067338863797 0.4286621448562114 0 -0.040385159361347511 0.44001213439836617 0 -0.036675067338863797 0.4286621448562114 0 -0.037930112975762993 0.41538755520294651 0 -0.054365207093447172 0.42262729949290812 0 -0.036675067338863797 0.4286621448562114 0 -0.054365207093447172 0.42262729949290812 0 -0.044415923376672578 0.43827225915403523 0 -0.036675067338863797 0.4286621448562114 0 -0.040385159361347511 0.44001213439836617 0 -0.044415923376672578 0.43827225915403523 0 -0.037930112975762993 0.41538755520294651 0 -0.047715587897773047 0.40949912924140752 0 -0.054365207093447172 0.42262729949290812 0 -0.038910138857898652 0.40168950401058712 0 -0.02562396677766007 0.40989495960056299 0 -0.037930112975762993 0.41538755520294651 0 -0.025216428175120671 0.41978252822869339 0 -0.036675067338863797 0.4286621448562114 0 -0.037930112975762993 0.41538755520294651 0 -0.038910138857898652 0.40168950401058712 0 -0.037930112975762993 0.41538755520294651 0 -0.047715587897773047 0.40949912924140752 0 -0.065579076076859422 0.42913720551780349 0 -0.064314490810223418 0.40698233983178211 0 -0.054365207093447172 0.42262729949290812 0 -0.064314490810223418 0.40698233983178211 0 -0.054365207093447172 0.42262729949290812 0 -0.064314490810223418 0.40698233983178211 0 -0.047715587897773047 0.40949912924140752 0 -0.054365207093447172 0.42262729949290812 0 -0.065579076076859422 0.42913720551780349 0 -0.054365207093447172 0.42262729949290812 0 -0.044415923376672578 0.43827225915403523 0 -0.054365207093447172 0.42262729949290812 0 -0.044415923376672578 0.43827225915403523 0 -0.065579076076859422 0.42913720551780349 0 -0.044415923376672578 0.43827225915403523 0 -0.065579076076859422 0.42913720551780349 0 -0.058521669569769737 0.44653463797761411 0 -0.044415923376672578 0.43827225915403523 0 -0.058521669569769737 0.44653463797761411 0 -0.062114228273197077 0.46358400958885299 0 -0.031330839955243217 0.45884817276935491 0 -0.062114228273197077 0.46358400958885299 0 -0.031330839955243217 0.45884817276935491 0 -0.043628318879707133 0.48179200479442108 0 -0.031330839955243217 0.45884817276935491 0 -0.040385159361347511 0.44001213439836617 0 -0.028797565448395211 0.4451707289789954 0 -0.031330839955243217 0.45884817276935491 0 -0.044415923376672578 0.43827225915403523 0 -0.031330839955243217 0.45884817276935491 0 -0.040385159361347511 0.44001213439836617 0 -0.044415923376672578 0.43827225915403523 0 -0.058521669569769737 0.44653463797761411 0 -0.031330839955243217 0.45884817276935491 0 -0.044415923376672578 0.43827225915403523 0 -0.040385159361347511 0.44001213439836617 0 -0.044415923376672578 0.43827225915403523 0 -0.030862326991904981 0.43693541706233091 0 -0.040385159361347511 0.44001213439836617 0 -0.028797565448395211 0.4451707289789954 0 -0.030862326991904981 0.43693541706233091 0 -0.028797565448395211 0.4451707289789954 0 -0.02203129008766997 0.43879609747763548 0 -0.028797565448395211 0.4451707289789954 0 -0.02203129008766997 0.43879609747763548 0 -0.020325927754901361 0.44884233370534038 0 -0.02203129008766997 0.43879609747763548 0 -0.020325927754901361 0.44884233370534038 0 -0.010181783456634419 0.44106657131768923 0 -0.031330839955243217 0.45884817276935491 0 -0.028797565448395211 0.4451707289789954 0 -0.020325927754901361 0.44884233370534038 0 -0.031330839955243217 0.45884817276935491 0 -0.0072893729514081169 0.45840656644439642 0 -0.01824575653381558 0.47942408638467549 0 -0.031330839955243217 0.45884817276935491 0 -0.020325927754901361 0.44884233370534038 0 -0.0072893729514081169 0.45840656644439642 0 -0.0072893729514081169 0.45840656644439642 0 -0.010181783456634419 0.44106657131768923 0 0.0042115827931327541 0.44204597406121049 0 -0.020325927754901361 0.44884233370534038 0 -0.0072893729514081169 0.45840656644439642 0 -0.010181783456634419 0.44106657131768923 0 -0.0014430470430802831 0.43092486066266011 0 -0.010181783456634419 0.44106657131768923 0 0.0042115827931327541 0.44204597406121049 0 -0.0051606731123892994 0.499999999999997 0 -0.01824575653381558 0.47942408638467549 0 -0.0051606731123892994 0.499999999999997 0 -0.01824575653381558 0.47942408638467549 0 0.0063674400442363492 0.47858960545643919 0 -0.0072893729514081169 0.45840656644439642 0 -0.01824575653381558 0.47942408638467549 0 0.0063674400442363492 0.47858960545643919 0 -0.031330839955243217 0.45884817276935491 0 -0.01824575653381558 0.47942408638467549 0 -0.043628318879707133 0.48179200479442108 0 -0.031330839955243217 0.45884817276935491 0 -0.01824575653381558 0.47942408638467549 0 -0.01824575653381558 0.47942408638467549 0 -0.025142409486220801 0.49999999999999278 0 -0.043628318879707133 0.48179200479442108 0 -0.0051606731123892994 0.499999999999997 0 -0.01824575653381558 0.47942408638467549 0 -0.025142409486220801 0.49999999999999278 0 -0.043434246272811339 0.5 0 -0.043628318879707133 0.48179200479442108 0 -0.052580164666106537 0.49247256337846768 0 -0.025142409486220801 0.49999999999999278 0 -0.043628318879707133 0.48179200479442108 0 -0.025142409486220801 0.49999999999999278 0 -0.043434246272811339 0.5 0 -0.043628318879707133 0.48179200479442108 0 -0.062114228273197077 0.46358400958885299 0 -0.043628318879707133 0.48179200479442108 0 -0.062114228273197077 0.46358400958885299 0 -0.043628318879707133 0.48179200479442108 0 -0.059828188735241983 0.48160800188677372 0 -0.043628318879707133 0.48179200479442108 0 -0.059828188735241983 0.48160800188677372 0 -0.052580164666106537 0.49247256337846768 0 -0.043434246272811339 0.5 0 -0.052580164666106537 0.49247256337846768 0 -0.061726083059401762 0.50000000000000089 0 -0.059828188735241983 0.48160800188677372 0 -0.052580164666106537 0.49247256337846768 0 -0.063603791618997013 0.48910596069792628 0 -0.052580164666106537 0.49247256337846768 0 -0.061726083059401762 0.50000000000000089 0 -0.063603791618997013 0.48910596069792628 0 -0.061726083059401762 0.50000000000000089 0 -0.06466381615251024 0.49999999999999911 0 -0.076866440534887559 0.48356155976855658 0 -0.061726083059401762 0.50000000000000089 0 -0.076866440534887559 0.48356155976855658 0 -0.061726083059401762 0.50000000000000089 0 -0.063603791618997013 0.48910596069792628 0 -0.076866440534887559 0.48356155976855658 0 -0.06466381615251024 0.49999999999999911 0 -0.08258607464999819 0.48103007744092569 0 -0.06466381615251024 0.49999999999999911 0 -0.072393554195537113 0.49840512071052451 0 -0.08258607464999819 0.48103007744092569 0 -0.06466381615251024 0.49999999999999911 0 -0.072393554195537113 0.49840512071052451 0 -0.092142542623893431 0.5 0 -0.06466381615251024 0.49999999999999911 0 -0.08258607464999819 0.48103007744092569 0 -0.076866440534887559 0.48356155976855658 0 -0.072393554195537113 0.49840512071052451 0 -0.078149374184808343 0.49548709453748241 0 -0.08258607464999819 0.48103007744092569 0 -0.063603791618997013 0.48910596069792628 0 -0.076866440534887559 0.48356155976855658 0 -0.067202877396239064 0.48315465484812059 0 -0.059828188735241983 0.48160800188677372 0 -0.063603791618997013 0.48910596069792628 0 -0.067202877396239064 0.48315465484812059 0 -0.072393554195537113 0.49840512071052451 0 -0.078149374184808343 0.49548709453748241 0 -0.072393554195537113 0.49840512071052451 0 -0.092142542623893431 0.5 0 -0.078149374184808343 0.49548709453748241 0 -0.092142542623893431 0.5 0 -0.078149374184808343 0.49548709453748241 0 -0.099666514253475197 0.49206611925380223 0 -0.078149374184808343 0.49548709453748241 0 -0.08258607464999819 0.48103007744092569 0 -0.1007312647503719 0.48450044079019972 0 -0.078149374184808343 0.49548709453748241 0 -0.1007312647503719 0.48450044079019972 0 -0.099666514253475197 0.49206611925380223 0 -0.078149374184808343 0.49548709453748241 0 -0.099666514253475197 0.49206611925380223 0 -0.078149374184808343 0.49548709453748241 0 -0.1007312647503719 0.48450044079019972 0 -0.08258607464999819 0.48103007744092569 0 -0.10050833314748669 0.46206015488185281 0 -0.08258607464999819 0.48103007744092569 0 -0.092006798010372925 0.46712311953711178 0 -0.10050833314748669 0.46206015488185281 0 -0.076866440534887559 0.48356155976855658 0 -0.092006798010372925 0.46712311953711178 0 -0.076657751526938447 0.46974908891126188 0 -0.076866440534887559 0.48356155976855658 0 -0.092006798010372925 0.46712311953711178 0 -0.08258607464999819 0.48103007744092569 0 -0.076866440534887559 0.48356155976855658 0 -0.092006798010372925 0.46712311953711178 0 -0.062114228273197077 0.46358400958885299 0 -0.059828188735241983 0.48160800188677372 0 -0.068605486844275615 0.47597658523536962 0 -0.076657751526938447 0.46974908891126188 0 -0.076866440534887559 0.48356155976855658 0 -0.068605486844275615 0.47597658523536962 0 -0.076866440534887559 0.48356155976855658 0 -0.067202877396239064 0.48315465484812059 0 -0.068605486844275615 0.47597658523536962 0 -0.059828188735241983 0.48160800188677372 0 -0.067202877396239064 0.48315465484812059 0 -0.068605486844275615 0.47597658523536962 0 -0.062114228273197077 0.46358400958885299 0 -0.076657751526938447 0.46974908891126188 0 -0.068605486844275615 0.47597658523536962 0 -0.062114228273197077 0.46358400958885299 0 -0.080600137666687138 0.44537601438328489 0 -0.062114228273197077 0.46358400958885299 0 -0.080600137666687138 0.44537601438328489 0 -0.080746939641980195 0.45967516974780609 0 -0.062114228273197077 0.46358400958885299 0 -0.076657751526938447 0.46974908891126188 0 -0.080746939641980195 0.45967516974780609 0 -0.058521669569769737 0.44653463797761411 0 -0.062114228273197077 0.46358400958885299 0 -0.080600137666687138 0.44537601438328489 0 -0.065579076076859422 0.42913720551780349 0 -0.058521669569769737 0.44653463797761411 0 -0.080600137666687138 0.44537601438328489 0 -0.099086047060177332 0.42716801917771691 0 -0.080600137666687138 0.44537601438328489 0 -0.098329018528649226 0.44103409794011161 0 -0.080600137666687138 0.44537601438328489 0 -0.09235578273270531 0.45254361631851869 0 -0.098329018528649226 0.44103409794011161 0 -0.080600137666687138 0.44537601438328489 0 -0.09235578273270531 0.45254361631851869 0 -0.080746939641980195 0.45967516974780609 0 -0.076657751526938447 0.46974908891126188 0 -0.080746939641980195 0.45967516974780609 0 -0.092006798010372925 0.46712311953711178 0 -0.09235578273270531 0.45254361631851869 0 -0.080746939641980195 0.45967516974780609 0 -0.092006798010372925 0.46712311953711178 0 -0.09235578273270531 0.45254361631851869 0 -0.092006798010372925 0.46712311953711178 0 -0.10714715548585831 0.45068467930566719 0 -0.092006798010372925 0.46712311953711178 0 -0.10050833314748669 0.46206015488185281 0 -0.10714715548585831 0.45068467930566719 0 -0.092006798010372925 0.46712311953711178 0 -0.10714715548585831 0.45068467930566719 0 -0.10050833314748669 0.46206015488185281 0 -0.10714715548585831 0.45068467930566719 0 -0.1184305916449776 0.44309023232278227 0 -0.10194234012647881 0.4288576337858529 0 -0.1064656926464367 0.44091077614249907 0 -0.1184305916449776 0.44309023232278227 0 -0.09235578273270531 0.45254361631851869 0 -0.098329018528649226 0.44103409794011161 0 -0.10714715548585831 0.45068467930566719 0 -0.098329018528649226 0.44103409794011161 0 -0.10714715548585831 0.45068467930566719 0 -0.1064656926464367 0.44091077614249907 0 -0.10050833314748669 0.46206015488185281 0 -0.1184305916449776 0.44309023232278227 0 -0.12649411281499101 0.45005063436893278 0 -0.10050833314748669 0.46206015488185281 0 -0.1184305916449776 0.44309023232278227 0 -0.10714715548585831 0.45068467930566719 0 -0.1064656926464367 0.44091077614249907 0 -0.1184305916449776 0.44309023232278227 0 -0.12649411281499101 0.45005063436893278 0 -0.1184305916449776 0.44309023232278227 0 -0.12649411281499101 0.45005063436893278 0 -0.1184305916449776 0.44309023232278227 0 -0.1241546511004496 0.44172091405448421 0 -0.12898965497755871 0.43191392807833717 0 -0.1241546511004496 0.44172091405448421 0 -0.1212935115654475 0.44005995747254878 0 -0.1184305916449776 0.44309023232278227 0 -0.1212935115654475 0.44005995747254878 0 -0.1184305916449776 0.44309023232278227 0 -0.1241546511004496 0.44172091405448421 0 -0.1212935115654475 0.44005995747254878 0 -0.1241546511004496 0.44172091405448421 0 -0.1212935115654475 0.44005995747254878 0 -0.12649411281499101 0.45005063436893278 0 -0.10050833314748669 0.46206015488185281 0 -0.12327607099828899 0.47343820927589081 0 -0.12649411281499101 0.45005063436893278 0 -0.12327607099828899 0.47343820927589081 0 -0.12327607099828899 0.47343820927589081 0 -0.121183654322142 0.48864514397012188 0 -0.1007312647503719 0.48450044079019972 0 -0.12327607099828899 0.47343820927589081 0 -0.1007312647503719 0.48450044079019972 0 -0.12327607099828899 0.47343820927589081 0 -0.121183654322142 0.48864514397012188 0 -0.12939058826336489 0.48505086830706079 0 -0.12327607099828899 0.47343820927589081 0 -0.121183654322142 0.48864514397012188 0 -0.121183654322142 0.48864514397012188 0 -0.11962126909527659 0.50000000000000355 0 -0.099666514253475197 0.49206611925380223 0 -0.121183654322142 0.48864514397012188 0 -0.099666514253475197 0.49206611925380223 0 -0.12849293676376911 0.4937238655721326 0 -0.121183654322142 0.48864514397012188 0 -0.11962126909527659 0.50000000000000355 0 -0.121183654322142 0.48864514397012188 0 -0.11962126909527659 0.50000000000000355 0 -0.121183654322142 0.48864514397012188 0 -0.1007312647503719 0.48450044079019972 0 -0.099666514253475197 0.49206611925380223 0 -0.092142542623893431 0.5 0 -0.11962126909527659 0.50000000000000355 0 -0.099666514253475197 0.49206611925380223 0 -0.10050833314748669 0.46206015488185281 0 -0.12327607099828899 0.47343820927589081 0 -0.1007312647503719 0.48450044079019972 0 -0.08258607464999819 0.48103007744092569 0 -0.10050833314748669 0.46206015488185281 0 -0.1007312647503719 0.48450044079019972 0 -0.16990561090666589 0.089332600120763578 0 -0.15911683582720371 0.074567636815341454 0 -0.18635774869477589 0.081736588931582477 0 -0.16990561090666589 0.089332600120763578 0 -0.15911683582720371 0.074567636815341454 0 -0.15284859011790849 0.095450628038076191 0 -0.15911683582720371 0.074567636815341454 0 -0.18605157829673019 0.062812868182709522 0 -0.16538508153649739 0.053684645592606231 0 -0.15911683582720371 0.074567636815341454 0 -0.16538508153649739 0.053684645592606231 0 -0.15911683582720371 0.074567636815341454 0 -0.1496723171883623 0.05971640263517676 0 -0.16538508153649739 0.053684645592606231 0 -0.15911683582720371 0.074567636815341454 0 -0.18605157829673019 0.062812868182709522 0 -0.18635774869477589 0.081736588931582477 0 -0.16990561090666589 0.089332600120763578 0 -0.18635774869477589 0.081736588931582477 0 -0.18518532535278379 0.098316107538717473 0 -0.18518532535278379 0.098316107538717473 0 -0.1816102935269415 0.1155373250513712 0 -0.17043875185258589 0.103952977010591 0 -0.16990561090666589 0.089332600120763578 0 -0.18518532535278379 0.098316107538717473 0 -0.17043875185258589 0.103952977010591 0 -0.1816102935269415 0.1155373250513712 0 -0.16322882228061461 0.1175557622290533 0 -0.1711387043164814 0.13086835309446801 0 -0.1816102935269415 0.1155373250513712 0 -0.16322882228061461 0.1175557622290533 0 -0.17043875185258589 0.103952977010591 0 -0.16322882228061461 0.1175557622290533 0 -0.17043875185258589 0.103952977010591 0 -0.15284859011790849 0.095450628038076191 0 -0.16990561090666589 0.089332600120763578 0 -0.17043875185258589 0.103952977010591 0 -0.15284859011790849 0.095450628038076191 0 -0.15284859011790849 0.095450628038076191 0 -0.14658034440861251 0.11633361926081071 0 -0.15284859011790849 0.095450628038076191 0 -0.13733833442839299 0.1008966048156951 0 -0.13374486391322971 0.085725862664189578 0 -0.15284859011790849 0.095450628038076191 0 -0.14658034440861251 0.11633361926081071 0 -0.13733833442839299 0.1008966048156951 0 -0.14658034440861251 0.11633361926081071 0 -0.13733833442839299 0.1008966048156951 0 -0.16322882228061461 0.1175557622290533 0 -0.15284859011790849 0.095450628038076191 0 -0.14658034440861251 0.11633361926081071 0 -0.14658034440861251 0.11633361926081071 0 -0.1320923586692416 0.1163663372802315 0 -0.1408553934342392 0.1354065954160297 0 -0.14658034440861251 0.11633361926081071 0 -0.1320923586692416 0.1163663372802315 0 -0.13733833442839299 0.1008966048156951 0 -0.1320923586692416 0.1163663372802315 0 -0.1223370802615215 0.10490829852774609 0 -0.1214559596300985 0.11542114779049401 0 -0.1320923586692416 0.1163663372802315 0 -0.12157897914838039 0.127252633109814 0 -0.1214559596300985 0.11542114779049401 0 -0.13733833442839299 0.1008966048156951 0 -0.12784379276086391 0.095530604182346684 0 -0.13374486391322971 0.085725862664189578 0 -0.1320923586692416 0.1163663372802315 0 -0.13733833442839299 0.1008966048156951 0 -0.1223370802615215 0.10490829852774609 0 -0.13733833442839299 0.1008966048156951 0 -0.12784379276086391 0.095530604182346684 0 -0.1223370802615215 0.10490829852774609 0 -0.12784379276086391 0.095530604182346684 0 -0.13374486391322971 0.085725862664189578 0 -0.11795489244031131 0.090591650721755998 0 -0.15911683582720371 0.074567636815341454 0 -0.15284859011790849 0.095450628038076191 0 -0.15284859011790849 0.095450628038076191 0 -0.13374486391322971 0.085725862664189578 0 -0.14502552222762749 0.074472748168560421 0 -0.15911683582720371 0.074567636815341454 0 -0.15284859011790849 0.095450628038076191 0 -0.14502552222762749 0.074472748168560421 0 -0.1339595528402274 0.065748159677748177 0 -0.1496723171883623 0.05971640263517676 0 -0.14502552222762749 0.074472748168560421 0 -0.1339595528402274 0.065748159677748177 0 -0.1496723171883623 0.05971640263517676 0 -0.15911683582720371 0.074567636815341454 0 -0.14502552222762749 0.074472748168560421 0 -0.1496723171883623 0.05971640263517676 0 -0.13374486391322971 0.085725862664189578 0 -0.14502552222762749 0.074472748168560421 0 -0.1339595528402274 0.065748159677748177 0 -0.13374486391322971 0.085725862664189578 0 -0.1339595528402274 0.065748159677748177 0 -0.12078255002608961 0.07635017351281656 0 -0.1339595528402274 0.065748159677748177 0 -0.13508918552537111 0.048437573378901158 0 -0.1496723171883623 0.05971640263517676 0 -0.1339595528402274 0.065748159677748177 0 -0.13508918552537111 0.048437573378901158 0 -0.1200770937022317 0.061032803681047812 0 -0.13508918552537111 0.048437573378901158 0 -0.1390813267966928 0.031362670220833222 0 -0.14598556260064741 0.040631311157827497 0 -0.13508918552537111 0.048437573378901158 0 -0.1245186675874371 0.032491580885138947 0 -0.1179558061503731 0.045547451865388978 0 -0.13508918552537111 0.048437573378901158 0 -0.1390813267966928 0.031362670220833222 0 -0.1245186675874371 0.032491580885138947 0 -0.1390813267966928 0.031362670220833222 0 -0.14598556260064741 0.040631311157827497 0 -0.1523232002114572 0.027517330680791478 0 -0.14598556260064741 0.040631311157827497 0 -0.15537907039468421 0.036351173859383717 0 -0.1523232002114572 0.027517330680791478 0 -0.14598556260064741 0.040631311157827497 0 -0.15537907039468421 0.036351173859383717 0 -0.15855412088546531 0.043820818905514182 0 -0.14598556260064741 0.040631311157827497 0 -0.1496723171883623 0.05971640263517676 0 -0.15855412088546531 0.043820818905514182 0 -0.13508918552537111 0.048437573378901158 0 -0.14598556260064741 0.040631311157827497 0 -0.1496723171883623 0.05971640263517676 0 -0.12684239433194619 -0.0024106449572988912 0 -0.1356972964359357 0.0087647184508017305 0 -0.11411799673607929 0.008443453245583897 0 -0.1356972964359357 0.0087647184508017305 0 -0.1321837648156837 0.022469262105592431 0 -0.14275620722476509 0.020030234122830209 0 -0.1356972964359357 0.0087647184508017305 0 -0.1321837648156837 0.022469262105592431 0 -0.1202367266027186 0.019949724052309568 0 -0.1321837648156837 0.022469262105592431 0 -0.1202367266027186 0.019949724052309568 0 -0.1245186675874371 0.032491580885138947 0 -0.1390813267966928 0.031362670220833222 0 -0.1321837648156837 0.022469262105592431 0 -0.1245186675874371 0.032491580885138947 0 -0.1390813267966928 0.031362670220833222 0 -0.1321837648156837 0.022469262105592431 0 -0.14275620722476509 0.020030234122830209 0 -0.1523232002114572 0.027517330680791478 0 -0.14275620722476509 0.020030234122830209 0 -0.15492774498544309 0.01116751555523424 0 -0.1390813267966928 0.031362670220833222 0 -0.1523232002114572 0.027517330680791478 0 -0.14275620722476509 0.020030234122830209 0 -0.1356972964359357 0.0087647184508017305 0 -0.14275620722476509 0.020030234122830209 0 -0.15492774498544309 0.01116751555523424 0 -0.1506725034137911 -0.00072827641150988924 0 -0.1356972964359357 0.0087647184508017305 0 -0.15492774498544309 0.01116751555523424 0 -0.16572313506263431 -0.0068689691824014559 0 -0.16561420801104579 0.0071696275992592772 0 -0.17829992471754899 0.0033881526606483101 0 -0.1506725034137911 -0.00072827641150988924 0 -0.15492774498544309 0.01116751555523424 0 -0.16561420801104579 0.0071696275992592772 0 -0.15492774498544309 0.01116751555523424 0 -0.16561420801104579 0.0071696275992592772 0 -0.16455548290200381 0.020379043820412661 0 -0.16561420801104579 0.0071696275992592772 0 -0.16455548290200381 0.020379043820412661 0 -0.17402281227585331 0.013529283727393289 0 -0.1523232002114572 0.027517330680791478 0 -0.15492774498544309 0.01116751555523424 0 -0.16455548290200381 0.020379043820412661 0 -0.16455548290200381 0.020379043820412661 0 -0.17048117576005101 0.026590139225340079 0 -0.1767896781581573 0.02159375660191179 0 -0.16455548290200381 0.020379043820412661 0 -0.1767896781581573 0.02159375660191179 0 -0.17402281227585331 0.013529283727393289 0 -0.1523232002114572 0.027517330680791478 0 -0.16455548290200381 0.020379043820412661 0 -0.16465339788116709 0.033435234693401698 0 -0.16455548290200381 0.020379043820412661 0 -0.17048117576005101 0.026590139225340079 0 -0.16465339788116709 0.033435234693401698 0 -0.17048117576005101 0.026590139225340079 0 -0.17722217740506821 0.02825519837317304 0 -0.16465339788116709 0.033435234693401698 0 -0.17048117576005101 0.026590139225340079 0 -0.17722217740506821 0.02825519837317304 0 -0.1767896781581573 0.02159375660191179 0 -0.17722217740506821 0.02825519837317304 0 -0.18632991241408611 0.024863688557040658 0 -0.18785672281187921 0.034793172788170963 0 -0.17722217740506821 0.02825519837317304 0 -0.18632991241408611 0.024863688557040658 0 -0.1767896781581573 0.02159375660191179 0 -0.18632991241408611 0.024863688557040658 0 -0.1767896781581573 0.02159375660191179 0 -0.18485476759051039 0.015115837954734391 0 -0.1767896781581573 0.02159375660191179 0 -0.17402281227585331 0.013529283727393289 0 -0.18485476759051039 0.015115837954734391 0 -0.16561420801104579 0.0071696275992592772 0 -0.17402281227585331 0.013529283727393289 0 -0.17829992471754899 0.0033881526606483101 0 -0.17402281227585331 0.013529283727393289 0 -0.18485476759051039 0.015115837954734391 0 -0.17829992471754899 0.0033881526606483101 0 -0.18485476759051039 0.015115837954734391 0 -0.17829992471754899 0.0033881526606483101 0 -0.19014651074781599 0.0067975389716179472 0 -0.19383873418493161 -0.0051544447078166813 0 -0.17829992471754899 0.0033881526606483101 0 -0.19014651074781599 0.0067975389716179472 0 -0.1496723171883623 0.05971640263517676 0 -0.16538508153649739 0.053684645592606231 0 -0.15855412088546531 0.043820818905514182 0 -0.1496723171883623 0.05971640263517676 0 -0.16538508153649739 0.053684645592606231 0 -0.16538508153649739 0.053684645592606231 0 -0.16942913434435919 0.040211670344430447 0 -0.15537907039468421 0.036351173859383717 0 -0.1523232002114572 0.027517330680791478 0 -0.16465339788116709 0.033435234693401698 0 -0.15537907039468421 0.036351173859383717 0 -0.15855412088546531 0.043820818905514182 0 -0.16465339788116709 0.033435234693401698 0 -0.16465339788116709 0.033435234693401698 0 -0.16942913434435919 0.040211670344430447 0 -0.1778531142044121 0.040619293008366489 0 -0.15855412088546531 0.043820818905514182 0 -0.16465339788116709 0.033435234693401698 0 -0.16942913434435919 0.040211670344430447 0 -0.16538508153649739 0.053684645592606231 0 -0.15855412088546531 0.043820818905514182 0 -0.16942913434435919 0.040211670344430447 0 -0.16538508153649739 0.053684645592606231 0 -0.16942913434435919 0.040211670344430447 0 -0.1778531142044121 0.040619293008366489 0 -0.16465339788116709 0.033435234693401698 0 -0.1778531142044121 0.040619293008366489 0 -0.18785672281187921 0.034793172788170963 0 -0.16465339788116709 0.033435234693401698 0 -0.18785672281187921 0.034793172788170963 0 -0.16538508153649739 0.053684645592606231 0 -0.1778531142044121 0.040619293008366489 0 -0.1882225646395442 0.044917878237772477 0 -0.17722217740506821 0.02825519837317304 0 -0.16465339788116709 0.033435234693401698 0 -0.18785672281187921 0.034793172788170963 0 -0.1778531142044121 0.040619293008366489 0 -0.1882225646395442 0.044917878237772477 0 -0.18785672281187921 0.034793172788170963 0 -0.16538508153649739 0.053684645592606231 0 -0.1882225646395442 0.044917878237772477 0 -0.18605157829673019 0.062812868182709522 0 -0.16538508153649739 0.053684645592606231 0 -0.1882225646395442 0.044917878237772477 0 -0.18605157829673019 0.062812868182709522 0 -0.1882225646395442 0.044917878237772477 0 -0.20441666560843741 0.052974335335306738 0 -0.18605157829673019 0.062812868182709522 0 -0.20441666560843741 0.052974335335306738 0 -0.21281057347392299 0.068996124183648727 0 -0.1882225646395442 0.044917878237772477 0 -0.18785672281187921 0.034793172788170963 0 -0.21106004774259149 0.036151110882939888 0 -0.1882225646395442 0.044917878237772477 0 -0.21106004774259149 0.036151110882939888 0 -0.1882225646395442 0.044917878237772477 0 -0.21106004774259149 0.036151110882939888 0 -0.20441666560843741 0.052974335335306738 0 -0.18785672281187921 0.034793172788170963 0 -0.21106004774259149 0.036151110882939888 0 -0.19689073800655671 0.027312638409488169 0 -0.18785672281187921 0.034793172788170963 0 -0.21106004774259149 0.036151110882939888 0 -0.21106004774259149 0.036151110882939888 0 -0.20441666560843741 0.052974335335306738 0 -0.22387952509750589 0.05299934161510983 0 -0.20441666560843741 0.052974335335306738 0 -0.22387952509750589 0.05299934161510983 0 -0.21281057347392299 0.068996124183648727 0 -0.19383873418493161 -0.0051544447078166813 0 -0.2058593508946302 -0.002230877548247843 0 -0.19997570232802969 0.0075945024736815249 0 -0.19383873418493161 -0.0051544447078166813 0 -0.19997570232802969 0.0075945024736815249 0 -0.19014651074781599 0.0067975389716179472 0 -0.19997570232802969 0.0075945024736815249 0 -0.19014651074781599 0.0067975389716179472 0 -0.19420759677149449 0.018629276295077431 0 -0.18485476759051039 0.015115837954734391 0 -0.19014651074781599 0.0067975389716179472 0 -0.19420759677149449 0.018629276295077431 0 -0.19997570232802969 0.0075945024736815249 0 -0.19420759677149449 0.018629276295077431 0 -0.20472610835815991 0.019962259164130511 0 -0.19420759677149449 0.018629276295077431 0 -0.19689073800655671 0.027312638409488169 0 -0.20472610835815991 0.019962259164130511 0 -0.18632991241408611 0.024863688557040658 0 -0.18485476759051039 0.015115837954734391 0 -0.19420759677149449 0.018629276295077431 0 -0.18632991241408611 0.024863688557040658 0 -0.18785672281187921 0.034793172788170963 0 -0.19689073800655671 0.027312638409488169 0 -0.18632991241408611 0.024863688557040658 0 -0.19420759677149449 0.018629276295077431 0 -0.19689073800655671 0.027312638409488169 0 -0.21106004774259149 0.036151110882939888 0 -0.2165208246652435 0.019608974859454838 0 -0.22731405776958991 0.029911582479268721 0 -0.21106004774259149 0.036151110882939888 0 -0.2165208246652435 0.019608974859454838 0 -0.20472610835815991 0.019962259164130511 0 -0.21106004774259149 0.036151110882939888 0 -0.19689073800655671 0.027312638409488169 0 -0.20472610835815991 0.019962259164130511 0 -0.2165208246652435 0.019608974859454838 0 -0.20472610835815991 0.019962259164130511 0 -0.21107591301114631 0.0075632626673277862 0 -0.19997570232802969 0.0075945024736815249 0 -0.20472610835815991 0.019962259164130511 0 -0.21107591301114631 0.0075632626673277862 0 -0.2165208246652435 0.019608974859454838 0 -0.21107591301114631 0.0075632626673277862 0 -0.22341847121708561 0.0061320188341525408 0 -0.21708027553342021 -0.0064990992034965958 0 -0.21107591301114631 0.0075632626673277862 0 -0.22341847121708561 0.0061320188341525408 0 -0.2058593508946302 -0.002230877548247843 0 -0.19997570232802969 0.0075945024736815249 0 -0.21107591301114631 0.0075632626673277862 0 -0.23283338722637109 -0.0071407950473802786 0 -0.22341847121708561 0.0061320188341525408 0 -0.23681151928923039 0.015375097062368819 0 -0.2165208246652435 0.019608974859454838 0 -0.22341847121708561 0.0061320188341525408 0 -0.22601621823528731 0.01775691830881123 0 -0.22341847121708561 0.0061320188341525408 0 -0.22601621823528731 0.01775691830881123 0 -0.23681151928923039 0.015375097062368819 0 -0.22601621823528731 0.01775691830881123 0 -0.22731405776958991 0.029911582479268721 0 -0.23681151928923039 0.015375097062368819 0 -0.2165208246652435 0.019608974859454838 0 -0.22601621823528731 0.01775691830881123 0 -0.22731405776958991 0.029911582479268721 0 -0.25172179462865718 0.025724150998640949 0 -0.23681151928923039 0.015375097062368819 0 -0.2407896513520853 0.037890989172118597 0 -0.22731405776958991 0.029911582479268721 0 -0.23681151928923039 0.015375097062368819 0 -0.2407896513520853 0.037890989172118597 0 -0.23681151928923039 0.015375097062368819 0 -0.2407896513520853 0.037890989172118597 0 -0.23283338722637109 -0.0071407950473802786 0 -0.24138517484959959 -0.00643824194540428 0 -0.23681151928923039 0.015375097062368819 0 -0.23283338722637109 -0.0071407950473802786 0 -0.23681151928923039 0.015375097062368819 0 -0.24138517484959959 -0.00643824194540428 0 -0.26219695049997649 0.010200397217229189 0 -0.23681151928923039 0.015375097062368819 0 -0.22387952509750589 0.05299934161510983 0 -0.2438666339080921 0.055306451042113118 0 -0.23055913692644389 0.066979231273098391 0 -0.21106004774259149 0.036151110882939888 0 -0.22387952509750589 0.05299934161510983 0 -0.2407896513520853 0.037890989172118597 0 -0.21106004774259149 0.036151110882939888 0 -0.22731405776958991 0.029911582479268721 0 -0.2407896513520853 0.037890989172118597 0 -0.21106004774259149 0.036151110882939888 0 -0.22731405776958991 0.029911582479268721 0 -0.21106004774259149 0.036151110882939888 0 -0.2407896513520853 0.037890989172118597 0 -0.2407896513520853 0.037890989172118597 0 -0.2438666339080921 0.055306451042113118 0 -0.25741030458238878 0.052600429353085509 0 -0.2438666339080921 0.055306451042113118 0 -0.24694361646409449 0.072721912912108361 0 -0.25741030458238878 0.052600429353085509 0 -0.2407896513520853 0.037890989172118597 0 -0.2438666339080921 0.055306451042113118 0 -0.22387952509750589 0.05299934161510983 0 -0.2407896513520853 0.037890989172118597 0 -0.2438666339080921 0.055306451042113118 0 -0.24694361646409449 0.072721912912108361 0 -0.22850006981284421 0.089165873369755178 0 -0.23055913692644389 0.066979231273098391 0 -0.2438666339080921 0.055306451042113118 0 -0.24694361646409449 0.072721912912108361 0 -0.23055913692644389 0.066979231273098391 0 -0.2438666339080921 0.055306451042113118 0 -0.24694361646409449 0.072721912912108361 0 -0.25610820474316348 0.091003050049048156 0 -0.24694361646409449 0.072721912912108361 0 -0.22850006981284421 0.089165873369755178 0 -0.22850006981284421 0.089165873369755178 0 -0.21281057347392299 0.068996124183648727 0 -0.22850006981284421 0.089165873369755178 0 -0.23055913692644389 0.066979231273098391 0 -0.21281057347392299 0.068996124183648727 0 -0.22387952509750589 0.05299934161510983 0 -0.23055913692644389 0.066979231273098391 0 -0.21281057347392299 0.068996124183648727 0 -0.22850006981284421 0.089165873369755178 0 -0.21281057347392299 0.068996124183648727 0 -0.20486960053906081 0.091918948336555423 0 -0.18635774869477589 0.081736588931582477 0 -0.18518532535278379 0.098316107538717473 0 -0.20486960053906081 0.091918948336555423 0 -0.18635774869477589 0.081736588931582477 0 -0.21281057347392299 0.068996124183648727 0 -0.20486960053906081 0.091918948336555423 0 -0.18605157829673019 0.062812868182709522 0 -0.18635774869477589 0.081736588931582477 0 -0.21281057347392299 0.068996124183648727 0 -0.19364188635985241 0.1194574354961102 0 -0.20559965056973231 0.1232672555025149 0 -0.18942765474606291 0.1316069556491137 0 -0.19364188635985241 0.1194574354961102 0 -0.19792994659667279 0.1074182057814411 0 -0.20559965056973231 0.1232672555025149 0 -0.1816102935269415 0.1155373250513712 0 -0.19364188635985241 0.1194574354961102 0 -0.18942765474606291 0.1316069556491137 0 -0.1816102935269415 0.1155373250513712 0 -0.19364188635985241 0.1194574354961102 0 -0.19792994659667279 0.1074182057814411 0 -0.18518532535278379 0.098316107538717473 0 -0.1816102935269415 0.1155373250513712 0 -0.19792994659667279 0.1074182057814411 0 -0.18518532535278379 0.098316107538717473 0 -0.20486960053906081 0.091918948336555423 0 -0.19792994659667279 0.1074182057814411 0 -0.20486960053906081 0.091918948336555423 0 -0.19792994659667279 0.1074182057814411 0 -0.21752895592863511 0.1068917612988937 0 -0.22850006981284421 0.089165873369755178 0 -0.20486960053906081 0.091918948336555423 0 -0.21752895592863511 0.1068917612988937 0 -0.21752895592863511 0.1068917612988937 0 -0.20559965056973231 0.1232672555025149 0 -0.2230944687897658 0.1237667594070834 0 -0.19792994659667279 0.1074182057814411 0 -0.21752895592863511 0.1068917612988937 0 -0.20559965056973231 0.1232672555025149 0 -0.21752895592863511 0.1068917612988937 0 -0.2230944687897658 0.1237667594070834 0 -0.2441895661517656 0.1093356225558617 0 -0.22850006981284421 0.089165873369755178 0 -0.21752895592863511 0.1068917612988937 0 -0.2441895661517656 0.1093356225558617 0 -0.25610820474316348 0.091003050049048156 0 -0.22850006981284421 0.089165873369755178 0 -0.2441895661517656 0.1093356225558617 0 -0.22850006981284421 0.089165873369755178 0 -0.2441895661517656 0.1093356225558617 0 -0.25987906249068682 0.12950537174196811 0 -0.2441895661517656 0.1093356225558617 0 -0.24341729992139269 0.12711422740462039 0 -0.2230944687897658 0.1237667594070834 0 -0.2441895661517656 0.1093356225558617 0 -0.24341729992139269 0.12711422740462039 0 -0.25836943693382541 0.1345203726751035 0 -0.23155396524092001 0.13844301064308509 0 -0.25836943693382541 0.1345203726751035 0 -0.24341729992139269 0.12711422740462039 0 -0.23155396524092001 0.13844301064308509 0 -0.25097781289726051 0.14631568991468469 0 -0.25836943693382541 0.1345203726751035 0 -0.23155396524092001 0.13844301064308509 0 -0.2230944687897658 0.1237667594070834 0 -0.24341729992139269 0.12711422740462039 0 -0.23155396524092001 0.13844301064308509 0 -0.2230944687897658 0.1237667594070834 0 -0.23155396524092001 0.13844301064308509 0 -0.20473849354801471 0.14236564861106679 0 -0.23155396524092001 0.13844301064308509 0 -0.22193671312441421 0.1576083341870505 0 -0.20473849354801471 0.14236564861106679 0 -0.23155396524092001 0.13844301064308509 0 -0.24154618544955159 0.1626832646860045 0 -0.22193671312441421 0.1576083341870505 0 -0.25097781289726051 0.14631568991468469 0 -0.23155396524092001 0.13844301064308509 0 -0.24154618544955159 0.1626832646860045 0 -0.25577090009472719 0.15614666647147801 0 -0.25097781289726051 0.14631568991468469 0 -0.24154618544955159 0.1626832646860045 0 -0.24154618544955159 0.1626832646860045 0 -0.2403470101433699 0.18165219217559081 0 -0.2259673517518547 0.17149304945251739 0 -0.26248859064343749 0.17845226091426941 0 -0.24154618544955159 0.1626832646860045 0 -0.2403470101433699 0.18165219217559081 0 -0.2403470101433699 0.18165219217559081 0 -0.22383330677481161 0.18381590723660229 0 -0.2259673517518547 0.17149304945251739 0 -0.22383330677481161 0.18381590723660229 0 -0.2259673517518547 0.17149304945251739 0 -0.21374641850329781 0.1766465530955256 0 -0.24154618544955159 0.1626832646860045 0 -0.2259673517518547 0.17149304945251739 0 -0.22193671312441421 0.1576083341870505 0 -0.2259673517518547 0.17149304945251739 0 -0.22193671312441421 0.1576083341870505 0 -0.214394476515683 0.16655204533433091 0 -0.22193671312441421 0.1576083341870505 0 -0.214394476515683 0.16655204533433091 0 -0.20629046835910639 0.1558695881628048 0 -0.2259673517518547 0.17149304945251739 0 -0.214394476515683 0.16655204533433091 0 -0.21374641850329781 0.1766465530955256 0 -0.214394476515683 0.16655204533433091 0 -0.21374641850329781 0.1766465530955256 0 -0.20303406174439961 0.16843524343044119 0 -0.214394476515683 0.16655204533433091 0 -0.20303406174439961 0.16843524343044119 0 -0.20629046835910639 0.1558695881628048 0 -0.21374641850329781 0.1766465530955256 0 -0.2063098333149691 0.18509542672576229 0 -0.20303406174439961 0.16843524343044119 0 -0.22383330677481161 0.18381590723660229 0 -0.21374641850329781 0.1766465530955256 0 -0.215194913736828 0.18762860167928511 0 -0.21374641850329781 0.1766465530955256 0 -0.2063098333149691 0.18509542672576229 0 -0.215194913736828 0.18762860167928511 0 -0.2063098333149691 0.18509542672576229 0 -0.1920843893918521 0.17847536276230211 0 -0.20303406174439961 0.16843524343044119 0 -0.1920843893918521 0.17847536276230211 0 -0.1918662444897504 0.1618186178469542 0 -0.1920843893918521 0.17847536276230211 0 -0.20303406174439961 0.16843524343044119 0 -0.1918662444897504 0.1618186178469542 0 -0.1920843893918521 0.17847536276230211 0 -0.1918662444897504 0.1618186178469542 0 -0.18584797703789299 0.16430075151615819 0 -0.1918662444897504 0.1618186178469542 0 -0.19412688158264579 0.15680517113511211 0 -0.20629046835910639 0.1558695881628048 0 -0.20303406174439961 0.16843524343044119 0 -0.1918662444897504 0.1618186178469542 0 -0.20629046835910639 0.1558695881628048 0 -0.1918662444897504 0.1618186178469542 0 -0.20629046835910639 0.1558695881628048 0 -0.1920843893918521 0.17847536276230211 0 -0.18584797703789299 0.16430075151615819 0 -0.1918662444897504 0.1618186178469542 0 -0.18584797703789299 0.16430075151615819 0 -0.18930478307013451 0.16044640964048579 0 -0.1918662444897504 0.1618186178469542 0 -0.18584797703789299 0.16430075151615819 0 -0.1918662444897504 0.1618186178469542 0 -0.19412688158264579 0.15680517113511211 0 -0.18993239322587729 0.15751105649372871 0 -0.18930478307013451 0.16044640964048579 0 -0.1918662444897504 0.1618186178469542 0 -0.18993239322587729 0.15751105649372871 0 -0.18930478307013451 0.16044640964048579 0 -0.18993239322587729 0.15751105649372871 0 -0.1873241847562945 0.15889474826784419 0 -0.18993239322587729 0.15751105649372871 0 -0.18702187962891281 0.155567078710352 0 -0.1873241847562945 0.15889474826784419 0 -0.18972504343194199 0.14813910299590491 0 -0.20473849354801471 0.14236564861106679 0 -0.17792302185510889 0.14628828657904569 0 -0.20473849354801471 0.14236564861106679 0 -0.17792302185510889 0.14628828657904569 0 -0.18993239322587729 0.15751105649372871 0 -0.19084934683914029 0.1540390166679331 0 -0.18702187962891281 0.155567078710352 0 -0.18824480083274031 0.15285963570552091 0 -0.19084934683914029 0.1540390166679331 0 -0.18702187962891281 0.155567078710352 0 -0.18824480083274031 0.15285963570552091 0 -0.19084934683914029 0.1540390166679331 0 -0.19014569761553171 0.1508737789194278 0 -0.19014569761553171 0.1508737789194278 0 -0.18972504343194199 0.14813910299590491 0 -0.18706811523360739 0.15097734238956839 0 -0.18824480083274031 0.15285963570552091 0 -0.19014569761553171 0.1508737789194278 0 -0.18706811523360739 0.15097734238956839 0 -0.19084934683914029 0.1540390166679331 0 -0.19014569761553171 0.1508737789194278 0 -0.19441450981685651 0.1496227753755707 0 -0.19014569761553171 0.1508737789194278 0 -0.19441450981685651 0.1496227753755707 0 -0.18972504343194199 0.14813910299590491 0 -0.19412688158264579 0.15680517113511211 0 -0.19084934683914029 0.1540390166679331 0 -0.19441450981685651 0.1496227753755707 0 -0.19412688158264579 0.15680517113511211 0 -0.18993239322587729 0.15751105649372871 0 -0.19084934683914029 0.1540390166679331 0 -0.19412688158264579 0.15680517113511211 0 -0.19441450981685651 0.1496227753755707 0 -0.1999405929769732 0.15285202485674329 0 -0.19412688158264579 0.15680517113511211 0 -0.1999405929769732 0.15285202485674329 0 -0.20629046835910639 0.1558695881628048 0 -0.19441450981685651 0.1496227753755707 0 -0.1999405929769732 0.15285202485674329 0 -0.20473849354801471 0.14236564861106679 0 -0.19441450981685651 0.1496227753755707 0 -0.18972504343194199 0.14813910299590491 0 -0.20473849354801471 0.14236564861106679 0 -0.18942765474606291 0.1316069556491137 0 -0.20473849354801471 0.14236564861106679 0 -0.17792302185510889 0.14628828657904569 0 -0.20559965056973231 0.1232672555025149 0 -0.18942765474606291 0.1316069556491137 0 -0.20473849354801471 0.14236564861106679 0 -0.20559965056973231 0.1232672555025149 0 -0.2230944687897658 0.1237667594070834 0 -0.20473849354801471 0.14236564861106679 0 -0.23155396524092001 0.13844301064308509 0 -0.20473849354801471 0.14236564861106679 0 -0.22193671312441421 0.1576083341870505 0 -0.20629046835910639 0.1558695881628048 0 -0.20473849354801471 0.14236564861106679 0 -0.1999405929769732 0.15285202485674329 0 -0.20629046835910639 0.1558695881628048 0 -0.20473849354801471 0.14236564861106679 0 -0.21917620747059349 0.2400517896279194 0 -0.23457729305289701 0.24355637189820481 0 -0.22751583509942949 0.22611370459132249 0 -0.22749964306176901 0.25896995235369452 0 -0.21917620747059349 0.2400517896279194 0 -0.23457729305289701 0.24355637189820481 0 -0.22749964306176901 0.25896995235369452 0 -0.21917620747059349 0.2400517896279194 0 -0.25321208583809113 0.25776932320358148 0 -0.23457729305289701 0.24355637189820481 0 -0.24810890252628839 0.23272384076664679 0 -0.23457729305289701 0.24355637189820481 0 -0.24810890252628839 0.23272384076664679 0 -0.22751583509942949 0.22611370459132249 0 -0.24810890252628839 0.23272384076664679 0 -0.22751583509942949 0.22611370459132249 0 -0.23438688937088101 0.20950880127376459 0 -0.22751583509942949 0.22611370459132249 0 -0.2179929462964996 0.20970779707925541 0 -0.2108527718794177 0.22113362690214439 0 -0.21917620747059349 0.2400517896279194 0 -0.22751583509942949 0.22611370459132249 0 -0.2108527718794177 0.22113362690214439 0 -0.22751583509942949 0.22611370459132249 0 -0.23438688937088101 0.20950880127376459 0 -0.2179929462964996 0.20970779707925541 0 -0.23438688937088101 0.20950880127376459 0 -0.22376514833270181 0.1971103731730669 0 -0.2179929462964996 0.20970779707925541 0 -0.25454920797491343 0.2079421238334275 0 -0.24810890252628839 0.23272384076664679 0 -0.23438688937088101 0.20950880127376459 0 -0.25454920797491343 0.2079421238334275 0 -0.2403470101433699 0.18165219217559081 0 -0.25454920797491343 0.2079421238334275 0 -0.2403470101433699 0.18165219217559081 0 -0.23438688937088101 0.20950880127376459 0 -0.2403470101433699 0.18165219217559081 0 -0.22383330677481161 0.18381590723660229 0 -0.22376514833270181 0.1971103731730669 0 -0.2403470101433699 0.18165219217559081 0 -0.23438688937088101 0.20950880127376459 0 -0.22376514833270181 0.1971103731730669 0 -0.22383330677481161 0.18381590723660229 0 -0.22376514833270181 0.1971103731730669 0 -0.215194913736828 0.18762860167928511 0 -0.2063098333149691 0.18509542672576229 0 -0.21204620087436291 0.19761780548569891 0 -0.20252933628824191 0.20221546417636951 0 -0.2063098333149691 0.18509542672576229 0 -0.215194913736828 0.18762860167928511 0 -0.21204620087436291 0.19761780548569891 0 -0.22376514833270181 0.1971103731730669 0 -0.215194913736828 0.18762860167928511 0 -0.21204620087436291 0.19761780548569891 0 -0.22376514833270181 0.1971103731730669 0 -0.21204620087436291 0.19761780548569891 0 -0.2179929462964996 0.20970779707925541 0 -0.21204620087436291 0.19761780548569891 0 -0.20252933628824191 0.20221546417636951 0 -0.1920843893918521 0.17847536276230211 0 -0.20252933628824191 0.20221546417636951 0 -0.19245901631056339 0.20708050073796769 0 -0.1920843893918521 0.17847536276230211 0 -0.19245901631056339 0.20708050073796769 0 -0.2063098333149691 0.18509542672576229 0 -0.1920843893918521 0.17847536276230211 0 -0.20252933628824191 0.20221546417636951 0 -0.1920843893918521 0.17847536276230211 0 -0.18880204372309881 0.1868569127446052 0 -0.19245901631056339 0.20708050073796769 0 -0.1920843893918521 0.17847536276230211 0 -0.20252933628824191 0.20221546417636951 0 -0.20252933628824191 0.20221546417636951 0 -0.19245901631056339 0.20708050073796769 0 -0.20079332242334191 0.2196349809435231 0 -0.20252933628824191 0.20221546417636951 0 -0.19245901631056339 0.20708050073796769 0 -0.20252933628824191 0.20221546417636951 0 -0.2179929462964996 0.20970779707925541 0 -0.2108527718794177 0.22113362690214439 0 -0.20252933628824191 0.20221546417636951 0 -0.2108527718794177 0.22113362690214439 0 -0.20079332242334191 0.2196349809435231 0 -0.20252933628824191 0.20221546417636951 0 -0.2108527718794177 0.22113362690214439 0 -0.21204620087436291 0.19761780548569891 0 -0.20252933628824191 0.20221546417636951 0 -0.2179929462964996 0.20970779707925541 0 -0.21917620747059349 0.2400517896279194 0 -0.20528015332893859 0.23116698616234349 0 -0.2108527718794177 0.22113362690214439 0 -0.21917620747059349 0.2400517896279194 0 -0.2108527718794177 0.22113362690214439 0 -0.20528015332893859 0.23116698616234349 0 -0.2108527718794177 0.22113362690214439 0 -0.20079332242334191 0.2196349809435231 0 -0.19245901631056339 0.20708050073796769 0 -0.1928453343095482 0.23657832673879051 0 -0.19245901631056339 0.20708050073796769 0 -0.20079332242334191 0.2196349809435231 0 -0.1928453343095482 0.23657832673879051 0 -0.19245901631056339 0.20708050073796769 0 -0.18762744027950071 0.2162001094132481 0 -0.1928453343095482 0.23657832673879051 0 -0.20528015332893859 0.23116698616234349 0 -0.20079332242334191 0.2196349809435231 0 -0.1928453343095482 0.23657832673879051 0 -0.18762744027950071 0.2162001094132481 0 -0.1928453343095482 0.23657832673879051 0 -0.1861771992849387 0.22370308277020581 0 -0.1928453343095482 0.23657832673879051 0 -0.18624560497823139 0.23004392324777601 0 -0.1861771992849387 0.22370308277020581 0 -0.19427039761083101 0.24727694594396901 0 -0.18624560497823139 0.23004392324777601 0 -0.20528015332893859 0.23116698616234349 0 -0.1928453343095482 0.23657832673879051 0 -0.20419595740249091 0.2409204726990703 0 -0.1928453343095482 0.23657832673879051 0 -0.19427039761083101 0.24727694594396901 0 -0.20419595740249091 0.2409204726990703 0 -0.1928453343095482 0.23657832673879051 0 -0.19427039761083101 0.24727694594396901 0 -0.18624560497823139 0.23004392324777601 0 -0.19427039761083101 0.24727694594396901 0 -0.1862961323164079 0.23472753620025891 0 -0.18624560497823139 0.23004392324777601 0 -0.18656275817447099 0.25944232164862657 0 -0.19427039761083101 0.24727694594396901 0 -0.1862961323164079 0.23472753620025891 0 -0.19427039761083101 0.24727694594396901 0 -0.1862961323164079 0.23472753620025891 0 -0.19427039761083101 0.24727694594396901 0 -0.209517222891585 0.2494718154920991 0 -0.20419595740249091 0.2409204726990703 0 -0.22749964306176901 0.25896995235369452 0 -0.21917620747059349 0.2400517896279194 0 -0.209517222891585 0.2494718154920991 0 -0.21917620747059349 0.2400517896279194 0 -0.20528015332893859 0.23116698616234349 0 -0.20419595740249091 0.2409204726990703 0 -0.21917620747059349 0.2400517896279194 0 -0.209517222891585 0.2494718154920991 0 -0.20419595740249091 0.2409204726990703 0 -0.1656099507623115 0.23900154844431981 0 -0.17306513709700391 0.24697109140888909 0 -0.15352499212526041 0.2472401473295146 0 -0.1656099507623115 0.23900154844431981 0 -0.15440713769665729 0.2377509237850387 0 -0.15352499212526041 0.2472401473295146 0 -0.1656099507623115 0.23900154844431981 0 -0.16245987844843329 0.23150255664923189 0 -0.15440713769665729 0.2377509237850387 0 -0.1656099507623115 0.23900154844431981 0 -0.17306513709700391 0.24697109140888909 0 -0.17621980112467719 0.2357163676173602 0 -0.18656275817447099 0.25944232164862657 0 -0.1862961323164079 0.23472753620025891 0 -0.18656275817447099 0.25944232164862657 0 -0.17306513709700391 0.24697109140888909 0 -0.1862961323164079 0.23472753620025891 0 -0.17306513709700391 0.24697109140888909 0 -0.1862961323164079 0.23472753620025891 0 -0.17621980112467719 0.2357163676173602 0 -0.17621980112467719 0.2357163676173602 0 -0.17706846806571219 0.2267002447718818 0 -0.1707749286957454 0.22839121174762261 0 -0.18624560497823139 0.23004392324777601 0 -0.1861771992849387 0.22370308277020581 0 -0.17865728216904131 0.21374820755967461 0 -0.17621980112467719 0.2357163676173602 0 -0.17706846806571219 0.2267002447718818 0 -0.18262186027338501 0.22894519216286979 0 -0.18624560497823139 0.23004392324777601 0 -0.17865728216904131 0.21374820755967461 0 -0.18262186027338501 0.22894519216286979 0 -0.18624560497823139 0.23004392324777601 0 -0.17865728216904131 0.21374820755967461 0 -0.1862961323164079 0.23472753620025891 0 -0.17621980112467719 0.2357163676173602 0 -0.18262186027338501 0.22894519216286979 0 -0.18624560497823139 0.23004392324777601 0 -0.1861771992849387 0.22370308277020581 0 -0.1862961323164079 0.23472753620025891 0 -0.18624560497823139 0.23004392324777601 0 -0.1862961323164079 0.23472753620025891 0 -0.18262186027338501 0.22894519216286979 0 -0.18624560497823139 0.23004392324777601 0 -0.1862961323164079 0.23472753620025891 0 -0.18262186027338501 0.22894519216286979 0 -0.17706846806571219 0.2267002447718818 0 -0.18262186027338501 0.22894519216286979 0 -0.17865728216904131 0.21374820755967461 0 -0.17706846806571219 0.2267002447718818 0 -0.1707749286957454 0.22839121174762261 0 -0.17865728216904131 0.21374820755967461 0 -0.16408299448986199 0.22078913998044791 0 -0.1707749286957454 0.22839121174762261 0 -0.17865728216904131 0.21374820755967461 0 -0.1656099507623115 0.23900154844431981 0 -0.17621980112467719 0.2357163676173602 0 -0.1707749286957454 0.22839121174762261 0 -0.1656099507623115 0.23900154844431981 0 -0.1707749286957454 0.22839121174762261 0 -0.16245987844843329 0.23150255664923189 0 -0.16408299448986199 0.22078913998044791 0 -0.1707749286957454 0.22839121174762261 0 -0.16245987844843329 0.23150255664923189 0 -0.15801217468616879 0.2297140278420739 0 -0.16245987844843329 0.23150255664923189 0 -0.15440713769665729 0.2377509237850387 0 -0.16408299448986199 0.22078913998044791 0 -0.15801217468616879 0.2297140278420739 0 -0.16245987844843329 0.23150255664923189 0 -0.16408299448986199 0.22078913998044791 0 -0.15801217468616879 0.2297140278420739 0 -0.1510986881097226 0.22881349095357709 0 -0.16408299448986199 0.22078913998044791 0 -0.14950870681068429 0.22783007240122449 0 -0.16397114084043471 0.20634547002077311 0 -0.17865728216904131 0.21374820755967461 0 -0.1678897830588395 0.19062529771730041 0 -0.16408299448986199 0.22078913998044791 0 -0.16397114084043471 0.20634547002077311 0 -0.15394216155389129 0.21406520749288599 0 -0.16408299448986199 0.22078913998044791 0 -0.16397114084043471 0.20634547002077311 0 -0.17865728216904131 0.21374820755967461 0 -0.16408299448986199 0.22078913998044791 0 -0.17865728216904131 0.21374820755967461 0 -0.19245901631056339 0.20708050073796769 0 -0.17865728216904131 0.21374820755967461 0 -0.17619034445069329 0.19343188092489549 0 -0.18762744027950071 0.2162001094132481 0 -0.1861771992849387 0.22370308277020581 0 -0.17865728216904131 0.21374820755967461 0 -0.19245901631056339 0.20708050073796769 0 -0.18762744027950071 0.2162001094132481 0 -0.17865728216904131 0.21374820755967461 0 -0.19245901631056339 0.20708050073796769 0 -0.17865728216904131 0.21374820755967461 0 -0.18880204372309881 0.1868569127446052 0 -0.19245901631056339 0.20708050073796769 0 -0.17619034445069329 0.19343188092489549 0 -0.17865728216904131 0.21374820755967461 0 -0.17619034445069329 0.19343188092489549 0 -0.1678897830588395 0.19062529771730041 0 -0.17865728216904131 0.21374820755967461 0 -0.1678897830588395 0.19062529771730041 0 -0.16397114084043471 0.20634547002077311 0 -0.1678897830588395 0.19062529771730041 0 -0.1572066754706434 0.19506426206705541 0 -0.1678897830588395 0.19062529771730041 0 -0.1572066754706434 0.19506426206705541 0 -0.15203594170421739 0.1782459595012412 0 -0.16397114084043471 0.20634547002077311 0 -0.1572066754706434 0.19506426206705541 0 -0.150723611526423 0.20378099985291931 0 -0.1572066754706434 0.19506426206705541 0 -0.1473933656861382 0.19228134647831269 0 -0.15203594170421739 0.1782459595012412 0 -0.1572066754706434 0.19506426206705541 0 -0.1473933656861382 0.19228134647831269 0 -0.150723611526423 0.20378099985291931 0 -0.1473933656861382 0.19228134647831269 0 -0.14017794785989551 0.19950755089127581 0 -0.150723611526423 0.20378099985291931 0 -0.1473933656861382 0.19228134647831269 0 -0.13420184417027919 0.18982459819665609 0 -0.14017794785989551 0.19950755089127581 0 -0.13420184417027919 0.18982459819665609 0 -0.14017794785989551 0.19950755089127581 0 -0.1300303118518111 0.20331472777125539 0 -0.1300303118518111 0.20331472777125539 0 -0.1279520399791701 0.21449706898683529 0 -0.14205579659697909 0.2104992712327324 0 -0.1279520399791701 0.21449706898683529 0 -0.14205579659697909 0.2104992712327324 0 -0.14950870681068429 0.22783007240122449 0 -0.14017794785989551 0.19950755089127581 0 -0.1300303118518111 0.20331472777125539 0 -0.14205579659697909 0.2104992712327324 0 -0.14205579659697909 0.2104992712327324 0 -0.15394216155389129 0.21406520749288599 0 -0.14950870681068429 0.22783007240122449 0 -0.14017794785989551 0.19950755089127581 0 -0.14205579659697909 0.2104992712327324 0 -0.150723611526423 0.20378099985291931 0 -0.16397114084043471 0.20634547002077311 0 -0.150723611526423 0.20378099985291931 0 -0.15394216155389129 0.21406520749288599 0 -0.14205579659697909 0.2104992712327324 0 -0.150723611526423 0.20378099985291931 0 -0.15394216155389129 0.21406520749288599 0 -0.16408299448986199 0.22078913998044791 0 -0.1510986881097226 0.22881349095357709 0 -0.14950870681068429 0.22783007240122449 0 -0.16408299448986199 0.22078913998044791 0 -0.15394216155389129 0.21406520749288599 0 -0.14950870681068429 0.22783007240122449 0 -0.15801217468616879 0.2297140278420739 0 -0.1510986881097226 0.22881349095357709 0 -0.15440713769665729 0.2377509237850387 0 -0.1510986881097226 0.22881349095357709 0 -0.14950870681068429 0.22783007240122449 0 -0.14601029993989029 0.239154988214382 0 -0.1510986881097226 0.22881349095357709 0 -0.14950870681068429 0.22783007240122449 0 -0.14950870681068429 0.22783007240122449 0 -0.1289841473711173 0.2377456195045379 0 -0.1279520399791701 0.21449706898683529 0 -0.14950870681068429 0.22783007240122449 0 -0.1289841473711173 0.2377456195045379 0 -0.1279520399791701 0.21449706898683529 0 -0.14950870681068429 0.22783007240122449 0 -0.1402267704934668 0.25400726291104692 0 -0.1289841473711173 0.2377456195045379 0 -0.14601029993989029 0.239154988214382 0 -0.14950870681068429 0.22783007240122449 0 -0.1289841473711173 0.2377456195045379 0 -0.14601029993989029 0.239154988214382 0 -0.1402267704934668 0.25400726291104692 0 -0.14601029993989029 0.239154988214382 0 -0.15352499212526041 0.2472401473295146 0 -0.1510986881097226 0.22881349095357709 0 -0.14601029993989029 0.239154988214382 0 -0.15440713769665729 0.2377509237850387 0 -0.14601029993989029 0.239154988214382 0 -0.15440713769665729 0.2377509237850387 0 -0.15352499212526041 0.2472401473295146 0 -0.16198369137448509 0.1420619716564781 0 -0.17738703834035871 0.167790324052145 0 -0.14806226123531521 0.15558157279013771 0 -0.16198369137448509 0.1420619716564781 0 -0.1720776276805745 0.141400785363132 0 -0.17792302185510889 0.14628828657904569 0 -0.16198369137448509 0.1420619716564781 0 -0.17738703834035871 0.167790324052145 0 -0.16322882228061461 0.1175557622290533 0 -0.16198369137448509 0.1420619716564781 0 -0.1711387043164814 0.13086835309446801 0 -0.16322882228061461 0.1175557622290533 0 -0.14658034440861251 0.11633361926081071 0 -0.16198369137448509 0.1420619716564781 0 -0.16198369137448509 0.1420619716564781 0 -0.1711387043164814 0.13086835309446801 0 -0.1720776276805745 0.141400785363132 0 -0.18942765474606291 0.1316069556491137 0 -0.1711387043164814 0.13086835309446801 0 -0.17792302185510889 0.14628828657904569 0 -0.1816102935269415 0.1155373250513712 0 -0.18942765474606291 0.1316069556491137 0 -0.1711387043164814 0.13086835309446801 0 -0.1711387043164814 0.13086835309446801 0 -0.17792302185510889 0.14628828657904569 0 -0.1711387043164814 0.13086835309446801 0 -0.1720776276805745 0.141400785363132 0 -0.17792302185510889 0.14628828657904569 0 -0.17792302185510889 0.14628828657904569 0 -0.18584797703789299 0.16430075151615819 0 -0.16198369137448509 0.1420619716564781 0 -0.17772059377825281 0.1513396856101954 0 -0.17680230255617149 0.15643253010634059 0 -0.16198369137448509 0.1420619716564781 0 -0.17738703834035871 0.167790324052145 0 -0.17680230255617149 0.15643253010634059 0 -0.18972504343194199 0.14813910299590491 0 -0.17792302185510889 0.14628828657904569 0 -0.1843985214841638 0.14915762591098969 0 -0.16198369137448509 0.1420619716564781 0 -0.17792302185510889 0.14628828657904569 0 -0.17772059377825281 0.1513396856101954 0 -0.17792302185510889 0.14628828657904569 0 -0.18470443130924349 0.1570587792830471 0 -0.18584797703789299 0.16430075151615819 0 -0.17792302185510889 0.14628828657904569 0 -0.17772059377825281 0.1513396856101954 0 -0.18584797703789299 0.16430075151615819 0 -0.17792302185510889 0.14628828657904569 0 -0.18357250461291241 0.15294738449800521 0 -0.18470443130924349 0.1570587792830471 0 -0.17792302185510889 0.14628828657904569 0 -0.18357250461291241 0.15294738449800521 0 -0.18242037853776619 0.14997092355896541 0 -0.17792302185510889 0.14628828657904569 0 -0.18242037853776619 0.14997092355896541 0 -0.1843985214841638 0.14915762591098969 0 -0.18357250461291241 0.15294738449800521 0 -0.18242037853776619 0.14997092355896541 0 -0.1846664624124166 0.15131480226366559 0 -0.18972504343194199 0.14813910299590491 0 -0.1843985214841638 0.14915762591098969 0 -0.18706811523360739 0.15097734238956839 0 -0.18242037853776619 0.14997092355896541 0 -0.1843985214841638 0.14915762591098969 0 -0.1846664624124166 0.15131480226366559 0 -0.1843985214841638 0.14915762591098969 0 -0.1846664624124166 0.15131480226366559 0 -0.18706811523360739 0.15097734238956839 0 -0.1846664624124166 0.15131480226366559 0 -0.18706811523360739 0.15097734238956839 0 -0.1861389648465096 0.15284096184032281 0 -0.18824480083274031 0.15285963570552091 0 -0.18706811523360739 0.15097734238956839 0 -0.1861389648465096 0.15284096184032281 0 -0.18357250461291241 0.15294738449800521 0 -0.18702187962891281 0.155567078710352 0 -0.18470443130924349 0.1570587792830471 0 -0.18357250461291241 0.15294738449800521 0 -0.1846664624124166 0.15131480226366559 0 -0.1861389648465096 0.15284096184032281 0 -0.18357250461291241 0.15294738449800521 0 -0.1861389648465096 0.15284096184032281 0 -0.18702187962891281 0.155567078710352 0 -0.18824480083274031 0.15285963570552091 0 -0.1861389648465096 0.15284096184032281 0 -0.18702187962891281 0.155567078710352 0 -0.1873241847562945 0.15889474826784419 0 -0.18470443130924349 0.1570587792830471 0 -0.18584797703789299 0.16430075151615819 0 -0.17772059377825281 0.1513396856101954 0 -0.18584797703789299 0.16430075151615819 0 -0.17680230255617149 0.15643253010634059 0 -0.18702187962891281 0.155567078710352 0 -0.1873241847562945 0.15889474826784419 0 -0.18470443130924349 0.1570587792830471 0 -0.18584797703789299 0.16430075151615819 0 -0.17738703834035871 0.167790324052145 0 -0.17680230255617149 0.15643253010634059 0 -0.18930478307013451 0.16044640964048579 0 -0.1873241847562945 0.15889474826784419 0 -0.18584797703789299 0.16430075151615819 0 -0.18584797703789299 0.16430075151615819 0 -0.17738703834035871 0.167790324052145 0 -0.1920843893918521 0.17847536276230211 0 -0.18584797703789299 0.16430075151615819 0 -0.17738703834035871 0.167790324052145 0 -0.18880204372309881 0.1868569127446052 0 -0.17738703834035871 0.167790324052145 0 -0.18880204372309881 0.1868569127446052 0 -0.17738703834035871 0.167790324052145 0 -0.17754450755149559 0.18064637650015899 0 -0.1920843893918521 0.17847536276230211 0 -0.18880204372309881 0.1868569127446052 0 -0.17738703834035871 0.167790324052145 0 -0.18880204372309881 0.1868569127446052 0 -0.17619034445069329 0.19343188092489549 0 -0.17754450755149559 0.18064637650015899 0 -0.17619034445069329 0.19343188092489549 0 -0.17754450755149559 0.18064637650015899 0 -0.15203594170421739 0.1782459595012412 0 -0.17738703834035871 0.167790324052145 0 -0.17754450755149559 0.18064637650015899 0 -0.15203594170421739 0.1782459595012412 0 -0.17619034445069329 0.19343188092489549 0 -0.1678897830588395 0.19062529771730041 0 -0.15203594170421739 0.1782459595012412 0 -0.17738703834035871 0.167790324052145 0 -0.15203594170421739 0.1782459595012412 0 -0.17619034445069329 0.19343188092489549 0 -0.15203594170421739 0.1782459595012412 0 -0.17738703834035871 0.167790324052145 0 -0.15203594170421739 0.1782459595012412 0 -0.14806226123531521 0.15558157279013771 0 -0.15203594170421739 0.1782459595012412 0 -0.1323595144271589 0.16587535023120431 0 -0.14806226123531521 0.15558157279013771 0 -0.1473933656861382 0.19228134647831269 0 -0.13420184417027919 0.18982459819665609 0 -0.15203594170421739 0.1782459595012412 0 -0.15203594170421739 0.1782459595012412 0 -0.1323595144271589 0.16587535023120431 0 -0.12722989367651841 0.18847679877550039 0 -0.15203594170421739 0.1782459595012412 0 -0.1323595144271589 0.16587535023120431 0 -0.13420184417027919 0.18982459819665609 0 -0.12722989367651841 0.18847679877550039 0 -0.15203594170421739 0.1782459595012412 0 -0.12722989367651841 0.18847679877550039 0 -0.1323595144271589 0.16587535023120431 0 -0.11584788673726661 0.16991231291351461 0 -0.12722989367651841 0.18847679877550039 0 -0.15203594170421739 0.1782459595012412 0 -0.14806226123531521 0.15558157279013771 0 -0.1408553934342392 0.1354065954160297 0 -0.1237519881314304 0.14410923588372479 0 -0.1323595144271589 0.16587535023120431 0 -0.14806226123531521 0.15558157279013771 0 -0.1237519881314304 0.14410923588372479 0 -0.16198369137448509 0.1420619716564781 0 -0.14806226123531521 0.15558157279013771 0 -0.1408553934342392 0.1354065954160297 0 -0.14658034440861251 0.11633361926081071 0 -0.16198369137448509 0.1420619716564781 0 -0.14658034440861251 0.11633361926081071 0 -0.16198369137448509 0.1420619716564781 0 -0.1408553934342392 0.1354065954160297 0 -0.14658034440861251 0.11633361926081071 0 -0.1408553934342392 0.1354065954160297 0 -0.1408553934342392 0.1354065954160297 0 -0.12157897914838039 0.127252633109814 0 -0.1237519881314304 0.14410923588372479 0 -0.1320923586692416 0.1163663372802315 0 -0.1408553934342392 0.1354065954160297 0 -0.12157897914838039 0.127252633109814 0 -0.12157897914838039 0.127252633109814 0 -0.11120793111902311 0.1355754253235166 0 -0.1237519881314304 0.14410923588372479 0 -0.12157897914838039 0.127252633109814 0 -0.11120793111902311 0.1355754253235166 0 -0.1096003078444298 0.12657837668202451 0 -0.1096003078444298 0.12657837668202451 0 -0.10092647217737109 0.12996042752134149 0 -0.10253192977079099 0.1208391027340967 0 -0.11120793111902311 0.1355754253235166 0 -0.1096003078444298 0.12657837668202451 0 -0.10092647217737109 0.12996042752134149 0 -0.11120793111902311 0.1355754253235166 0 -0.10130840289300749 0.13709400741208369 0 -0.10092647217737109 0.12996042752134149 0 -0.11120793111902311 0.1355754253235166 0 -0.10130840289300749 0.13709400741208369 0 -0.10839161383331999 0.14228350825432559 0 -0.10130840289300749 0.13709400741208369 0 -0.094129066332242453 0.13253900340244831 0 -0.093006659873039729 0.1411341316911337 0 -0.10130840289300749 0.13709400741208369 0 -0.10839161383331999 0.14228350825432559 0 -0.093006659873039729 0.1411341316911337 0 -0.10130840289300749 0.13709400741208369 0 -0.094129066332242453 0.13253900340244831 0 -0.10092647217737109 0.12996042752134149 0 -0.094129066332242453 0.13253900340244831 0 -0.10092647217737109 0.12996042752134149 0 -0.092505723778405144 0.1220922436829039 0 -0.11268308715009941 0.15350474096116901 0 -0.10046077224762 0.16205864808852799 0 -0.093006659873039729 0.1411341316911337 0 -0.11268308715009941 0.15350474096116901 0 -0.093006659873039729 0.1411341316911337 0 -0.10839161383331999 0.14228350825432559 0 -0.11268308715009941 0.15350474096116901 0 -0.093006659873039729 0.1411341316911337 0 -0.1323595144271589 0.16587535023120431 0 -0.11268308715009941 0.15350474096116901 0 -0.1237519881314304 0.14410923588372479 0 -0.11120793111902311 0.1355754253235166 0 -0.10839161383331999 0.14228350825432559 0 -0.1237519881314304 0.14410923588372479 0 -0.10839161383331999 0.14228350825432559 0 -0.11268308715009941 0.15350474096116901 0 -0.1237519881314304 0.14410923588372479 0 -0.1323595144271589 0.16587535023120431 0 -0.11268308715009941 0.15350474096116901 0 -0.1323595144271589 0.16587535023120431 0 -0.11268308715009941 0.15350474096116901 0 -0.11584788673726661 0.16991231291351461 0 -0.11268308715009941 0.15350474096116901 0 -0.11584788673726661 0.16991231291351461 0 -0.10046077224762 0.16205864808852799 0 -0.12722989367651841 0.18847679877550039 0 -0.11584788673726661 0.16991231291351461 0 -0.1065061661849363 0.17964602651117129 0 -0.1065061661849363 0.17964602651117129 0 -0.09669570345868668 0.18545161379422501 0 -0.092162680266037939 0.1737595139428974 0 -0.1065061661849363 0.17964602651117129 0 -0.10046077224762 0.16205864808852799 0 -0.092162680266037939 0.1737595139428974 0 -0.11584788673726661 0.16991231291351461 0 -0.1065061661849363 0.17964602651117129 0 -0.10046077224762 0.16205864808852799 0 -0.10046077224762 0.16205864808852799 0 -0.087355020913066975 0.16081197744056561 0 -0.092162680266037939 0.1737595139428974 0 -0.087355020913066975 0.16081197744056561 0 -0.07888959753238059 0.16750463234398161 0 -0.092162680266037939 0.1737595139428974 0 -0.087355020913066975 0.16081197744056561 0 -0.07888959753238059 0.16750463234398161 0 -0.078738885429394653 0.15460342265857691 0 -0.07888959753238059 0.16750463234398161 0 -0.092162680266037939 0.1737595139428974 0 -0.082145828134390336 0.1861654913964613 0 -0.09669570345868668 0.18545161379422501 0 -0.092162680266037939 0.1737595139428974 0 -0.082145828134390336 0.1861654913964613 0 -0.07888959753238059 0.16750463234398161 0 -0.082145828134390336 0.1861654913964613 0 -0.061867810619961848 0.17362334474316921 0 -0.082145828134390336 0.1861654913964613 0 -0.057039412990764517 0.19860952316187219 0 -0.061867810619961848 0.17362334474316921 0 -0.082145828134390336 0.1861654913964613 0 -0.061867810619961848 0.17362334474316921 0 -0.069293556758851349 0.16054035655621271 0 -0.058826571136921503 0.15532653907795599 0 -0.061867810619961848 0.17362334474316921 0 -0.07888959753238059 0.16750463234398161 0 -0.069293556758851349 0.16054035655621271 0 -0.061867810619961848 0.17362334474316921 0 -0.07888959753238059 0.16750463234398161 0 -0.069293556758851349 0.16054035655621271 0 -0.078738885429394653 0.15460342265857691 0 -0.069293556758851349 0.16054035655621271 0 -0.069381172526284299 0.14525615309989021 0 -0.058826571136921503 0.15532653907795599 0 -0.069293556758851349 0.16054035655621271 0 -0.069381172526284299 0.14525615309989021 0 -0.078738885429394653 0.15460342265857691 0 -0.069381172526284299 0.14525615309989021 0 -0.073330232595980371 0.12876352242109801 0 -0.086895502421800344 0.14541108525481281 0 -0.069381172526284299 0.14525615309989021 0 -0.064760867122807458 0.13500046796392981 0 -0.073330232595980371 0.12876352242109801 0 -0.069381172526284299 0.14525615309989021 0 -0.064760867122807458 0.13500046796392981 0 -0.054086200503068803 0.13790093864678549 0 -0.064760867122807458 0.13500046796392981 0 -0.073330232595980371 0.12876352242109801 0 -0.062212319198069077 0.1217736679822289 0 -0.073330232595980371 0.12876352242109801 0 -0.062212319198069077 0.1217736679822289 0 -0.073330232595980371 0.12876352242109801 0 -0.086282766221117635 0.12992386505995021 0 -0.093006659873039729 0.1411341316911337 0 -0.073330232595980371 0.12876352242109801 0 -0.093006659873039729 0.1411341316911337 0 -0.086895502421800344 0.14541108525481281 0 -0.073330232595980371 0.12876352242109801 0 -0.086895502421800344 0.14541108525481281 0 -0.073330232595980371 0.12876352242109801 0 -0.093006659873039729 0.1411341316911337 0 -0.073330232595980371 0.12876352242109801 0 -0.086282766221117635 0.12992386505995021 0 -0.083130252531738974 0.1211689289794653 0 -0.094129066332242453 0.13253900340244831 0 -0.086282766221117635 0.12992386505995021 0 -0.092505723778405144 0.1220922436829039 0 -0.094129066332242453 0.13253900340244831 0 -0.086282766221117635 0.12992386505995021 0 -0.093006659873039729 0.1411341316911337 0 -0.10046077224762 0.16205864808852799 0 -0.093006659873039729 0.1411341316911337 0 -0.086895502421800344 0.14541108525481281 0 -0.10046077224762 0.16205864808852799 0 -0.087355020913066975 0.16081197744056561 0 -0.086895502421800344 0.14541108525481281 0 -0.10046077224762 0.16205864808852799 0 -0.086895502421800344 0.14541108525481281 0 -0.069381172526284299 0.14525615309989021 0 -0.086895502421800344 0.14541108525481281 0 -0.078738885429394653 0.15460342265857691 0 -0.087355020913066975 0.16081197744056561 0 -0.086895502421800344 0.14541108525481281 0 -0.078738885429394653 0.15460342265857691 0 -0.1084595879315511 0.24766116660785301 0 -0.1148945616655201 0.2305252900222354 0 -0.1011549301014812 0.23323243330667581 0 -0.087935028491984882 0.25757671371116819 0 -0.1084595879315511 0.24766116660785301 0 -0.092313062287334366 0.2439339110423025 0 -0.1084595879315511 0.24766116660785301 0 -0.1011549301014812 0.23323243330667581 0 -0.092313062287334366 0.2439339110423025 0 -0.1011549301014812 0.23323243330667581 0 -0.09035930154992089 0.2330728055910429 0 -0.092313062287334366 0.2439339110423025 0 -0.1198359960768561 0.26275014732450791 0 -0.1289841473711173 0.2377456195045379 0 -0.1084595879315511 0.24766116660785301 0 -0.1289841473711173 0.2377456195045379 0 -0.1084595879315511 0.24766116660785301 0 -0.1289841473711173 0.2377456195045379 0 -0.1084595879315511 0.24766116660785301 0 -0.1148945616655201 0.2305252900222354 0 -0.1279520399791701 0.21449706898683529 0 -0.1148945616655201 0.2305252900222354 0 -0.1081110772570163 0.21752844402316979 0 -0.1279520399791701 0.21449706898683529 0 -0.1289841473711173 0.2377456195045379 0 -0.1148945616655201 0.2305252900222354 0 -0.1011549301014812 0.23323243330667581 0 -0.094948751713718263 0.22452255266154561 0 -0.1081110772570163 0.21752844402316979 0 -0.1148945616655201 0.2305252900222354 0 -0.1011549301014812 0.23323243330667581 0 -0.1081110772570163 0.21752844402316979 0 -0.094948751713718263 0.22452255266154561 0 -0.1081110772570163 0.21752844402316979 0 -0.091978812971742013 0.21429014636860649 0 -0.1011549301014812 0.23323243330667581 0 -0.094948751713718263 0.22452255266154561 0 -0.09035930154992089 0.2330728055910429 0 -0.1063953731476578 0.20116406557244279 0 -0.083518550901846761 0.2104932242170969 0 -0.1063953731476578 0.20116406557244279 0 -0.099739149396991106 0.19981489607900671 0 -0.083518550901846761 0.2104932242170969 0 -0.1081110772570163 0.21752844402316979 0 -0.098568032346778342 0.21061416492243129 0 -0.091978812971742013 0.21429014636860649 0 -0.098568032346778342 0.21061416492243129 0 -0.1063953731476578 0.20116406557244279 0 -0.083518550901846761 0.2104932242170969 0 -0.1081110772570163 0.21752844402316979 0 -0.098568032346778342 0.21061416492243129 0 -0.1063953731476578 0.20116406557244279 0 -0.1279520399791701 0.21449706898683529 0 -0.1081110772570163 0.21752844402316979 0 -0.1063953731476578 0.20116406557244279 0 -0.1300303118518111 0.20331472777125539 0 -0.1279520399791701 0.21449706898683529 0 -0.1063953731476578 0.20116406557244279 0 -0.1279520399791701 0.21449706898683529 0 -0.1063953731476578 0.20116406557244279 0 -0.13420184417027919 0.18982459819665609 0 -0.1063953731476578 0.20116406557244279 0 -0.13420184417027919 0.18982459819665609 0 -0.1300303118518111 0.20331472777125539 0 -0.1063953731476578 0.20116406557244279 0 -0.12722989367651841 0.18847679877550039 0 -0.10242384564881769 0.19870763804975519 0 -0.13420184417027919 0.18982459819665609 0 -0.12722989367651841 0.18847679877550039 0 -0.1063953731476578 0.20116406557244279 0 -0.12722989367651841 0.18847679877550039 0 -0.1065061661849363 0.17964602651117129 0 -0.10242384564881769 0.19870763804975519 0 -0.12722989367651841 0.18847679877550039 0 -0.1063953731476578 0.20116406557244279 0 -0.10242384564881769 0.19870763804975519 0 -0.1065061661849363 0.17964602651117129 0 -0.09669570345868668 0.18545161379422501 0 -0.10242384564881769 0.19870763804975519 0 -0.09669570345868668 0.18545161379422501 0 -0.082145828134390336 0.1861654913964613 0 -0.10242384564881769 0.19870763804975519 0 -0.082145828134390336 0.1861654913964613 0 -0.10242384564881769 0.19870763804975519 0 -0.099739149396991106 0.19981489607900671 0 -0.1063953731476578 0.20116406557244279 0 -0.10242384564881769 0.19870763804975519 0 -0.1063953731476578 0.20116406557244279 0 -0.10242384564881769 0.19870763804975519 0 -0.099739149396991106 0.19981489607900671 0 -0.10242384564881769 0.19870763804975519 0 -0.099739149396991106 0.19981489607900671 0 -0.099739149396991106 0.19981489607900671 0 -0.08698187284610194 0.19809520673219819 0 -0.083518550901846761 0.2104932242170969 0 -0.082145828134390336 0.1861654913964613 0 -0.10242384564881769 0.19870763804975519 0 -0.082145828134390336 0.1861654913964613 0 -0.099739149396991106 0.19981489607900671 0 -0.08698187284610194 0.19809520673219819 0 -0.082145828134390336 0.1861654913964613 0 -0.08698187284610194 0.19809520673219819 0 -0.057039412990764517 0.19860952316187219 0 -0.08698187284610194 0.19809520673219819 0 -0.083518550901846761 0.2104932242170969 0 -0.057039412990764517 0.19860952316187219 0 -0.064731611444050138 0.21815453035332991 0 -0.083518550901846761 0.2104932242170969 0 -0.057039412990764517 0.19860952316187219 0 -0.064731611444050138 0.21815453035332991 0 -0.083518550901846761 0.2104932242170969 0 -0.064731611444050138 0.21815453035332991 0 -0.083518550901846761 0.2104932242170969 0 -0.083044213079483495 0.2228741334032722 0 -0.083518550901846761 0.2104932242170969 0 -0.057039412990764517 0.19860952316187219 0 -0.098568032346778342 0.21061416492243129 0 -0.083518550901846761 0.2104932242170969 0 -0.091978812971742013 0.21429014636860649 0 -0.083518550901846761 0.2104932242170969 0 -0.091978812971742013 0.21429014636860649 0 -0.083518550901846761 0.2104932242170969 0 -0.091978812971742013 0.21429014636860649 0 -0.083044213079483495 0.2228741334032722 0 -0.094948751713718263 0.22452255266154561 0 -0.091978812971742013 0.21429014636860649 0 -0.083044213079483495 0.2228741334032722 0 -0.094948751713718263 0.22452255266154561 0 -0.09035930154992089 0.2330728055910429 0 -0.083044213079483495 0.2228741334032722 0 -0.09035930154992089 0.2330728055910429 0 -0.083044213079483495 0.2228741334032722 0 -0.080144703349692259 0.2375713963114964 0 -0.083044213079483495 0.2228741334032722 0 -0.072510947182165997 0.22861774257235221 0 -0.080144703349692259 0.2375713963114964 0 -0.072510947182165997 0.22861774257235221 0 -0.080144703349692259 0.2375713963114964 0 -0.062123260855438088 0.23587091022131021 0 -0.064731611444050138 0.21815453035332991 0 -0.072510947182165997 0.22861774257235221 0 -0.062123260855438088 0.23587091022131021 0 -0.064731611444050138 0.21815453035332991 0 -0.083044213079483495 0.2228741334032722 0 -0.072510947182165997 0.22861774257235221 0 -0.073881830798883275 0.2478657501268112 0 -0.080144703349692259 0.2375713963114964 0 -0.062123260855438088 0.23587091022131021 0 -0.057390474112463452 0.25529612272236962 0 -0.073881830798883275 0.2478657501268112 0 -0.062123260855438088 0.23587091022131021 0 -0.083689519318301361 0.2496791884595774 0 -0.080144703349692259 0.2375713963114964 0 -0.092313062287334366 0.2439339110423025 0 -0.073881830798883275 0.2478657501268112 0 -0.083689519318301361 0.2496791884595774 0 -0.080144703349692259 0.2375713963114964 0 -0.09035930154992089 0.2330728055910429 0 -0.080144703349692259 0.2375713963114964 0 -0.092313062287334366 0.2439339110423025 0 -0.057390474112463452 0.25529612272236962 0 -0.040644801569715699 0.23903706466270749 0 -0.030607976561314879 0.24914407433863051 0 -0.040644801569715699 0.23903706466270749 0 -0.026586338578970459 0.24132816029063531 0 -0.030607976561314879 0.24914407433863051 0 -0.040644801569715699 0.23903706466270749 0 -0.02715773252845596 0.23347714262579369 0 -0.026586338578970459 0.24132816029063531 0 -0.057390474112463452 0.25529612272236962 0 -0.040644801569715699 0.23903706466270749 0 -0.062123260855438088 0.23587091022131021 0 -0.064731611444050138 0.21815453035332991 0 -0.045944671986253127 0.22581583648956191 0 -0.040644801569715699 0.23903706466270749 0 -0.062123260855438088 0.23587091022131021 0 -0.045944671986253127 0.22581583648956191 0 -0.064731611444050138 0.21815453035332991 0 -0.062123260855438088 0.23587091022131021 0 -0.045944671986253127 0.22581583648956191 0 -0.040644801569715699 0.23903706466270749 0 -0.045944671986253127 0.22581583648956191 0 -0.02715773252845596 0.23347714262579369 0 -0.045944671986253127 0.22581583648956191 0 -0.028859003804068899 0.21010148236622089 0 -0.02715773252845596 0.23347714262579369 0 -0.045944671986253127 0.22581583648956191 0 -0.02715773252845596 0.23347714262579369 0 -0.045944671986253127 0.22581583648956191 0 -0.045088437531830942 0.20960128821106419 0 -0.028859003804068899 0.21010148236622089 0 -0.064731611444050138 0.21815453035332991 0 -0.045944671986253127 0.22581583648956191 0 -0.045088437531830942 0.20960128821106419 0 -0.064731611444050138 0.21815453035332991 0 -0.045088437531830942 0.20960128821106419 0 -0.057039412990764517 0.19860952316187219 0 -0.045088437531830942 0.20960128821106419 0 -0.028859003804068899 0.21010148236622089 0 -0.0305602750796822 0.18672582210664801 0 -0.045088437531830942 0.20960128821106419 0 -0.057039412990764517 0.19860952316187219 0 -0.0305602750796822 0.18672582210664801 0 -0.057039412990764517 0.19860952316187219 0 -0.0305602750796822 0.18672582210664801 0 -0.01528533086514591 0.19483742912199131 0 -0.028859003804068899 0.21010148236622089 0 -0.0305602750796822 0.18672582210664801 0 -0.028859003804068899 0.21010148236622089 0 -0.0305602750796822 0.18672582210664801 0 -0.01528533086514591 0.19483742912199131 0 -0.0033409293665109712 0.18987861945848691 0 -0.01595763631495339 0.18017223285158279 0 -0.0033409293665109712 0.18987861945848691 0 -0.0041862342159543391 0.20221448064915409 0 0.0064253170443337422 0.1994628317062932 0 -0.01528533086514591 0.19483742912199131 0 -0.0033409293665109712 0.18987861945848691 0 -0.0041862342159543391 0.20221448064915409 0 -0.01528533086514591 0.19483742912199131 0 -0.0041862342159543391 0.20221448064915409 0 -0.01384519569179248 0.20777286983834711 0 -0.0041862342159543391 0.20221448064915409 0 -0.0049133572815684033 0.21374507306154791 0 0.0039345892832965742 0.20873124612309329 0 -0.0041862342159543391 0.20221448064915409 0 -0.01384519569179248 0.20777286983834711 0 -0.0049133572815684033 0.21374507306154791 0 -0.0049133572815684033 0.21374507306154791 0 -0.0043940024179732308 0.2245289383231 0 0.0034681343392300242 0.21780582288858169 0 -0.01384519569179248 0.20777286983834711 0 -0.0049133572815684033 0.21374507306154791 0 -0.01445743498621698 0.22141708054701109 0 -0.01384519569179248 0.20777286983834711 0 -0.028859003804068899 0.21010148236622089 0 -0.01445743498621698 0.22141708054701109 0 -0.01528533086514591 0.19483742912199131 0 -0.01384519569179248 0.20777286983834711 0 -0.028859003804068899 0.21010148236622089 0 -0.028859003804068899 0.21010148236622089 0 -0.02715773252845596 0.23347714262579369 0 -0.028859003804068899 0.21010148236622089 0 -0.02715773252845596 0.23347714262579369 0 -0.01445743498621698 0.22141708054701109 0 -0.02715773252845596 0.23347714262579369 0 -0.01445743498621698 0.22141708054701109 0 -0.013266993290119411 0.23259890497335381 0 -0.0049133572815684033 0.21374507306154791 0 -0.01445743498621698 0.22141708054701109 0 -0.0043940024179732308 0.2245289383231 0 -0.01445743498621698 0.22141708054701109 0 -0.0043940024179732308 0.2245289383231 0 -0.0083795939761273051 0.22991402769397279 0 -0.0043940024179732308 0.2245289383231 0 -0.0035385722334345319 0.23259324494001909 0 -0.0083795939761273051 0.22991402769397279 0 -0.0035385722334345319 0.23259324494001909 0 -0.0083795939761273051 0.22991402769397279 0 -0.0037125514449662602 0.23781967638154031 0 -0.0043940024179732308 0.2245289383231 0 0.003633430085715296 0.22656761900649491 0 0.00034957618362370439 0.23069080924624799 0 -0.0043940024179732308 0.2245289383231 0 -0.0035385722334345319 0.23259324494001909 0 0.00034957618362370439 0.23069080924624799 0 -0.0035385722334345319 0.23259324494001909 0 0.001227787271709478 0.23622629842462789 0 0.00034957618362370439 0.23069080924624799 0 -0.013266993290119411 0.23259890497335381 0 -0.0083795939761273051 0.22991402769397279 0 -0.0037125514449662602 0.23781967638154031 0 -0.01445743498621698 0.22141708054701109 0 -0.013266993290119411 0.23259890497335381 0 -0.0083795939761273051 0.22991402769397279 0 -0.02715773252845596 0.23347714262579369 0 -0.0038254790101660422 0.2429920259548923 0 -0.02715773252845596 0.23347714262579369 0 -0.013266993290119411 0.23259890497335381 0 -0.0038254790101660422 0.2429920259548923 0 -0.0038254790101660422 0.2429920259548923 0 -0.01039659283100491 0.2485002137533103 0 -0.030607976561314879 0.24914407433863051 0 -0.013266993290119411 0.23259890497335381 0 -0.0037125514449662602 0.23781967638154031 0 -0.0038254790101660422 0.2429920259548923 0 -0.002240369875262493 0.240623613202707 0 -0.00044177489149930979 0.23934395803639541 0 -0.0037125514449662602 0.23781967638154031 0 -0.002240369875262493 0.240623613202707 0 -0.0037125514449662602 0.23781967638154031 0 -0.0038254790101660422 0.2429920259548923 0 -0.002240369875262493 0.240623613202707 0 -0.00098167415441836187 0.24233879243799991 0 -0.0038254790101660422 0.2429920259548923 0 -0.002240369875262493 0.240623613202707 0 -0.00044177489149930979 0.23934395803639541 0 -0.00098167415441836187 0.24233879243799991 0 -0.00044177489149930979 0.23934395803639541 0 -0.0037125514449662602 0.23781967638154031 0 0.001227787271709478 0.23622629842462789 0 -0.0035385722334345319 0.23259324494001909 0 -0.0037125514449662602 0.23781967638154031 0 0.001227787271709478 0.23622629842462789 0 -0.0045345189142265169 0.25350634819326018 0 -0.002005662434308564 0.24836598281606709 0 -0.0049448924825990581 0.2473268840360312 0 -0.002005662434308564 0.24836598281606709 0 -0.0021052929507955069 0.24583497749543229 0 -0.0049448924825990581 0.2473268840360312 0 -0.002005662434308564 0.24836598281606709 0 -0.0021052929507955069 0.24583497749543229 0 0.001636127094255771 0.24521926666408339 0 -0.0038254790101660422 0.2429920259548923 0 -0.0021052929507955069 0.24583497749543229 0 -0.0049448924825990581 0.2473268840360312 0 -0.0038254790101660422 0.2429920259548923 0 -0.0021052929507955069 0.24583497749543229 0 0.001636127094255771 0.24521926666408339 0 -0.00098167415441836187 0.24233879243799991 0 -0.0038254790101660422 0.2429920259548923 0 0.001636127094255771 0.24521926666408339 0 -0.0038254790101660422 0.2429920259548923 0 0.001636127094255771 0.24521926666408339 0 -0.00098167415441836187 0.24233879243799991 0 -0.0038254790101660422 0.2429920259548923 0 -0.0038254790101660422 0.2429920259548923 0 -0.0049448924825990581 0.2473268840360312 0 -0.01039659283100491 0.2485002137533103 0 -0.0045345189142265169 0.25350634819326018 0 -0.0049448924825990581 0.2473268840360312 0 -0.01039659283100491 0.2485002137533103 0 -0.0038254790101660422 0.2429920259548923 0 -0.030607976561314879 0.24914407433863051 0 -0.02715773252845596 0.23347714262579369 0 -0.0038254790101660422 0.2429920259548923 0 -0.026586338578970459 0.24132816029063531 0 -0.0038254790101660422 0.2429920259548923 0 -0.026586338578970459 0.24132816029063531 0 -0.030607976561314879 0.24914407433863051 0 -0.02715773252845596 0.23347714262579369 0 -0.026586338578970459 0.24132816029063531 0 -0.03404187933667352 0.13888818478432019 0 -0.03222939594736253 0.16379191209809671 0 -0.044796011731006669 0.14897689365178959 0 -0.03404187933667352 0.13888818478432019 0 -0.054086200503068803 0.13790093864678549 0 -0.044796011731006669 0.14897689365178959 0 -0.03404187933667352 0.13888818478432019 0 -0.03222939594736253 0.16379191209809671 0 -0.03404187933667352 0.13888818478432019 0 -0.035854362725984142 0.1139844574705437 0 -0.048736154732834359 0.1243732871323918 0 -0.03404187933667352 0.13888818478432019 0 -0.054086200503068803 0.13790093864678549 0 -0.048736154732834359 0.1243732871323918 0 -0.03404187933667352 0.13888818478432019 0 -0.035854362725984142 0.1139844574705437 0 -0.054086200503068803 0.13790093864678549 0 -0.048736154732834359 0.1243732871323918 0 -0.062212319198069077 0.1217736679822289 0 -0.064760867122807458 0.13500046796392981 0 -0.054086200503068803 0.13790093864678549 0 -0.062212319198069077 0.1217736679822289 0 -0.044796011731006669 0.14897689365178959 0 -0.054086200503068803 0.13790093864678549 0 -0.058826571136921503 0.15532653907795599 0 -0.044796011731006669 0.14897689365178959 0 -0.058826571136921503 0.15532653907795599 0 -0.041512189263051703 0.16083737623005359 0 -0.069381172526284299 0.14525615309989021 0 -0.054086200503068803 0.13790093864678549 0 -0.058826571136921503 0.15532653907795599 0 -0.061867810619961848 0.17362334474316921 0 -0.043561395452826383 0.17653166829390801 0 -0.041512189263051703 0.16083737623005359 0 -0.061867810619961848 0.17362334474316921 0 -0.041512189263051703 0.16083737623005359 0 -0.058826571136921503 0.15532653907795599 0 -0.041512189263051703 0.16083737623005359 0 -0.058826571136921503 0.15532653907795599 0 -0.061867810619961848 0.17362334474316921 0 -0.041512189263051703 0.16083737623005359 0 -0.057039412990764517 0.19860952316187219 0 -0.061867810619961848 0.17362334474316921 0 -0.043561395452826383 0.17653166829390801 0 -0.057039412990764517 0.19860952316187219 0 -0.043561395452826383 0.17653166829390801 0 -0.0305602750796822 0.18672582210664801 0 -0.03222939594736253 0.16379191209809671 0 -0.0305602750796822 0.18672582210664801 0 -0.043561395452826383 0.17653166829390801 0 -0.03222939594736253 0.16379191209809671 0 -0.0305602750796822 0.18672582210664801 0 -0.043561395452826383 0.17653166829390801 0 -0.041512189263051703 0.16083737623005359 0 -0.03222939594736253 0.16379191209809671 0 -0.044796011731006669 0.14897689365178959 0 -0.041512189263051703 0.16083737623005359 0 -0.03222939594736253 0.16379191209809671 0 -0.041512189263051703 0.16083737623005359 0 -0.03222939594736253 0.16379191209809671 0 -0.03222939594736253 0.16379191209809671 0 -0.016792196748793561 0.16870527784730591 0 -0.019879571714442119 0.15169784893587979 0 -0.03222939594736253 0.16379191209809671 0 -0.016792196748793561 0.16870527784730591 0 -0.016792196748793561 0.16870527784730591 0 -0.0305602750796822 0.18672582210664801 0 -0.01595763631495339 0.18017223285158279 0 -0.03222939594736253 0.16379191209809671 0 -0.016792196748793561 0.16870527784730591 0 -0.0305602750796822 0.18672582210664801 0 -0.01528533086514591 0.19483742912199131 0 -0.0305602750796822 0.18672582210664801 0 -0.01595763631495339 0.18017223285158279 0 -0.0305602750796822 0.18672582210664801 0 -0.01595763631495339 0.18017223285158279 0 -0.0033409293665109712 0.18987861945848691 0 -0.01595763631495339 0.18017223285158279 0 -0.001354997550225002 0.1736186435965166 0 -0.016792196748793561 0.16870527784730591 0 -0.01595763631495339 0.18017223285158279 0 -0.001354997550225002 0.1736186435965166 0 -0.01595763631495339 0.18017223285158279 0 -0.001354997550225002 0.1736186435965166 0 -0.016792196748793561 0.16870527784730591 0 -0.0037010412524152371 0.14888078615867709 0 -0.019879571714442119 0.15169784893587979 0 -0.016792196748793561 0.16870527784730591 0 -0.0037010412524152371 0.14888078615867709 0 0.0041639884908149429 0.16056727500179069 0 -0.016792196748793561 0.16870527784730591 0 -0.001354997550225002 0.1736186435965166 0 0.0041639884908149429 0.16056727500179069 0 -0.016792196748793561 0.16870527784730591 0 -0.001354997550225002 0.1736186435965166 0 -0.0037010412524152371 0.14888078615867709 0 -0.019879571714442119 0.15169784893587979 0 -0.01347869227200605 0.1375147966792219 0 -0.03404187933667352 0.13888818478432019 0 -0.019879571714442119 0.15169784893587979 0 -0.01347869227200605 0.1375147966792219 0 -0.03404187933667352 0.13888818478432019 0 -0.03222939594736253 0.16379191209809671 0 -0.019879571714442119 0.15169784893587979 0 -0.03404187933667352 0.13888818478432019 0 -0.01347869227200605 0.1375147966792219 0 -0.014653178200833389 0.1179466396929325 0 -0.01347869227200605 0.1375147966792219 0 -0.014653178200833389 0.1179466396929325 0 0.0048822091443339937 0.1301605238242998 0 -0.0037010412524152371 0.14888078615867709 0 -0.01347869227200605 0.1375147966792219 0 0.0048822091443339937 0.1301605238242998 0 -0.014653178200833389 0.1179466396929325 0 -0.0062757738786398919 0.097973495785085324 0 -0.022845616506789311 0.095274693822282319 0 -0.014653178200833389 0.1179466396929325 0 -0.0062757738786398919 0.097973495785085324 0 0.01386301077930052 0.1067503783981619 0 -0.014653178200833389 0.1179466396929325 0 -0.022845616506789311 0.095274693822282319 0 -0.035854362725984142 0.1139844574705437 0 -0.03404187933667352 0.13888818478432019 0 -0.014653178200833389 0.1179466396929325 0 -0.035854362725984142 0.1139844574705437 0 -0.0042660718709032937 0.064752717198481941 0 -0.01061801220259052 0.082013814110628108 0 0.0060949717525474812 0.081637648255242959 0 -0.0042660718709032937 0.064752717198481941 0 -0.01061801220259052 0.082013814110628108 0 -0.025797570509167578 0.070430515492047957 0 -0.0062757738786398919 0.097973495785085324 0 -0.022845616506789311 0.095274693822282319 0 -0.01061801220259052 0.082013814110628108 0 -0.0062757738786398919 0.097973495785085324 0 -0.01061801220259052 0.082013814110628108 0 0.0060949717525474812 0.081637648255242959 0 -0.022845616506789311 0.095274693822282319 0 -0.025797570509167578 0.070430515492047957 0 -0.041641791204771919 0.089874851135064521 0 -0.022845616506789311 0.095274693822282319 0 -0.01061801220259052 0.082013814110628108 0 -0.025797570509167578 0.070430515492047957 0 -0.025797570509167578 0.070430515492047957 0 -0.043634998659472617 0.068440440645636827 0 -0.031888340196912383 0.059391053768455312 0 -0.025797570509167578 0.070430515492047957 0 -0.043634998659472617 0.068440440645636827 0 -0.041641791204771919 0.089874851135064521 0 -0.043634998659472617 0.068440440645636827 0 -0.041641791204771919 0.089874851135064521 0 -0.054487969780558927 0.081715139905200324 0 -0.025797570509167578 0.070430515492047957 0 -0.041641791204771919 0.089874851135064521 0 -0.041641791204771919 0.089874851135064521 0 -0.054487969780558927 0.081715139905200324 0 -0.060212864270754438 0.09380671882614644 0 -0.054487969780558927 0.081715139905200324 0 -0.060212864270754438 0.09380671882614644 0 -0.068276377337952054 0.080291335544886502 0 -0.043634998659472617 0.068440440645636827 0 -0.054487969780558927 0.081715139905200324 0 -0.057269140137880287 0.070010564942569728 0 -0.054487969780558927 0.081715139905200324 0 -0.057269140137880287 0.070010564942569728 0 -0.068276377337952054 0.080291335544886502 0 -0.057269140137880287 0.070010564942569728 0 -0.068032787614105944 0.064580008102436068 0 -0.055297638312560897 0.059830595490155361 0 -0.043634998659472617 0.068440440645636827 0 -0.057269140137880287 0.070010564942569728 0 -0.055297638312560897 0.059830595490155361 0 -0.022845616506789311 0.095274693822282319 0 -0.041641791204771919 0.089874851135064521 0 -0.035854362725984142 0.1139844574705437 0 -0.041641791204771919 0.089874851135064521 0 -0.035854362725984142 0.1139844574705437 0 -0.057486011900376263 0.1093191867780811 0 -0.041641791204771919 0.089874851135064521 0 -0.057486011900376263 0.1093191867780811 0 -0.041641791204771919 0.089874851135064521 0 -0.060212864270754438 0.09380671882614644 0 -0.057486011900376263 0.1093191867780811 0 -0.060212864270754438 0.09380671882614644 0 -0.057486011900376263 0.1093191867780811 0 -0.067224358083750047 0.1023691063163775 0 -0.035854362725984142 0.1139844574705437 0 -0.057486011900376263 0.1093191867780811 0 -0.048736154732834359 0.1243732871323918 0 -0.057486011900376263 0.1093191867780811 0 -0.048736154732834359 0.1243732871323918 0 -0.062212319198069077 0.1217736679822289 0 -0.073330232595980371 0.12876352242109801 0 -0.057486011900376263 0.1093191867780811 0 -0.077162328827295235 0.11175260852575759 0 -0.073330232595980371 0.12876352242109801 0 -0.077162328827295235 0.11175260852575759 0 -0.083130252531738974 0.1211689289794653 0 -0.073330232595980371 0.12876352242109801 0 -0.057486011900376263 0.1093191867780811 0 -0.062212319198069077 0.1217736679822289 0 -0.073330232595980371 0.12876352242109801 0 -0.057486011900376263 0.1093191867780811 0 -0.077162328827295235 0.11175260852575759 0 -0.083130252531738974 0.1211689289794653 0 -0.086799037615779909 0.1133569028137221 0 -0.086799037615779909 0.1133569028137221 0 -0.092505723778405144 0.1220922436829039 0 -0.099727530821448362 0.10941599956994209 0 -0.086282766221117635 0.12992386505995021 0 -0.083130252531738974 0.1211689289794653 0 -0.092505723778405144 0.1220922436829039 0 -0.083130252531738974 0.1211689289794653 0 -0.086799037615779909 0.1133569028137221 0 -0.092505723778405144 0.1220922436829039 0 -0.087562117325396219 0.1029869552980881 0 -0.074036227336574237 0.09459791113552489 0 -0.084754799030209452 0.085362482484687724 0 -0.077162328827295235 0.11175260852575759 0 -0.087562117325396219 0.1029869552980881 0 -0.074036227336574237 0.09459791113552489 0 -0.086799037615779909 0.1133569028137221 0 -0.087562117325396219 0.1029869552980881 0 -0.099727530821448362 0.10941599956994209 0 -0.077162328827295235 0.11175260852575759 0 -0.086799037615779909 0.1133569028137221 0 -0.087562117325396219 0.1029869552980881 0 -0.057486011900376263 0.1093191867780811 0 -0.077162328827295235 0.11175260852575759 0 -0.067224358083750047 0.1023691063163775 0 -0.077162328827295235 0.11175260852575759 0 -0.074036227336574237 0.09459791113552489 0 -0.067224358083750047 0.1023691063163775 0 -0.060212864270754438 0.09380671882614644 0 -0.074036227336574237 0.09459791113552489 0 -0.067224358083750047 0.1023691063163775 0 -0.068276377337952054 0.080291335544886502 0 -0.080794183098505667 0.070924839837263387 0 -0.084754799030209452 0.085362482484687724 0 -0.074036227336574237 0.09459791113552489 0 -0.068276377337952054 0.080291335544886502 0 -0.084754799030209452 0.085362482484687724 0 -0.060212864270754438 0.09380671882614644 0 -0.074036227336574237 0.09459791113552489 0 -0.068276377337952054 0.080291335544886502 0 -0.068276377337952054 0.080291335544886502 0 -0.068032787614105944 0.064580008102436068 0 -0.080794183098505667 0.070924839837263387 0 -0.057269140137880287 0.070010564942569728 0 -0.068276377337952054 0.080291335544886502 0 -0.068032787614105944 0.064580008102436068 0 -0.068032787614105944 0.064580008102436068 0 -0.080794183098505667 0.070924839837263387 0 -0.079428449533967993 0.058781410192725897 0 -0.080794183098505667 0.070924839837263387 0 -0.089241077322883611 0.059963824654260298 0 -0.079428449533967993 0.058781410192725897 0 -0.080794183098505667 0.070924839837263387 0 -0.08933953536863623 0.075705458572444068 0 -0.084754799030209452 0.085362482484687724 0 -0.080794183098505667 0.070924839837263387 0 -0.08933953536863623 0.075705458572444068 0 -0.094336331688691044 0.067772386408041702 0 -0.080794183098505667 0.070924839837263387 0 -0.094336331688691044 0.067772386408041702 0 -0.089241077322883611 0.059963824654260298 0 -0.087562117325396219 0.1029869552980881 0 -0.084754799030209452 0.085362482484687724 0 -0.096646877647685564 0.092737048470556444 0 -0.084754799030209452 0.085362482484687724 0 -0.096646877647685564 0.092737048470556444 0 -0.098414701785109485 0.07934553498015931 0 -0.08933953536863623 0.075705458572444068 0 -0.084754799030209452 0.085362482484687724 0 -0.098414701785109485 0.07934553498015931 0 -0.096646877647685564 0.092737048470556444 0 -0.098414701785109485 0.07934553498015931 0 -0.108941900917156 0.083904819939939757 0 -0.096646877647685564 0.092737048470556444 0 -0.108941900917156 0.083904819939939757 0 -0.10908254174546431 0.097712103802008288 0 -0.08933953536863623 0.075705458572444068 0 -0.098414701785109485 0.07934553498015931 0 -0.094336331688691044 0.067772386408041702 0 -0.098414701785109485 0.07934553498015931 0 -0.094336331688691044 0.067772386408041702 0 -0.10886234532650001 0.070610772633777893 0 -0.098414701785109485 0.07934553498015931 0 -0.108941900917156 0.083904819939939757 0 -0.10886234532650001 0.070610772633777893 0 -0.094336331688691044 0.067772386408041702 0 -0.10886234532650001 0.070610772633777893 0 -0.1038131223448288 0.059502691017654159 0 -0.10886234532650001 0.070610772633777893 0 -0.1200770937022317 0.061032803681047812 0 -0.1038131223448288 0.059502691017654159 0 -0.10886234532650001 0.070610772633777893 0 -0.12078255002608961 0.07635017351281656 0 -0.1200770937022317 0.061032803681047812 0 -0.108941900917156 0.083904819939939757 0 -0.10886234532650001 0.070610772633777893 0 -0.12078255002608961 0.07635017351281656 0 -0.1339595528402274 0.065748159677748177 0 -0.12078255002608961 0.07635017351281656 0 -0.1200770937022317 0.061032803681047812 0 -0.13374486391322971 0.085725862664189578 0 -0.12078255002608961 0.07635017351281656 0 -0.11795489244031131 0.090591650721755998 0 -0.108941900917156 0.083904819939939757 0 -0.11795489244031131 0.090591650721755998 0 -0.10908254174546431 0.097712103802008288 0 -0.108941900917156 0.083904819939939757 0 -0.12078255002608961 0.07635017351281656 0 -0.11795489244031131 0.090591650721755998 0 -0.12784379276086391 0.095530604182346684 0 -0.11795489244031131 0.090591650721755998 0 -0.1223370802615215 0.10490829852774609 0 -0.11795489244031131 0.090591650721755998 0 -0.1223370802615215 0.10490829852774609 0 -0.10908254174546431 0.097712103802008288 0 -0.11206336746789999 0.1078302962267898 0 -0.1223370802615215 0.10490829852774609 0 -0.10908254174546431 0.097712103802008288 0 -0.11206336746789999 0.1078302962267898 0 -0.1223370802615215 0.10490829852774609 0 -0.1214559596300985 0.11542114779049401 0 -0.12157897914838039 0.127252633109814 0 -0.1214559596300985 0.11542114779049401 0 -0.1125299285127915 0.1181039196147015 0 -0.12157897914838039 0.127252633109814 0 -0.1096003078444298 0.12657837668202451 0 -0.1125299285127915 0.1181039196147015 0 -0.11206336746789999 0.1078302962267898 0 -0.1214559596300985 0.11542114779049401 0 -0.1125299285127915 0.1181039196147015 0 -0.1125299285127915 0.1181039196147015 0 -0.10253192977079099 0.1208391027340967 0 -0.099727530821448362 0.10941599956994209 0 -0.11206336746789999 0.1078302962267898 0 -0.1125299285127915 0.1181039196147015 0 -0.099727530821448362 0.10941599956994209 0 -0.1096003078444298 0.12657837668202451 0 -0.1125299285127915 0.1181039196147015 0 -0.10253192977079099 0.1208391027340967 0 -0.092505723778405144 0.1220922436829039 0 -0.10253192977079099 0.1208391027340967 0 -0.099727530821448362 0.10941599956994209 0 -0.10092647217737109 0.12996042752134149 0 -0.092505723778405144 0.1220922436829039 0 -0.10253192977079099 0.1208391027340967 0 -0.087562117325396219 0.1029869552980881 0 -0.096646877647685564 0.092737048470556444 0 -0.099727530821448362 0.10941599956994209 0 -0.096646877647685564 0.092737048470556444 0 -0.099727530821448362 0.10941599956994209 0 -0.10908254174546431 0.097712103802008288 0 -0.11206336746789999 0.1078302962267898 0 -0.099727530821448362 0.10941599956994209 0 -0.10908254174546431 0.097712103802008288 0 -0.10855897242352611 0.017575420843814089 0 -0.095258415211334879 0.021134969281983471 0 -0.1104644629119769 0.028637878782569161 0 -0.10855897242352611 0.017575420843814089 0 -0.095258415211334879 0.021134969281983471 0 -0.10271726065552091 0.0097110788566243285 0 -0.095258415211334879 0.021134969281983471 0 -0.1104644629119769 0.028637878782569161 0 -0.099494681897820625 0.034159993191892377 0 -0.095258415211334879 0.021134969281983471 0 -0.099494681897820625 0.034159993191892377 0 -0.086719315752356252 0.031603191370789777 0 -0.095258415211334879 0.021134969281983471 0 -0.10271726065552091 0.0097110788566243285 0 -0.093541370402312474 0.0098172135897937607 0 -0.097921128137241215 0.0020243512805800138 0 -0.10271726065552091 0.0097110788566243285 0 -0.093541370402312474 0.0098172135897937607 0 -0.1092426205505718 -0.001834213791223281 0 -0.097921128137241215 0.0020243512805800138 0 -0.10271726065552091 0.0097110788566243285 0 -0.1092426205505718 -0.001834213791223281 0 -0.10271726065552091 0.0097110788566243285 0 -0.11411799673607929 0.008443453245583897 0 -0.10855897242352611 0.017575420843814089 0 -0.10271726065552091 0.0097110788566243285 0 -0.11411799673607929 0.008443453245583897 0 -0.10855897242352611 0.017575420843814089 0 -0.11411799673607929 0.008443453245583897 0 -0.1202367266027186 0.019949724052309568 0 -0.1092426205505718 -0.001834213791223281 0 -0.12684239433194619 -0.0024106449572988912 0 -0.11411799673607929 0.008443453245583897 0 -0.1356972964359357 0.0087647184508017305 0 -0.11411799673607929 0.008443453245583897 0 -0.1202367266027186 0.019949724052309568 0 -0.10855897242352611 0.017575420843814089 0 -0.1202367266027186 0.019949724052309568 0 -0.1104644629119769 0.028637878782569161 0 -0.1202367266027186 0.019949724052309568 0 -0.1104644629119769 0.028637878782569161 0 -0.1245186675874371 0.032491580885138947 0 -0.1104644629119769 0.028637878782569161 0 -0.1245186675874371 0.032491580885138947 0 -0.1179558061503731 0.045547451865388978 0 -0.13508918552537111 0.048437573378901158 0 -0.1179558061503731 0.045547451865388978 0 -0.1200770937022317 0.061032803681047812 0 -0.1179558061503731 0.045547451865388978 0 -0.1200770937022317 0.061032803681047812 0 -0.1038131223448288 0.059502691017654159 0 -0.1179558061503731 0.045547451865388978 0 -0.1038131223448288 0.059502691017654159 0 -0.092591933996788098 0.050893051038491559 0 -0.1038131223448288 0.059502691017654159 0 -0.089241077322883611 0.059963824654260298 0 -0.092591933996788098 0.050893051038491559 0 -0.094336331688691044 0.067772386408041702 0 -0.1038131223448288 0.059502691017654159 0 -0.089241077322883611 0.059963824654260298 0 -0.1179558061503731 0.045547451865388978 0 -0.0879387266253117 0.043332427165649258 0 -0.1104644629119769 0.028637878782569161 0 -0.1179558061503731 0.045547451865388978 0 -0.099494681897820625 0.034159993191892377 0 -0.1179558061503731 0.045547451865388978 0 -0.0879387266253117 0.043332427165649258 0 -0.092591933996788098 0.050893051038491559 0 -0.1179558061503731 0.045547451865388978 0 -0.099494681897820625 0.034159993191892377 0 -0.0879387266253117 0.043332427165649258 0 -0.099494681897820625 0.034159993191892377 0 -0.086719315752356252 0.031603191370789777 0 -0.0879387266253117 0.043332427165649258 0 -0.0879387266253117 0.043332427165649258 0 -0.080854876799911712 0.035396517182263922 0 -0.072136661975692282 0.036870988263070309 0 -0.086719315752356252 0.031603191370789777 0 -0.0879387266253117 0.043332427165649258 0 -0.080854876799911712 0.035396517182263922 0 -0.086719315752356252 0.031603191370789777 0 -0.080854876799911712 0.035396517182263922 0 -0.076624802846286574 0.029779461929546329 0 -0.092591933996788098 0.050893051038491559 0 -0.067179318721874812 0.05027448241032223 0 -0.0879387266253117 0.043332427165649258 0 -0.092591933996788098 0.050893051038491559 0 -0.067179318721874812 0.05027448241032223 0 -0.092591933996788098 0.050893051038491559 0 -0.079428449533967993 0.058781410192725897 0 -0.067179318721874812 0.05027448241032223 0 -0.089241077322883611 0.059963824654260298 0 -0.092591933996788098 0.050893051038491559 0 -0.079428449533967993 0.058781410192725897 0 -0.068032787614105944 0.064580008102436068 0 -0.079428449533967993 0.058781410192725897 0 -0.067179318721874812 0.05027448241032223 0 -0.068032787614105944 0.064580008102436068 0 -0.067179318721874812 0.05027448241032223 0 -0.055297638312560897 0.059830595490155361 0 -0.0879387266253117 0.043332427165649258 0 -0.067179318721874812 0.05027448241032223 0 -0.057921647100250051 0.041117402465909537 0 -0.0879387266253117 0.043332427165649258 0 -0.072136661975692282 0.036870988263070309 0 -0.057921647100250051 0.041117402465909537 0 -0.0879387266253117 0.043332427165649258 0 -0.057921647100250051 0.041117402465909537 0 -0.072136661975692282 0.036870988263070309 0 -0.06561961973803479 0.02835497416527568 0 -0.076624802846286574 0.029779461929546329 0 -0.080854876799911712 0.035396517182263922 0 -0.072136661975692282 0.036870988263070309 0 -0.076624802846286574 0.029779461929546329 0 -0.072136661975692282 0.036870988263070309 0 -0.06561961973803479 0.02835497416527568 0 -0.057921647100250051 0.041117402465909537 0 -0.06561961973803479 0.02835497416527568 0 -0.071524228544342858 0.021622626057776949 0 -0.062066625528552438 0.015435047064348249 0 -0.071524228544342858 0.021622626057776949 0 -0.073808383268641739 0.013268938332740799 0 -0.062066625528552438 0.015435047064348249 0 -0.071524228544342858 0.021622626057776949 0 -0.082199633015980822 0.02219064302757694 0 -0.073808383268641739 0.013268938332740799 0 -0.06561961973803479 0.02835497416527568 0 -0.071524228544342858 0.021622626057776949 0 -0.076624802846286574 0.029779461929546329 0 -0.071524228544342858 0.021622626057776949 0 -0.076624802846286574 0.029779461929546329 0 -0.082199633015980822 0.02219064302757694 0 -0.086719315752356252 0.031603191370789777 0 -0.076624802846286574 0.029779461929546329 0 -0.082199633015980822 0.02219064302757694 0 -0.082199633015980822 0.02219064302757694 0 -0.085507680904317221 0.013160345813307869 0 -0.073808383268641739 0.013268938332740799 0 -0.095258415211334879 0.021134969281983471 0 -0.082199633015980822 0.02219064302757694 0 -0.085507680904317221 0.013160345813307869 0 -0.095258415211334879 0.021134969281983471 0 -0.086719315752356252 0.031603191370789777 0 -0.082199633015980822 0.02219064302757694 0 -0.097921128137241215 0.0020243512805800138 0 -0.08924030644861769 0.001862120829466571 0 -0.093541370402312474 0.0098172135897937607 0 -0.095258415211334879 0.021134969281983471 0 -0.093541370402312474 0.0098172135897937607 0 -0.085507680904317221 0.013160345813307869 0 -0.08924030644861769 0.001862120829466571 0 -0.093541370402312474 0.0098172135897937607 0 -0.085507680904317221 0.013160345813307869 0 -0.085507680904317221 0.013160345813307869 0 -0.079256587518855212 0.0063215507336732606 0 -0.073808383268641739 0.013268938332740799 0 -0.08924030644861769 0.001862120829466571 0 -0.085507680904317221 0.013160345813307869 0 -0.079256587518855212 0.0063215507336732606 0 -0.07999044300750352 -0.003657782716673298 0 -0.08924030644861769 0.001862120829466571 0 -0.079256587518855212 0.0063215507336732606 0 -0.079256587518855212 0.0063215507336732606 0 -0.073808383268641739 0.013268938332740799 0 -0.067907753424216635 0.002033453052028423 0 -0.07999044300750352 -0.003657782716673298 0 -0.079256587518855212 0.0063215507336732606 0 -0.067907753424216635 0.002033453052028423 0 -0.073808383268641739 0.013268938332740799 0 -0.067907753424216635 0.002033453052028423 0 -0.062066625528552438 0.015435047064348249 0 -0.067907753424216635 0.002033453052028423 0 -0.055028287529294832 0.0036901326515541141 0 -0.062066625528552438 0.015435047064348249 0 -0.055028287529294832 0.0036901326515541141 0 -0.062066625528552438 0.015435047064348249 0 -0.045776894683851078 0.01552028473232844 0 -0.062066625528552438 0.015435047064348249 0 -0.05480492475959331 0.02614124288919514 0 -0.045776894683851078 0.01552028473232844 0 -0.06561961973803479 0.02835497416527568 0 -0.062066625528552438 0.015435047064348249 0 -0.05480492475959331 0.02614124288919514 0 -0.05480492475959331 0.02614124288919514 0 -0.042639836747278198 0.03027850601811382 0 -0.045776894683851078 0.01552028473232844 0 -0.042639836747278198 0.03027850601811382 0 -0.027904567575188399 0.038902377766169803 0 -0.026003451689153918 0.021045509818484381 0 -0.042639836747278198 0.03027850601811382 0 -0.045776894683851078 0.01552028473232844 0 -0.026003451689153918 0.021045509818484381 0 -0.035192282316726747 -0.002915282895884485 0 -0.045776894683851078 0.01552028473232844 0 -0.026003451689153918 0.021045509818484381 0 -0.035192282316726747 -0.002915282895884485 0 -0.055028287529294832 0.0036901326515541141 0 -0.045776894683851078 0.01552028473232844 0 -0.067179318721874812 0.05027448241032223 0 -0.057921647100250051 0.041117402465909537 0 -0.041766703446961352 0.049655913782152901 0 -0.067179318721874812 0.05027448241032223 0 -0.055297638312560897 0.059830595490155361 0 -0.041766703446961352 0.049655913782152901 0 -0.043634998659472617 0.068440440645636827 0 -0.055297638312560897 0.059830595490155361 0 -0.041766703446961352 0.049655913782152901 0 -0.067179318721874812 0.05027448241032223 0 -0.041766703446961352 0.049655913782152901 0 -0.06561961973803479 0.02835497416527568 0 -0.05480492475959331 0.02614124288919514 0 -0.057921647100250051 0.041117402465909537 0 -0.05480492475959331 0.02614124288919514 0 -0.042639836747278198 0.03027850601811382 0 -0.057921647100250051 0.041117402465909537 0 -0.057921647100250051 0.041117402465909537 0 -0.027904567575188399 0.038902377766169803 0 -0.057921647100250051 0.041117402465909537 0 -0.041766703446961352 0.049655913782152901 0 -0.027904567575188399 0.038902377766169803 0 -0.042639836747278198 0.03027850601811382 0 -0.057921647100250051 0.041117402465909537 0 -0.027904567575188399 0.038902377766169803 0 -0.043634998659472617 0.068440440645636827 0 -0.041766703446961352 0.049655913782152901 0 -0.031888340196912383 0.059391053768455312 0 -0.041766703446961352 0.049655913782152901 0 -0.01635408817204799 0.049037345153983572 0 -0.041766703446961352 0.049655913782152901 0 -0.031888340196912383 0.059391053768455312 0 -0.01635408817204799 0.049037345153983572 0 -0.025797570509167578 0.070430515492047957 0 -0.031888340196912383 0.059391053768455312 0 -0.01635408817204799 0.049037345153983572 0 -0.041766703446961352 0.049655913782152901 0 -0.01635408817204799 0.049037345153983572 0 -0.027904567575188399 0.038902377766169803 0 -0.027904567575188399 0.038902377766169803 0 -0.014870040676798689 0.036198685617870777 0 -0.026003451689153918 0.021045509818484381 0 -0.01635408817204799 0.049037345153983572 0 -0.027904567575188399 0.038902377766169803 0 -0.014870040676798689 0.036198685617870777 0 -0.01635408817204799 0.049037345153983572 0 -0.00010055596612229201 0.045408295712000613 0 -0.014870040676798689 0.036198685617870777 0 -0.00010055596612229201 0.045408295712000613 0 -0.014870040676798689 0.036198685617870777 0 -0.003987539981480822 0.026599899638715559 0 -0.0042660718709032937 0.064752717198481941 0 -0.025797570509167578 0.070430515492047957 0 -0.01635408817204799 0.049037345153983572 0 -0.0042660718709032937 0.064752717198481941 0 -0.01635408817204799 0.049037345153983572 0 -0.00010055596612229201 0.045408295712000613 0 -0.035192282316726747 -0.002915282895884485 0 -0.026003451689153918 0.021045509818484381 0 -0.01107981885403149 0.0016360662863579461 0 -0.026003451689153918 0.021045509818484381 0 -0.003987539981480822 0.026599899638715559 0 -0.01107981885403149 0.0016360662863579461 0 -0.014870040676798689 0.036198685617870777 0 -0.026003451689153918 0.021045509818484381 0 -0.003987539981480822 0.026599899638715559 0 -0.003987539981480822 0.026599899638715559 0 -0.01107981885403149 0.0016360662863579461 0 -0.003987539981480822 0.026599899638715559 0 -0.01107981885403149 0.0016360662863579461 0 0.015406173142220409 0.0064609396898271127 0 -0.003987539981480822 0.026599899638715559 0 0.02526803851867036 0.021584402852655359 0 0.015547991322429591 0.038658915711461878 0 -0.003987539981480822 0.026599899638715559 0 0.015406173142220409 0.0064609396898271127 0 0.02526803851867036 0.021584402852655359 0 0.015406173142220409 0.0064609396898271127 0 0.038220791075143361 0.0092760175726167814 0 0.031763877584191129 -0.0062805157547672387 0 0.015406173142220409 0.0064609396898271127 0 0.02526803851867036 0.021584402852655359 0 0.038220791075143361 0.0092760175726167814 0 -0.0042660718709032937 0.064752717198481941 0 -0.00010055596612229201 0.045408295712000613 0 0.018369484547570581 0.05759024229978324 0 -0.00010055596612229201 0.045408295712000613 0 0.015547991322429591 0.038658915711461878 0 0.018369484547570581 0.05759024229978324 0 -0.00010055596612229201 0.045408295712000613 0 -0.003987539981480822 0.026599899638715559 0 0.015547991322429591 0.038658915711461878 0 0.02526803851867036 0.021584402852655359 0 0.015547991322429591 0.038658915711461878 0 0.03819052949351015 0.042111738054154642 0 0.015547991322429591 0.038658915711461878 0 0.018369484547570581 0.05759024229978324 0 0.03819052949351015 0.042111738054154642 0 0.018369484547570581 0.05759024229978324 0 0.03819052949351015 0.042111738054154642 0 0.037147149604829413 0.064448090460939605 0 0.03819052949351015 0.042111738054154642 0 0.055123544718176633 0.059479387833866908 0 0.037147149604829413 0.064448090460939605 0 0.03819052949351015 0.042111738054154642 0 0.059908466783656307 0.044788045962714781 0 0.054812177023541471 0.02444586426153033 0 0.03819052949351015 0.042111738054154642 0 0.059908466783656307 0.044788045962714781 0 0.055123544718176633 0.059479387833866908 0 0.038220791075143361 0.0092760175726167814 0 0.053944165240844943 0.0024058838617552502 0 0.031763877584191129 -0.0062805157547672387 0 0.02526803851867036 0.021584402852655359 0 0.03819052949351015 0.042111738054154642 0 0.054812177023541471 0.02444586426153033 0 0.02526803851867036 0.021584402852655359 0 0.038220791075143361 0.0092760175726167814 0 0.054812177023541471 0.02444586426153033 0 0.054812177023541471 0.02444586426153033 0 0.053944165240844943 0.0024058838617552502 0 0.070570503255415779 0.0122646252730993 0 0.038220791075143361 0.0092760175726167814 0 0.054812177023541471 0.02444586426153033 0 0.053944165240844943 0.0024058838617552502 0 0.053944165240844943 0.0024058838617552502 0 0.070570503255415779 0.0122646252730993 0 0.070763749078664451 0.00153649197816739 0 0.070570503255415779 0.0122646252730993 0 0.070763749078664451 0.00153649197816739 0 0.091196029608631157 0.0095852164545678527 0 0.070570503255415779 0.0122646252730993 0 0.091196029608631157 0.0095852164545678527 0 0.080762701568252659 0.024393656425579099 0 0.070763749078664451 0.00153649197816739 0 0.091196029608631157 0.0095852164545678527 0 0.075497164155096025 -0.0089720185191537044 0 0.091196029608631157 0.0095852164545678527 0 0.080762701568252659 0.024393656425579099 0 0.10432089990596111 0.032647868822406792 0 0.054812177023541471 0.02444586426153033 0 0.070570503255415779 0.0122646252730993 0 0.080762701568252659 0.024393656425579099 0 0.054812177023541471 0.02444586426153033 0 0.080762701568252659 0.024393656425579099 0 0.077376973536653612 0.041763460418949877 0 0.059908466783656307 0.044788045962714781 0 0.054812177023541471 0.02444586426153033 0 0.077376973536653612 0.041763460418949877 0 0.059908466783656307 0.044788045962714781 0 0.055123544718176633 0.059479387833866908 0 0.075203715816402075 0.061868089708246379 0 0.059908466783656307 0.044788045962714781 0 0.077376973536653612 0.041763460418949877 0 0.075203715816402075 0.061868089708246379 0 0.077376973536653612 0.041763460418949877 0 0.075203715816402075 0.061868089708246379 0 0.098568665092158086 0.059220940007835551 0 0.077376973536653612 0.041763460418949877 0 0.10432089990596111 0.032647868822406792 0 0.098568665092158086 0.059220940007835551 0 0.080762701568252659 0.024393656425579099 0 0.077376973536653612 0.041763460418949877 0 0.10432089990596111 0.032647868822406792 0 0.10432089990596111 0.032647868822406792 0 0.098568665092158086 0.059220940007835551 0 0.11816806286939591 0.047038968090737467 0 0.098568665092158086 0.059220940007835551 0 0.11816806286939591 0.047038968090737467 0 0.1229128465412201 0.064342378436089392 0 0.10432089990596111 0.032647868822406792 0 0.11816806286939591 0.047038968090737467 0 0.12909259059593919 0.032264746589815423 0 0.10432089990596111 0.032647868822406792 0 0.117715754831061 0.017624516067968821 0 0.12909259059593919 0.032264746589815423 0 0.117715754831061 0.017624516067968821 0 0.109810942898761 0.00085303163549272656 0 0.12879430821262439 0.0027572904785835642 0 0.091196029608631157 0.0095852164545678527 0 0.109810942898761 0.00085303163549272656 0 0.099116565494595854 -0.0045790823182699008 0 0.091196029608631157 0.0095852164545678527 0 0.117715754831061 0.017624516067968821 0 0.109810942898761 0.00085303163549272656 0 0.091196029608631157 0.0095852164545678527 0 0.10432089990596111 0.032647868822406792 0 0.117715754831061 0.017624516067968821 0 0.091196029608631157 0.0095852164545678527 0 0.10432089990596111 0.032647868822406792 0 0.1054444128069779 0.10021705665785829 0 0.10993038885643069 0.11890538589914761 0 0.088741365401102099 0.11740677417611151 0 0.10993038885643069 0.11890538589914761 0 0.088741365401102099 0.11740677417611151 0 0.098269621445183183 0.1319777360925056 0 0.10993038885643069 0.11890538589914761 0 0.12690760393507261 0.1272026692018251 0 0.1361765349106592 0.1000957998559688 0 0.1054444128069779 0.10021705665785829 0 0.114324721259707 0.081852659343666631 0 0.1361765349106592 0.1000957998559688 0 0.1054444128069779 0.10021705665785829 0 0.10993038885643069 0.11890538589914761 0 0.1361765349106592 0.1000957998559688 0 0.114324721259707 0.081852659343666631 0 0.1229128465412201 0.064342378436089392 0 0.13670389610601039 0.079566463234652843 0 0.098568665092158086 0.059220940007835551 0 0.114324721259707 0.081852659343666631 0 0.1229128465412201 0.064342378436089392 0 0.098568665092158086 0.059220940007835551 0 0.114324721259707 0.081852659343666631 0 0.08623603098182156 0.087324432997728837 0 0.1054444128069779 0.10021705665785829 0 0.114324721259707 0.081852659343666631 0 0.08623603098182156 0.087324432997728837 0 0.075203715816402075 0.061868089708246379 0 0.098568665092158086 0.059220940007835551 0 0.08623603098182156 0.087324432997728837 0 0.075203715816402075 0.061868089708246379 0 0.08623603098182156 0.087324432997728837 0 0.056127302274246879 0.085732191682850026 0 0.08623603098182156 0.087324432997728837 0 0.071884277836780475 0.10869244932173761 0 0.056127302274246879 0.085732191682850026 0 0.08623603098182156 0.087324432997728837 0 0.071884277836780475 0.10869244932173761 0 0.088741365401102099 0.11740677417611151 0 0.1054444128069779 0.10021705665785829 0 0.08623603098182156 0.087324432997728837 0 0.088741365401102099 0.11740677417611151 0 0.071884277836780475 0.10869244932173761 0 0.054074719142478141 0.1120635837521344 0 0.067928686760601376 0.13366285142998091 0 0.071884277836780475 0.10869244932173761 0 0.088741365401102099 0.11740677417611151 0 0.067928686760601376 0.13366285142998091 0 0.054074719142478141 0.1120635837521344 0 0.046451641282746488 0.1287820728762103 0 0.067928686760601376 0.13366285142998091 0 0.071884277836780475 0.10869244932173761 0 0.054074719142478141 0.1120635837521344 0 0.056127302274246879 0.085732191682850026 0 0.054074719142478141 0.1120635837521344 0 0.037090922371021157 0.1050514626840679 0 0.056127302274246879 0.085732191682850026 0 0.037090922371021157 0.1050514626840679 0 0.046451641282746488 0.1287820728762103 0 0.054074719142478141 0.1120635837521344 0 0.037090922371021157 0.1050514626840679 0 0.046451641282746488 0.1287820728762103 0 0.037090922371021157 0.1050514626840679 0 0.025374418346804178 0.12601095652255659 0 0.046451641282746488 0.1287820728762103 0 0.055123544718176633 0.059479387833866908 0 0.056127302274246879 0.085732191682850026 0 0.037147149604829413 0.064448090460939605 0 0.055123544718176633 0.059479387833866908 0 0.075203715816402075 0.061868089708246379 0 0.056127302274246879 0.085732191682850026 0 0.037090922371021157 0.1050514626840679 0 0.027730203459295891 0.081320852491925597 0 0.037090922371021157 0.1050514626840679 0 0.056127302274246879 0.085732191682850026 0 0.027730203459295891 0.081320852491925597 0 0.056127302274246879 0.085732191682850026 0 0.037147149604829413 0.064448090460939605 0 0.027730203459295891 0.081320852491925597 0 0.018369484547570581 0.05759024229978324 0 0.027730203459295891 0.081320852491925597 0 0.018369484547570581 0.05759024229978324 0 0.037147149604829413 0.064448090460939605 0 0.027730203459295891 0.081320852491925597 0 0.018369484547570581 0.05759024229978324 0 0.027730203459295891 0.081320852491925597 0 0.0060949717525474812 0.081637648255242959 0 0.027730203459295891 0.081320852491925597 0 0.0060949717525474812 0.081637648255242959 0 0.01386301077930052 0.1067503783981619 0 -0.0042660718709032937 0.064752717198481941 0 0.018369484547570581 0.05759024229978324 0 0.0060949717525474812 0.081637648255242959 0 0.037090922371021157 0.1050514626840679 0 0.01386301077930052 0.1067503783981619 0 0.025374418346804178 0.12601095652255659 0 0.037090922371021157 0.1050514626840679 0 0.027730203459295891 0.081320852491925597 0 0.01386301077930052 0.1067503783981619 0 -0.0062757738786398919 0.097973495785085324 0 0.0060949717525474812 0.081637648255242959 0 0.01386301077930052 0.1067503783981619 0 -0.014653178200833389 0.1179466396929325 0 0.01386301077930052 0.1067503783981619 0 0.0048822091443339937 0.1301605238242998 0 0.01386301077930052 0.1067503783981619 0 0.0048822091443339937 0.1301605238242998 0 0.025374418346804178 0.12601095652255659 0 0.0048822091443339937 0.1301605238242998 0 0.025374418346804178 0.12601095652255659 0 0.01457251297159768 0.1441086957940366 0 0.025374418346804178 0.12601095652255659 0 0.01457251297159768 0.1441086957940366 0 0.033716678111417327 0.14297104247084361 0 0.01457251297159768 0.1441086957940366 0 0.02298795826066239 0.15771796754480241 0 0.033716678111417327 0.14297104247084361 0 -0.0037010412524152371 0.14888078615867709 0 0.01457251297159768 0.1441086957940366 0 0.0041639884908149429 0.16056727500179069 0 0.01457251297159768 0.1441086957940366 0 0.0041639884908149429 0.16056727500179069 0 0.02298795826066239 0.15771796754480241 0 -0.0037010412524152371 0.14888078615867709 0 0.0048822091443339937 0.1301605238242998 0 0.01457251297159768 0.1441086957940366 0 0.0041639884908149429 0.16056727500179069 0 0.013546703702292461 0.16693083663339681 0 0.02298795826066239 0.15771796754480241 0 -0.001354997550225002 0.1736186435965166 0 0.0041639884908149429 0.16056727500179069 0 0.013546703702292461 0.16693083663339681 0 -0.001354997550225002 0.1736186435965166 0 0.013546703702292461 0.16693083663339681 0 -0.001354997550225002 0.1736186435965166 0 0.013546703702292461 0.16693083663339681 0 0.01719065850706563 0.17952137181142069 0 -0.001354997550225002 0.1736186435965166 0 0.01719065850706563 0.17952137181142069 0 -0.001354997550225002 0.1736186435965166 0 0.01719065850706563 0.17952137181142069 0 0.0098783435714585571 0.18826853158479781 0 -0.0033409293665109712 0.18987861945848691 0 -0.001354997550225002 0.1736186435965166 0 0.0098783435714585571 0.18826853158479781 0 0.01719065850706563 0.17952137181142069 0 0.035736314564355803 0.18542410002632609 0 0.022049419007393871 0.19062902305285931 0 0.01719065850706563 0.17952137181142069 0 0.02968607831704264 0.16908236071777191 0 0.035736314564355803 0.18542410002632609 0 0.01719065850706563 0.17952137181142069 0 0.035736314564355803 0.18542410002632609 0 0.01719065850706563 0.17952137181142069 0 0.0098783435714585571 0.18826853158479781 0 0.022049419007393871 0.19062902305285931 0 0.013546703702292461 0.16693083663339681 0 0.02298795826066239 0.15771796754480241 0 0.02968607831704264 0.16908236071777191 0 0.013546703702292461 0.16693083663339681 0 0.01719065850706563 0.17952137181142069 0 0.02968607831704264 0.16908236071777191 0 0.02298795826066239 0.15771796754480241 0 0.02968607831704264 0.16908236071777191 0 0.041734637969951777 0.1571401855647527 0 0.02968607831704264 0.16908236071777191 0 0.041734637969951777 0.1571401855647527 0 0.054579000787331897 0.17160015188770361 0 0.02968607831704264 0.16908236071777191 0 0.035736314564355803 0.18542410002632609 0 0.054579000787331897 0.17160015188770361 0 0.035736314564355803 0.18542410002632609 0 0.054579000787331897 0.17160015188770361 0 0.054056020310466919 0.1875764284120072 0 0.054579000787331897 0.17160015188770361 0 0.054056020310466919 0.1875764284120072 0 0.065927334940788757 0.17838892676943169 0 0.041734637969951777 0.1571401855647527 0 0.061674113481240217 0.158148135442161 0 0.054579000787331897 0.17160015188770361 0 0.061674113481240217 0.158148135442161 0 0.051178899836741461 0.14406637652270321 0 0.067928686760601376 0.13366285142998091 0 0.041734637969951777 0.1571401855647527 0 0.061674113481240217 0.158148135442161 0 0.051178899836741461 0.14406637652270321 0 0.051178899836741461 0.14406637652270321 0 0.046451641282746488 0.1287820728762103 0 0.067928686760601376 0.13366285142998091 0 0.051178899836741461 0.14406637652270321 0 0.046451641282746488 0.1287820728762103 0 0.033716678111417327 0.14297104247084361 0 0.025374418346804178 0.12601095652255659 0 0.046451641282746488 0.1287820728762103 0 0.033716678111417327 0.14297104247084361 0 0.041734637969951777 0.1571401855647527 0 0.051178899836741461 0.14406637652270321 0 0.033716678111417327 0.14297104247084361 0 0.02298795826066239 0.15771796754480241 0 0.041734637969951777 0.1571401855647527 0 0.033716678111417327 0.14297104247084361 0 0.029317925332254139 0.24478168446463211 0 0.016216237630125741 0.2401422836731702 0 0.025543637339675369 0.23327964103602231 0 0.029317925332254139 0.24478168446463211 0 0.025543637339675369 0.23327964103602231 0 0.034998646829231331 0.2348859335779365 0 0.016216237630125741 0.2401422836731702 0 0.01537995498709081 0.2303252409960235 0 0.025543637339675369 0.23327964103602231 0 0.029317925332254139 0.24478168446463211 0 0.016216237630125741 0.2401422836731702 0 0.015906929713197151 0.2495792049620342 0 0.016216237630125741 0.2401422836731702 0 0.015906929713197151 0.2495792049620342 0 0.0089932618375068996 0.2470316380379072 0 0.016216237630125741 0.2401422836731702 0 0.0089932618375068996 0.2470316380379072 0 0.0085519394094101427 0.2407863080981669 0 0.0089932618375068996 0.2470316380379072 0 0.0049532390291931357 0.24476194340842461 0 0.0025002592476698329 0.2499952992231734 0 0.0089932618375068996 0.2470316380379072 0 0.0049532390291931357 0.24476194340842461 0 0.0085519394094101427 0.2407863080981669 0 0.0049532390291931357 0.24476194340842461 0 0.001636127094255771 0.24521926666408339 0 0.0030846075571230301 0.2407772050187918 0 -0.00098167415441836187 0.24233879243799991 0 0.001636127094255771 0.24521926666408339 0 0.0030846075571230301 0.2407772050187918 0 -0.002005662434308564 0.24836598281606709 0 0.001636127094255771 0.24521926666408339 0 0.0025002592476698329 0.2499952992231734 0 0.0049532390291931357 0.24476194340842461 0 0.001636127094255771 0.24521926666408339 0 0.0025002592476698329 0.2499952992231734 0 0.001227787271709478 0.23622629842462789 0 0.0030846075571230301 0.2407772050187918 0 0.0067619768626107583 0.236639208178896 0 -0.00044177489149930979 0.23934395803639541 0 0.001227787271709478 0.23622629842462789 0 0.0030846075571230301 0.2407772050187918 0 -0.00044177489149930979 0.23934395803639541 0 -0.00098167415441836187 0.24233879243799991 0 0.0030846075571230301 0.2407772050187918 0 0.0049532390291931357 0.24476194340842461 0 0.0030846075571230301 0.2407772050187918 0 0.0085519394094101427 0.2407863080981669 0 0.0030846075571230301 0.2407772050187918 0 0.0067619768626107583 0.236639208178896 0 0.0085519394094101427 0.2407863080981669 0 0.001227787271709478 0.23622629842462789 0 0.0067619768626107583 0.236639208178896 0 0.0041361557875554634 0.23224801319006391 0 0.0067619768626107583 0.236639208178896 0 0.01102084287862622 0.23597570905837459 0 0.0087080085341180828 0.23111613109405249 0 0.016216237630125741 0.2401422836731702 0 0.01102084287862622 0.23597570905837459 0 0.01537995498709081 0.2303252409960235 0 0.0067619768626107583 0.236639208178896 0 0.01102084287862622 0.23597570905837459 0 0.0085519394094101427 0.2407863080981669 0 0.016216237630125741 0.2401422836731702 0 0.01102084287862622 0.23597570905837459 0 0.0085519394094101427 0.2407863080981669 0 0.01537995498709081 0.2303252409960235 0 0.0087080085341180828 0.23111613109405249 0 0.011014765770023921 0.22228739790162999 0 0.01102084287862622 0.23597570905837459 0 0.01537995498709081 0.2303252409960235 0 0.0087080085341180828 0.23111613109405249 0 0.0067619768626107583 0.236639208178896 0 0.0087080085341180828 0.23111613109405249 0 0.0041361557875554634 0.23224801319006391 0 0.0087080085341180828 0.23111613109405249 0 0.003633430085715296 0.22656761900649491 0 0.011014765770023921 0.22228739790162999 0 0.0087080085341180828 0.23111613109405249 0 0.0041361557875554634 0.23224801319006391 0 0.003633430085715296 0.22656761900649491 0 0.0041361557875554634 0.23224801319006391 0 0.003633430085715296 0.22656761900649491 0 0.00034957618362370439 0.23069080924624799 0 0.001227787271709478 0.23622629842462789 0 0.0041361557875554634 0.23224801319006391 0 0.00034957618362370439 0.23069080924624799 0 -0.0043940024179732308 0.2245289383231 0 0.003633430085715296 0.22656761900649491 0 0.0034681343392300242 0.21780582288858169 0 0.003633430085715296 0.22656761900649491 0 0.011014765770023921 0.22228739790162999 0 0.0034681343392300242 0.21780582288858169 0 0.01537995498709081 0.2303252409960235 0 0.011014765770023921 0.22228739790162999 0 0.017059955139855271 0.22409346260401741 0 0.011014765770023921 0.22228739790162999 0 0.017059955139855271 0.22409346260401741 0 0.018585431944718449 0.21588953293306931 0 0.023388159962214151 0.22459451508295111 0 0.017059955139855271 0.22409346260401741 0 0.018585431944718449 0.21588953293306931 0 0.01537995498709081 0.2303252409960235 0 0.023388159962214151 0.22459451508295111 0 0.017059955139855271 0.22409346260401741 0 0.01537995498709081 0.2303252409960235 0 0.023388159962214151 0.22459451508295111 0 0.025543637339675369 0.23327964103602231 0 0.023388159962214151 0.22459451508295111 0 0.025543637339675369 0.23327964103602231 0 0.033689517325796371 0.2252453292100044 0 0.023388159962214151 0.22459451508295111 0 0.030934445233765019 0.21396319295911881 0 0.033689517325796371 0.2252453292100044 0 0.030934445233765019 0.21396319295911881 0 0.022174403614632091 0.20733710087209339 0 0.018585431944718449 0.21588953293306931 0 0.023388159962214151 0.22459451508295111 0 0.030934445233765019 0.21396319295911881 0 0.018585431944718449 0.21588953293306931 0 0.030934445233765019 0.21396319295911881 0 0.022174403614632091 0.20733710087209339 0 0.029577948731691509 0.2009910818779696 0 0.022174403614632091 0.20733710087209339 0 0.018585431944718449 0.21588953293306931 0 0.013910362500587621 0.20690166662652679 0 0.022174403614632091 0.20733710087209339 0 0.013910362500587621 0.20690166662652679 0 0.017863829662397829 0.19894002996378241 0 0.011014765770023921 0.22228739790162999 0 0.018585431944718449 0.21588953293306931 0 0.010182656767571321 0.21432313329458019 0 0.018585431944718449 0.21588953293306931 0 0.010182656767571321 0.21432313329458019 0 0.013910362500587621 0.20690166662652679 0 0.011014765770023921 0.22228739790162999 0 0.010182656767571321 0.21432313329458019 0 0.0034681343392300242 0.21780582288858169 0 -0.0049133572815684033 0.21374507306154791 0 0.0034681343392300242 0.21780582288858169 0 0.0039345892832965742 0.20873124612309329 0 0.010182656767571321 0.21432313329458019 0 0.0034681343392300242 0.21780582288858169 0 0.0039345892832965742 0.20873124612309329 0 -0.0041862342159543391 0.20221448064915409 0 0.0039345892832965742 0.20873124612309329 0 0.0064253170443337422 0.1994628317062932 0 0.0039345892832965742 0.20873124612309329 0 0.013910362500587621 0.20690166662652679 0 0.0064253170443337422 0.1994628317062932 0 0.010182656767571321 0.21432313329458019 0 0.0039345892832965742 0.20873124612309329 0 0.013910362500587621 0.20690166662652679 0 0.0064253170443337422 0.1994628317062932 0 0.0098783435714585571 0.18826853158479781 0 0.017863829662397829 0.19894002996378241 0 0.013910362500587621 0.20690166662652679 0 0.0064253170443337422 0.1994628317062932 0 0.017863829662397829 0.19894002996378241 0 -0.0033409293665109712 0.18987861945848691 0 0.0064253170443337422 0.1994628317062932 0 0.0098783435714585571 0.18826853158479781 0 0.0098783435714585571 0.18826853158479781 0 0.022049419007393871 0.19062902305285931 0 0.017863829662397829 0.19894002996378241 0 0.022049419007393871 0.19062902305285931 0 0.017863829662397829 0.19894002996378241 0 0.029577948731691509 0.2009910818779696 0 0.022174403614632091 0.20733710087209339 0 0.017863829662397829 0.19894002996378241 0 0.029577948731691509 0.2009910818779696 0 0.035736314564355803 0.18542410002632609 0 0.022049419007393871 0.19062902305285931 0 0.029577948731691509 0.2009910818779696 0 0.035736314564355803 0.18542410002632609 0 0.029577948731691509 0.2009910818779696 0 0.044831474103679991 0.2054924821447778 0 0.035736314564355803 0.18542410002632609 0 0.054056020310466919 0.1875764284120072 0 0.044831474103679991 0.2054924821447778 0 0.054056020310466919 0.1875764284120072 0 0.060374653672307488 0.20047319831893659 0 0.044831474103679991 0.2054924821447778 0 0.054056020310466919 0.1875764284120072 0 0.060374653672307488 0.20047319831893659 0 0.06903264599349547 0.18894208239268201 0 0.060374653672307488 0.20047319831893659 0 0.056877000522461071 0.2137028467103633 0 0.044831474103679991 0.2054924821447778 0 0.060374653672307488 0.20047319831893659 0 0.056877000522461071 0.2137028467103633 0 0.070167950921258687 0.21300603475774069 0 0.056877000522461071 0.2137028467103633 0 0.044831474103679991 0.2054924821447778 0 0.044190317809012669 0.21893301633221729 0 0.030934445233765019 0.21396319295911881 0 0.044831474103679991 0.2054924821447778 0 0.044190317809012669 0.21893301633221729 0 0.030934445233765019 0.21396319295911881 0 0.029577948731691509 0.2009910818779696 0 0.044831474103679991 0.2054924821447778 0 0.030934445233765019 0.21396319295911881 0 0.033689517325796371 0.2252453292100044 0 0.044190317809012669 0.21893301633221729 0 0.033689517325796371 0.2252453292100044 0 0.044034613252717347 0.23191966382065671 0 0.034998646829231331 0.2348859335779365 0 0.025543637339675369 0.23327964103602231 0 0.033689517325796371 0.2252453292100044 0 0.034998646829231331 0.2348859335779365 0 0.033689517325796371 0.2252453292100044 0 0.044034613252717347 0.23191966382065671 0 0.044190317809012669 0.21893301633221729 0 0.056877000522461071 0.2137028467103633 0 0.044190317809012669 0.21893301633221729 0 0.054899006996784412 0.2251351573227533 0 0.044034613252717347 0.23191966382065671 0 0.044190317809012669 0.21893301633221729 0 0.054899006996784412 0.2251351573227533 0 0.056877000522461071 0.2137028467103633 0 0.054899006996784412 0.2251351573227533 0 0.066885584791140235 0.22453284202447299 0 0.054899006996784412 0.2251351573227533 0 0.061265883623445268 0.2339931843857625 0 0.053016299154498188 0.2345959730238667 0 0.054899006996784412 0.2251351573227533 0 0.061265883623445268 0.2339931843857625 0 0.066885584791140235 0.22453284202447299 0 0.044034613252717347 0.23191966382065671 0 0.054899006996784412 0.2251351573227533 0 0.053016299154498188 0.2345959730238667 0 0.044034613252717347 0.23191966382065671 0 0.053016299154498188 0.2345959730238667 0 0.048525816408706908 0.24252437539858079 0 0.053016299154498188 0.2345959730238667 0 0.057705625510572491 0.24195181240903099 0 0.048525816408706908 0.24252437539858079 0 0.061265883623445268 0.2339931843857625 0 0.053016299154498188 0.2345959730238667 0 0.057705625510572491 0.24195181240903099 0 0.061265883623445268 0.2339931843857625 0 0.057705625510572491 0.24195181240903099 0 0.064238874878330868 0.24090225254599179 0 0.057705625510572491 0.24195181240903099 0 0.061959460249100262 0.24783207319966391 0 0.054094366050189149 0.2518637416210574 0 0.057705625510572491 0.24195181240903099 0 0.061959460249100262 0.24783207319966391 0 0.064238874878330868 0.24090225254599179 0 0.057705625510572491 0.24195181240903099 0 0.048525816408706908 0.24252437539858079 0 0.054094366050189149 0.2518637416210574 0 0.048525816408706908 0.24252437539858079 0 0.041404363608824643 0.25348224301858052 0 0.054094366050189149 0.2518637416210574 0 0.048525816408706908 0.24252437539858079 0 0.03934069387508176 0.24206345023507159 0 0.041404363608824643 0.25348224301858052 0 0.044034613252717347 0.23191966382065671 0 0.03934069387508176 0.24206345023507159 0 0.034998646829231331 0.2348859335779365 0 0.044034613252717347 0.23191966382065671 0 0.048525816408706908 0.24252437539858079 0 0.03934069387508176 0.24206345023507159 0 0.029317925332254139 0.24478168446463211 0 0.03934069387508176 0.24206345023507159 0 0.034998646829231331 0.2348859335779365 0 0.029317925332254139 0.24478168446463211 0 0.03934069387508176 0.24206345023507159 0 0.041404363608824643 0.25348224301858052 0 0.070399523447451276 0.24374680135240501 0 0.097379252948702755 0.24331431243700979 0 0.084124974478697226 0.25421320340662601 0 0.070399523447451276 0.24374680135240501 0 0.079797279486996053 0.22373129750852749 0 0.097379252948702755 0.24331431243700979 0 0.070399523447451276 0.24374680135240501 0 0.069863881561085056 0.23698739138309649 0 0.079797279486996053 0.22373129750852749 0 0.061959460249100262 0.24783207319966391 0 0.070399523447451276 0.24374680135240501 0 0.064238874878330868 0.24090225254599179 0 0.061265883623445268 0.2339931843857625 0 0.064238874878330868 0.24090225254599179 0 0.069863881561085056 0.23698739138309649 0 0.070399523447451276 0.24374680135240501 0 0.069863881561085056 0.23698739138309649 0 0.070399523447451276 0.24374680135240501 0 0.064238874878330868 0.24090225254599179 0 0.069863881561085056 0.23698739138309649 0 0.069863881561085056 0.23698739138309649 0 0.066885584791140235 0.22453284202447299 0 0.079797279486996053 0.22373129750852749 0 0.070399523447451276 0.24374680135240501 0 0.079797279486996053 0.22373129750852749 0 0.061265883623445268 0.2339931843857625 0 0.069863881561085056 0.23698739138309649 0 0.066885584791140235 0.22453284202447299 0 0.066885584791140235 0.22453284202447299 0 0.079797279486996053 0.22373129750852749 0 0.070167950921258687 0.21300603475774069 0 0.079797279486996053 0.22373129750852749 0 0.097379252948702755 0.24331431243700979 0 0.079797279486996053 0.22373129750852749 0 0.095913015147263539 0.22694651721723441 0 0.097379252948702755 0.24331431243700979 0 0.079797279486996053 0.22373129750852749 0 0.088891636436359542 0.21208869723431159 0 0.095913015147263539 0.22694651721723441 0 0.079797279486996053 0.22373129750852749 0 0.087327401209319061 0.20769351363288771 0 0.079342693907348605 0.21065423938529121 0 0.079797279486996053 0.22373129750852749 0 0.087327401209319061 0.20769351363288771 0 0.079797279486996053 0.22373129750852749 0 0.088891636436359542 0.21208869723431159 0 0.087327401209319061 0.20769351363288771 0 0.088891636436359542 0.21208869723431159 0 0.087327401209319061 0.20769351363288771 0 0.10158332727800549 0.20401144647294911 0 0.087327401209319061 0.20769351363288771 0 0.082329604024274694 0.2048418480574542 0 0.079342693907348605 0.21065423938529121 0 0.087327401209319061 0.20769351363288771 0 0.082329604024274694 0.2048418480574542 0 0.084201232174558521 0.1986234649117391 0 0.082329604024274694 0.2048418480574542 0 0.079342693907348605 0.21065423938529121 0 0.076864350542990512 0.20426663025732031 0 0.079797279486996053 0.22373129750852749 0 0.070167950921258687 0.21300603475774069 0 0.079797279486996053 0.22373129750852749 0 0.079342693907348605 0.21065423938529121 0 0.070167950921258687 0.21300603475774069 0 0.056877000522461071 0.2137028467103633 0 0.066885584791140235 0.22453284202447299 0 0.070167950921258687 0.21300603475774069 0 0.060374653672307488 0.20047319831893659 0 0.070167950921258687 0.21300603475774069 0 0.070123613000681123 0.19879613675018759 0 0.079342693907348605 0.21065423938529121 0 0.070167950921258687 0.21300603475774069 0 0.076864350542990512 0.20426663025732031 0 0.070167950921258687 0.21300603475774069 0 0.076864350542990512 0.20426663025732031 0 0.070123613000681123 0.19879613675018759 0 0.076864350542990512 0.20426663025732031 0 0.070123613000681123 0.19879613675018759 0 0.077645164991551191 0.1932503259003801 0 0.060374653672307488 0.20047319831893659 0 0.070123613000681123 0.19879613675018759 0 0.06903264599349547 0.18894208239268201 0 0.070123613000681123 0.19879613675018759 0 0.06903264599349547 0.18894208239268201 0 0.077645164991551191 0.1932503259003801 0 0.087327401209319061 0.20769351363288771 0 0.084201232174558521 0.1986234649117391 0 0.094857522931646093 0.19165572975724979 0 0.087327401209319061 0.20769351363288771 0 0.094857522931646093 0.19165572975724979 0 0.077645164991551191 0.1932503259003801 0 0.084201232174558521 0.1986234649117391 0 0.086876647899674697 0.18898085467314121 0 0.076864350542990512 0.20426663025732031 0 0.077645164991551191 0.1932503259003801 0 0.084201232174558521 0.1986234649117391 0 0.082329604024274694 0.2048418480574542 0 0.076864350542990512 0.20426663025732031 0 0.084201232174558521 0.1986234649117391 0 0.084201232174558521 0.1986234649117391 0 0.086876647899674697 0.18898085467314121 0 0.094857522931646093 0.19165572975724979 0 0.087327401209319061 0.20769351363288771 0 0.094857522931646093 0.19165572975724979 0 0.10158332727800549 0.20401144647294911 0 0.094857522931646093 0.19165572975724979 0 0.12088091603083589 0.1924983184744338 0 0.10158332727800549 0.20401144647294911 0 0.094857522931646093 0.19165572975724979 0 0.12088091603083589 0.1924983184744338 0 0.09715048593604049 0.18114207609050151 0 0.12088091603083589 0.1924983184744338 0 0.11595915978186699 0.2161209732658628 0 0.1287782952245102 0.20646777831267851 0 0.12088091603083589 0.1924983184744338 0 0.11595915978186699 0.2161209732658628 0 0.10158332727800549 0.20401144647294911 0 0.088891636436359542 0.21208869723431159 0 0.11595915978186699 0.2161209732658628 0 0.088891636436359542 0.21208869723431159 0 0.11595915978186699 0.2161209732658628 0 0.095913015147263539 0.22694651721723441 0 0.088891636436359542 0.21208869723431159 0 0.11595915978186699 0.2161209732658628 0 0.10158332727800549 0.20401144647294911 0 0.11595915978186699 0.2161209732658628 0 0.095913015147263539 0.22694651721723441 0 0.108679914141004 0.2349232809689189 0 0.11595915978186699 0.2161209732658628 0 0.12210385901552651 0.23965088722650391 0 0.108679914141004 0.2349232809689189 0 0.12210385901552651 0.23965088722650391 0 0.11204428381166009 0.24858371469798371 0 0.108679914141004 0.2349232809689189 0 0.12210385901552651 0.23965088722650391 0 0.11204428381166009 0.24858371469798371 0 0.1240282856996692 0.25140477374661241 0 0.11204428381166009 0.24858371469798371 0 0.108679914141004 0.2349232809689189 0 0.097379252948702755 0.24331431243700979 0 0.095913015147263539 0.22694651721723441 0 0.108679914141004 0.2349232809689189 0 0.097379252948702755 0.24331431243700979 0 0.079132531122533156 0.15328775584661761 0 0.085098378429707494 0.13818851017206299 0 0.095651293022274389 0.14803502777410699 0 0.079132531122533156 0.15328775584661761 0 0.091292695005482025 0.16538353577602849 0 0.095651293022274389 0.14803502777410699 0 0.088741365401102099 0.11740677417611151 0 0.085098378429707494 0.13818851017206299 0 0.098269621445183183 0.1319777360925056 0 0.088741365401102099 0.11740677417611151 0 0.085098378429707494 0.13818851017206299 0 0.067928686760601376 0.13366285142998091 0 0.085098378429707494 0.13818851017206299 0 0.095651293022274389 0.14803502777410699 0 0.098269621445183183 0.1319777360925056 0 0.061674113481240217 0.158148135442161 0 0.079132531122533156 0.15328775584661761 0 0.067928686760601376 0.13366285142998091 0 0.079132531122533156 0.15328775584661761 0 0.085098378429707494 0.13818851017206299 0 0.067928686760601376 0.13366285142998091 0 0.061674113481240217 0.158148135442161 0 0.054579000787331897 0.17160015188770361 0 0.072758403291587004 0.16762668123740809 0 0.061674113481240217 0.158148135442161 0 0.079132531122533156 0.15328775584661761 0 0.072758403291587004 0.16762668123740809 0 0.054579000787331897 0.17160015188770361 0 0.072758403291587004 0.16762668123740809 0 0.065927334940788757 0.17838892676943169 0 0.054056020310466919 0.1875764284120072 0 0.06903264599349547 0.18894208239268201 0 0.065927334940788757 0.17838892676943169 0 0.072758403291587004 0.16762668123740809 0 0.065927334940788757 0.17838892676943169 0 0.080528833464577176 0.1802326767058354 0 0.06903264599349547 0.18894208239268201 0 0.065927334940788757 0.17838892676943169 0 0.080528833464577176 0.1802326767058354 0 0.06903264599349547 0.18894208239268201 0 0.077645164991551191 0.1932503259003801 0 0.080528833464577176 0.1802326767058354 0 0.086876647899674697 0.18898085467314121 0 0.080528833464577176 0.1802326767058354 0 0.09715048593604049 0.18114207609050151 0 0.080528833464577176 0.1802326767058354 0 0.091292695005482025 0.16538353577602849 0 0.09715048593604049 0.18114207609050151 0 0.077645164991551191 0.1932503259003801 0 0.086876647899674697 0.18898085467314121 0 0.080528833464577176 0.1802326767058354 0 0.086876647899674697 0.18898085467314121 0 0.094857522931646093 0.19165572975724979 0 0.09715048593604049 0.18114207609050151 0 0.079132531122533156 0.15328775584661761 0 0.072758403291587004 0.16762668123740809 0 0.091292695005482025 0.16538353577602849 0 0.072758403291587004 0.16762668123740809 0 0.080528833464577176 0.1802326767058354 0 0.091292695005482025 0.16538353577602849 0 0.10331729006138279 0.17052546615845721 0 0.1146503743238735 0.17504577249549819 0 0.1096256660054413 0.15720863938998669 0 0.091292695005482025 0.16538353577602849 0 0.10331729006138279 0.17052546615845721 0 0.1096256660054413 0.15720863938998669 0 0.091292695005482025 0.16538353577602849 0 0.1096256660054413 0.15720863938998669 0 0.095651293022274389 0.14803502777410699 0 0.10331729006138279 0.17052546615845721 0 0.09715048593604049 0.18114207609050151 0 0.1146503743238735 0.17504577249549819 0 0.12088091603083589 0.1924983184744338 0 0.09715048593604049 0.18114207609050151 0 0.091292695005482025 0.16538353577602849 0 0.10331729006138279 0.17052546615845721 0 0.09715048593604049 0.18114207609050151 0 0.12088091603083589 0.1924983184744338 0 0.1146503743238735 0.17504577249549819 0 0.13409665402341719 0.1841771340528128 0 0.12088091603083589 0.1924983184744338 0 0.09715048593604049 0.18114207609050151 0 0.1146503743238735 0.17504577249549819 0 0.1146503743238735 0.17504577249549819 0 0.1096256660054413 0.15720863938998669 0 0.13065744004624449 0.16778777968392941 0 0.1096256660054413 0.15720863938998669 0 0.11260466892687759 0.13887778659694461 0 0.13589389753359599 0.15101029102572269 0 0.1096256660054413 0.15720863938998669 0 0.095651293022274389 0.14803502777410699 0 0.11260466892687759 0.13887778659694461 0 0.095651293022274389 0.14803502777410699 0 0.098269621445183183 0.1319777360925056 0 0.11260466892687759 0.13887778659694461 0 0.10993038885643069 0.11890538589914761 0 0.098269621445183183 0.1319777360925056 0 0.11260466892687759 0.13887778659694461 0 0.10993038885643069 0.11890538589914761 0 0.11260466892687759 0.13887778659694461 0 0.12690760393507261 0.1272026692018251 0 0.12690760393507261 0.1272026692018251 0 0.14785171823245391 0.1288751956060781 0 0.13589389753359599 0.15101029102572269 0 0.11260466892687759 0.13887778659694461 0 0.12690760393507261 0.1272026692018251 0 0.13589389753359599 0.15101029102572269 0 0.13589389753359599 0.15101029102572269 0 0.14627743778975419 0.16511693764642629 0 0.16121990290741769 0.1521806320581717 0 0.14785171823245391 0.1288751956060781 0 0.13589389753359599 0.15101029102572269 0 0.16121990290741769 0.1521806320581717 0 0.1096256660054413 0.15720863938998669 0 0.13589389753359599 0.15101029102572269 0 0.13065744004624449 0.16778777968392941 0 0.13589389753359599 0.15101029102572269 0 0.13065744004624449 0.16778777968392941 0 0.14627743778975419 0.16511693764642629 0 0.13065744004624449 0.16778777968392941 0 0.14466433109356081 0.17726108031137719 0 0.14627743778975419 0.16511693764642629 0 0.1146503743238735 0.17504577249549819 0 0.13065744004624449 0.16778777968392941 0 0.13409665402341719 0.1841771340528128 0 0.13065744004624449 0.16778777968392941 0 0.13409665402341719 0.1841771340528128 0 0.14466433109356081 0.17726108031137719 0 0.13409665402341719 0.1841771340528128 0 0.14466433109356081 0.17726108031137719 0 0.1491155165203574 0.18861529249327219 0 0.14466433109356081 0.17726108031137719 0 0.14627743778975419 0.16511693764642629 0 0.1589516173679521 0.17734490515293061 0 0.14466433109356081 0.17726108031137719 0 0.1589516173679521 0.17734490515293061 0 0.1491155165203574 0.18861529249327219 0 0.14627743778975419 0.16511693764642629 0 0.1589516173679521 0.17734490515293061 0 0.16121990290741769 0.1521806320581717 0 0.1589516173679521 0.17734490515293061 0 0.17478474845308539 0.17191229914732661 0 0.16121990290741769 0.1521806320581717 0 0.1589516173679521 0.17734490515293061 0 0.17478474845308539 0.17191229914732661 0 0.1712538672799514 0.1880001881164407 0 0.1589516173679521 0.17734490515293061 0 0.1491155165203574 0.18861529249327219 0 0.16162700199713809 0.19475265636628189 0 0.1589516173679521 0.17734490515293061 0 0.16162700199713809 0.19475265636628189 0 0.1712538672799514 0.1880001881164407 0 0.17478474845308539 0.17191229914732661 0 0.18314398492344741 0.18343386462236189 0 0.194901954537963 0.16944645219746149 0 0.17478474845308539 0.17191229914732661 0 0.18314398492344741 0.18343386462236189 0 0.1712538672799514 0.1880001881164407 0 0.17478474845308539 0.17191229914732661 0 0.18476367364700619 0.15006352396100611 0 0.194901954537963 0.16944645219746149 0 0.17478474845308539 0.17191229914732661 0 0.18476367364700619 0.15006352396100611 0 0.16121990290741769 0.1521806320581717 0 0.18476367364700619 0.15006352396100611 0 0.17214980101653271 0.12861947788116659 0 0.16121990290741769 0.1521806320581717 0 0.18476367364700619 0.15006352396100611 0 0.17214980101653271 0.12861947788116659 0 0.1999558879733139 0.12893622275722949 0 0.14785171823245391 0.1288751956060781 0 0.17214980101653271 0.12861947788116659 0 0.16121990290741769 0.1521806320581717 0 0.1523823758574599 0.2440195334531422 0 0.15196666562546371 0.23334108455560021 0 0.16056522708951179 0.23773248819960219 0 0.1523823758574599 0.2440195334531422 0 0.1374701248178074 0.2354586345522052 0 0.15196666562546371 0.23334108455560021 0 0.1523823758574599 0.2440195334531422 0 0.1374701248178074 0.2354586345522052 0 0.14322756819817459 0.25050553645822832 0 0.1322822907628694 0.24644128385446659 0 0.1374701248178074 0.2354586345522052 0 0.14322756819817459 0.25050553645822832 0 0.12210385901552651 0.23965088722650391 0 0.1322822907628694 0.24644128385446659 0 0.1240282856996692 0.25140477374661241 0 0.12210385901552651 0.23965088722650391 0 0.1322822907628694 0.24644128385446659 0 0.1374701248178074 0.2354586345522052 0 0.11595915978186699 0.2161209732658628 0 0.12210385901552651 0.23965088722650391 0 0.1374701248178074 0.2354586345522052 0 0.11595915978186699 0.2161209732658628 0 0.1374701248178074 0.2354586345522052 0 0.14302668312737449 0.22015324929741389 0 0.14302668312737449 0.22015324929741389 0 0.15196666562546371 0.23334108455560021 0 0.159092415299491 0.23013654216727891 0 0.1374701248178074 0.2354586345522052 0 0.14302668312737449 0.22015324929741389 0 0.15196666562546371 0.23334108455560021 0 0.14302668312737449 0.22015324929741389 0 0.1446113461256312 0.2038545608583662 0 0.16834177622042659 0.21521080324229849 0 0.11595915978186699 0.2161209732658628 0 0.14302668312737449 0.22015324929741389 0 0.1287782952245102 0.20646777831267851 0 0.14302668312737449 0.22015324929741389 0 0.1446113461256312 0.2038545608583662 0 0.1287782952245102 0.20646777831267851 0 0.11595915978186699 0.2161209732658628 0 0.14302668312737449 0.22015324929741389 0 0.12088091603083589 0.1924983184744338 0 0.1446113461256312 0.2038545608583662 0 0.1287782952245102 0.20646777831267851 0 0.12088091603083589 0.1924983184744338 0 0.13409665402341719 0.1841771340528128 0 0.1446113461256312 0.2038545608583662 0 0.12088091603083589 0.1924983184744338 0 0.1446113461256312 0.2038545608583662 0 0.13409665402341719 0.1841771340528128 0 0.1446113461256312 0.2038545608583662 0 0.1491155165203574 0.18861529249327219 0 0.1446113461256312 0.2038545608583662 0 0.1491155165203574 0.18861529249327219 0 0.16162700199713809 0.19475265636628189 0 0.1446113461256312 0.2038545608583662 0 0.16162700199713809 0.19475265636628189 0 0.16574489605975329 0.20434753561527569 0 0.16162700199713809 0.19475265636628189 0 0.1712538672799514 0.1880001881164407 0 0.1791455624341706 0.19889906796902429 0 0.16162700199713809 0.19475265636628189 0 0.1791455624341706 0.19889906796902429 0 0.16574489605975329 0.20434753561527569 0 0.18314398492344741 0.18343386462236189 0 0.1712538672799514 0.1880001881164407 0 0.1791455624341706 0.19889906796902429 0 0.18314398492344741 0.18343386462236189 0 0.1791455624341706 0.19889906796902429 0 0.1956337919120662 0.18891131568155611 0 0.1791455624341706 0.19889906796902429 0 0.1749987935214003 0.2090205896404074 0 0.16574489605975329 0.20434753561527569 0 0.1791455624341706 0.19889906796902429 0 0.1749987935214003 0.2090205896404074 0 0.18359763226654069 0.20886897665059431 0 0.1791455624341706 0.19889906796902429 0 0.18359763226654069 0.20886897665059431 0 0.1962298191582498 0.2045905584680624 0 0.18359763226654069 0.20886897665059431 0 0.1781068059931887 0.2160982287289373 0 0.1895071802256941 0.21573643844654011 0 0.1749987935214003 0.2090205896404074 0 0.1781068059931887 0.2160982287289373 0 0.16834177622042659 0.21521080324229849 0 0.1781068059931887 0.2160982287289373 0 0.16834177622042659 0.21521080324229849 0 0.1700942064728822 0.22418552532896521 0 0.1749987935214003 0.2090205896404074 0 0.18359763226654069 0.20886897665059431 0 0.1781068059931887 0.2160982287289373 0 0.1446113461256312 0.2038545608583662 0 0.16834177622042659 0.21521080324229849 0 0.1446113461256312 0.2038545608583662 0 0.16834177622042659 0.21521080324229849 0 0.16574489605975329 0.20434753561527569 0 0.1749987935214003 0.2090205896404074 0 0.16834177622042659 0.21521080324229849 0 0.16574489605975329 0.20434753561527569 0 0.14302668312737449 0.22015324929741389 0 0.159092415299491 0.23013654216727891 0 0.1700942064728822 0.22418552532896521 0 0.14302668312737449 0.22015324929741389 0 0.1700942064728822 0.22418552532896521 0 0.14302668312737449 0.22015324929741389 0 0.16834177622042659 0.21521080324229849 0 0.1700942064728822 0.22418552532896521 0 0.15196666562546371 0.23334108455560021 0 0.159092415299491 0.23013654216727891 0 0.16056522708951179 0.23773248819960219 0 0.1700942064728822 0.22418552532896521 0 0.1756954214245669 0.2301994593045027 0 0.16980929418222299 0.23527036345481281 0 0.159092415299491 0.23013654216727891 0 0.1700942064728822 0.22418552532896521 0 0.16980929418222299 0.23527036345481281 0 0.1781068059931887 0.2160982287289373 0 0.1700942064728822 0.22418552532896521 0 0.18247485328372159 0.22556346952045281 0 0.1781068059931887 0.2160982287289373 0 0.18247485328372159 0.22556346952045281 0 0.1895071802256941 0.21573643844654011 0 0.18247485328372159 0.22556346952045281 0 0.1804033317594407 0.23577847891377979 0 0.19231371774265749 0.23357223333623769 0 0.1756954214245669 0.2301994593045027 0 0.1804033317594407 0.23577847891377979 0 0.16980929418222299 0.23527036345481281 0 0.18247485328372159 0.22556346952045281 0 0.1756954214245669 0.2301994593045027 0 0.1804033317594407 0.23577847891377979 0 0.1700942064728822 0.22418552532896521 0 0.18247485328372159 0.22556346952045281 0 0.1756954214245669 0.2301994593045027 0 0.1804033317594407 0.23577847891377979 0 0.1766762930459298 0.24533440230458961 0 0.16980929418222299 0.23527036345481281 0 0.1804033317594407 0.23577847891377979 0 0.18878081200359581 0.24566942103034811 0 0.19231371774265749 0.23357223333623769 0 0.1766762930459298 0.24533440230458961 0 0.18878081200359581 0.24566942103034811 0 0.18490779442650609 0.25559020776125357 0 0.1804033317594407 0.23577847891377979 0 0.1766762930459298 0.24533440230458961 0 0.18878081200359581 0.24566942103034811 0 0.1766762930459298 0.24533440230458961 0 0.16441212985479001 0.24511593227421499 0 0.17218655778912109 0.25430338789713453 0 0.16441212985479001 0.24511593227421499 0 0.16980929418222299 0.23527036345481281 0 0.16056522708951179 0.23773248819960219 0 0.1766762930459298 0.24533440230458961 0 0.16441212985479001 0.24511593227421499 0 0.16980929418222299 0.23527036345481281 0 0.159092415299491 0.23013654216727891 0 0.16980929418222299 0.23527036345481281 0 0.16056522708951179 0.23773248819960219 0 0.1523823758574599 0.2440195334531422 0 0.16441212985479001 0.24511593227421499 0 0.15772030681778071 0.25039649848589418 0 0.1523823758574599 0.2440195334531422 0 0.16441212985479001 0.24511593227421499 0 0.16056522708951179 0.23773248819960219 0 0.2103244671141446 0.24815240516277451 0 0.21832393209863341 0.23370034890758881 0 0.22340588306546499 0.24648829058061131 0 0.20696752867152121 0.23730651719759921 0 0.2103244671141446 0.24815240516277451 0 0.21832393209863341 0.23370034890758881 0 0.20696752867152121 0.23730651719759921 0 0.2103244671141446 0.24815240516277451 0 0.19942420770430511 0.24470851503301741 0 0.19942420770430511 0.24470851503301741 0 0.18878081200359581 0.24566942103034811 0 0.19895952734273589 0.2590326888332104 0 0.19942420770430511 0.24470851503301741 0 0.18878081200359581 0.24566942103034811 0 0.19231371774265749 0.23357223333623769 0 0.20696752867152121 0.23730651719759921 0 0.19942420770430511 0.24470851503301741 0 0.19231371774265749 0.23357223333623769 0 0.19231371774265749 0.23357223333623769 0 0.19221570672955121 0.22401039546489879 0 0.20350521735755289 0.22676488048795859 0 0.20696752867152121 0.23730651719759921 0 0.19231371774265749 0.23357223333623769 0 0.20350521735755289 0.22676488048795859 0 0.18247485328372159 0.22556346952045281 0 0.19231371774265749 0.23357223333623769 0 0.19221570672955121 0.22401039546489879 0 0.19221570672955121 0.22401039546489879 0 0.1987954532145923 0.2166574567792191 0 0.1895071802256941 0.21573643844654011 0 0.18247485328372159 0.22556346952045281 0 0.19221570672955121 0.22401039546489879 0 0.1895071802256941 0.21573643844654011 0 0.19221570672955121 0.22401039546489879 0 0.20350521735755289 0.22676488048795859 0 0.1987954532145923 0.2166574567792191 0 0.20350521735755289 0.22676488048795859 0 0.21832393209863341 0.23370034890758881 0 0.2211935804899382 0.22129573812119821 0 0.20350521735755289 0.22676488048795859 0 0.21028667960615499 0.21167897315752551 0 0.2211935804899382 0.22129573812119821 0 0.20696752867152121 0.23730651719759921 0 0.20350521735755289 0.22676488048795859 0 0.21832393209863341 0.23370034890758881 0 0.21028667960615499 0.21167897315752551 0 0.21456542736041551 0.1921131458771127 0 0.22492689428569709 0.2076436843277453 0 0.20350521735755289 0.22676488048795859 0 0.21028667960615499 0.21167897315752551 0 0.1987954532145923 0.2166574567792191 0 0.21028667960615499 0.21167897315752551 0 0.1987954532145923 0.2166574567792191 0 0.1962298191582498 0.2045905584680624 0 0.1987954532145923 0.2166574567792191 0 0.1895071802256941 0.21573643844654011 0 0.1962298191582498 0.2045905584680624 0 0.18359763226654069 0.20886897665059431 0 0.1895071802256941 0.21573643844654011 0 0.1962298191582498 0.2045905584680624 0 0.1791455624341706 0.19889906796902429 0 0.1962298191582498 0.2045905584680624 0 0.1956337919120662 0.18891131568155611 0 0.1962298191582498 0.2045905584680624 0 0.1956337919120662 0.18891131568155611 0 0.21456542736041551 0.1921131458771127 0 0.21028667960615499 0.21167897315752551 0 0.1962298191582498 0.2045905584680624 0 0.21456542736041551 0.1921131458771127 0 0.21456542736041551 0.1921131458771127 0 0.23044858182325401 0.19475572098252261 0 0.22492689428569709 0.2076436843277453 0 0.23044858182325401 0.19475572098252261 0 0.24190545341244329 0.2051566678978386 0 0.22492689428569709 0.2076436843277453 0 0.21456542736041551 0.1921131458771127 0 0.23044858182325401 0.19475572098252261 0 0.23221757921089561 0.18061268687309329 0 0.24190545341244329 0.2051566678978386 0 0.2473586422174934 0.17909700040676241 0 0.25755075896001339 0.20267407045912511 0 0.23044858182325401 0.19475572098252261 0 0.24190545341244329 0.2051566678978386 0 0.2473586422174934 0.17909700040676241 0 0.24190545341244329 0.2051566678978386 0 0.22492689428569709 0.2076436843277453 0 0.237442936396044 0.22253522446368521 0 0.24190545341244329 0.2051566678978386 0 0.237442936396044 0.22253522446368521 0 0.25139918172692383 0.21816380135630009 0 0.22492689428569709 0.2076436843277453 0 0.2211935804899382 0.22129573812119821 0 0.237442936396044 0.22253522446368521 0 0.21028667960615499 0.21167897315752551 0 0.22492689428569709 0.2076436843277453 0 0.2211935804899382 0.22129573812119821 0 0.2211935804899382 0.22129573812119821 0 0.237442936396044 0.22253522446368521 0 0.23038537072264781 0.23439164759485201 0 0.21832393209863341 0.23370034890758881 0 0.2211935804899382 0.22129573812119821 0 0.23038537072264781 0.23439164759485201 0 0.237442936396044 0.22253522446368521 0 0.2520651424548192 0.2338049592035665 0 0.25139918172692383 0.21816380135630009 0 0.237442936396044 0.22253522446368521 0 0.24032814660690011 0.23770761085345751 0 0.2520651424548192 0.2338049592035665 0 0.237442936396044 0.22253522446368521 0 0.24032814660690011 0.23770761085345751 0 0.23038537072264781 0.23439164759485201 0 0.24032814660690011 0.23770761085345751 0 0.23585449422308771 0.2462814536726553 0 0.23038537072264781 0.23439164759485201 0 0.24032814660690011 0.23770761085345751 0 0.24711866831732671 0.24511003521626959 0 0.2520651424548192 0.2338049592035665 0 0.24711866831732671 0.24511003521626959 0 0.23585449422308771 0.2462814536726553 0 0.24481430044314709 0.25516863214587021 0 0.24032814660690011 0.23770761085345751 0 0.24711866831732671 0.24511003521626959 0 0.23585449422308771 0.2462814536726553 0 0.23585449422308771 0.2462814536726553 0 0.23038537072264781 0.23439164759485201 0 0.22340588306546499 0.24648829058061131 0 0.21832393209863341 0.23370034890758881 0 0.23038537072264781 0.23439164759485201 0 0.22340588306546499 0.24648829058061131 0 0.2055697469937246 0.14928605972468109 0 0.2186310220044122 0.1429039814243673 0 0.22895380988173189 0.15389960673320249 0 0.2055697469937246 0.14928605972468109 0 0.22895380988173189 0.15389960673320249 0 0.2055697469937246 0.14928605972468109 0 0.2186310220044122 0.1429039814243673 0 0.1999558879733139 0.12893622275722949 0 0.2186310220044122 0.1429039814243673 0 0.1999558879733139 0.12893622275722949 0 0.22336809220234899 0.1236004933914872 0 0.18476367364700619 0.15006352396100611 0 0.2055697469937246 0.14928605972468109 0 0.1999558879733139 0.12893622275722949 0 0.18476367364700619 0.15006352396100611 0 0.2055697469937246 0.14928605972468109 0 0.194901954537963 0.16944645219746149 0 0.1956337919120662 0.18891131568155611 0 0.194901954537963 0.16944645219746149 0 0.20641080865036229 0.18033123619401131 0 0.18314398492344741 0.18343386462236189 0 0.1956337919120662 0.18891131568155611 0 0.194901954537963 0.16944645219746149 0 0.194901954537963 0.16944645219746149 0 0.20641080865036229 0.18033123619401131 0 0.2205420607910043 0.17085403101991509 0 0.1956337919120662 0.18891131568155611 0 0.21456542736041551 0.1921131458771127 0 0.20641080865036229 0.18033123619401131 0 0.21456542736041551 0.1921131458771127 0 0.20641080865036229 0.18033123619401131 0 0.2205420607910043 0.17085403101991509 0 0.2055697469937246 0.14928605972468109 0 0.194901954537963 0.16944645219746149 0 0.2205420607910043 0.17085403101991509 0 0.2055697469937246 0.14928605972468109 0 0.2205420607910043 0.17085403101991509 0 0.22895380988173189 0.15389960673320249 0 0.2205420607910043 0.17085403101991509 0 0.2332477235152195 0.16799665107747469 0 0.22895380988173189 0.15389960673320249 0 0.2205420607910043 0.17085403101991509 0 0.22895380988173189 0.15389960673320249 0 0.2332477235152195 0.16799665107747469 0 0.2371665254749723 0.15551993035440001 0 0.22895380988173189 0.15389960673320249 0 0.21456542736041551 0.1921131458771127 0 0.2205420607910043 0.17085403101991509 0 0.23221757921089561 0.18061268687309329 0 0.2205420607910043 0.17085403101991509 0 0.2332477235152195 0.16799665107747469 0 0.23221757921089561 0.18061268687309329 0 0.23044858182325401 0.19475572098252261 0 0.23221757921089561 0.18061268687309329 0 0.2473586422174934 0.17909700040676241 0 0.2332477235152195 0.16799665107747469 0 0.23221757921089561 0.18061268687309329 0 0.2473586422174934 0.17909700040676241 0 0.2473586422174934 0.17909700040676241 0 0.2371665254749723 0.15551993035440001 0 0.2371665254749723 0.15551993035440001 0 0.25898227684926389 0.1598240581261029 0 0.2473586422174934 0.17909700040676241 0 0.2371665254749723 0.15551993035440001 0 0.25898227684926389 0.1598240581261029 0 0.2332477235152195 0.16799665107747469 0 0.2473586422174934 0.17909700040676241 0 0.2371665254749723 0.15551993035440001 0 0.2371665254749723 0.15551993035440001 0 0.25079872324042868 0.14386359070849269 0 0.25898227684926389 0.1598240581261029 0 0.2371665254749723 0.15551993035440001 0 0.23296825870988311 0.14580822550253969 0 0.25079872324042868 0.14386359070849269 0 0.2371665254749723 0.15551993035440001 0 0.23296825870988311 0.14580822550253969 0 0.2371665254749723 0.15551993035440001 0 0.22895380988173189 0.15389960673320249 0 0.23296825870988311 0.14580822550253969 0 0.22895380988173189 0.15389960673320249 0 0.23296825870988311 0.14580822550253969 0 0.2371665254749723 0.15551993035440001 0 0.22895380988173189 0.15389960673320249 0 0.2186310220044122 0.1429039814243673 0 0.22895380988173189 0.15389960673320249 0 0.23296825870988311 0.14580822550253969 0 0.23296825870988311 0.14580822550253969 0 0.22336809220234899 0.1236004933914872 0 0.2186310220044122 0.1429039814243673 0 0.23296825870988311 0.14580822550253969 0 0.22336809220234899 0.1236004933914872 0 0.23296825870988311 0.14580822550253969 0 0.243794950737863 0.1239863275495639 0 0.22336809220234899 0.1236004933914872 0 0.23296825870988311 0.14580822550253969 0 0.243794950737863 0.1239863275495639 0 0.23296825870988311 0.14580822550253969 0 0.243794950737863 0.1239863275495639 0 0.25079872324042868 0.14386359070849269 0 0.243794950737863 0.1239863275495639 0 0.25462164276584198 0.10216442959658779 0 0.243794950737863 0.1239863275495639 0 0.2353974528268821 0.10296473775492861 0 0.25462164276584198 0.10216442959658779 0 0.2353974528268821 0.10296473775492861 0 0.25013484754435239 0.089312210651446719 0 0.25462164276584198 0.10216442959658779 0 0.2353974528268821 0.10296473775492861 0 0.23631640620475919 0.089786214883944671 0 0.25013484754435239 0.089312210651446719 0 0.2353974528268821 0.10296473775492861 0 0.21376792569481559 0.1013927612804344 0 0.2243334793988461 0.089880171910496465 0 0.2353974528268821 0.10296473775492861 0 0.22336809220234899 0.1236004933914872 0 0.21376792569481559 0.1013927612804344 0 0.2353974528268821 0.10296473775492861 0 0.2243334793988461 0.089880171910496465 0 0.23631640620475919 0.089786214883944671 0 0.243794950737863 0.1239863275495639 0 0.2353974528268821 0.10296473775492861 0 0.22336809220234899 0.1236004933914872 0 0.22336809220234899 0.1236004933914872 0 0.21376792569481559 0.1013927612804344 0 0.1999558879733139 0.12893622275722949 0 0.22336809220234899 0.1236004933914872 0 0.21376792569481559 0.1013927612804344 0 0.21376792569481559 0.1013927612804344 0 0.19357369295727 0.091029019402396591 0 0.18280532478067821 0.107557288760172 0 0.1999558879733139 0.12893622275722949 0 0.21376792569481559 0.1013927612804344 0 0.18280532478067821 0.107557288760172 0 0.21230659309943509 0.064842857568477047 0 0.19387519691047031 0.052920437468004497 0 0.1869299070365098 0.076593838330974245 0 0.20416775918728219 0.079185029169381693 0 0.21230659309943509 0.064842857568477047 0 0.1869299070365098 0.076593838330974245 0 0.21230659309943509 0.064842857568477047 0 0.1869299070365098 0.076593838330974245 0 0.19357369295727 0.091029019402396591 0 0.20416775918728219 0.079185029169381693 0 0.1869299070365098 0.076593838330974245 0 0.20416775918728219 0.079185029169381693 0 0.21796391981381441 0.077748738156074582 0 0.2243334793988461 0.089880171910496465 0 0.21376792569481559 0.1013927612804344 0 0.19357369295727 0.091029019402396591 0 0.20416775918728219 0.079185029169381693 0 0.21376792569481559 0.1013927612804344 0 0.20416775918728219 0.079185029169381693 0 0.2243334793988461 0.089880171910496465 0 0.21376792569481559 0.1013927612804344 0 0.20416775918728219 0.079185029169381693 0 0.20416775918728219 0.079185029169381693 0 0.21796391981381441 0.077748738156074582 0 0.21230659309943509 0.064842857568477047 0 0.21230659309943509 0.064842857568477047 0 0.21414528369460939 0.063991429696512059 0 0.2257897129884551 0.066480682179063111 0 0.21230659309943509 0.064842857568477047 0 0.21414528369460939 0.063991429696512059 0 0.2131489118825261 0.0613186900886835 0 0.21230659309943509 0.064842857568477047 0 0.21414528369460939 0.063991429696512059 0 0.21230659309943509 0.064842857568477047 0 0.2257897129884551 0.066480682179063111 0 0.2312207203218937 0.077077534109961945 0 0.21230659309943509 0.064842857568477047 0 0.2312207203218937 0.077077534109961945 0 0.21414528369460939 0.063991429696512059 0 0.2257897129884551 0.066480682179063111 0 0.2178651574880282 0.058015885660395977 0 0.2257897129884551 0.066480682179063111 0 0.2312207203218937 0.077077534109961945 0 0.23598468486298441 0.061177265399028069 0 0.21796391981381441 0.077748738156074582 0 0.21230659309943509 0.064842857568477047 0 0.2312207203218937 0.077077534109961945 0 0.21796391981381441 0.077748738156074582 0 0.2312207203218937 0.077077534109961945 0 0.2243334793988461 0.089880171910496465 0 0.2312207203218937 0.077077534109961945 0 0.2243334793988461 0.089880171910496465 0 0.23631640620475919 0.089786214883944671 0 0.2312207203218937 0.077077534109961945 0 0.23631640620475919 0.089786214883944671 0 0.25013484754435239 0.089312210651446719 0 0.2312207203218937 0.077077534109961945 0 0.25013484754435239 0.089312210651446719 0 0.2312207203218937 0.077077534109961945 0 0.23598468486298441 0.061177265399028069 0 0.25076260917159371 0.067604295308239623 0 0.2312207203218937 0.077077534109961945 0 0.25076260917159371 0.067604295308239623 0 0.25013484754435239 0.089312210651446719 0 0.23598468486298441 0.061177265399028069 0 0.24324862580501719 0.043699375385111268 0 0.22890175602796239 0.051024440012764398 0 0.23598468486298441 0.061177265399028069 0 0.24324862580501719 0.043699375385111268 0 0.25076260917159371 0.067604295308239623 0 0.24324862580501719 0.043699375385111268 0 0.2303560944758109 0.034554223624098858 0 0.25035344126441311 0.024856540025677429 0 0.2303560944758109 0.034554223624098858 0 0.22890175602796239 0.051024440012764398 0 0.21613840432333101 0.04691246852366434 0 0.2303560944758109 0.034554223624098858 0 0.21613840432333101 0.04691246852366434 0 0.21454968486992709 0.034646852871839773 0 0.24324862580501719 0.043699375385111268 0 0.2303560944758109 0.034554223624098858 0 0.22890175602796239 0.051024440012764398 0 0.22890175602796239 0.051024440012764398 0 0.2178651574880282 0.058015885660395977 0 0.21613840432333101 0.04691246852366434 0 0.2257897129884551 0.066480682179063111 0 0.22890175602796239 0.051024440012764398 0 0.2178651574880282 0.058015885660395977 0 0.2257897129884551 0.066480682179063111 0 0.23598468486298441 0.061177265399028069 0 0.22890175602796239 0.051024440012764398 0 0.22489898562157759 0.013333890121236831 0 0.25086621734364162 0.0024580881529454729 0 0.22489898562157759 0.013333890121236831 0 0.25035344126441311 0.024856540025677429 0 0.25086621734364162 0.0024580881529454729 0 0.2303560944758109 0.034554223624098858 0 0.22489898562157759 0.013333890121236831 0 0.25035344126441311 0.024856540025677429 0 0.2303560944758109 0.034554223624098858 0 0.22489898562157759 0.013333890121236831 0 0.21454968486992709 0.034646852871839773 0 0.22489898562157759 0.013333890121236831 0 0.25086621734364162 0.0024580881529454729 0 0.22616044121600959 -0.01376572990933354 0 0.19893175389951359 0.024209692089528188 0 0.1816648446934781 0.01096575827495024 0 0.20090512928805779 -0.0090201127844871404 0 0.22489898562157759 0.013333890121236831 0 0.19893175389951359 0.024209692089528188 0 0.20090512928805779 -0.0090201127844871404 0 0.22489898562157759 0.013333890121236831 0 0.19893175389951359 0.024209692089528188 0 0.22489898562157759 0.013333890121236831 0 0.19893175389951359 0.024209692089528188 0 0.21454968486992709 0.034646852871839773 0 0.21230659309943509 0.064842857568477047 0 0.21038064728337519 0.058272630182254342 0 0.19387519691047031 0.052920437468004497 0 0.20506064061351759 0.049319327094041063 0 0.21038064728337519 0.058272630182254342 0 0.21613840432333101 0.04691246852366434 0 0.21230659309943509 0.064842857568477047 0 0.21038064728337519 0.058272630182254342 0 0.2131489118825261 0.0613186900886835 0 0.21038064728337519 0.058272630182254342 0 0.2131489118825261 0.0613186900886835 0 0.2178651574880282 0.058015885660395977 0 0.21414528369460939 0.063991429696512059 0 0.2131489118825261 0.0613186900886835 0 0.2178651574880282 0.058015885660395977 0 0.21038064728337519 0.058272630182254342 0 0.2178651574880282 0.058015885660395977 0 0.21613840432333101 0.04691246852366434 0 0.19893175389951359 0.024209692089528188 0 0.21454968486992709 0.034646852871839773 0 0.2002657967359503 0.040360221369006667 0 0.20506064061351759 0.049319327094041063 0 0.21613840432333101 0.04691246852366434 0 0.2002657967359503 0.040360221369006667 0 0.21613840432333101 0.04691246852366434 0 0.21454968486992709 0.034646852871839773 0 0.2002657967359503 0.040360221369006667 0 0.19893175389951359 0.024209692089528188 0 0.2002657967359503 0.040360221369006667 0 0.17544380072150559 0.040998017367531822 0 0.2002657967359503 0.040360221369006667 0 0.19387519691047031 0.052920437468004497 0 0.17544380072150559 0.040998017367531822 0 0.21230659309943509 0.064842857568477047 0 0.19387519691047031 0.052920437468004497 0 0.20506064061351759 0.049319327094041063 0 0.21038064728337519 0.058272630182254342 0 0.19387519691047031 0.052920437468004497 0 0.20506064061351759 0.049319327094041063 0 0.2002657967359503 0.040360221369006667 0 0.19387519691047031 0.052920437468004497 0 0.19387519691047031 0.052920437468004497 0 0.17544380072150559 0.040998017367531822 0 0.19387519691047031 0.052920437468004497 0 0.17966387786689339 0.060688201631993621 0 0.17544380072150559 0.040998017367531822 0 0.17966387786689339 0.060688201631993621 0 0.17544380072150559 0.040998017367531822 0 0.16395897849296939 0.049298334342000101 0 0.17544380072150559 0.040998017367531822 0 0.15701240453254089 0.029075597267059178 0 0.17544380072150559 0.040998017367531822 0 0.16395897849296939 0.049298334342000101 0 0.15701240453254089 0.029075597267059178 0 0.16395897849296939 0.049298334342000101 0 0.15701240453254089 0.029075597267059178 0 0.15200404121094321 0.041690714603833202 0 0.17966387786689339 0.060688201631993621 0 0.16395897849296939 0.049298334342000101 0 0.1672701881807459 0.067400711095601307 0 0.16395897849296939 0.049298334342000101 0 0.14874027460609179 0.062498889700335708 0 0.1672701881807459 0.067400711095601307 0 0.1816648446934781 0.01096575827495024 0 0.16619471446895351 0.010561337939631399 0 0.1756498173601061 -0.0042744956596407558 0 0.1816648446934781 0.01096575827495024 0 0.17315857574830401 0.023666888943340261 0 0.16619471446895351 0.010561337939631399 0 0.19893175389951359 0.024209692089528188 0 0.1816648446934781 0.01096575827495024 0 0.17315857574830401 0.023666888943340261 0 0.19893175389951359 0.024209692089528188 0 0.17544380072150559 0.040998017367531822 0 0.17315857574830401 0.023666888943340261 0 0.17544380072150559 0.040998017367531822 0 0.17315857574830401 0.023666888943340261 0 0.15701240453254089 0.029075597267059178 0 0.17315857574830401 0.023666888943340261 0 0.15701240453254089 0.029075597267059178 0 0.1605485522124066 0.01920951036045344 0 0.15701240453254089 0.029075597267059178 0 0.1605485522124066 0.01920951036045344 0 0.15119927332154959 0.021080918034519489 0 0.1605485522124066 0.01920951036045344 0 0.15708426135876599 0.012830721949952561 0 0.15119927332154959 0.021080918034519489 0 0.17315857574830401 0.023666888943340261 0 0.1605485522124066 0.01920951036045344 0 0.16619471446895351 0.010561337939631399 0 0.16619471446895351 0.010561337939631399 0 0.1503945054321543 0.00047112146520590192 0 0.1756498173601061 -0.0042744956596407558 0 0.16619471446895351 0.010561337939631399 0 0.15708426135876599 0.012830721949952561 0 0.1503945054321543 0.00047112146520590192 0 0.1605485522124066 0.01920951036045344 0 0.16619471446895351 0.010561337939631399 0 0.15708426135876599 0.012830721949952561 0 0.1503945054321543 0.00047112146520590192 0 0.15119927332154959 0.021080918034519489 0 0.14727149059413749 0.0010579537616636049 0 0.15119927332154959 0.021080918034519489 0 0.13991310363042661 0.01214854201131791 0 0.15708426135876599 0.012830721949952561 0 0.1503945054321543 0.00047112146520590192 0 0.15119927332154959 0.021080918034519489 0 0.14727149059413749 0.0010579537616636049 0 0.1503945054321543 0.00047112146520590192 0 0.15119927332154959 0.021080918034519489 0 0.14727149059413749 0.0010579537616636049 0 0.13991310363042661 0.01214854201131791 0 0.13903681548494021 0.0038552356457439 0 0.14727149059413749 0.0010579537616636049 0 0.13903681548494021 0.0038552356457439 0 0.13807058767544719 -0.002590351377979395 0 0.14727149059413749 0.0010579537616636049 0 0.1503945054321543 0.00047112146520590192 0 0.15701240453254089 0.029075597267059178 0 0.15119927332154959 0.021080918034519489 0 0.15200404121094321 0.041690714603833202 0 0.15119927332154959 0.021080918034519489 0 0.1400803875580498 0.02302083511499119 0 0.13991310363042661 0.01214854201131791 0 0.15119927332154959 0.021080918034519489 0 0.1400803875580498 0.02302083511499119 0 0.1421779159889601 0.032754388059182342 0 0.1400803875580498 0.02302083511499119 0 0.1421779159889601 0.032754388059182342 0 0.12909259059593919 0.032264746589815423 0 0.13064193881695429 0.01906261638735246 0 0.1400803875580498 0.02302083511499119 0 0.12909259059593919 0.032264746589815423 0 0.117715754831061 0.017624516067968821 0 0.13064193881695429 0.01906261638735246 0 0.12909259059593919 0.032264746589815423 0 0.13064193881695429 0.01906261638735246 0 0.1400803875580498 0.02302083511499119 0 0.13991310363042661 0.01214854201131791 0 0.117715754831061 0.017624516067968821 0 0.13064193881695429 0.01906261638735246 0 0.12879430821262439 0.0027572904785835642 0 0.13064193881695429 0.01906261638735246 0 0.13991310363042661 0.01214854201131791 0 0.12879430821262439 0.0027572904785835642 0 0.12879430821262439 0.0027572904785835642 0 0.13903681548494021 0.0038552356457439 0 0.13807058767544719 -0.002590351377979395 0 0.13991310363042661 0.01214854201131791 0 0.12879430821262439 0.0027572904785835642 0 0.13903681548494021 0.0038552356457439 0 0.16395897849296939 0.049298334342000101 0 0.14874027460609179 0.062498889700335708 0 0.15200404121094321 0.041690714603833202 0 0.14874027460609179 0.062498889700335708 0 0.15200404121094321 0.041690714603833202 0 0.13594531221170089 0.046718906597540209 0 0.15200404121094321 0.041690714603833202 0 0.1421779159889601 0.032754388059182342 0 0.13594531221170089 0.046718906597540209 0 0.15119927332154959 0.021080918034519489 0 0.15200404121094321 0.041690714603833202 0 0.1421779159889601 0.032754388059182342 0 0.15119927332154959 0.021080918034519489 0 0.15200404121094321 0.041690714603833202 0 0.11816806286939591 0.047038968090737467 0 0.13594531221170089 0.046718906597540209 0 0.12909259059593919 0.032264746589815423 0 0.1421779159889601 0.032754388059182342 0 0.13594531221170089 0.046718906597540209 0 0.12909259059593919 0.032264746589815423 0 0.11816806286939591 0.047038968090737467 0 0.1229128465412201 0.064342378436089392 0 0.13594531221170089 0.046718906597540209 0 0.1229128465412201 0.064342378436089392 0 0.14874027460609179 0.062498889700335708 0 0.13594531221170089 0.046718906597540209 0 0.1229128465412201 0.064342378436089392 0 0.14874027460609179 0.062498889700335708 0 0.13670389610601039 0.079566463234652843 0 0.14874027460609179 0.062498889700335708 0 0.13670389610601039 0.079566463234652843 0 0.1615532209735844 0.088344819093471583 0 0.13670389610601039 0.079566463234652843 0 0.1361765349106592 0.1000957998559688 0 0.1615532209735844 0.088344819093471583 0 0.114324721259707 0.081852659343666631 0 0.13670389610601039 0.079566463234652843 0 0.1361765349106592 0.1000957998559688 0 0.12690760393507261 0.1272026692018251 0 0.14785171823245391 0.1288751956060781 0 0.1361765349106592 0.1000957998559688 0 0.14785171823245391 0.1288751956060781 0 0.1361765349106592 0.1000957998559688 0 0.16010731998278169 0.11069851623937139 0 0.1361765349106592 0.1000957998559688 0 0.1615532209735844 0.088344819093471583 0 0.1361765349106592 0.1000957998559688 0 0.16010731998278169 0.11069851623937139 0 0.1615532209735844 0.088344819093471583 0 0.16010731998278169 0.11069851623937139 0 0.18280532478067821 0.107557288760172 0 0.1615532209735844 0.088344819093471583 0 0.19357369295727 0.091029019402396591 0 0.18280532478067821 0.107557288760172 0 0.1615532209735844 0.088344819093471583 0 0.17214980101653271 0.12861947788116659 0 0.16010731998278169 0.11069851623937139 0 0.18280532478067821 0.107557288760172 0 0.14785171823245391 0.1288751956060781 0 0.17214980101653271 0.12861947788116659 0 0.16010731998278169 0.11069851623937139 0 0.17214980101653271 0.12861947788116659 0 0.1999558879733139 0.12893622275722949 0 0.18280532478067821 0.107557288760172 0 0.19357369295727 0.091029019402396591 0 0.1869299070365098 0.076593838330974245 0 0.1615532209735844 0.088344819093471583 0 0.1869299070365098 0.076593838330974245 0 0.1615532209735844 0.088344819093471583 0 0.1869299070365098 0.076593838330974245 0 0.1672701881807459 0.067400711095601307 0 0.1615532209735844 0.088344819093471583 0 0.17966387786689339 0.060688201631993621 0 0.1869299070365098 0.076593838330974245 0 0.1672701881807459 0.067400711095601307 0 0.19387519691047031 0.052920437468004497 0 0.17966387786689339 0.060688201631993621 0 0.1869299070365098 0.076593838330974245 0 0.14874027460609179 0.062498889700335708 0 0.1672701881807459 0.067400711095601307 0 0.1615532209735844 0.088344819093471583 0 0.1041141734898597 0.47138112176481939 0 0.1008074909692281 0.48329127705566832 0 0.1164440145956645 0.47969537334431189 0 0.1041141734898597 0.47138112176481939 0 0.1008074909692281 0.48329127705566832 0 0.089605175585703301 0.47204481769441009 0 0.1212288328225988 0.49620131360993158 0 0.093282080515218233 0.49999999999999911 0 0.1008074909692281 0.48329127705566832 0 0.1212288328225988 0.49620131360993158 0 0.093282080515218233 0.49999999999999911 0 0.1212288328225988 0.49620131360993158 0 0.1203303519234782 0.5 0 0.093282080515218233 0.49999999999999911 0 0.1008074909692281 0.48329127705566832 0 0.1212288328225988 0.49620131360993158 0 0.1164440145956645 0.47969537334431189 0 0.1212288328225988 0.49620131360993158 0 0.1164440145956645 0.47969537334431189 0 0.1307851997139666 0.48262718452972148 0 0.1164440145956645 0.47969537334431189 0 0.1238474612440929 0.47392924218746268 0 0.1307851997139666 0.48262718452972148 0 0.1041141734898597 0.47138112176481939 0 0.1164440145956645 0.47969537334431189 0 0.1145093192272847 0.46521156931690771 0 0.1164440145956645 0.47969537334431189 0 0.1238474612440929 0.47392924218746268 0 0.1145093192272847 0.46521156931690771 0 0.12076980168030139 0.45622433849141653 0 0.1145093192272847 0.46521156931690771 0 0.12510763250347909 0.46549675427369858 0 0.1238474612440929 0.47392924218746268 0 0.1145093192272847 0.46521156931690771 0 0.12510763250347909 0.46549675427369858 0 0.12076980168030139 0.45622433849141653 0 0.1145093192272847 0.46521156931690771 0 0.1102295409683039 0.45035485323088309 0 0.1247819217563655 0.44545259418403022 0 0.1102295409683039 0.45035485323088309 0 0.11599547710088939 0.43470317518431412 0 0.1247819217563655 0.44545259418403022 0 0.11599547710088939 0.43470317518431412 0 0.13091002303884949 0.43417971959796903 0 0.12076980168030139 0.45622433849141653 0 0.1247819217563655 0.44545259418403022 0 0.1102295409683039 0.45035485323088309 0 0.12076980168030139 0.45622433849141653 0 0.1247819217563655 0.44545259418403022 0 0.1292205939460738 0.4546059214515632 0 0.1102295409683039 0.45035485323088309 0 0.10097650532538451 0.43732810616974283 0 0.11599547710088939 0.43470317518431412 0 0.1102295409683039 0.45035485323088309 0 0.09730799903317866 0.44846151111146609 0 0.098447556431330047 0.46054857621812417 0 0.1102295409683039 0.45035485323088309 0 0.09730799903317866 0.44846151111146609 0 0.10097650532538451 0.43732810616974283 0 0.09730799903317866 0.44846151111146609 0 0.085635522430358199 0.44451447217192891 0 0.10097650532538451 0.43732810616974283 0 0.1041141734898597 0.47138112176481939 0 0.1145093192272847 0.46521156931690771 0 0.098447556431330047 0.46054857621812417 0 0.1145093192272847 0.46521156931690771 0 0.1102295409683039 0.45035485323088309 0 0.098447556431330047 0.46054857621812417 0 0.1041141734898597 0.47138112176481939 0 0.098447556431330047 0.46054857621812417 0 0.089605175585703301 0.47204481769441009 0 0.082178678664365609 0.45914853997710109 0 0.072195616239848631 0.47245419020378299 0 0.089605175585703301 0.47204481769441009 0 0.082178678664365609 0.45914853997710109 0 0.085635522430358199 0.44451447217192891 0 0.067033583753834378 0.45812703619180878 0 0.098447556431330047 0.46054857621812417 0 0.082178678664365609 0.45914853997710109 0 0.089605175585703301 0.47204481769441009 0 0.09730799903317866 0.44846151111146609 0 0.098447556431330047 0.46054857621812417 0 0.082178678664365609 0.45914853997710109 0 0.09730799903317866 0.44846151111146609 0 0.082178678664365609 0.45914853997710109 0 0.085635522430358199 0.44451447217192891 0 0.085635522430358199 0.44451447217192891 0 0.065127687355097566 0.44151573190129789 0 0.067033583753834378 0.45812703619180878 0 0.082178678664365609 0.45914853997710109 0 0.067033583753834378 0.45812703619180878 0 0.072195616239848631 0.47245419020378299 0 0.067033583753834378 0.45812703619180878 0 0.072195616239848631 0.47245419020378299 0 0.057196313516143772 0.4795234767028792 0 0.072195616239848631 0.47245419020378299 0 0.079712997635261434 0.48664999277586363 0 0.057196313516143772 0.4795234767028792 0 0.072195616239848631 0.47245419020378299 0 0.089605175585703301 0.47204481769441009 0 0.079712997635261434 0.48664999277586363 0 0.1008074909692281 0.48329127705566832 0 0.089605175585703301 0.47204481769441009 0 0.079712997635261434 0.48664999277586363 0 0.1008074909692281 0.48329127705566832 0 0.079712997635261434 0.48664999277586363 0 0.093282080515218233 0.49999999999999911 0 0.079712997635261434 0.48664999277586363 0 0.093282080515218233 0.49999999999999911 0 0.068671392108316354 0.5 0 0.079712997635261434 0.48664999277586363 0 0.068671392108316354 0.5 0 0.057196313516143772 0.4795234767028792 0 0.068671392108316354 0.5 0 0.057196313516143772 0.4795234767028792 0 0.044060703701414461 0.5 0 0.057196313516143772 0.4795234767028792 0 0.032292951929841343 0.47700871819601559 0 0.048702753496582638 0.45764617908868999 0 0.057196313516143772 0.4795234767028792 0 0.032292951929841343 0.47700871819601559 0 0.044060703701414461 0.5 0 0.032292951929841343 0.47700871819601559 0 0.044060703701414461 0.5 0 0.019450015294512572 0.5 0 0.032292951929841343 0.47700871819601559 0 0.019450015294512572 0.5 0 0.0063674400442363492 0.47858960545643919 0 0.032292951929841343 0.47700871819601559 0 0.0063674400442363492 0.47858960545643919 0 0.01715747563867721 0.45669826171354772 0 -0.0051606731123892994 0.499999999999997 0 0.019450015294512572 0.5 0 0.0063674400442363492 0.47858960545643919 0 0.0042115827931327541 0.44204597406121049 0 0.01715747563867721 0.45669826171354772 0 0.018186176599555109 0.43780380970710081 0 -0.0072893729514081169 0.45840656644439642 0 0.0042115827931327541 0.44204597406121049 0 0.01715747563867721 0.45669826171354772 0 -0.0072893729514081169 0.45840656644439642 0 0.0063674400442363492 0.47858960545643919 0 0.01715747563867721 0.45669826171354772 0 0.01715747563867721 0.45669826171354772 0 0.032634737545622988 0.44276983958434041 0 0.032654912638515908 0.46053201518300491 0 0.032292951929841343 0.47700871819601559 0 0.01715747563867721 0.45669826171354772 0 0.032654912638515908 0.46053201518300491 0 0.01715747563867721 0.45669826171354772 0 0.018186176599555109 0.43780380970710081 0 0.032634737545622988 0.44276983958434041 0 0.032634737545622988 0.44276983958434041 0 0.048702753496582638 0.45764617908868999 0 0.048695303071311057 0.43439862826022868 0 0.032292951929841343 0.47700871819601559 0 0.032654912638515908 0.46053201518300491 0 0.048702753496582638 0.45764617908868999 0 0.032634737545622988 0.44276983958434041 0 0.032654912638515908 0.46053201518300491 0 0.048702753496582638 0.45764617908868999 0 0.067033583753834378 0.45812703619180878 0 0.057196313516143772 0.4795234767028792 0 0.048702753496582638 0.45764617908868999 0 0.065127687355097566 0.44151573190129789 0 0.048702753496582638 0.45764617908868999 0 0.048695303071311057 0.43439862826022868 0 0.065127687355097566 0.44151573190129789 0 0.048702753496582638 0.45764617908868999 0 0.065127687355097566 0.44151573190129789 0 0.067033583753834378 0.45812703619180878 0 0.048702753496582638 0.45764617908868999 0 0.048695303071311057 0.43439862826022868 0 0.047013741929883897 0.41844027182847848 0 0.066723148063125237 0.42284336927077221 0 0.065127687355097566 0.44151573190129789 0 0.048695303071311057 0.43439862826022868 0 0.066723148063125237 0.42284336927077221 0 0.058984843581362113 0.41017407157467689 0 0.047013741929883897 0.41844027182847848 0 0.066723148063125237 0.42284336927077221 0 0.058984843581362113 0.41017407157467689 0 0.047013741929883897 0.41844027182847848 0 0.04892962440177185 0.40756043032529832 0 0.04892962440177185 0.40756043032529832 0 0.03626440300120392 0.41209656917989151 0 0.039440406737661089 0.40385936687291779 0 0.047013741929883897 0.41844027182847848 0 0.04892962440177185 0.40756043032529832 0 0.03626440300120392 0.41209656917989151 0 0.047013741929883897 0.41844027182847848 0 0.03626440300120392 0.41209656917989151 0 0.037461362055126388 0.42513820793681267 0 0.03626440300120392 0.41209656917989151 0 0.037461362055126388 0.42513820793681267 0 0.022901711702546169 0.4162914052785695 0 0.03626440300120392 0.41209656917989151 0 0.030691567134193191 0.40285899001516168 0 0.039440406737661089 0.40385936687291779 0 0.048695303071311057 0.43439862826022868 0 0.047013741929883897 0.41844027182847848 0 0.037461362055126388 0.42513820793681267 0 0.032634737545622988 0.44276983958434041 0 0.048695303071311057 0.43439862826022868 0 0.037461362055126388 0.42513820793681267 0 0.032634737545622988 0.44276983958434041 0 0.037461362055126388 0.42513820793681267 0 0.02542560157065912 0.42804420487496181 0 0.018186176599555109 0.43780380970710081 0 0.032634737545622988 0.44276983958434041 0 0.02542560157065912 0.42804420487496181 0 0.018186176599555109 0.43780380970710081 0 0.02542560157065912 0.42804420487496181 0 0.0106644531092533 0.42702894684686882 0 0.02542560157065912 0.42804420487496181 0 0.022901711702546169 0.4162914052785695 0 0.0106644531092533 0.42702894684686882 0 0.037461362055126388 0.42513820793681267 0 0.02542560157065912 0.42804420487496181 0 0.022901711702546169 0.4162914052785695 0 0.03626440300120392 0.41209656917989151 0 0.022901711702546169 0.4162914052785695 0 0.024365390828332879 0.40582686971899579 0 0.03626440300120392 0.41209656917989151 0 0.024365390828332879 0.40582686971899579 0 0.030691567134193191 0.40285899001516168 0 0.022901711702546169 0.4162914052785695 0 0.015331258736116651 0.40697903712609818 0 0.024365390828332879 0.40582686971899579 0 0.022901711702546169 0.4162914052785695 0 0.01075795515766652 0.41390528923822473 0 0.015331258736116651 0.40697903712609818 0 0.022901711702546169 0.4162914052785695 0 0.01075795515766652 0.41390528923822473 0 0.0106644531092533 0.42702894684686882 0 0.01075795515766652 0.41390528923822473 0 0.015331258736116651 0.40697903712609818 0 0.0044069364506871553 0.40568486893445671 0 -0.00038355306998572887 0.41585143691210003 0 0.01075795515766652 0.41390528923822473 0 0.0044069364506871553 0.40568486893445671 0 -0.00038355306998572887 0.41585143691210003 0 0.01075795515766652 0.41390528923822473 0 0.0106644531092533 0.42702894684686882 0 -0.0014430470430802831 0.43092486066266011 0 -0.00038355306998572887 0.41585143691210003 0 0.0106644531092533 0.42702894684686882 0 -0.0014430470430802831 0.43092486066266011 0 0.0042115827931327541 0.44204597406121049 0 0.0106644531092533 0.42702894684686882 0 0.0042115827931327541 0.44204597406121049 0 0.018186176599555109 0.43780380970710081 0 0.0106644531092533 0.42702894684686882 0 -0.01143385495550101 0.3859344594522614 0 0.01265598891722541 0.39124247204332541 0 -0.01143385495550101 0.3859344594522614 0 0.0022235162913747282 0.38095520847074132 0 0.01265598891722541 0.39124247204332541 0 0.012248446231169351 0.38088933154667121 0 0.01265598891722541 0.39124247204332541 0 0.01742076284184586 0.38358056670973423 0 0.012248446231169351 0.38088933154667121 0 0.0022235162913747282 0.38095520847074132 0 0.01265598891722541 0.39124247204332541 0 0.012248446231169351 0.38088933154667121 0 0.02029422461508304 0.37629410019498832 0 0.01344792743963805 0.37253334067852989 0 0.012248446231169351 0.38088933154667121 0 0.0022235162913747282 0.38095520847074132 0 0.0044235126858082636 0.3702359270180301 0 -0.0062544524671355028 0.37638733941255759 0 0.0022235162913747282 0.38095520847074132 0 0.0044235126858082636 0.3702359270180301 0 -0.01369148164194851 0.3999764975518546 0 0.0044069364506871553 0.40568486893445671 0 0.011527175574001659 0.39826349109312198 0 -0.0036441878871156619 0.39605022870726359 0 0.011527175574001659 0.39826349109312198 0 0.020098844772861169 0.39441104805915322 0 -0.0036441878871156619 0.39605022870726359 0 0.01265598891722541 0.39124247204332541 0 0.020098844772861169 0.39441104805915322 0 -0.0036441878871156619 0.39605022870726359 0 0.020098844772861169 0.39441104805915322 0 0.015331258736116651 0.40697903712609818 0 0.0044069364506871553 0.40568486893445671 0 0.011527175574001659 0.39826349109312198 0 0.011527175574001659 0.39826349109312198 0 0.020098844772861169 0.39441104805915322 0 0.036745832789951902 0.39655048463438941 0 0.011527175574001659 0.39826349109312198 0 0.030691567134193191 0.40285899001516168 0 0.036745832789951902 0.39655048463438941 0 0.01265598891722541 0.39124247204332541 0 0.020098844772861169 0.39441104805915322 0 0.036745832789951902 0.39655048463438941 0 0.01265598891722541 0.39124247204332541 0 0.02748484960095058 0.38979176975814039 0 0.036745832789951902 0.39655048463438941 0 0.011527175574001659 0.39826349109312198 0 0.024365390828332879 0.40582686971899579 0 0.030691567134193191 0.40285899001516168 0 0.011527175574001659 0.39826349109312198 0 0.036745832789951902 0.39655048463438941 0 0.01265598891722541 0.39124247204332541 0 0.036745832789951902 0.39655048463438941 0 0.015331258736116651 0.40697903712609818 0 0.011527175574001659 0.39826349109312198 0 0.024365390828332879 0.40582686971899579 0 0.02748484960095058 0.38979176975814039 0 0.024484391603905632 0.38589636305395181 0 0.03605318509271941 0.38547775930089501 0 0.01265598891722541 0.39124247204332541 0 0.024484391603905632 0.38589636305395181 0 0.01742076284184586 0.38358056670973423 0 0.01265598891722541 0.39124247204332541 0 0.02748484960095058 0.38979176975814039 0 0.024484391603905632 0.38589636305395181 0 0.012248446231169351 0.38088933154667121 0 0.01742076284184586 0.38358056670973423 0 0.02029422461508304 0.37629410019498832 0 0.024484391603905632 0.38589636305395181 0 0.01742076284184586 0.38358056670973423 0 0.02029422461508304 0.37629410019498832 0 0.024484391603905632 0.38589636305395181 0 0.029908330426398209 0.37544179742880629 0 0.03605318509271941 0.38547775930089501 0 0.024484391603905632 0.38589636305395181 0 0.02029422461508304 0.37629410019498832 0 0.029908330426398209 0.37544179742880629 0 0.02748484960095058 0.38979176975814039 0 0.03605318509271941 0.38547775930089501 0 0.036745832789951902 0.39655048463438941 0 0.03605318509271941 0.38547775930089501 0 0.048129490794252272 0.37626257757039161 0 0.047117483909740847 0.3881286314907868 0 0.03605318509271941 0.38547775930089501 0 0.036745832789951902 0.39655048463438941 0 0.047117483909740847 0.3881286314907868 0 0.030691567134193191 0.40285899001516168 0 0.036745832789951902 0.39655048463438941 0 0.039440406737661089 0.40385936687291779 0 0.036745832789951902 0.39655048463438941 0 0.044511686703503132 0.39826163106486329 0 0.04892962440177185 0.40756043032529832 0 0.044511686703503132 0.39826163106486329 0 0.039440406737661089 0.40385936687291779 0 0.036745832789951902 0.39655048463438941 0 0.044511686703503132 0.39826163106486329 0 0.039440406737661089 0.40385936687291779 0 0.04892962440177185 0.40756043032529832 0 0.044511686703503132 0.39826163106486329 0 0.06308533873653302 0.39476134322928041 0 0.036745832789951902 0.39655048463438941 0 0.06308533873653302 0.39476134322928041 0 0.047117483909740847 0.3881286314907868 0 0.06308533873653302 0.39476134322928041 0 0.036745832789951902 0.39655048463438941 0 0.047117483909740847 0.3881286314907868 0 0.06308533873653302 0.39476134322928041 0 0.036745832789951902 0.39655048463438941 0 0.044511686703503132 0.39826163106486329 0 0.06308533873653302 0.39476134322928041 0 0.058984843581362113 0.41017407157467689 0 0.04892962440177185 0.40756043032529832 0 0.06308533873653302 0.39476134322928041 0 0.047117483909740847 0.3881286314907868 0 0.060132563889222237 0.38188610911424142 0 0.06308533873653302 0.39476134322928041 0 0.048129490794252272 0.37626257757039161 0 0.047117483909740847 0.3881286314907868 0 0.060132563889222237 0.38188610911424142 0 0.048129490794252272 0.37626257757039161 0 0.060132563889222237 0.38188610911424142 0 0.058268591642916083 0.36898983518666562 0 0.060132563889222237 0.38188610911424142 0 0.070018904211660488 0.37715479625288101 0 0.073683568506998545 0.38577886064090883 0 0.060132563889222237 0.38188610911424142 0 0.070018904211660488 0.37715479625288101 0 0.058268591642916083 0.36898983518666562 0 0.060132563889222237 0.38188610911424142 0 0.073683568506998545 0.38577886064090883 0 0.06308533873653302 0.39476134322928041 0 0.070018904211660488 0.37715479625288101 0 0.073683568506998545 0.38577886064090883 0 0.081161299882042764 0.37955257153404282 0 0.093499588301248257 0.38599434564663992 0 0.083419211460208462 0.39338014140681871 0 0.103753084183884 0.39199893958435722 0 0.073683568506998545 0.38577886064090883 0 0.081161299882042764 0.37955257153404282 0 0.085587774242007558 0.38592790282825701 0 0.073683568506998545 0.38577886064090883 0 0.085587774242007558 0.38592790282825701 0 0.083419211460208462 0.39338014140681871 0 0.085587774242007558 0.38592790282825701 0 0.093499588301248257 0.38599434564663992 0 0.083419211460208462 0.39338014140681871 0 0.081161299882042764 0.37955257153404282 0 0.085587774242007558 0.38592790282825701 0 0.09323172905830629 0.37580652320104879 0 0.085587774242007558 0.38592790282825701 0 0.093499588301248257 0.38599434564663992 0 0.09323172905830629 0.37580652320104879 0 0.080531446904330353 0.40200809037789759 0 0.097977555072127923 0.40925483752651431 0 0.083419211460208462 0.39338014140681871 0 0.103753084183884 0.39199893958435722 0 0.089035675696838151 0.40075766560143589 0 0.080531446904330353 0.40200809037789759 0 0.097977555072127923 0.40925483752651431 0 0.089035675696838151 0.40075766560143589 0 0.097977555072127923 0.40925483752651431 0 0.094214489350685909 0.3983875930945131 0 0.089035675696838151 0.40075766560143589 0 0.083419211460208462 0.39338014140681871 0 0.094214489350685909 0.3983875930945131 0 0.089035675696838151 0.40075766560143589 0 0.083419211460208462 0.39338014140681871 0 0.080531446904330353 0.40200809037789759 0 0.083419211460208462 0.39338014140681871 0 0.080531446904330353 0.40200809037789759 0 0.06308533873653302 0.39476134322928041 0 0.083419211460208462 0.39338014140681871 0 0.06308533873653302 0.39476134322928041 0 0.073683568506998545 0.38577886064090883 0 0.083419211460208462 0.39338014140681871 0 0.06308533873653302 0.39476134322928041 0 0.080531446904330353 0.40200809037789759 0 0.06308533873653302 0.39476134322928041 0 0.069672423606603626 0.40879618026772058 0 0.080531446904330353 0.40200809037789759 0 0.06308533873653302 0.39476134322928041 0 0.058984843581362113 0.41017407157467689 0 0.06308533873653302 0.39476134322928041 0 0.069672423606603626 0.40879618026772058 0 0.058984843581362113 0.41017407157467689 0 0.069672423606603626 0.40879618026772058 0 0.066723148063125237 0.42284336927077221 0 0.069672423606603626 0.40879618026772058 0 0.066723148063125237 0.42284336927077221 0 0.078138611448505008 0.41382351630628128 0 0.066723148063125237 0.42284336927077221 0 0.081552621213612453 0.4253852847139058 0 0.078138611448505008 0.41382351630628128 0 0.080531446904330353 0.40200809037789759 0 0.069672423606603626 0.40879618026772058 0 0.078138611448505008 0.41382351630628128 0 0.065127687355097566 0.44151573190129789 0 0.081552621213612453 0.4253852847139058 0 0.065127687355097566 0.44151573190129789 0 0.066723148063125237 0.42284336927077221 0 0.081552621213612453 0.4253852847139058 0 0.085635522430358199 0.44451447217192891 0 0.065127687355097566 0.44151573190129789 0 0.081552621213612453 0.4253852847139058 0 0.085635522430358199 0.44451447217192891 0 0.081552621213612453 0.4253852847139058 0 0.10097650532538451 0.43732810616974283 0 0.081552621213612453 0.4253852847139058 0 0.078138611448505008 0.41382351630628128 0 0.097977555072127923 0.40925483752651431 0 0.081552621213612453 0.4253852847139058 0 0.097977555072127923 0.40925483752651431 0 0.080531446904330353 0.40200809037789759 0 0.078138611448505008 0.41382351630628128 0 0.097977555072127923 0.40925483752651431 0 0.097977555072127923 0.40925483752651431 0 0.1053155422202199 0.42344589710492447 0 0.12209716532440459 0.41927361736785862 0 0.081552621213612453 0.4253852847139058 0 0.097977555072127923 0.40925483752651431 0 0.1053155422202199 0.42344589710492447 0 0.097977555072127923 0.40925483752651431 0 0.12209716532440459 0.41927361736785862 0 0.10804367358929361 0.39936919691926059 0 0.081552621213612453 0.4253852847139058 0 0.10097650532538451 0.43732810616974283 0 0.1053155422202199 0.42344589710492447 0 0.10097650532538451 0.43732810616974283 0 0.1053155422202199 0.42344589710492447 0 0.11599547710088939 0.43470317518431412 0 0.1053155422202199 0.42344589710492447 0 0.11599547710088939 0.43470317518431412 0 0.12209716532440459 0.41927361736785862 0 0.11599547710088939 0.43470317518431412 0 0.12209716532440459 0.41927361736785862 0 0.13091002303884949 0.43417971959796903 0 0.12209716532440459 0.41927361736785862 0 0.1181964086858121 0.40111120032160019 0 0.12594638543343259 0.40194870844401698 0 0.097977555072127923 0.40925483752651431 0 0.12209716532440459 0.41927361736785862 0 0.12209716532440459 0.41927361736785862 0 0.1181964086858121 0.40111120032160019 0 0.10804367358929361 0.39936919691926059 0 0.1181964086858121 0.40111120032160019 0 0.1211167618675844 0.39395211339862252 0 0.12594638543343259 0.40194870844401698 0 0.1181964086858121 0.40111120032160019 0 0.11377805721434529 0.39101236547824209 0 0.10804367358929361 0.39936919691926059 0 0.1181964086858121 0.40111120032160019 0 0.11377805721434529 0.39101236547824209 0 0.1211167618675844 0.39395211339862252 0 0.11377805721434529 0.39101236547824209 0 0.1211167618675844 0.39395211339862252 0 0.1218628618241696 0.38699886071587752 0 0.1211167618675844 0.39395211339862252 0 0.1218628618241696 0.38699886071587752 0 0.12801317874929941 0.39394867087186097 0 0.11377805721434529 0.39101236547824209 0 0.1218628618241696 0.38699886071587752 0 0.11668808758245559 0.37991546276989502 0 0.1218628618241696 0.38699886071587752 0 0.11668808758245559 0.37991546276989502 0 0.12552755411527511 0.37811666214524831 0 0.11668808758245559 0.37991546276989502 0 0.12262063578902491 0.36878957885284092 0 0.12552755411527511 0.37811666214524831 0 0.11668808758245559 0.37991546276989502 0 0.108879188487668 0.38441129947895097 0 0.108683718722243 0.37791567043272251 0 0.11668808758245559 0.37991546276989502 0 0.108683718722243 0.37791567043272251 0 0.1130939827657748 0.37172498939171389 0 0.11377805721434529 0.39101236547824209 0 0.11668808758245559 0.37991546276989502 0 0.108879188487668 0.38441129947895097 0 0.11377805721434529 0.39101236547824209 0 0.108879188487668 0.38441129947895097 0 0.103753084183884 0.39199893958435722 0 0.108879188487668 0.38441129947895097 0 0.1014929947354119 0.38121405912953871 0 0.103753084183884 0.39199893958435722 0 0.108683718722243 0.37791567043272251 0 0.1014929947354119 0.38121405912953871 0 0.1046685387659522 0.37032621978942032 0 0.108879188487668 0.38441129947895097 0 0.108683718722243 0.37791567043272251 0 0.1014929947354119 0.38121405912953871 0 0.09323172905830629 0.37580652320104879 0 0.1014929947354119 0.38121405912953871 0 0.1046685387659522 0.37032621978942032 0 0.093499588301248257 0.38599434564663992 0 0.09323172905830629 0.37580652320104879 0 0.1014929947354119 0.38121405912953871 0 0.093499588301248257 0.38599434564663992 0 0.1014929947354119 0.38121405912953871 0 0.103753084183884 0.39199893958435722 0 0.094214489350685909 0.3983875930945131 0 0.1010304171603227 0.39851794827248782 0 0.103753084183884 0.39199893958435722 0 0.083419211460208462 0.39338014140681871 0 0.094214489350685909 0.3983875930945131 0 0.103753084183884 0.39199893958435722 0 0.097977555072127923 0.40925483752651431 0 0.094214489350685909 0.3983875930945131 0 0.1010304171603227 0.39851794827248782 0 0.097977555072127923 0.40925483752651431 0 0.10804367358929361 0.39936919691926059 0 0.097977555072127923 0.40925483752651431 0 0.1010304171603227 0.39851794827248782 0 0.10804367358929361 0.39936919691926059 0 0.11377805721434529 0.39101236547824209 0 0.10804367358929361 0.39936919691926059 0 0.103753084183884 0.39199893958435722 0 0.1010304171603227 0.39851794827248782 0 0.10804367358929361 0.39936919691926059 0 0.103753084183884 0.39199893958435722 0 0.096797017614593833 0.35369654491265817 0 0.1128089329691984 0.36167801511369108 0 0.1142450906268816 0.34800317061833358 0 0.096797017614593833 0.35369654491265817 0 0.1142450906268816 0.34800317061833358 0 0.1003623061708814 0.33158656662426772 0 0.096797017614593833 0.35369654491265817 0 0.1046685387659522 0.37032621978942032 0 0.1128089329691984 0.36167801511369108 0 0.09323172905830629 0.37580652320104879 0 0.096797017614593833 0.35369654491265817 0 0.09323172905830629 0.37580652320104879 0 0.096797017614593833 0.35369654491265817 0 0.1046685387659522 0.37032621978942032 0 0.108683718722243 0.37791567043272251 0 0.1046685387659522 0.37032621978942032 0 0.1130939827657748 0.37172498939171389 0 0.1128089329691984 0.36167801511369108 0 0.1130939827657748 0.37172498939171389 0 0.12262063578902491 0.36878957885284092 0 0.1046685387659522 0.37032621978942032 0 0.1128089329691984 0.36167801511369108 0 0.1130939827657748 0.37172498939171389 0 0.11668808758245559 0.37991546276989502 0 0.1130939827657748 0.37172498939171389 0 0.12262063578902491 0.36878957885284092 0 0.1128089329691984 0.36167801511369108 0 0.12262063578902491 0.36878957885284092 0 0.12494773803156189 0.35830786049319269 0 0.1128089329691984 0.36167801511369108 0 0.12494773803156189 0.35830786049319269 0 0.1142450906268816 0.34800317061833358 0 0.12494773803156189 0.35830786049319269 0 0.1142450906268816 0.34800317061833358 0 0.12926528544088481 0.34707087424054112 0 0.1142450906268816 0.34800317061833358 0 0.1211824295008295 0.3366626843910176 0 0.12926528544088481 0.34707087424054112 0 0.1142450906268816 0.34800317061833358 0 0.1211824295008295 0.3366626843910176 0 0.1003623061708814 0.33158656662426772 0 0.1211824295008295 0.3366626843910176 0 0.12102629459858701 0.32270040812114892 0 0.1003623061708814 0.33158656662426772 0 0.12102629459858701 0.32270040812114892 0 0.1039275947271685 0.30947658833587688 0 0.11562347922934189 0.30764927530771308 0 0.12102629459858701 0.32270040812114892 0 0.1039275947271685 0.30947658833587688 0 0.12102629459858701 0.32270040812114892 0 0.11562347922934189 0.30764927530771308 0 0.12577500289224269 0.31096640210294513 0 0.1003623061708814 0.33158656662426772 0 0.088461903001347014 0.31122628168028788 0 0.1039275947271685 0.30947658833587688 0 0.12102629459858701 0.32270040812114892 0 0.1003623061708814 0.33158656662426772 0 0.1039275947271685 0.30947658833587688 0 0.1003623061708814 0.33158656662426772 0 0.1039275947271685 0.30947658833587688 0 0.096797017614593833 0.35369654491265817 0 0.1003623061708814 0.33158656662426772 0 0.089278333063605816 0.34114169354335239 0 0.096797017614593833 0.35369654491265817 0 0.1003623061708814 0.33158656662426772 0 0.089278333063605816 0.34114169354335239 0 0.076714847096275157 0.32344158011756319 0 0.078938073489158947 0.35149707582580297 0 0.1003623061708814 0.33158656662426772 0 0.089278333063605816 0.34114169354335239 0 0.076714847096275157 0.32344158011756319 0 0.1003623061708814 0.33158656662426772 0 0.076714847096275157 0.32344158011756319 0 0.088461903001347014 0.31122628168028788 0 0.076714847096275157 0.32344158011756319 0 0.053228567317211817 0.31710083041647108 0 0.065800555384307638 0.30814355487550332 0 0.076714847096275157 0.32344158011756319 0 0.063359293131495839 0.33704756089774918 0 0.053228567317211817 0.31710083041647108 0 0.076714847096275157 0.32344158011756319 0 0.063359293131495839 0.33704756089774918 0 0.078938073489158947 0.35149707582580297 0 0.076714847096275157 0.32344158011756319 0 0.078938073489158947 0.35149707582580297 0 0.063359293131495839 0.33704756089774918 0 0.078938073489158947 0.35149707582580297 0 0.060411537845785582 0.3533051780842964 0 0.078938073489158947 0.35149707582580297 0 0.069858082520959222 0.36614801343964459 0 0.060411537845785582 0.3533051780842964 0 0.096797017614593833 0.35369654491265817 0 0.078938073489158947 0.35149707582580297 0 0.087532030011025441 0.36513817886838817 0 0.096797017614593833 0.35369654491265817 0 0.089278333063605816 0.34114169354335239 0 0.078938073489158947 0.35149707582580297 0 0.081161299882042764 0.37955257153404282 0 0.078938073489158947 0.35149707582580297 0 0.087532030011025441 0.36513817886838817 0 0.081161299882042764 0.37955257153404282 0 0.078938073489158947 0.35149707582580297 0 0.09323172905830629 0.37580652320104879 0 0.096797017614593833 0.35369654491265817 0 0.087532030011025441 0.36513817886838817 0 0.081161299882042764 0.37955257153404282 0 0.09323172905830629 0.37580652320104879 0 0.087532030011025441 0.36513817886838817 0 0.070018904211660488 0.37715479625288101 0 0.081161299882042764 0.37955257153404282 0 0.069858082520959222 0.36614801343964459 0 0.081161299882042764 0.37955257153404282 0 0.078938073489158947 0.35149707582580297 0 0.069858082520959222 0.36614801343964459 0 0.069858082520959222 0.36614801343964459 0 0.058268591642916083 0.36898983518666562 0 0.060411537845785582 0.3533051780842964 0 0.070018904211660488 0.37715479625288101 0 0.069858082520959222 0.36614801343964459 0 0.058268591642916083 0.36898983518666562 0 0.058268591642916083 0.36898983518666562 0 0.060411537845785582 0.3533051780842964 0 0.041778312500883548 0.36268544967275368 0 0.048129490794252272 0.37626257757039161 0 0.058268591642916083 0.36898983518666562 0 0.041778312500883548 0.36268544967275368 0 0.060411537845785582 0.3533051780842964 0 0.041778312500883548 0.36268544967275368 0 0.047503439909047693 0.33989314004461241 0 0.034165905045574117 0.34760799821626959 0 0.041778312500883548 0.36268544967275368 0 0.047503439909047693 0.33989314004461241 0 0.034165905045574117 0.34760799821626959 0 0.041778312500883548 0.36268544967275368 0 0.025116438145064649 0.3561685739589302 0 0.041778312500883548 0.36268544967275368 0 0.047503439909047693 0.33989314004461241 0 0.03605318509271941 0.38547775930089501 0 0.041778312500883548 0.36268544967275368 0 0.041778312500883548 0.36268544967275368 0 0.026931538319399449 0.36685531492144252 0 0.025116438145064649 0.3561685739589302 0 0.03605318509271941 0.38547775930089501 0 0.048129490794252272 0.37626257757039161 0 0.041778312500883548 0.36268544967275368 0 0.029908330426398209 0.37544179742880629 0 0.03605318509271941 0.38547775930089501 0 0.041778312500883548 0.36268544967275368 0 0.029908330426398209 0.37544179742880629 0 0.041778312500883548 0.36268544967275368 0 0.026931538319399449 0.36685531492144252 0 0.01639688060109409 0.36462353576251111 0 0.025116438145064649 0.3561685739589302 0 0.0074186831050153824 0.35788237341767198 0 0.02029422461508304 0.37629410019498832 0 0.029908330426398209 0.37544179742880629 0 0.026931538319399449 0.36685531492144252 0 0.02029422461508304 0.37629410019498832 0 0.01639688060109409 0.36462353576251111 0 0.026931538319399449 0.36685531492144252 0 0.02029422461508304 0.37629410019498832 0 0.01639688060109409 0.36462353576251111 0 0.01344792743963805 0.37253334067852989 0 0.01639688060109409 0.36462353576251111 0 0.026931538319399449 0.36685531492144252 0 0.025116438145064649 0.3561685739589302 0 0.025116438145064649 0.3561685739589302 0 0.023308853961476691 0.34578563302783327 0 0.0054316382214814139 0.34340772387522239 0 0.034165905045574117 0.34760799821626959 0 0.025116438145064649 0.3561685739589302 0 0.023308853961476691 0.34578563302783327 0 0.025116438145064649 0.3561685739589302 0 0.0054316382214814139 0.34340772387522239 0 0.025116438145064649 0.3561685739589302 0 0.0074186831050153824 0.35788237341767198 0 0.0054316382214814139 0.34340772387522239 0 -0.00058261298582594902 0.36214223963337289 0 -0.0052547447410189289 0.35493171298831649 0 0.0074186831050153824 0.35788237341767198 0 -0.0052547447410189289 0.35493171298831649 0 0.0074186831050153824 0.35788237341767198 0 0.0054316382214814139 0.34340772387522239 0 -0.00058261298582594902 0.36214223963337289 0 0.0074186831050153824 0.35788237341767198 0 0.0044235126858082636 0.3702359270180301 0 0.01639688060109409 0.36462353576251111 0 0.0044235126858082636 0.3702359270180301 0 0.01344792743963805 0.37253334067852989 0 0.012248446231169351 0.38088933154667121 0 0.0044235126858082636 0.3702359270180301 0 0.01344792743963805 0.37253334067852989 0 0.01639688060109409 0.36462353576251111 0 0.0074186831050153824 0.35788237341767198 0 0.0044235126858082636 0.3702359270180301 0 0.0054719494297279236 0.32178229628192118 0 0.02692562576239756 0.31906190744947788 0 0.01327332522908113 0.3061638347626815 0 0.023308853961476691 0.34578563302783327 0 0.01528451684377089 0.33250939015861369 0 0.0054316382214814139 0.34340772387522239 0 0.0054719494297279236 0.32178229628192118 0 0.01528451684377089 0.33250939015861369 0 0.0054316382214814139 0.34340772387522239 0 0.023308853961476691 0.34578563302783327 0 0.01528451684377089 0.33250939015861369 0 0.02692562576239756 0.31906190744947788 0 0.023308853961476691 0.34578563302783327 0 0.02692562576239756 0.31906190744947788 0 0.034545220393520287 0.33364666502361567 0 0.023308853961476691 0.34578563302783327 0 0.02692562576239756 0.31906190744947788 0 0.034165905045574117 0.34760799821626959 0 0.023308853961476691 0.34578563302783327 0 0.034545220393520287 0.33364666502361567 0 0.0054719494297279236 0.32178229628192118 0 0.01528451684377089 0.33250939015861369 0 0.02692562576239756 0.31906190744947788 0 0.02692562576239756 0.31906190744947788 0 0.053228567317211817 0.31710083041647108 0 0.042894210624462338 0.30484232493009877 0 0.02692562576239756 0.31906190744947788 0 0.034545220393520287 0.33364666502361567 0 0.053228567317211817 0.31710083041647108 0 0.034545220393520287 0.33364666502361567 0 0.047503439909047693 0.33989314004461241 0 0.053228567317211817 0.31710083041647108 0 0.034165905045574117 0.34760799821626959 0 0.034545220393520287 0.33364666502361567 0 0.047503439909047693 0.33989314004461241 0 0.063359293131495839 0.33704756089774918 0 0.047503439909047693 0.33989314004461241 0 0.053228567317211817 0.31710083041647108 0 0.063359293131495839 0.33704756089774918 0 0.060411537845785582 0.3533051780842964 0 0.047503439909047693 0.33989314004461241 0 0.047503439909047693 0.33989314004461241 0 0.053228567317211817 0.31710083041647108 0 0.053228567317211817 0.31710083041647108 0 0.058953694725378633 0.29430852078833047 0 0.042894210624462338 0.30484232493009877 0 0.053228567317211817 0.31710083041647108 0 0.058953694725378633 0.29430852078833047 0 0.065800555384307638 0.30814355487550332 0 0.053228567317211817 0.31710083041647108 0 0.058953694725378633 0.29430852078833047 0 0.0603370137426101 0.2888013882640238 0 0.051054986392335119 0.27914442509448001 0 0.059164909388193312 0.28052243804906268 0 0.0603370137426101 0.2888013882640238 0 0.058953694725378633 0.29430852078833047 0 0.051054986392335119 0.27914442509448001 0 0.0603370137426101 0.2888013882640238 0 0.059164909388193312 0.28052243804906268 0 0.065388282690892835 0.28583600257435449 0 0.0603370137426101 0.2888013882640238 0 0.058953694725378633 0.29430852078833047 0 0.066920692674787702 0.29049488898998421 0 0.0603370137426101 0.2888013882640238 0 0.058953694725378633 0.29430852078833047 0 0.058953694725378633 0.29430852078833047 0 0.03054239756331845 0.29233818187112259 0 0.058953694725378633 0.29430852078833047 0 0.03054239756331845 0.29233818187112259 0 0.051054986392335119 0.27914442509448001 0 0.02692562576239756 0.31906190744947788 0 0.042894210624462338 0.30484232493009877 0 0.03054239756331845 0.29233818187112259 0 0.058953694725378633 0.29430852078833047 0 0.042894210624462338 0.30484232493009877 0 0.03054239756331845 0.29233818187112259 0 0.02692562576239756 0.31906190744947788 0 0.03054239756331845 0.29233818187112259 0 0.01327332522908113 0.3061638347626815 0 0.02692562576239756 0.31906190744947788 0 0.03054239756331845 0.29233818187112259 0 0.03054239756331845 0.29233818187112259 0 0.0051532246264746244 0.29057742891331739 0 0.03054239756331845 0.29233818187112259 0 0.0051532246264746244 0.29057742891331739 0 0.01327332522908113 0.3061638347626815 0 0.03054239756331845 0.29233818187112259 0 0.0051532246264746244 0.29057742891331739 0 0.01518067924924457 0.27495472374295499 0 -0.01138623567278192 0.30772728779636788 0 0.0054719494297279236 0.32178229628192118 0 0.01327332522908113 0.3061638347626815 0 -0.01138623567278192 0.30772728779636788 0 0.0051532246264746244 0.29057742891331739 0 0.01327332522908113 0.3061638347626815 0 0.0061444404131493161 0.25560857947974502 0 0.007655591454257097 0.2668807235761424 0 0.015840432649346779 0.26229796203476202 0 0.015906929713197151 0.2495792049620342 0 0.0089932618375068996 0.2470316380379072 0 0.0061444404131493161 0.25560857947974502 0 0.015906929713197151 0.2495792049620342 0 0.0061444404131493161 0.25560857947974502 0 0.015840432649346779 0.26229796203476202 0 -0.0045345189142265169 0.25350634819326018 0 0.0025002592476698329 0.2499952992231734 0 0.0061444404131493161 0.25560857947974502 0 0.0089932618375068996 0.2470316380379072 0 0.0025002592476698329 0.2499952992231734 0 0.0061444404131493161 0.25560857947974502 0 -0.0011349209720409371 0.26279785135494871 0 -0.0045345189142265169 0.25350634819326018 0 0.0061444404131493161 0.25560857947974502 0 -0.0011349209720409371 0.26279785135494871 0 0.0061444404131493161 0.25560857947974502 0 0.007655591454257097 0.2668807235761424 0 -0.0018737250005754109 0.27596360980912138 0 -0.0011349209720409371 0.26279785135494871 0 0.007655591454257097 0.2668807235761424 0 -0.0018737250005754109 0.27596360980912138 0 0.007655591454257097 0.2668807235761424 0 0.01518067924924457 0.27495472374295499 0 -0.0018737250005754109 0.27596360980912138 0 0.0051532246264746244 0.29057742891331739 0 0.01518067924924457 0.27495472374295499 0 0.007655591454257097 0.2668807235761424 0 0.01518067924924457 0.27495472374295499 0 0.015840432649346779 0.26229796203476202 0 0.03054239756331845 0.29233818187112259 0 0.01518067924924457 0.27495472374295499 0 0.034314522416885769 0.26446657841293342 0 0.01518067924924457 0.27495472374295499 0 0.015840432649346779 0.26229796203476202 0 0.034314522416885769 0.26446657841293342 0 0.015906929713197151 0.2495792049620342 0 0.015840432649346779 0.26229796203476202 0 0.034314522416885769 0.26446657841293342 0 0.029317925332254139 0.24478168446463211 0 0.015906929713197151 0.2495792049620342 0 0.034314522416885769 0.26446657841293342 0 0.029317925332254139 0.24478168446463211 0 0.034314522416885769 0.26446657841293342 0 0.041404363608824643 0.25348224301858052 0 0.034314522416885769 0.26446657841293342 0 0.041404363608824643 0.25348224301858052 0 0.051315823133100763 0.26286021747402533 0 0.034314522416885769 0.26446657841293342 0 0.051054986392335119 0.27914442509448001 0 0.051315823133100763 0.26286021747402533 0 0.03054239756331845 0.29233818187112259 0 0.034314522416885769 0.26446657841293342 0 0.03054239756331845 0.29233818187112259 0 0.034314522416885769 0.26446657841293342 0 0.051054986392335119 0.27914442509448001 0 0.051054986392335119 0.27914442509448001 0 0.060363888548155137 0.27147993938740689 0 0.051315823133100763 0.26286021747402533 0 0.051054986392335119 0.27914442509448001 0 0.060363888548155137 0.27147993938740689 0 0.059164909388193312 0.28052243804906268 0 0.060363888548155137 0.27147993938740689 0 0.059164909388193312 0.28052243804906268 0 0.067157989864518874 0.28103965266616288 0 0.041404363608824643 0.25348224301858052 0 0.054094366050189149 0.2518637416210574 0 0.051315823133100763 0.26286021747402533 0 0.060363888548155137 0.27147993938740689 0 0.051315823133100763 0.26286021747402533 0 0.062372882510697142 0.26084208046447199 0 0.054094366050189149 0.2518637416210574 0 0.051315823133100763 0.26286021747402533 0 0.062372882510697142 0.26084208046447199 0 0.061959460249100262 0.24783207319966391 0 0.054094366050189149 0.2518637416210574 0 0.062372882510697142 0.26084208046447199 0 0.070399523447451276 0.24374680135240501 0 0.072079422412066996 0.26494590115750011 0 0.061959460249100262 0.24783207319966391 0 0.070399523447451276 0.24374680135240501 0 0.062372882510697142 0.26084208046447199 0 0.070399523447451276 0.24374680135240501 0 0.062372882510697142 0.26084208046447199 0 0.070399523447451276 0.24374680135240501 0 0.072079422412066996 0.26494590115750011 0 0.084124974478697226 0.25421320340662601 0 0.070399523447451276 0.24374680135240501 0 0.062372882510697142 0.26084208046447199 0 0.072079422412066996 0.26494590115750011 0 0.072079422412066996 0.26494590115750011 0 0.084124974478697226 0.25421320340662601 0 0.084216586236967844 0.26483708490271002 0 0.084216586236967844 0.26483708490271002 0 0.092243756161492316 0.27165220705175808 0 0.098373003703041542 0.25834744764961443 0 0.084124974478697226 0.25421320340662601 0 0.084216586236967844 0.26483708490271002 0 0.098373003703041542 0.25834744764961443 0 0.097379252948702755 0.24331431243700979 0 0.084124974478697226 0.25421320340662601 0 0.098373003703041542 0.25834744764961443 0 0.092243756161492316 0.27165220705175808 0 0.087711130703939183 0.28289480131464889 0 0.097420073201952576 0.27974746149149288 0 0.092243756161492316 0.27165220705175808 0 0.081203681313127662 0.2745141394292358 0 0.087711130703939183 0.28289480131464889 0 0.072079422412066996 0.26494590115750011 0 0.084216586236967844 0.26483708490271002 0 0.081203681313127662 0.2745141394292358 0 0.084216586236967844 0.26483708490271002 0 0.092243756161492316 0.27165220705175808 0 0.081203681313127662 0.2745141394292358 0 0.081203681313127662 0.2745141394292358 0 0.073759321376684506 0.28614500096259499 0 0.087711130703939183 0.28289480131464889 0 0.072079422412066996 0.26494590115750011 0 0.067157989864518874 0.28103965266616288 0 0.073759321376684506 0.28614500096259499 0 0.060363888548155137 0.27147993938740689 0 0.072079422412066996 0.26494590115750011 0 0.067157989864518874 0.28103965266616288 0 0.072079422412066996 0.26494590115750011 0 0.073759321376684506 0.28614500096259499 0 0.072079422412066996 0.26494590115750011 0 0.081203681313127662 0.2745141394292358 0 0.073759321376684506 0.28614500096259499 0 0.060363888548155137 0.27147993938740689 0 0.062372882510697142 0.26084208046447199 0 0.072079422412066996 0.26494590115750011 0 0.067157989864518874 0.28103965266616288 0 0.065388282690892835 0.28583600257435449 0 0.073759321376684506 0.28614500096259499 0 0.059164909388193312 0.28052243804906268 0 0.067157989864518874 0.28103965266616288 0 0.065388282690892835 0.28583600257435449 0 0.065388282690892835 0.28583600257435449 0 0.066920692674787702 0.29049488898998421 0 0.073759321376684506 0.28614500096259499 0 0.0603370137426101 0.2888013882640238 0 0.065388282690892835 0.28583600257435449 0 0.066920692674787702 0.29049488898998421 0 0.058953694725378633 0.29430852078833047 0 0.074491620703390674 0.29538608440932362 0 0.058953694725378633 0.29430852078833047 0 0.066920692674787702 0.29049488898998421 0 0.074491620703390674 0.29538608440932362 0 0.066920692674787702 0.29049488898998421 0 0.074491620703390674 0.29538608440932362 0 0.073759321376684506 0.28614500096259499 0 0.074491620703390674 0.29538608440932362 0 0.073759321376684506 0.28614500096259499 0 0.067157989864518874 0.28103965266616288 0 0.073759321376684506 0.28614500096259499 0 0.076714847096275157 0.32344158011756319 0 0.074491620703390674 0.29538608440932362 0 0.076714847096275157 0.32344158011756319 0 0.074491620703390674 0.29538608440932362 0 0.065800555384307638 0.30814355487550332 0 0.058953694725378633 0.29430852078833047 0 0.074491620703390674 0.29538608440932362 0 0.065800555384307638 0.30814355487550332 0 0.076714847096275157 0.32344158011756319 0 0.074491620703390674 0.29538608440932362 0 0.088461903001347014 0.31122628168028788 0 0.074491620703390674 0.29538608440932362 0 0.088461903001347014 0.31122628168028788 0 0.08681314630901818 0.29624058891440919 0 0.088461903001347014 0.31122628168028788 0 0.08681314630901818 0.29624058891440919 0 0.1039275947271685 0.30947658833587688 0 0.073759321376684506 0.28614500096259499 0 0.08681314630901818 0.29624058891440919 0 0.087711130703939183 0.28289480131464889 0 0.074491620703390674 0.29538608440932362 0 0.073759321376684506 0.28614500096259499 0 0.08681314630901818 0.29624058891440919 0 0.074491620703390674 0.29538608440932362 0 0.08681314630901818 0.29624058891440919 0 0.073759321376684506 0.28614500096259499 0 0.08681314630901818 0.29624058891440919 0 0.08681314630901818 0.29624058891440919 0 0.087711130703939183 0.28289480131464889 0 0.096862678275791453 0.28866115830056222 0 0.08681314630901818 0.29624058891440919 0 0.096862678275791453 0.28866115830056222 0 0.10584905475116189 0.29756073952259798 0 0.087711130703939183 0.28289480131464889 0 0.096862678275791453 0.28866115830056222 0 0.097420073201952576 0.27974746149149288 0 0.096862678275791453 0.28866115830056222 0 0.10832373166621311 0.28221414078344942 0 0.097420073201952576 0.27974746149149288 0 0.096862678275791453 0.28866115830056222 0 0.10832373166621311 0.28221414078344942 0 0.10584905475116189 0.29756073952259798 0 0.10832373166621311 0.28221414078344942 0 0.10584905475116189 0.29756073952259798 0 0.08681314630901818 0.29624058891440919 0 0.10584905475116189 0.29756073952259798 0 0.1039275947271685 0.30947658833587688 0 0.08681314630901818 0.29624058891440919 0 0.10584905475116189 0.29756073952259798 0 0.08681314630901818 0.29624058891440919 0 0.1039275947271685 0.30947658833587688 0 0.10584905475116189 0.29756073952259798 0 0.1039275947271685 0.30947658833587688 0 0.10584905475116189 0.29756073952259798 0 0.1039275947271685 0.30947658833587688 0 0.11562347922934189 0.30764927530771308 0 0.10584905475116189 0.29756073952259798 0 0.11562347922934189 0.30764927530771308 0 0.12329675456455159 0.29877074699821582 0 0.10584905475116189 0.29756073952259798 0 0.12329675456455159 0.29877074699821582 0 0.11562347922934189 0.30764927530771308 0 0.12329675456455159 0.29877074699821582 0 0.12577500289224269 0.31096640210294513 0 0.10584905475116189 0.29756073952259798 0 0.12329675456455159 0.29877074699821582 0 0.1147640143567934 0.2904021221859967 0 0.12329675456455159 0.29877074699821582 0 0.1147640143567934 0.2904021221859967 0 0.1204581301985483 0.28010322961660511 0 0.10832373166621311 0.28221414078344942 0 0.1147640143567934 0.2904021221859967 0 0.1204581301985483 0.28010322961660511 0 0.10832373166621311 0.28221414078344942 0 0.10584905475116189 0.29756073952259798 0 0.1147640143567934 0.2904021221859967 0 0.1204581301985483 0.28010322961660511 0 0.1107984085812669 0.26686754204430141 0 0.11496122641040819 0.26289732736549321 0 0.11496122641040819 0.26289732736549321 0 0.13254319987211369 0.28248034229397673 0 0.1204581301985483 0.28010322961660511 0 0.11496122641040819 0.26289732736549321 0 0.13254319987211369 0.28248034229397673 0 0.11496122641040819 0.26289732736549321 0 0.12673653375000171 0.2626100833873915 0 0.13254319987211369 0.28248034229397673 0 0.10832373166621311 0.28221414078344942 0 0.1204581301985483 0.28010322961660511 0 0.1107984085812669 0.26686754204430141 0 0.10832373166621311 0.28221414078344942 0 0.1107984085812669 0.26686754204430141 0 0.1194425824179348 0.25637397479937019 0 0.11496122641040819 0.26289732736549321 0 0.12673653375000171 0.2626100833873915 0 0.11204428381166009 0.24858371469798371 0 0.1194425824179348 0.25637397479937019 0 0.1240282856996692 0.25140477374661241 0 0.1194425824179348 0.25637397479937019 0 0.1240282856996692 0.25140477374661241 0 0.12673653375000171 0.2626100833873915 0 0.11204428381166009 0.24858371469798371 0 0.1194425824179348 0.25637397479937019 0 0.11496122641040819 0.26289732736549321 0 0.1107984085812669 0.26686754204430141 0 0.11496122641040819 0.26289732736549321 0 0.10280947780585541 0.26519788354599061 0 0.11496122641040819 0.26289732736549321 0 0.10280947780585541 0.26519788354599061 0 0.098373003703041542 0.25834744764961443 0 0.097379252948702755 0.24331431243700979 0 0.11496122641040819 0.26289732736549321 0 0.097379252948702755 0.24331431243700979 0 0.11496122641040819 0.26289732736549321 0 0.098373003703041542 0.25834744764961443 0 0.11204428381166009 0.24858371469798371 0 0.097379252948702755 0.24331431243700979 0 0.11496122641040819 0.26289732736549321 0 0.092243756161492316 0.27165220705175808 0 0.10280947780585541 0.26519788354599061 0 0.098373003703041542 0.25834744764961443 0 0.092243756161492316 0.27165220705175808 0 0.10280947780585541 0.26519788354599061 0 0.10195906920232679 0.27331500000704628 0 0.092243756161492316 0.27165220705175808 0 0.097420073201952576 0.27974746149149288 0 0.10195906920232679 0.27331500000704628 0 0.10832373166621311 0.28221414078344942 0 0.097420073201952576 0.27974746149149288 0 0.10195906920232679 0.27331500000704628 0 0.10832373166621311 0.28221414078344942 0 0.1107984085812669 0.26686754204430141 0 0.10195906920232679 0.27331500000704628 0 0.1107984085812669 0.26686754204430141 0 0.10280947780585541 0.26519788354599061 0 0.10195906920232679 0.27331500000704628 0 0.1422850593476386 0.27213349956795591 0 0.15070173040235371 0.27735377000522698 0 0.15169911548474971 0.26760484736665591 0 0.1422850593476386 0.27213349956795591 0 0.15169911548474971 0.26760484736665591 0 0.14353220234306061 0.26143113699992537 0 0.1422850593476386 0.27213349956795591 0 0.14325990122047419 0.27980080521219791 0 0.15070173040235371 0.27735377000522698 0 0.15070173040235371 0.27735377000522698 0 0.15169911548474971 0.26760484736665591 0 0.15996655016580361 0.27362316985669421 0 0.15169911548474971 0.26760484736665591 0 0.15152431857734219 0.25612087984620308 0 0.15951615304138189 0.26477129102397429 0 0.15169911548474971 0.26760484736665591 0 0.15152431857734219 0.25612087984620308 0 0.14353220234306061 0.26143113699992537 0 0.1523823758574599 0.2440195334531422 0 0.15152431857734219 0.25612087984620308 0 0.15772030681778071 0.25039649848589418 0 0.1523823758574599 0.2440195334531422 0 0.15152431857734219 0.25612087984620308 0 0.14322756819817459 0.25050553645822832 0 0.15152431857734219 0.25612087984620308 0 0.14322756819817459 0.25050553645822832 0 0.14353220234306061 0.26143113699992537 0 0.14353220234306061 0.26143113699992537 0 0.13429906300114289 0.25612289094044183 0 0.13530936985621869 0.26659165996000739 0 0.14322756819817459 0.25050553645822832 0 0.14353220234306061 0.26143113699992537 0 0.13429906300114289 0.25612289094044183 0 0.1322822907628694 0.24644128385446659 0 0.14322756819817459 0.25050553645822832 0 0.13429906300114289 0.25612289094044183 0 0.1240282856996692 0.25140477374661241 0 0.13429906300114289 0.25612289094044183 0 0.12673653375000171 0.2626100833873915 0 0.1322822907628694 0.24644128385446659 0 0.1240282856996692 0.25140477374661241 0 0.13429906300114289 0.25612289094044183 0 0.13429906300114289 0.25612289094044183 0 0.12673653375000171 0.2626100833873915 0 0.13530936985621869 0.26659165996000739 0 0.1422850593476386 0.27213349956795591 0 0.13530936985621869 0.26659165996000739 0 0.13254319987211369 0.28248034229397673 0 0.12673653375000171 0.2626100833873915 0 0.13530936985621869 0.26659165996000739 0 0.13254319987211369 0.28248034229397673 0 0.1422850593476386 0.27213349956795591 0 0.14353220234306061 0.26143113699992537 0 0.13530936985621869 0.26659165996000739 0 0.1422850593476386 0.27213349956795591 0 0.14325990122047419 0.27980080521219791 0 0.13254319987211369 0.28248034229397673 0 0.12329675456455159 0.29877074699821582 0 0.1204581301985483 0.28010322961660511 0 0.13254319987211369 0.28248034229397673 0 0.13254319987211369 0.28248034229397673 0 0.136975930060173 0.29825808967594492 0 0.1501251733338192 0.30206335722246019 0 0.12329675456455159 0.29877074699821582 0 0.13254319987211369 0.28248034229397673 0 0.136975930060173 0.29825808967594492 0 0.12329675456455159 0.29877074699821582 0 0.12577500289224269 0.31096640210294513 0 0.13509647177844589 0.30785748145049951 0 0.12329675456455159 0.29877074699821582 0 0.136975930060173 0.29825808967594492 0 0.13509647177844589 0.30785748145049951 0 0.136975930060173 0.29825808967594492 0 0.13509647177844589 0.30785748145049951 0 0.14215392240107561 0.30408700315747172 0 0.13509647177844589 0.30785748145049951 0 0.14641811443186439 0.30816908428098211 0 0.13734662506429299 0.32031111572158699 0 0.14641811443186439 0.30816908428098211 0 0.14215392240107561 0.30408700315747172 0 0.1501251733338192 0.30206335722246019 0 0.13509647177844589 0.30785748145049951 0 0.14641811443186439 0.30816908428098211 0 0.14215392240107561 0.30408700315747172 0 0.136975930060173 0.29825808967594492 0 0.14215392240107561 0.30408700315747172 0 0.1501251733338192 0.30206335722246019 0 0.1501251733338192 0.30206335722246019 0 0.15551309555653789 0.29318510255866959 0 0.1627840818251349 0.30346341975383168 0 0.14641811443186439 0.30816908428098211 0 0.1501251733338192 0.30206335722246019 0 0.15435501258338871 0.31562908771085679 0 0.13254319987211369 0.28248034229397673 0 0.1501251733338192 0.30206335722246019 0 0.13254319987211369 0.28248034229397673 0 0.1501251733338192 0.30206335722246019 0 0.14750961525979081 0.28723560898163192 0 0.14325990122047419 0.27980080521219791 0 0.13254319987211369 0.28248034229397673 0 0.14750961525979081 0.28723560898163192 0 0.14325990122047419 0.27980080521219791 0 0.15070173040235371 0.27735377000522698 0 0.14750961525979081 0.28723560898163192 0 0.1501251733338192 0.30206335722246019 0 0.14750961525979081 0.28723560898163192 0 0.15551309555653789 0.29318510255866959 0 0.14750961525979081 0.28723560898163192 0 0.15551309555653789 0.29318510255866959 0 0.16041125185095551 0.2839418320002719 0 0.15070173040235371 0.27735377000522698 0 0.14750961525979081 0.28723560898163192 0 0.16041125185095551 0.2839418320002719 0 0.15551309555653789 0.29318510255866959 0 0.16041125185095551 0.2839418320002719 0 0.16586450505785741 0.29483049963678271 0 0.16586450505785741 0.29483049963678271 0 0.1694448305692659 0.28727171398123608 0 0.17803255337780119 0.29418226422681959 0 0.1694448305692659 0.28727171398123608 0 0.17615278716534549 0.28053017828948651 0 0.16675610246121961 0.27923442443345298 0 0.16041125185095551 0.2839418320002719 0 0.16586450505785741 0.29483049963678271 0 0.1694448305692659 0.28727171398123608 0 0.16041125185095551 0.2839418320002719 0 0.1694448305692659 0.28727171398123608 0 0.16675610246121961 0.27923442443345298 0 0.1627840818251349 0.30346341975383168 0 0.17471048838193559 0.3055917672003024 0 0.16770714679552459 0.32164637215094372 0 0.1501251733338192 0.30206335722246019 0 0.1627840818251349 0.30346341975383168 0 0.16770714679552459 0.32164637215094372 0 0.1501251733338192 0.30206335722246019 0 0.16770714679552459 0.32164637215094372 0 0.15551309555653789 0.29318510255866959 0 0.16586450505785741 0.29483049963678271 0 0.1627840818251349 0.30346341975383168 0 0.16586450505785741 0.29483049963678271 0 0.1627840818251349 0.30346341975383168 0 0.17471048838193559 0.3055917672003024 0 0.17471048838193559 0.3055917672003024 0 0.18730527963334009 0.30147064841813931 0 0.19110803961997111 0.3183208502837131 0 0.16586450505785741 0.29483049963678271 0 0.17471048838193559 0.3055917672003024 0 0.17803255337780119 0.29418226422681959 0 0.17471048838193559 0.3055917672003024 0 0.18730527963334009 0.30147064841813931 0 0.17803255337780119 0.29418226422681959 0 0.1694448305692659 0.28727171398123608 0 0.17803255337780119 0.29418226422681959 0 0.17615278716534549 0.28053017828948651 0 0.18730527963334009 0.30147064841813931 0 0.17803255337780119 0.29418226422681959 0 0.18843591228954309 0.28689045307196981 0 0.17803255337780119 0.29418226422681959 0 0.17615278716534549 0.28053017828948651 0 0.18843591228954309 0.28689045307196981 0 0.18525540769551499 0.2690689029640092 0 0.17615278716534549 0.28053017828948651 0 0.18843591228954309 0.28689045307196981 0 0.18525540769551499 0.2690689029640092 0 0.16982558549393639 0.26745804994163691 0 0.17794421433320551 0.26117797264466169 0 0.18525540769551499 0.2690689029640092 0 0.17615278716534549 0.28053017828948651 0 0.16982558549393639 0.26745804994163691 0 0.17615278716534549 0.28053017828948651 0 0.16675610246121961 0.27923442443345298 0 0.16982558549393639 0.26745804994163691 0 0.16675610246121961 0.27923442443345298 0 0.16982558549393639 0.26745804994163691 0 0.15996655016580361 0.27362316985669421 0 0.15169911548474971 0.26760484736665591 0 0.15996655016580361 0.27362316985669421 0 0.15951615304138189 0.26477129102397429 0 0.16982558549393639 0.26745804994163691 0 0.15996655016580361 0.27362316985669421 0 0.15951615304138189 0.26477129102397429 0 0.15070173040235371 0.27735377000522698 0 0.16041125185095551 0.2839418320002719 0 0.15996655016580361 0.27362316985669421 0 0.16041125185095551 0.2839418320002719 0 0.16675610246121961 0.27923442443345298 0 0.15996655016580361 0.27362316985669421 0 0.16441212985479001 0.24511593227421499 0 0.1625624029815306 0.25632964837001643 0 0.15772030681778071 0.25039649848589418 0 0.15152431857734219 0.25612087984620308 0 0.1625624029815306 0.25632964837001643 0 0.15772030681778071 0.25039649848589418 0 0.16982558549393639 0.26745804994163691 0 0.1625624029815306 0.25632964837001643 0 0.15951615304138189 0.26477129102397429 0 0.15152431857734219 0.25612087984620308 0 0.1625624029815306 0.25632964837001643 0 0.15951615304138189 0.26477129102397429 0 0.16982558549393639 0.26745804994163691 0 0.1625624029815306 0.25632964837001643 0 0.17218655778912109 0.25430338789713453 0 0.16441212985479001 0.24511593227421499 0 0.1625624029815306 0.25632964837001643 0 0.17218655778912109 0.25430338789713453 0 0.17218655778912109 0.25430338789713453 0 0.17794421433320551 0.26117797264466169 0 0.18490779442650609 0.25559020776125357 0 0.1766762930459298 0.24533440230458961 0 0.17218655778912109 0.25430338789713453 0 0.18490779442650609 0.25559020776125357 0 0.16982558549393639 0.26745804994163691 0 0.17218655778912109 0.25430338789713453 0 0.17794421433320551 0.26117797264466169 0 0.18525540769551499 0.2690689029640092 0 0.17794421433320551 0.26117797264466169 0 0.18490779442650609 0.25559020776125357 0 0.18878081200359581 0.24566942103034811 0 0.18490779442650609 0.25559020776125357 0 0.19895952734273589 0.2590326888332104 0 0.18525540769551499 0.2690689029640092 0 0.18490779442650609 0.25559020776125357 0 0.19895952734273589 0.2590326888332104 0 0.2103244671141446 0.24815240516277451 0 0.19942420770430511 0.24470851503301741 0 0.19895952734273589 0.2590326888332104 0 0.18525540769551499 0.2690689029640092 0 0.20065045968354389 0.27670279064443237 0 0.18843591228954309 0.28689045307196981 0 0.18525540769551499 0.2690689029640092 0 0.19895952734273589 0.2590326888332104 0 0.20065045968354389 0.27670279064443237 0 0.20065045968354389 0.27670279064443237 0 0.21159081674854741 0.27014892374042271 0 0.2188678523075511 0.28212520022786342 0 0.21159081674854741 0.27014892374042271 0 0.2164058008929178 0.25892793604895742 0 0.2272937320727591 0.27028068031713331 0 0.19895952734273589 0.2590326888332104 0 0.20065045968354389 0.27670279064443237 0 0.21159081674854741 0.27014892374042271 0 0.19895952734273589 0.2590326888332104 0 0.21159081674854741 0.27014892374042271 0 0.2164058008929178 0.25892793604895742 0 0.2103244671141446 0.24815240516277451 0 0.19895952734273589 0.2590326888332104 0 0.2164058008929178 0.25892793604895742 0 0.2103244671141446 0.24815240516277451 0 0.22340588306546499 0.24648829058061131 0 0.2164058008929178 0.25892793604895742 0 0.23106382864926731 0.25736069936046208 0 0.2272937320727591 0.27028068031713331 0 0.24296828946706911 0.26741023230351141 0 0.22340588306546499 0.24648829058061131 0 0.2164058008929178 0.25892793604895742 0 0.23106382864926731 0.25736069936046208 0 0.23585449422308771 0.2462814536726553 0 0.22340588306546499 0.24648829058061131 0 0.23106382864926731 0.25736069936046208 0 0.2164058008929178 0.25892793604895742 0 0.23106382864926731 0.25736069936046208 0 0.2272937320727591 0.27028068031713331 0 0.2272937320727591 0.27028068031713331 0 0.2433501264534004 0.28528960826854249 0 0.2188678523075511 0.28212520022786342 0 0.21159081674854741 0.27014892374042271 0 0.2272937320727591 0.27028068031713331 0 0.2188678523075511 0.28212520022786342 0 0.2272937320727591 0.27028068031713331 0 0.24296828946706911 0.26741023230351141 0 0.2433501264534004 0.28528960826854249 0 0.24296828946706911 0.26741023230351141 0 0.2433501264534004 0.28528960826854249 0 0.26071280896537702 0.27408179763909629 0 0.24296828946706911 0.26741023230351141 0 0.24481430044314709 0.25516863214587021 0 0.25675448368687909 0.26214945467590839 0 0.24711866831732671 0.24511003521626959 0 0.24481430044314709 0.25516863214587021 0 0.25512603831525271 0.25269991764641409 0 0.23585449422308771 0.2462814536726553 0 0.23106382864926731 0.25736069936046208 0 0.24481430044314709 0.25516863214587021 0 0.23106382864926731 0.25736069936046208 0 0.24296828946706911 0.26741023230351141 0 0.24481430044314709 0.25516863214587021 0 0.2433501264534004 0.28528960826854249 0 0.23319686173334611 0.30897877613083241 0 0.26166485869090539 0.30713892627832817 0 0.2433501264534004 0.28528960826854249 0 0.2188678523075511 0.28212520022786342 0 0.22152650121773371 0.29711885598069671 0 0.2433501264534004 0.28528960826854249 0 0.22152650121773371 0.29711885598069671 0 0.23319686173334611 0.30897877613083241 0 0.22152650121773371 0.29711885598069671 0 0.23319686173334611 0.30897877613083241 0 0.210019097728395 0.31279273480627329 0 0.22152650121773371 0.29711885598069671 0 0.20219856786597601 0.29640796046997159 0 0.210019097728395 0.31279273480627329 0 0.2188678523075511 0.28212520022786342 0 0.22152650121773371 0.29711885598069671 0 0.20219856786597601 0.29640796046997159 0 0.20065045968354389 0.27670279064443237 0 0.2188678523075511 0.28212520022786342 0 0.20219856786597601 0.29640796046997159 0 0.20065045968354389 0.27670279064443237 0 0.20219856786597601 0.29640796046997159 0 0.18843591228954309 0.28689045307196981 0 0.18730527963334009 0.30147064841813931 0 0.20219856786597601 0.29640796046997159 0 0.18843591228954309 0.28689045307196981 0 0.18730527963334009 0.30147064841813931 0 0.20219856786597601 0.29640796046997159 0 0.19110803961997111 0.3183208502837131 0 0.20219856786597601 0.29640796046997159 0 0.19110803961997111 0.3183208502837131 0 0.210019097728395 0.31279273480627329 0 0.19110803961997111 0.3183208502837131 0 0.2011257097452957 0.33085247086387798 0 0.210019097728395 0.31279273480627329 0 0.19110803961997111 0.3183208502837131 0 0.2011257097452957 0.33085247086387798 0 0.18528912025722999 0.34122938707942713 0 0.2011257097452957 0.33085247086387798 0 0.201758750213514 0.34449152048830373 0 0.18528912025722999 0.34122938707942713 0 0.2011257097452957 0.33085247086387798 0 0.21111664908688221 0.33941257993938562 0 0.21939984380622871 0.32660495319242028 0 0.2011257097452957 0.33085247086387798 0 0.21111664908688221 0.33941257993938562 0 0.201758750213514 0.34449152048830373 0 0.21111664908688221 0.33941257993938562 0 0.21939984380622871 0.32660495319242028 0 0.22507675182809719 0.33994055198787471 0 0.21111664908688221 0.33941257993938562 0 0.22507675182809719 0.33994055198787471 0 0.21336502919274869 0.34920792947018803 0 0.2011257097452957 0.33085247086387798 0 0.210019097728395 0.31279273480627329 0 0.21939984380622871 0.32660495319242028 0 0.23319686173334611 0.30897877613083241 0 0.21939984380622871 0.32660495319242028 0 0.24070235444249319 0.32908650917810622 0 0.23319686173334611 0.30897877613083241 0 0.210019097728395 0.31279273480627329 0 0.21939984380622871 0.32660495319242028 0 0.21939984380622871 0.32660495319242028 0 0.22507675182809719 0.33994055198787471 0 0.24070235444249319 0.32908650917810622 0 0.22507675182809719 0.33994055198787471 0 0.24070235444249319 0.32908650917810622 0 0.25058270844242481 0.35582498215290642 0 0.23319686173334611 0.30897877613083241 0 0.24070235444249319 0.32908650917810622 0 0.26166485869090539 0.30713892627832817 0 0.23639772929814989 0.37453979668752158 0 0.22672690108067881 0.35831869208041051 0 0.25058270844242481 0.35582498215290642 0 0.22672690108067881 0.35831869208041051 0 0.25058270844242481 0.35582498215290642 0 0.22507675182809719 0.33994055198787471 0 0.22672690108067881 0.35831869208041051 0 0.25058270844242481 0.35582498215290642 0 0.22507675182809719 0.33994055198787471 0 0.22672690108067881 0.35831869208041051 0 0.21336502919274869 0.34920792947018803 0 0.23639772929814989 0.37453979668752158 0 0.22672690108067881 0.35831869208041051 0 0.21772363313381571 0.37735534024638501 0 0.22672690108067881 0.35831869208041051 0 0.20287109371893269 0.36081240200791259 0 0.21772363313381571 0.37735534024638501 0 0.20287109371893269 0.36081240200791259 0 0.21772363313381571 0.37735534024638501 0 0.22672690108067881 0.35831869208041051 0 0.20287109371893269 0.36081240200791259 0 0.2011812467034251 0.37132403958804328 0 0.20287109371893269 0.36081240200791259 0 0.21772363313381571 0.37735534024638501 0 0.22672690108067881 0.35831869208041051 0 0.21336502919274869 0.34920792947018803 0 0.20287109371893269 0.36081240200791259 0 0.21336502919274869 0.34920792947018803 0 0.201758750213514 0.34449152048830373 0 0.20287109371893269 0.36081240200791259 0 0.21111664908688221 0.33941257993938562 0 0.21336502919274869 0.34920792947018803 0 0.201758750213514 0.34449152048830373 0 0.201758750213514 0.34449152048830373 0 0.20287109371893269 0.36081240200791259 0 0.18528912025722999 0.34122938707942713 0 0.20287109371893269 0.36081240200791259 0 0.19125140383609709 0.36202703857736518 0 0.18592661653693529 0.3528402860863859 0 0.20287109371893269 0.36081240200791259 0 0.18592661653693529 0.3528402860863859 0 0.18528912025722999 0.34122938707942713 0 0.20287109371893269 0.36081240200791259 0 0.18528912025722999 0.34122938707942713 0 0.20287109371893269 0.36081240200791259 0 0.19125140383609709 0.36202703857736518 0 0.2011812467034251 0.37132403958804328 0 0.20287109371893269 0.36081240200791259 0 0.19125140383609709 0.36202703857736518 0 0.2011812467034251 0.37132403958804328 0 0.19125140383609709 0.36202703857736518 0 0.1896868307780788 0.37511319615928579 0 0.1758004222326599 0.35409421475027208 0 0.17694119960773161 0.37501241677474079 0 0.1896868307780788 0.37511319615928579 0 0.19125140383609709 0.36202703857736518 0 0.1758004222326599 0.35409421475027208 0 0.1896868307780788 0.37511319615928579 0 0.1683296654567252 0.36223812056093668 0 0.1758004222326599 0.35409421475027208 0 0.17694119960773161 0.37501241677474079 0 0.1758004222326599 0.35409421475027208 0 0.1896868307780788 0.37511319615928579 0 0.1683296654567252 0.36223812056093668 0 0.15945035916672251 0.36881788715759212 0 0.15733932676241291 0.35078423886864651 0 0.1683296654567252 0.36223812056093668 0 0.15945035916672251 0.36881788715759212 0 0.17694119960773161 0.37501241677474079 0 0.15945035916672251 0.36881788715759212 0 0.15522369434142519 0.34914804769169178 0 0.15945035916672251 0.36881788715759212 0 0.15733932676241291 0.35078423886864651 0 0.15522369434142519 0.34914804769169178 0 0.16240007885868149 0.34738844299533728 0 0.15733932676241291 0.35078423886864651 0 0.16677474767121339 0.35129656494308881 0 0.16240007885868149 0.34738844299533728 0 0.15898093320197901 0.3452404098180904 0 0.16216577599569629 0.34277745434395379 0 0.16240007885868149 0.34738844299533728 0 0.1667199837866922 0.34505766803275723 0 0.16216577599569629 0.34277745434395379 0 0.16240007885868149 0.34738844299533728 0 0.15898093320197901 0.3452404098180904 0 0.15733932676241291 0.35078423886864651 0 0.15898093320197901 0.3452404098180904 0 0.15733932676241291 0.35078423886864651 0 0.15522369434142519 0.34914804769169178 0 0.15733932676241291 0.35078423886864651 0 0.15522369434142519 0.34914804769169178 0 0.1683296654567252 0.36223812056093668 0 0.16677474767121339 0.35129656494308881 0 0.1758004222326599 0.35409421475027208 0 0.1683296654567252 0.36223812056093668 0 0.15733932676241291 0.35078423886864651 0 0.16677474767121339 0.35129656494308881 0 0.16240007885868149 0.34738844299533728 0 0.16677474767121339 0.35129656494308881 0 0.1667199837866922 0.34505766803275723 0 0.16677474767121339 0.35129656494308881 0 0.1667199837866922 0.34505766803275723 0 0.17442104263975669 0.34603838801695258 0 0.16677474767121339 0.35129656494308881 0 0.17442104263975669 0.34603838801695258 0 0.1758004222326599 0.35409421475027208 0 0.17442104263975669 0.34603838801695258 0 0.1758004222326599 0.35409421475027208 0 0.18592661653693529 0.3528402860863859 0 0.19125140383609709 0.36202703857736518 0 0.1758004222326599 0.35409421475027208 0 0.18592661653693529 0.3528402860863859 0 0.17442104263975669 0.34603838801695258 0 0.18592661653693529 0.3528402860863859 0 0.18528912025722999 0.34122938707942713 0 0.17442104263975669 0.34603838801695258 0 0.18528912025722999 0.34122938707942713 0 0.16596816540023679 0.33744107815534452 0 0.18528912025722999 0.34122938707942713 0 0.16770714679552459 0.32164637215094372 0 0.16596816540023679 0.33744107815534452 0 0.18528912025722999 0.34122938707942713 0 0.16770714679552459 0.32164637215094372 0 0.19110803961997111 0.3183208502837131 0 0.18528912025722999 0.34122938707942713 0 0.16770714679552459 0.32164637215094372 0 0.17471048838193559 0.3055917672003024 0 0.19110803961997111 0.3183208502837131 0 0.16770714679552459 0.32164637215094372 0 0.1501251733338192 0.30206335722246019 0 0.16770714679552459 0.32164637215094372 0 0.15435501258338871 0.31562908771085679 0 0.16770714679552459 0.32164637215094372 0 0.15082090438664461 0.32865856598633703 0 0.15435501258338871 0.31562908771085679 0 0.16770714679552459 0.32164637215094372 0 0.16596816540023679 0.33744107815534452 0 0.1577757900516791 0.33610386519082258 0 0.16770714679552459 0.32164637215094372 0 0.1577757900516791 0.33610386519082258 0 0.15082090438664461 0.32865856598633703 0 0.1667199837866922 0.34505766803275723 0 0.17442104263975669 0.34603838801695258 0 0.16596816540023679 0.33744107815534452 0 0.1667199837866922 0.34505766803275723 0 0.16596816540023679 0.33744107815534452 0 0.16216577599569629 0.34277745434395379 0 0.15898093320197901 0.3452404098180904 0 0.1577757900516791 0.33610386519082258 0 0.15522369434142519 0.34914804769169178 0 0.15898093320197901 0.3452404098180904 0 0.1577757900516791 0.33610386519082258 0 0.16216577599569629 0.34277745434395379 0 0.16596816540023679 0.33744107815534452 0 0.1577757900516791 0.33610386519082258 0 0.16216577599569629 0.34277745434395379 0 0.15082090438664461 0.32865856598633703 0 0.15522369434142519 0.34914804769169178 0 0.15082090438664461 0.32865856598633703 0 0.1381249944700062 0.33592422790642018 0 0.15522369434142519 0.34914804769169178 0 0.1577757900516791 0.33610386519082258 0 0.15082090438664461 0.32865856598633703 0 0.15522369434142519 0.34914804769169178 0 0.1381249944700062 0.33592422790642018 0 0.15522369434142519 0.34914804769169178 0 0.15082090438664461 0.32865856598633703 0 0.13734662506429299 0.32031111572158699 0 0.1381249944700062 0.33592422790642018 0 0.14641811443186439 0.30816908428098211 0 0.15082090438664461 0.32865856598633703 0 0.15435501258338871 0.31562908771085679 0 0.14641811443186439 0.30816908428098211 0 0.15082090438664461 0.32865856598633703 0 0.13734662506429299 0.32031111572158699 0 0.14641811443186439 0.30816908428098211 0 0.15082090438664461 0.32865856598633703 0 0.12102629459858701 0.32270040812114892 0 0.13734662506429299 0.32031111572158699 0 0.1381249944700062 0.33592422790642018 0 0.12102629459858701 0.32270040812114892 0 0.12577500289224269 0.31096640210294513 0 0.13734662506429299 0.32031111572158699 0 0.12577500289224269 0.31096640210294513 0 0.13509647177844589 0.30785748145049951 0 0.13734662506429299 0.32031111572158699 0 0.1211824295008295 0.3366626843910176 0 0.12102629459858701 0.32270040812114892 0 0.1381249944700062 0.33592422790642018 0 0.12102629459858701 0.32270040812114892 0 0.1381249944700062 0.33592422790642018 0 0.1211824295008295 0.3366626843910176 0 0.1381249944700062 0.33592422790642018 0 0.12926528544088481 0.34707087424054112 0 0.1381249944700062 0.33592422790642018 0 0.12926528544088481 0.34707087424054112 0 0.1382427714134386 0.34806341321138362 0 0.1381249944700062 0.33592422790642018 0 0.1382427714134386 0.34806341321138362 0 0.14524998736157549 0.34869512245689072 0 0.12926528544088481 0.34707087424054112 0 0.1382427714134386 0.34806341321138362 0 0.13740460050413819 0.35644980160071088 0 0.1382427714134386 0.34806341321138362 0 0.13740460050413819 0.35644980160071088 0 0.1442833071368613 0.35333484435914819 0 0.12494773803156189 0.35830786049319269 0 0.12926528544088481 0.34707087424054112 0 0.13740460050413819 0.35644980160071088 0 0.12262063578902491 0.36878957885284092 0 0.12494773803156189 0.35830786049319269 0 0.1326464078241556 0.36842598090079359 0 0.12494773803156189 0.35830786049319269 0 0.13740460050413819 0.35644980160071088 0 0.1326464078241556 0.36842598090079359 0 0.1326464078241556 0.36842598090079359 0 0.13342974416523409 0.37840538249869199 0 0.12552755411527511 0.37811666214524831 0 0.12262063578902491 0.36878957885284092 0 0.1326464078241556 0.36842598090079359 0 0.12552755411527511 0.37811666214524831 0 0.1326464078241556 0.36842598090079359 0 0.1414655169105194 0.37559681561125469 0 0.13342974416523409 0.37840538249869199 0 0.1326464078241556 0.36842598090079359 0 0.1418694612623303 0.3644162693996893 0 0.1414655169105194 0.37559681561125469 0 0.13740460050413819 0.35644980160071088 0 0.1326464078241556 0.36842598090079359 0 0.1418694612623303 0.3644162693996893 0 0.13740460050413819 0.35644980160071088 0 0.1418694612623303 0.3644162693996893 0 0.1446227089872851 0.35886423725666572 0 0.1418694612623303 0.3644162693996893 0 0.14945128859936821 0.37052266606802209 0 0.14918100658694919 0.36311519180797053 0 0.14918100658694919 0.36311519180797053 0 0.15037516944614629 0.35700507911580981 0 0.1446227089872851 0.35886423725666572 0 0.1418694612623303 0.3644162693996893 0 0.14918100658694919 0.36311519180797053 0 0.1446227089872851 0.35886423725666572 0 0.1418694612623303 0.3644162693996893 0 0.14945128859936821 0.37052266606802209 0 0.1414655169105194 0.37559681561125469 0 0.15945035916672251 0.36881788715759212 0 0.14945128859936821 0.37052266606802209 0 0.14918100658694919 0.36311519180797053 0 0.15945035916672251 0.36881788715759212 0 0.14945128859936821 0.37052266606802209 0 0.15030682792213779 0.37981021630389089 0 0.15945035916672251 0.36881788715759212 0 0.14918100658694919 0.36311519180797053 0 0.15037516944614629 0.35700507911580981 0 0.15037516944614629 0.35700507911580981 0 0.15522369434142519 0.34914804769169178 0 0.14524998736157549 0.34869512245689072 0 0.15945035916672251 0.36881788715759212 0 0.15037516944614629 0.35700507911580981 0 0.15522369434142519 0.34914804769169178 0 0.1381249944700062 0.33592422790642018 0 0.15522369434142519 0.34914804769169178 0 0.14524998736157549 0.34869512245689072 0 0.1382427714134386 0.34806341321138362 0 0.14524998736157549 0.34869512245689072 0 0.1442833071368613 0.35333484435914819 0 0.15037516944614629 0.35700507911580981 0 0.14524998736157549 0.34869512245689072 0 0.1442833071368613 0.35333484435914819 0 0.13740460050413819 0.35644980160071088 0 0.1442833071368613 0.35333484435914819 0 0.1446227089872851 0.35886423725666572 0 0.15037516944614629 0.35700507911580981 0 0.1442833071368613 0.35333484435914819 0 0.1446227089872851 0.35886423725666572 0 0.1475247491385831 0.39404946506844912 0 0.1420074076684551 0.39802234545860299 0 0.148470233011751 0.39846405557241188 0 0.1475247491385831 0.39404946506844912 0 0.1438614968362234 0.3919262369534865 0 0.14794650069907969 0.38820273702009311 0 0.1438614968362234 0.3919262369534865 0 0.13947807644221449 0.38913063547536142 0 0.13859934779910049 0.39373219347481447 0 0.1475247491385831 0.39404946506844912 0 0.1438614968362234 0.3919262369534865 0 0.1420074076684551 0.39802234545860299 0 0.1438614968362234 0.3919262369534865 0 0.1420074076684551 0.39802234545860299 0 0.13859934779910049 0.39373219347481447 0 0.1420074076684551 0.39802234545860299 0 0.14652287066416389 0.40461561073147567 0 0.1351486975306008 0.40658960038989678 0 0.1420074076684551 0.39802234545860299 0 0.14652287066416389 0.40461561073147567 0 0.148470233011751 0.39846405557241188 0 0.14652287066416389 0.40461561073147567 0 0.148470233011751 0.39846405557241188 0 0.1548912014347886 0.40054330661930232 0 0.1548912014347886 0.40054330661930232 0 0.15144700557346591 0.3958483894244369 0 0.15548671196349231 0.39415057744384813 0 0.148470233011751 0.39846405557241188 0 0.1548912014347886 0.40054330661930232 0 0.15144700557346591 0.3958483894244369 0 0.1475247491385831 0.39404946506844912 0 0.148470233011751 0.39846405557241188 0 0.15144700557346591 0.3958483894244369 0 0.1475247491385831 0.39404946506844912 0 0.15144700557346591 0.3958483894244369 0 0.15086213231871429 0.39203454241817282 0 0.1475247491385831 0.39404946506844912 0 0.15086213231871429 0.39203454241817282 0 0.14794650069907969 0.38820273702009311 0 0.15144700557346591 0.3958483894244369 0 0.15086213231871429 0.39203454241817282 0 0.15548671196349231 0.39415057744384813 0 0.15086213231871429 0.39203454241817282 0 0.15548671196349231 0.39415057744384813 0 0.1542817518698707 0.39007052467329723 0 0.15548671196349231 0.39415057744384813 0 0.1542817518698707 0.39007052467329723 0 0.15703811460741579 0.39030490692032971 0 0.1542817518698707 0.39007052467329723 0 0.15703811460741579 0.39030490692032971 0 0.15691460538756841 0.3870553961256985 0 0.15086213231871429 0.39203454241817282 0 0.1542817518698707 0.39007052467329723 0 0.15302308462149991 0.3867118687607804 0 0.15302308462149991 0.3867118687607804 0 0.15030682792213779 0.37981021630389089 0 0.15833170853334161 0.38355121550259752 0 0.15302308462149991 0.3867118687607804 0 0.15030682792213779 0.37981021630389089 0 0.14794650069907969 0.38820273702009311 0 0.1542817518698707 0.39007052467329723 0 0.15302308462149991 0.3867118687607804 0 0.15691460538756841 0.3870553961256985 0 0.15302308462149991 0.3867118687607804 0 0.15833170853334161 0.38355121550259752 0 0.15691460538756841 0.3870553961256985 0 0.15086213231871429 0.39203454241817282 0 0.15302308462149991 0.3867118687607804 0 0.14794650069907969 0.38820273702009311 0 0.15945035916672251 0.36881788715759212 0 0.15030682792213779 0.37981021630389089 0 0.15833170853334161 0.38355121550259752 0 0.14945128859936821 0.37052266606802209 0 0.15030682792213779 0.37981021630389089 0 0.1414655169105194 0.37559681561125469 0 0.15030682792213779 0.37981021630389089 0 0.1414655169105194 0.37559681561125469 0 0.1433785314193109 0.38496596890628038 0 0.15030682792213779 0.37981021630389089 0 0.14794650069907969 0.38820273702009311 0 0.1433785314193109 0.38496596890628038 0 0.1438614968362234 0.3919262369534865 0 0.14794650069907969 0.38820273702009311 0 0.1433785314193109 0.38496596890628038 0 0.1438614968362234 0.3919262369534865 0 0.1433785314193109 0.38496596890628038 0 0.13947807644221449 0.38913063547536142 0 0.13947807644221449 0.38913063547536142 0 0.1369903561056133 0.38399075406986871 0 0.13411601593830921 0.3904935230668426 0 0.1433785314193109 0.38496596890628038 0 0.13947807644221449 0.38913063547536142 0 0.1369903561056133 0.38399075406986871 0 0.1369903561056133 0.38399075406986871 0 0.13411601593830921 0.3904935230668426 0 0.13007425175809201 0.38535219886078093 0 0.1414655169105194 0.37559681561125469 0 0.1369903561056133 0.38399075406986871 0 0.13342974416523409 0.37840538249869199 0 0.1414655169105194 0.37559681561125469 0 0.1433785314193109 0.38496596890628038 0 0.1369903561056133 0.38399075406986871 0 0.1369903561056133 0.38399075406986871 0 0.13342974416523409 0.37840538249869199 0 0.13007425175809201 0.38535219886078093 0 0.13342974416523409 0.37840538249869199 0 0.12552755411527511 0.37811666214524831 0 0.13007425175809201 0.38535219886078093 0 0.1218628618241696 0.38699886071587752 0 0.13007425175809201 0.38535219886078093 0 0.12801317874929941 0.39394867087186097 0 0.13411601593830921 0.3904935230668426 0 0.13007425175809201 0.38535219886078093 0 0.12801317874929941 0.39394867087186097 0 0.1218628618241696 0.38699886071587752 0 0.12552755411527511 0.37811666214524831 0 0.13007425175809201 0.38535219886078093 0 0.1211167618675844 0.39395211339862252 0 0.12801317874929941 0.39394867087186097 0 0.12594638543343259 0.40194870844401698 0 0.12801317874929941 0.39394867087186097 0 0.1339718388531996 0.39745584028433922 0 0.12594638543343259 0.40194870844401698 0 0.13411601593830921 0.3904935230668426 0 0.12801317874929941 0.39394867087186097 0 0.1339718388531996 0.39745584028433922 0 0.1420074076684551 0.39802234545860299 0 0.1339718388531996 0.39745584028433922 0 0.13859934779910049 0.39373219347481447 0 0.13411601593830921 0.3904935230668426 0 0.1339718388531996 0.39745584028433922 0 0.13859934779910049 0.39373219347481447 0 0.13947807644221449 0.38913063547536142 0 0.13411601593830921 0.3904935230668426 0 0.13859934779910049 0.39373219347481447 0 0.1420074076684551 0.39802234545860299 0 0.1339718388531996 0.39745584028433922 0 0.1351486975306008 0.40658960038989678 0 0.1339718388531996 0.39745584028433922 0 0.12594638543343259 0.40194870844401698 0 0.1351486975306008 0.40658960038989678 0 0.12209716532440459 0.41927361736785862 0 0.12594638543343259 0.40194870844401698 0 0.1351486975306008 0.40658960038989678 0 0.12209716532440459 0.41927361736785862 0 0.1462167755766812 0.42929239720920259 0 0.1408856673007455 0.41571148176764389 0 0.12209716532440459 0.41927361736785862 0 0.1351486975306008 0.40658960038989678 0 0.1408856673007455 0.41571148176764389 0 0.12209716532440459 0.41927361736785862 0 0.1462167755766812 0.42929239720920259 0 0.12209716532440459 0.41927361736785862 0 0.13091002303884949 0.43417971959796903 0 0.1462167755766812 0.42929239720920259 0 0.13091002303884949 0.43417971959796903 0 0.1462167755766812 0.42929239720920259 0 0.14397343538957069 0.44066688699828122 0 0.1462167755766812 0.42929239720920259 0 0.15402452668355479 0.41560822773460088 0 0.14397343538957069 0.44066688699828122 0 0.15402452668355479 0.41560822773460088 0 0.16319424910177191 0.43313313346791182 0 0.14397343538957069 0.44066688699828122 0 0.15402452668355479 0.41560822773460088 0 0.14397343538957069 0.44066688699828122 0 0.14652287066416389 0.40461561073147567 0 0.1351486975306008 0.40658960038989678 0 0.1408856673007455 0.41571148176764389 0 0.14652287066416389 0.40461561073147567 0 0.1408856673007455 0.41571148176764389 0 0.15402452668355479 0.41560822773460088 0 0.1462167755766812 0.42929239720920259 0 0.1408856673007455 0.41571148176764389 0 0.15402452668355479 0.41560822773460088 0 0.14652287066416389 0.40461561073147567 0 0.1548912014347886 0.40054330661930232 0 0.15402452668355479 0.41560822773460088 0 0.16319424910177191 0.43313313346791182 0 0.1700677243547512 0.40407277512132622 0 0.15402452668355479 0.41560822773460088 0 0.16319424910177191 0.43313313346791182 0 0.1700677243547512 0.40407277512132622 0 0.16319424910177191 0.43313313346791182 0 0.17798468606602419 0.41417834226594258 0 0.1700677243547512 0.40407277512132622 0 0.16319424910177191 0.43313313346791182 0 0.17798468606602419 0.41417834226594258 0 0.16319424910177191 0.43313313346791182 0 0.17939437829037169 0.43002654411823038 0 0.17798468606602419 0.41417834226594258 0 0.17939437829037169 0.43002654411823038 0 0.17798468606602419 0.41417834226594258 0 0.18910357503360781 0.42445835143808969 0 0.16319424910177191 0.43313313346791182 0 0.17939437829037169 0.43002654411823038 0 0.17791394991056619 0.4432436590298946 0 0.17939437829037169 0.43002654411823038 0 0.18910357503360781 0.42445835143808969 0 0.18877543133988869 0.43511923438931299 0 0.17939437829037169 0.43002654411823038 0 0.18877543133988869 0.43511923438931299 0 0.17791394991056619 0.4432436590298946 0 0.17798468606602419 0.41417834226594258 0 0.1927751230302755 0.39522355106397261 0 0.17798468606602419 0.41417834226594258 0 0.18092016672892491 0.39914403593149522 0 0.1927751230302755 0.39522355106397261 0 0.18092016672892491 0.39914403593149522 0 0.1700677243547512 0.40407277512132622 0 0.18264268145965501 0.38801748012655402 0 0.18092016672892491 0.39914403593149522 0 0.18264268145965501 0.38801748012655402 0 0.1927751230302755 0.39522355106397261 0 0.17798468606602419 0.41417834226594258 0 0.18092016672892491 0.39914403593149522 0 0.1700677243547512 0.40407277512132622 0 0.15402452668355479 0.41560822773460088 0 0.1700677243547512 0.40407277512132622 0 0.16407561797753881 0.39054956847092048 0 0.1548912014347886 0.40054330661930232 0 0.15402452668355479 0.41560822773460088 0 0.16407561797753881 0.39054956847092048 0 0.15402452668355479 0.41560822773460088 0 0.16407561797753881 0.39054956847092048 0 0.1548912014347886 0.40054330661930232 0 0.15548671196349231 0.39415057744384813 0 0.16407561797753881 0.39054956847092048 0 0.15548671196349231 0.39415057744384813 0 0.16033116732365679 0.3901627063836271 0 0.16407561797753881 0.39054956847092048 0 0.15548671196349231 0.39415057744384813 0 0.15703811460741579 0.39030490692032971 0 0.16033116732365679 0.3901627063836271 0 0.1700677243547512 0.40407277512132622 0 0.16407561797753881 0.39054956847092048 0 0.17694119960773161 0.37501241677474079 0 0.15945035916672251 0.36881788715759212 0 0.16367702399202011 0.38848772662349229 0 0.15945035916672251 0.36881788715759212 0 0.16367702399202011 0.38848772662349229 0 0.17694119960773161 0.37501241677474079 0 0.15945035916672251 0.36881788715759212 0 0.15833170853334161 0.38355121550259752 0 0.16367702399202011 0.38848772662349229 0 0.15833170853334161 0.38355121550259752 0 0.15691460538756841 0.3870553961256985 0 0.16007571537829571 0.38795841671098291 0 0.15703811460741579 0.39030490692032971 0 0.15691460538756841 0.3870553961256985 0 0.1585899006742342 0.38887035653515961 0 0.15691460538756841 0.3870553961256985 0 0.16007571537829571 0.38795841671098291 0 0.1585899006742342 0.38887035653515961 0 0.15703811460741579 0.39030490692032971 0 0.1585899006742342 0.38887035653515961 0 0.16033116732365679 0.3901627063836271 0 0.16007571537829571 0.38795841671098291 0 0.1585899006742342 0.38887035653515961 0 0.16033116732365679 0.3901627063836271 0 0.16007571537829571 0.38795841671098291 0 0.16033116732365679 0.3901627063836271 0 0.16203988116787779 0.3892896045472557 0 0.16007571537829571 0.38795841671098291 0 0.16203988116787779 0.3892896045472557 0 0.16367702399202011 0.38848772662349229 0 0.16033116732365679 0.3901627063836271 0 0.16203988116787779 0.3892896045472557 0 0.16407561797753881 0.39054956847092048 0 0.16203988116787779 0.3892896045472557 0 0.16367702399202011 0.38848772662349229 0 0.16407561797753881 0.39054956847092048 0 0.15833170853334161 0.38355121550259752 0 0.16007571537829571 0.38795841671098291 0 0.16367702399202011 0.38848772662349229 0 0.16367702399202011 0.38848772662349229 0 0.16407561797753881 0.39054956847092048 0 0.17694119960773161 0.37501241677474079 0 0.1700677243547512 0.40407277512132622 0 0.17694119960773161 0.37501241677474079 0 0.18264268145965501 0.38801748012655402 0 0.1700677243547512 0.40407277512132622 0 0.17694119960773161 0.37501241677474079 0 0.17694119960773161 0.37501241677474079 0 0.18264268145965501 0.38801748012655402 0 0.1896868307780788 0.37511319615928579 0 0.1896868307780788 0.37511319615928579 0 0.20357323932349761 0.39613217756829933 0 0.1896868307780788 0.37511319615928579 0 0.1927751230302755 0.39522355106397261 0 0.20357323932349761 0.39613217756829933 0 0.1896868307780788 0.37511319615928579 0 0.20357323932349761 0.39613217756829933 0 0.20437327205020139 0.38131222094926792 0 0.18264268145965501 0.38801748012655402 0 0.1896868307780788 0.37511319615928579 0 0.1927751230302755 0.39522355106397261 0 0.2011812467034251 0.37132403958804328 0 0.1896868307780788 0.37511319615928579 0 0.20437327205020139 0.38131222094926792 0 0.17798468606602419 0.41417834226594258 0 0.1927751230302755 0.39522355106397261 0 0.19755728376993009 0.4047426647328673 0 0.1927751230302755 0.39522355106397261 0 0.19755728376993009 0.4047426647328673 0 0.20357323932349761 0.39613217756829933 0 0.20357323932349761 0.39613217756829933 0 0.2129810685792039 0.38850165166686518 0 0.2246561684060249 0.39730011210468769 0 0.19755728376993009 0.4047426647328673 0 0.20357323932349761 0.39613217756829933 0 0.21745964786891639 0.41715115897731297 0 0.20357323932349761 0.39613217756829933 0 0.2246561684060249 0.39730011210468769 0 0.21745964786891639 0.41715115897731297 0 0.2129810685792039 0.38850165166686518 0 0.21772363313381571 0.37735534024638501 0 0.2246561684060249 0.39730011210468769 0 0.2011812467034251 0.37132403958804328 0 0.20437327205020139 0.38131222094926792 0 0.21772363313381571 0.37735534024638501 0 0.20357323932349761 0.39613217756829933 0 0.20437327205020139 0.38131222094926792 0 0.2129810685792039 0.38850165166686518 0 0.20437327205020139 0.38131222094926792 0 0.2129810685792039 0.38850165166686518 0 0.21772363313381571 0.37735534024638501 0 0.23639772929814989 0.37453979668752158 0 0.21772363313381571 0.37735534024638501 0 0.2246561684060249 0.39730011210468769 0 0.2246561684060249 0.39730011210468769 0 0.2465826641860438 0.39149057765701079 0 0.24019024828624891 0.41384027048791411 0 0.23639772929814989 0.37453979668752158 0 0.2465826641860438 0.39149057765701079 0 0.26442798559971697 0.37618170985839988 0 0.23639772929814989 0.37453979668752158 0 0.2246561684060249 0.39730011210468769 0 0.2465826641860438 0.39149057765701079 0 0.24019024828624891 0.41384027048791411 0 0.23134605641433531 0.43817014038632662 0 0.25078358422659819 0.43403052903071249 0 0.2246561684060249 0.39730011210468769 0 0.24019024828624891 0.41384027048791411 0 0.21745964786891639 0.41715115897731297 0 0.24019024828624891 0.41384027048791411 0 0.21745964786891639 0.41715115897731297 0 0.23134605641433531 0.43817014038632662 0 0.21745964786891639 0.41715115897731297 0 0.23134605641433531 0.43817014038632662 0 0.20463057304399071 0.432499833175504 0 0.21745964786891639 0.41715115897731297 0 0.23134605641433531 0.43817014038632662 0 0.20463057304399071 0.432499833175504 0 0.21745964786891639 0.41715115897731297 0 0.1969134649646973 0.41472875653224262 0 0.19755728376993009 0.4047426647328673 0 0.21745964786891639 0.41715115897731297 0 0.1969134649646973 0.41472875653224262 0 0.20357323932349761 0.39613217756829933 0 0.21745964786891639 0.41715115897731297 0 0.17798468606602419 0.41417834226594258 0 0.19755728376993009 0.4047426647328673 0 0.1969134649646973 0.41472875653224262 0 0.17798468606602419 0.41417834226594258 0 0.1969134649646973 0.41472875653224262 0 0.18910357503360781 0.42445835143808969 0 0.20463057304399071 0.432499833175504 0 0.1969134649646973 0.41472875653224262 0 0.18910357503360781 0.42445835143808969 0 0.20463057304399071 0.432499833175504 0 0.18910357503360781 0.42445835143808969 0 0.18877543133988869 0.43511923438931299 0 0.20463057304399071 0.432499833175504 0 0.18877543133988869 0.43511923438931299 0 0.19370806465783399 0.45078126067058222 0 0.19370806465783399 0.45078126067058222 0 0.19227898145482991 0.46600926684944338 0 0.20864825566823059 0.46642647455958569 0 0.19370806465783399 0.45078126067058222 0 0.19227898145482991 0.46600926684944338 0 0.1780698997230856 0.46288065094800662 0 0.19370806465783399 0.45078126067058222 0 0.20864825566823059 0.46642647455958569 0 0.21664537861619221 0.4510447894553582 0 0.20463057304399071 0.432499833175504 0 0.19370806465783399 0.45078126067058222 0 0.21664537861619221 0.4510447894553582 0 0.20463057304399071 0.432499833175504 0 0.21664537861619221 0.4510447894553582 0 0.23134605641433531 0.43817014038632662 0 0.21664537861619221 0.4510447894553582 0 0.23134605641433531 0.43817014038632662 0 0.23420125513175599 0.46238754769225487 0 0.20864825566823059 0.46642647455958569 0 0.21664537861619221 0.4510447894553582 0 0.23420125513175599 0.46238754769225487 0 0.23420125513175599 0.46238754769225487 0 0.25677020879491552 0.4513598776161506 0 0.25637036323221118 0.46726791933433809 0 0.23134605641433531 0.43817014038632662 0 0.23420125513175599 0.46238754769225487 0 0.25677020879491552 0.4513598776161506 0 0.23134605641433531 0.43817014038632662 0 0.25677020879491552 0.4513598776161506 0 0.25078358422659819 0.43403052903071249 0 0.24324035560738619 0.50000000000000167 0 0.24648317544538559 0.47917600915291741 0 0.22215627786653411 0.48248266366965431 0 0.23420125513175599 0.46238754769225487 0 0.24648317544538559 0.47917600915291741 0 0.25637036323221118 0.46726791933433809 0 0.24648317544538559 0.47917600915291741 0 0.22215627786653411 0.48248266366965431 0 0.23420125513175599 0.46238754769225487 0 0.24648317544538559 0.47917600915291741 0 0.22215627786653411 0.48248266366965431 0 0.20864825566823059 0.46642647455958569 0 0.23420125513175599 0.46238754769225487 0 0.22215627786653411 0.48248266366965431 0 0.24324035560738619 0.50000000000000167 0 0.22215627786653411 0.48248266366965431 0 0.21927492253847419 0.5 0 0.21927492253847419 0.5 0 0.19782938028768249 0.48578931818639121 0 0.1953094894695622 0.5 0 0.22215627786653411 0.48248266366965431 0 0.21927492253847419 0.5 0 0.19782938028768249 0.48578931818639121 0 0.22215627786653411 0.48248266366965431 0 0.19782938028768249 0.48578931818639121 0 0.20864825566823059 0.46642647455958569 0 0.22215627786653411 0.48248266366965431 0 0.19782938028768249 0.48578931818639121 0 0.19227898145482991 0.46600926684944338 0 0.19782938028768249 0.48578931818639121 0 0.1817948678307332 0.47606467826700138 0 0.19227898145482991 0.46600926684944338 0 0.20864825566823059 0.46642647455958569 0 0.19782938028768249 0.48578931818639121 0 0.19782938028768249 0.48578931818639121 0 0.1953094894695622 0.5 0 0.17350248270883101 0.4890959727031281 0 0.19782938028768249 0.48578931818639121 0 0.17350248270883101 0.4890959727031281 0 0.1953094894695622 0.5 0 0.17350248270883101 0.4890959727031281 0 0.1713440564006502 0.5 0 0.17350248270883101 0.4890959727031281 0 0.1713440564006502 0.5 0 0.1491755851299793 0.49240262721986389 0 0.17350248270883101 0.4890959727031281 0 0.1491755851299793 0.49240262721986389 0 0.17350248270883101 0.4890959727031281 0 0.166949004627928 0.47630275355685608 0 0.1491755851299793 0.49240262721986389 0 0.166949004627928 0.47630275355685608 0 0.1491755851299793 0.49240262721986389 0 0.1538484731205744 0.47264612930254601 0 0.166949004627928 0.47630275355685608 0 0.16513147109179799 0.46392975235663081 0 0.1538484731205744 0.47264612930254601 0 0.19782938028768249 0.48578931818639121 0 0.17350248270883101 0.4890959727031281 0 0.1817948678307332 0.47606467826700138 0 0.166949004627928 0.47630275355685608 0 0.1817948678307332 0.47606467826700138 0 0.1780698997230856 0.46288065094800662 0 0.17350248270883101 0.4890959727031281 0 0.166949004627928 0.47630275355685608 0 0.1817948678307332 0.47606467826700138 0 0.19227898145482991 0.46600926684944338 0 0.1817948678307332 0.47606467826700138 0 0.1780698997230856 0.46288065094800662 0 0.19370806465783399 0.45078126067058222 0 0.1780698997230856 0.46288065094800662 0 0.17791394991056619 0.4432436590298946 0 0.18877543133988869 0.43511923438931299 0 0.19370806465783399 0.45078126067058222 0 0.17791394991056619 0.4432436590298946 0 0.1780698997230856 0.46288065094800662 0 0.17791394991056619 0.4432436590298946 0 0.16856618618767891 0.45121536543753449 0 0.16319424910177191 0.43313313346791182 0 0.1585213611111726 0.45288963138522881 0 0.16319424910177191 0.43313313346791182 0 0.17791394991056619 0.4432436590298946 0 0.16856618618767891 0.45121536543753449 0 0.16319424910177191 0.43313313346791182 0 0.16856618618767891 0.45121536543753449 0 0.1585213611111726 0.45288963138522881 0 0.16319424910177191 0.43313313346791182 0 0.1585213611111726 0.45288963138522881 0 0.1476389739810457 0.45306810852748841 0 0.1585213611111726 0.45288963138522881 0 0.16513147109179799 0.46392975235663081 0 0.1538484731205744 0.47264612930254601 0 0.166949004627928 0.47630275355685608 0 0.1780698997230856 0.46288065094800662 0 0.16513147109179799 0.46392975235663081 0 0.1780698997230856 0.46288065094800662 0 0.16856618618767891 0.45121536543753449 0 0.16513147109179799 0.46392975235663081 0 0.16856618618767891 0.45121536543753449 0 0.1585213611111726 0.45288963138522881 0 0.16513147109179799 0.46392975235663081 0 0.1585213611111726 0.45288963138522881 0 0.1476389739810457 0.45306810852748841 0 0.1538484731205744 0.47264612930254601 0 0.1476389739810457 0.45306810852748841 0 0.14397343538957069 0.44066688699828122 0 0.13392234409558659 0.46572554626196139 0 0.1476389739810457 0.45306810852748841 0 0.13208369886031859 0.47300308358706439 0 0.14383725773330211 0.46936066642599689 0 0.1585213611111726 0.45288963138522881 0 0.1538484731205744 0.47264612930254601 0 0.1476389739810457 0.45306810852748841 0 0.1538484731205744 0.47264612930254601 0 0.14383725773330211 0.46936066642599689 0 0.16319424910177191 0.43313313346791182 0 0.1476389739810457 0.45306810852748841 0 0.14397343538957069 0.44066688699828122 0 0.16319424910177191 0.43313313346791182 0 0.1476389739810457 0.45306810852748841 0 0.1247819217563655 0.44545259418403022 0 0.13091002303884949 0.43417971959796903 0 0.14397343538957069 0.44066688699828122 0 0.1247819217563655 0.44545259418403022 0 0.14397343538957069 0.44066688699828122 0 0.1292205939460738 0.4546059214515632 0 0.1476389739810457 0.45306810852748841 0 0.13208369886031859 0.47300308358706439 0 0.1476389739810457 0.45306810852748841 0 0.13392234409558659 0.46572554626196139 0 0.13208369886031859 0.47300308358706439 0 0.14397343538957069 0.44066688699828122 0 0.13392234409558659 0.46572554626196139 0 0.1292205939460738 0.4546059214515632 0 0.14397343538957069 0.44066688699828122 0 0.13392234409558659 0.46572554626196139 0 0.12076980168030139 0.45622433849141653 0 0.1292205939460738 0.4546059214515632 0 0.12510763250347909 0.46549675427369858 0 0.13392234409558659 0.46572554626196139 0 0.12510763250347909 0.46549675427369858 0 0.13208369886031859 0.47300308358706439 0 0.13392234409558659 0.46572554626196139 0 0.1292205939460738 0.4546059214515632 0 0.12510763250347909 0.46549675427369858 0 0.1238474612440929 0.47392924218746268 0 0.12510763250347909 0.46549675427369858 0 0.13208369886031859 0.47300308358706439 0 0.1238474612440929 0.47392924218746268 0 0.13208369886031859 0.47300308358706439 0 0.1307851997139666 0.48262718452972148 0 0.13208369886031859 0.47300308358706439 0 0.14383725773330211 0.46936066642599689 0 0.14177788497126961 0.47872534428688901 0 0.13208369886031859 0.47300308358706439 0 0.1307851997139666 0.48262718452972148 0 0.14177788497126961 0.47872534428688901 0 0.1212288328225988 0.49620131360993158 0 0.1473786233317381 0.49999999999999911 0 0.1491755851299793 0.49240262721986389 0 0.1212288328225988 0.49620131360993158 0 0.1203303519234782 0.5 0 0.1473786233317381 0.49999999999999911 0 0.1307851997139666 0.48262718452972148 0 0.1491755851299793 0.49240262721986389 0 0.14177788497126961 0.47872534428688901 0 0.1212288328225988 0.49620131360993158 0 0.1491755851299793 0.49240262721986389 0 0.1212288328225988 0.49620131360993158 0 0.1307851997139666 0.48262718452972148 0 0.1491755851299793 0.49240262721986389 0 0.1713440564006502 0.5 0 0.1473786233317381 0.49999999999999911 0 0.1491755851299793 0.49240262721986389 0 0.1473786233317381 0.49999999999999911 0 0.1491755851299793 0.49240262721986389 0 0.1491755851299793 0.49240262721986389 0 0.1538484731205744 0.47264612930254601 0 0.1491755851299793 0.49240262721986389 0 0.1538484731205744 0.47264612930254601 0 0.14177788497126961 0.47872534428688901 0 0.1538484731205744 0.47264612930254601 0 0.14383725773330211 0.46936066642599689 0 0.14177788497126961 0.47872534428688901 0 0.35051666246725399 0.48145449174104837 0 0.34900479259481493 0.4658411481377992 0 0.33413886605706311 0.48071010921342172 0 0.35051666246725399 0.48145449174104837 0 0.36819409338618181 0.47926670961297257 0 0.34900479259481493 0.4658411481377992 0 0.35051666246725399 0.48145449174104837 0 0.3507288978309564 0.5 0 0.33413886605706311 0.48071010921342172 0 0.35051666246725399 0.48145449174104837 0 0.3507288978309564 0.5 0 0.36819409338618181 0.47926670961297257 0 0.3507288978309564 0.5 0 0.36819409338618181 0.47926670961297257 0 0.37760103338684892 0.5 0 0.36819409338618181 0.47926670961297257 0 0.36143216700608077 0.45045313570551532 0 0.38096937117826202 0.45237270787408979 0 0.36819409338618181 0.47926670961297257 0 0.36143216700608077 0.45045313570551532 0 0.34900479259481493 0.4658411481377992 0 0.36143216700608077 0.45045313570551532 0 0.37228618046380763 0.4257445769310389 0 0.38096937117826202 0.45237270787408979 0 0.36143216700608077 0.45045313570551532 0 0.34257463656701659 0.44558499118687461 0 0.35484261765666131 0.43328101083942422 0 0.36143216700608077 0.45045313570551532 0 0.34900479259481493 0.4658411481377992 0 0.34257463656701659 0.44558499118687461 0 0.34900479259481493 0.4658411481377992 0 0.32931122290698961 0.46007430212985773 0 0.34257463656701659 0.44558499118687461 0 0.34257463656701659 0.44558499118687461 0 0.3227612430631378 0.44392487422197202 0 0.33344038861615338 0.43646466766072112 0 0.32931122290698961 0.46007430212985773 0 0.34257463656701659 0.44558499118687461 0 0.3227612430631378 0.44392487422197202 0 0.32931122290698961 0.46007430212985773 0 0.3227612430631378 0.44392487422197202 0 0.31502325370839979 0.454906660627103 0 0.3227612430631378 0.44392487422197202 0 0.30962258601859349 0.44629048556323209 0 0.30552164477846622 0.43352575280771061 0 0.3227612430631378 0.44392487422197202 0 0.31502325370839979 0.454906660627103 0 0.30962258601859349 0.44629048556323209 0 0.32931122290698961 0.46007430212985773 0 0.31502325370839979 0.454906660627103 0 0.31737471005966889 0.47101029748175471 0 0.31737471005966889 0.47101029748175471 0 0.33413886605706311 0.48071010921342172 0 0.31490592679053381 0.48653617845672648 0 0.32931122290698961 0.46007430212985773 0 0.31737471005966889 0.47101029748175471 0 0.33413886605706311 0.48071010921342172 0 0.34900479259481493 0.4658411481377992 0 0.32931122290698961 0.46007430212985773 0 0.33413886605706311 0.48071010921342172 0 0.3507288978309564 0.5 0 0.33413886605706311 0.48071010921342172 0 0.32385676227506388 0.5 0 0.33413886605706311 0.48071010921342172 0 0.32385676227506388 0.5 0 0.31490592679053381 0.48653617845672648 0 0.31490592679053381 0.48653617845672648 0 0.29698462671917131 0.5 0 0.30217466884170158 0.48096048558845589 0 0.32385676227506388 0.5 0 0.31490592679053381 0.48653617845672648 0 0.29698462671917131 0.5 0 0.31737471005966889 0.47101029748175471 0 0.30217466884170158 0.48096048558845589 0 0.30567307114906211 0.46339573949376112 0 0.30217466884170158 0.48096048558845589 0 0.28486216596850372 0.47559715966250837 0 0.30567307114906211 0.46339573949376112 0 0.31737471005966889 0.47101029748175471 0 0.31490592679053381 0.48653617845672648 0 0.30217466884170158 0.48096048558845589 0 0.28486216596850372 0.47559715966250837 0 0.30567307114906211 0.46339573949376112 0 0.30217466884170158 0.48096048558845589 0 0.28486216596850372 0.47559715966250837 0 0.29134701377252192 0.48664374722997877 0 0.28486216596850372 0.47559715966250837 0 0.29134701377252192 0.48664374722997877 0 0.28136659356071131 0.49001734366895111 0 0.29698462671917131 0.5 0 0.28136659356071131 0.49001734366895111 0 0.27011249116327868 0.5 0 0.29698462671917131 0.5 0 0.30217466884170158 0.48096048558845589 0 0.29134701377252192 0.48664374722997877 0 0.29698462671917131 0.5 0 0.29134701377252192 0.48664374722997877 0 0.28136659356071131 0.49001734366895111 0 0.28136659356071131 0.49001734366895111 0 0.27011249116327868 0.5 0 0.26405126078794527 0.48779857983125557 0 0.28486216596850372 0.47559715966250837 0 0.28136659356071131 0.49001734366895111 0 0.26405126078794527 0.48779857983125557 0 0.28486216596850372 0.47559715966250837 0 0.2708100730242371 0.47586935463618052 0 0.26405126078794527 0.48779857983125557 0 0.28486216596850372 0.47559715966250837 0 0.26405126078794527 0.48779857983125557 0 0.28486216596850372 0.47559715966250837 0 0.2708100730242371 0.47586935463618052 0 0.26952214191002188 0.46534790117429048 0 0.24648317544538559 0.47917600915291741 0 0.2708100730242371 0.47586935463618052 0 0.26405126078794527 0.48779857983125557 0 0.24648317544538559 0.47917600915291741 0 0.2708100730242371 0.47586935463618052 0 0.24648317544538559 0.47917600915291741 0 0.2708100730242371 0.47586935463618052 0 0.25637036323221118 0.46726791933433809 0 0.2708100730242371 0.47586935463618052 0 0.25637036323221118 0.46726791933433809 0 0.26952214191002188 0.46534790117429048 0 0.24324035560738619 0.50000000000000167 0 0.24648317544538559 0.47917600915291741 0 0.26405126078794527 0.48779857983125557 0 0.24324035560738619 0.50000000000000167 0 0.27011249116327868 0.5 0 0.26405126078794527 0.48779857983125557 0 0.24324035560738619 0.50000000000000167 0 0.26405126078794527 0.48779857983125557 0 0.25677020879491552 0.4513598776161506 0 0.27963408541685641 0.43676422105608298 0 0.25078358422659819 0.43403052903071249 0 0.25677020879491552 0.4513598776161506 0 0.25637036323221118 0.46726791933433809 0 0.26952214191002188 0.46534790117429048 0 0.25677020879491552 0.4513598776161506 0 0.27879789853024228 0.45664519462227487 0 0.26952214191002188 0.46534790117429048 0 0.28486216596850372 0.47559715966250837 0 0.27879789853024228 0.45664519462227487 0 0.26952214191002188 0.46534790117429048 0 0.25677020879491552 0.4513598776161506 0 0.27879789853024228 0.45664519462227487 0 0.27963408541685641 0.43676422105608298 0 0.29850439773826271 0.45388725926891887 0 0.27963408541685641 0.43676422105608298 0 0.27879789853024228 0.45664519462227487 0 0.29850439773826271 0.45388725926891887 0 0.27963408541685641 0.43676422105608298 0 0.29850439773826271 0.45388725926891887 0 0.30552164477846622 0.43352575280771061 0 0.27963408541685641 0.43676422105608298 0 0.28486216596850372 0.47559715966250837 0 0.29134608037953369 0.46272005199549482 0 0.30567307114906211 0.46339573949376112 0 0.28486216596850372 0.47559715966250837 0 0.27879789853024228 0.45664519462227487 0 0.29134608037953369 0.46272005199549482 0 0.27879789853024228 0.45664519462227487 0 0.29134608037953369 0.46272005199549482 0 0.29850439773826271 0.45388725926891887 0 0.31737471005966889 0.47101029748175471 0 0.29850439773826271 0.45388725926891887 0 0.30567307114906211 0.46339573949376112 0 0.31502325370839979 0.454906660627103 0 0.31737471005966889 0.47101029748175471 0 0.29850439773826271 0.45388725926891887 0 0.31737471005966889 0.47101029748175471 0 0.29850439773826271 0.45388725926891887 0 0.29134608037953369 0.46272005199549482 0 0.29850439773826271 0.45388725926891887 0 0.30567307114906211 0.46339573949376112 0 0.29850439773826271 0.45388725926891887 0 0.30962258601859349 0.44629048556323209 0 0.30552164477846622 0.43352575280771061 0 0.31502325370839979 0.454906660627103 0 0.29850439773826271 0.45388725926891887 0 0.30962258601859349 0.44629048556323209 0 0.30552164477846622 0.43352575280771061 0 0.29472048681373181 0.42011929071783177 0 0.31346367203539771 0.41247098163244611 0 0.29472048681373181 0.42011929071783177 0 0.29642245474742118 0.39847581870698839 0 0.31346367203539771 0.41247098163244611 0 0.29472048681373181 0.42011929071783177 0 0.27993773909185388 0.41080344598091978 0 0.29642245474742118 0.39847581870698839 0 0.29472048681373181 0.42011929071783177 0 0.27963408541685641 0.43676422105608298 0 0.27993773909185388 0.41080344598091978 0 0.30552164477846622 0.43352575280771061 0 0.29472048681373181 0.42011929071783177 0 0.27963408541685641 0.43676422105608298 0 0.27963408541685641 0.43676422105608298 0 0.26076377309545018 0.41964118284324708 0 0.27963408541685641 0.43676422105608298 0 0.27993773909185388 0.41080344598091978 0 0.26076377309545018 0.41964118284324708 0 0.27993773909185388 0.41080344598091978 0 0.26076377309545018 0.41964118284324708 0 0.26705146271575181 0.39787470585822232 0 0.24019024828624891 0.41384027048791411 0 0.26076377309545018 0.41964118284324708 0 0.26705146271575181 0.39787470585822232 0 0.27963408541685641 0.43676422105608298 0 0.26076377309545018 0.41964118284324708 0 0.25078358422659819 0.43403052903071249 0 0.24019024828624891 0.41384027048791411 0 0.26076377309545018 0.41964118284324708 0 0.25078358422659819 0.43403052903071249 0 0.2465826641860438 0.39149057765701079 0 0.26442798559971697 0.37618170985839988 0 0.26705146271575181 0.39787470585822232 0 0.2465826641860438 0.39149057765701079 0 0.24019024828624891 0.41384027048791411 0 0.26705146271575181 0.39787470585822232 0 0.27993773909185388 0.41080344598091978 0 0.26705146271575181 0.39787470585822232 0 0.28132108051219029 0.39016290807710252 0 0.26442798559971697 0.37618170985839988 0 0.26705146271575181 0.39787470585822232 0 0.28132108051219029 0.39016290807710252 0 0.26442798559971697 0.37618170985839988 0 0.28132108051219029 0.39016290807710252 0 0.29256104525274079 0.37386114888800009 0 0.28132108051219029 0.39016290807710252 0 0.29642245474742118 0.39847581870698839 0 0.29256104525274079 0.37386114888800009 0 0.27993773909185388 0.41080344598091978 0 0.28132108051219029 0.39016290807710252 0 0.29642245474742118 0.39847581870698839 0 0.29642245474742118 0.39847581870698839 0 0.31307494515143403 0.388929616820056 0 0.31346367203539771 0.41247098163244611 0 0.29642245474742118 0.39847581870698839 0 0.31307494515143403 0.388929616820056 0 0.29256104525274079 0.37386114888800009 0 0.31307494515143403 0.388929616820056 0 0.31417807142600501 0.36978673733477962 0 0.29256104525274079 0.37386114888800009 0 0.31307494515143403 0.388929616820056 0 0.32841941774452971 0.38293758833518282 0 0.33207676215400839 0.39876660475658099 0 0.31307494515143403 0.388929616820056 0 0.32841941774452971 0.38293758833518282 0 0.31417807142600501 0.36978673733477962 0 0.32841941774452971 0.38293758833518282 0 0.35122444699245953 0.38201405080828088 0 0.33505860110135988 0.36994816169833789 0 0.32841941774452971 0.38293758833518282 0 0.33207676215400839 0.39876660475658099 0 0.35122444699245953 0.38201405080828088 0 0.31307494515143403 0.388929616820056 0 0.33207676215400839 0.39876660475658099 0 0.31346367203539771 0.41247098163244611 0 0.31346367203539771 0.41247098163244611 0 0.32473503350705851 0.42820033293430032 0 0.33203194357976201 0.41540956575624682 0 0.33207676215400839 0.39876660475658099 0 0.31346367203539771 0.41247098163244611 0 0.33203194357976201 0.41540956575624682 0 0.3227612430631378 0.44392487422197202 0 0.30552164477846622 0.43352575280771061 0 0.32473503350705851 0.42820033293430032 0 0.30552164477846622 0.43352575280771061 0 0.31346367203539771 0.41247098163244611 0 0.32473503350705851 0.42820033293430032 0 0.3227612430631378 0.44392487422197202 0 0.32473503350705851 0.42820033293430032 0 0.33344038861615338 0.43646466766072112 0 0.32473503350705851 0.42820033293430032 0 0.34080310157283039 0.42757834301789333 0 0.33344038861615338 0.43646466766072112 0 0.34257463656701659 0.44558499118687461 0 0.34080310157283039 0.42757834301789333 0 0.33344038861615338 0.43646466766072112 0 0.32473503350705851 0.42820033293430032 0 0.34080310157283039 0.42757834301789333 0 0.33203194357976201 0.41540956575624682 0 0.34080310157283039 0.42757834301789333 0 0.33203194357976201 0.41540956575624682 0 0.35082717781903222 0.41157072800001843 0 0.33207676215400839 0.39876660475658099 0 0.33203194357976201 0.41540956575624682 0 0.35082717781903222 0.41157072800001843 0 0.34080310157283039 0.42757834301789333 0 0.35082717781903222 0.41157072800001843 0 0.35484261765666131 0.43328101083942422 0 0.34257463656701659 0.44558499118687461 0 0.34080310157283039 0.42757834301789333 0 0.35484261765666131 0.43328101083942422 0 0.35082717781903222 0.41157072800001843 0 0.35484261765666131 0.43328101083942422 0 0.37228618046380763 0.4257445769310389 0 0.36143216700608077 0.45045313570551532 0 0.35484261765666131 0.43328101083942422 0 0.37228618046380763 0.4257445769310389 0 0.35082717781903222 0.41157072800001843 0 0.37228618046380763 0.4257445769310389 0 0.36941155775392392 0.39991819380793292 0 0.36941155775392392 0.39991819380793292 0 0.35122444699245953 0.38201405080828088 0 0.37790201188100231 0.37895028113332768 0 0.35082717781903222 0.41157072800001843 0 0.36941155775392392 0.39991819380793292 0 0.35122444699245953 0.38201405080828088 0 0.33207676215400839 0.39876660475658099 0 0.35082717781903222 0.41157072800001843 0 0.35122444699245953 0.38201405080828088 0 0.34655355451408132 0.35779823729985771 0 0.36253696311018291 0.35997636431757463 0 0.35562436408010961 0.33518178394679787 0 0.34655355451408132 0.35779823729985771 0 0.35562436408010961 0.33518178394679787 0 0.33589707545452718 0.34690684826832591 0 0.35122444699245953 0.38201405080828088 0 0.34655355451408132 0.35779823729985771 0 0.36253696311018291 0.35997636431757463 0 0.35122444699245953 0.38201405080828088 0 0.34655355451408132 0.35779823729985771 0 0.33505860110135988 0.36994816169833789 0 0.35122444699245953 0.38201405080828088 0 0.36253696311018291 0.35997636431757463 0 0.37790201188100231 0.37895028113332768 0 0.36253696311018291 0.35997636431757463 0 0.37692614338843361 0.35668425330612358 0 0.37790201188100231 0.37895028113332768 0 0.36253696311018291 0.35997636431757463 0 0.36859037937660938 0.34471274598668389 0 0.37692614338843361 0.35668425330612358 0 0.36253696311018291 0.35997636431757463 0 0.36859037937660938 0.34471274598668389 0 0.35562436408010961 0.33518178394679787 0 0.36859037937660938 0.34471274598668389 0 0.37333342264148162 0.31905074169549469 0 0.35562436408010961 0.33518178394679787 0 0.36859037937660938 0.34471274598668389 0 0.37333342264148162 0.31905074169549469 0 0.38297826173861838 0.3396108722628422 0 0.37333342264148162 0.31905074169549469 0 0.36237966200104937 0.31261525078399149 0 0.35562436408010961 0.33518178394679787 0 0.35562436408010961 0.33518178394679787 0 0.33969740955771321 0.32728398364798872 0 0.35009208018828641 0.31192499945291507 0 0.36237966200104937 0.31261525078399149 0 0.35562436408010961 0.33518178394679787 0 0.35009208018828641 0.31192499945291507 0 0.35562436408010961 0.33518178394679787 0 0.33969740955771321 0.32728398364798872 0 0.33589707545452718 0.34690684826832591 0 0.33969740955771321 0.32728398364798872 0 0.32346762986627309 0.33118009911066082 0 0.33589707545452718 0.34690684826832591 0 0.33969740955771321 0.32728398364798872 0 0.33166573112871173 0.30684392146629219 0 0.35009208018828641 0.31192499945291507 0 0.33969740955771321 0.32728398364798872 0 0.32346762986627309 0.33118009911066082 0 0.33166573112871173 0.30684392146629219 0 0.31014577931849258 0.32062490368508828 0 0.33166573112871173 0.30684392146629219 0 0.32346762986627309 0.33118009911066082 0 0.31014577931849258 0.32062490368508828 0 0.33166573112871173 0.30684392146629219 0 0.32346762986627309 0.33118009911066082 0 0.31709569931022191 0.34887220528311202 0 0.30353330455699512 0.33250743797616328 0 0.32346762986627309 0.33118009911066082 0 0.31709569931022191 0.34887220528311202 0 0.33589707545452718 0.34690684826832591 0 0.31709569931022191 0.34887220528311202 0 0.33589707545452718 0.34690684826832591 0 0.31709569931022191 0.34887220528311202 0 0.32760574523347402 0.35850207914164378 0 0.33589707545452718 0.34690684826832591 0 0.31709569931022191 0.34887220528311202 0 0.32760574523347402 0.35850207914164378 0 0.31417807142600501 0.36978673733477962 0 0.34655355451408132 0.35779823729985771 0 0.32760574523347402 0.35850207914164378 0 0.33589707545452718 0.34690684826832591 0 0.34655355451408132 0.35779823729985771 0 0.32760574523347402 0.35850207914164378 0 0.33505860110135988 0.36994816169833789 0 0.32841941774452971 0.38293758833518282 0 0.33505860110135988 0.36994816169833789 0 0.31417807142600501 0.36978673733477962 0 0.32760574523347402 0.35850207914164378 0 0.33505860110135988 0.36994816169833789 0 0.31417807142600501 0.36978673733477962 0 0.31417807142600501 0.36978673733477962 0 0.29829432316591648 0.35083756229789892 0 0.31417807142600501 0.36978673733477962 0 0.29829432316591648 0.35083756229789892 0 0.29256104525274079 0.37386114888800009 0 0.31709569931022191 0.34887220528311202 0 0.29829432316591648 0.35083756229789892 0 0.31709569931022191 0.34887220528311202 0 0.29829432316591648 0.35083756229789892 0 0.30353330455699512 0.33250743797616328 0 0.31709569931022191 0.34887220528311202 0 0.31417807142600501 0.36978673733477962 0 0.29829432316591648 0.35083756229789892 0 0.29829432316591648 0.35083756229789892 0 0.27443851580417061 0.35333127222540223 0 0.29829432316591648 0.35083756229789892 0 0.29256104525274079 0.37386114888800009 0 0.27443851580417061 0.35333127222540223 0 0.29829432316591648 0.35083756229789892 0 0.27443851580417061 0.35333127222540223 0 0.27997959092841052 0.32898824428811391 0 0.26442798559971697 0.37618170985839988 0 0.29256104525274079 0.37386114888800009 0 0.27443851580417061 0.35333127222540223 0 0.27443851580417061 0.35333127222540223 0 0.25058270844242481 0.35582498215290642 0 0.27443851580417061 0.35333127222540223 0 0.25058270844242481 0.35582498215290642 0 0.26073316656297751 0.3350234417754866 0 0.23639772929814989 0.37453979668752158 0 0.26442798559971697 0.37618170985839988 0 0.25058270844242481 0.35582498215290642 0 0.26442798559971697 0.37618170985839988 0 0.27443851580417061 0.35333127222540223 0 0.25058270844242481 0.35582498215290642 0 0.24070235444249319 0.32908650917810622 0 0.26073316656297751 0.3350234417754866 0 0.26166485869090539 0.30713892627832817 0 0.24070235444249319 0.32908650917810622 0 0.25058270844242481 0.35582498215290642 0 0.26073316656297751 0.3350234417754866 0 0.27443851580417061 0.35333127222540223 0 0.26073316656297751 0.3350234417754866 0 0.27997959092841052 0.32898824428811391 0 0.26073316656297751 0.3350234417754866 0 0.27997959092841052 0.32898824428811391 0 0.26166485869090539 0.30713892627832817 0 0.27997959092841052 0.32898824428811391 0 0.29215695620278781 0.31383661091463683 0 0.26166485869090539 0.30713892627832817 0 0.27997959092841052 0.32898824428811391 0 0.26166485869090539 0.30713892627832817 0 0.27997959092841052 0.32898824428811391 0 0.29215695620278781 0.31383661091463683 0 0.30353330455699512 0.33250743797616328 0 0.29829432316591648 0.35083756229789892 0 0.27997959092841052 0.32898824428811391 0 0.30353330455699512 0.33250743797616328 0 0.29829432316591648 0.35083756229789892 0 0.27997959092841052 0.32898824428811391 0 0.32346762986627309 0.33118009911066082 0 0.30353330455699512 0.33250743797616328 0 0.31014577931849258 0.32062490368508828 0 0.29215695620278781 0.31383661091463683 0 0.30353330455699512 0.33250743797616328 0 0.31014577931849258 0.32062490368508828 0 0.29215695620278781 0.31383661091463683 0 0.31014577931849258 0.32062490368508828 0 0.30860339331588049 0.2941832189735939 0 0.30860339331588049 0.2941832189735939 0 0.28838855518022238 0.2921997904550902 0 0.29588669024166048 0.27225339795478237 0 0.28838855518022238 0.2921997904550902 0 0.27576252834212173 0.28073278609000968 0 0.28445016627426101 0.27622645995481998 0 0.29215695620278781 0.31383661091463683 0 0.30860339331588049 0.2941832189735939 0 0.28838855518022238 0.2921997904550902 0 0.29215695620278781 0.31383661091463683 0 0.28838855518022238 0.2921997904550902 0 0.26166485869090539 0.30713892627832817 0 0.26030897449448481 0.28836473067775359 0 0.26166485869090539 0.30713892627832817 0 0.27576252834212173 0.28073278609000968 0 0.28838855518022238 0.2921997904550902 0 0.26166485869090539 0.30713892627832817 0 0.27576252834212173 0.28073278609000968 0 0.2433501264534004 0.28528960826854249 0 0.26166485869090539 0.30713892627832817 0 0.2433501264534004 0.28528960826854249 0 0.26030897449448481 0.28836473067775359 0 0.26071280896537702 0.27408179763909629 0 0.2433501264534004 0.28528960826854249 0 0.26030897449448481 0.28836473067775359 0 0.26166485869090539 0.30713892627832817 0 0.26450171583753529 0.25620812028824202 0 0.25675448368687909 0.26214945467590839 0 0.26961450207623883 0.2637804078754622 0 0.26450171583753529 0.25620812028824202 0 0.25512603831525271 0.25269991764641409 0 0.25675448368687909 0.26214945467590839 0 0.26450171583753529 0.25620812028824202 0 0.25512603831525271 0.25269991764641409 0 0.26677012129226879 0.24853012077798581 0 0.24481430044314709 0.25516863214587021 0 0.25512603831525271 0.25269991764641409 0 0.25675448368687909 0.26214945467590839 0 0.24296828946706911 0.26741023230351141 0 0.25675448368687909 0.26214945467590839 0 0.26071280896537702 0.27408179763909629 0 0.26030897449448481 0.28836473067775359 0 0.26071280896537702 0.27408179763909629 0 0.27576252834212173 0.28073278609000968 0 0.25675448368687909 0.26214945467590839 0 0.26071280896537702 0.27408179763909629 0 0.26961450207623883 0.2637804078754622 0 0.26071280896537702 0.27408179763909629 0 0.27561389003773068 0.27063101805128292 0 0.26961450207623883 0.2637804078754622 0 0.26071280896537702 0.27408179763909629 0 0.27576252834212173 0.28073278609000968 0 0.27561389003773068 0.27063101805128292 0 0.27576252834212173 0.28073278609000968 0 0.27561389003773068 0.27063101805128292 0 0.28445016627426101 0.27622645995481998 0 0.27561389003773068 0.27063101805128292 0 0.27734267444283539 0.26169730864998941 0 0.2833607335760665 0.26515129390516778 0 0.27561389003773068 0.27063101805128292 0 0.2833607335760665 0.26515129390516778 0 0.28445016627426101 0.27622645995481998 0 0.27561389003773068 0.27063101805128292 0 0.27734267444283539 0.26169730864998941 0 0.26961450207623883 0.2637804078754622 0 0.27734267444283539 0.26169730864998941 0 0.27393285555007241 0.25210679209901049 0 0.28873450965048891 0.25975596681429841 0 0.27734267444283539 0.26169730864998941 0 0.26961450207623883 0.2637804078754622 0 0.27086760071166388 0.25746536851346408 0 0.26450171583753529 0.25620812028824202 0 0.26961450207623883 0.2637804078754622 0 0.27086760071166388 0.25746536851346408 0 0.27393285555007241 0.25210679209901049 0 0.2779349924450536 0.24982821056385049 0 0.26677012129226879 0.24853012077798581 0 0.26450171583753529 0.25620812028824202 0 0.26894625565163738 0.25353421365461631 0 0.26677012129226879 0.24853012077798581 0 0.26450171583753529 0.25620812028824202 0 0.26894625565163738 0.25353421365461631 0 0.27086760071166388 0.25746536851346408 0 0.26894625565163738 0.25353421365461631 0 0.27086760071166388 0.25746536851346408 0 0.27393285555007241 0.25210679209901049 0 0.26894625565163738 0.25353421365461631 0 0.27393285555007241 0.25210679209901049 0 0.26677012129226879 0.24853012077798581 0 0.27734267444283539 0.26169730864998941 0 0.27086760071166388 0.25746536851346408 0 0.27393285555007241 0.25210679209901049 0 0.27393285555007241 0.25210679209901049 0 0.28284527904782331 0.25050997356174443 0 0.2779349924450536 0.24982821056385049 0 0.27393285555007241 0.25210679209901049 0 0.28873450965048891 0.25975596681429841 0 0.27393285555007241 0.25210679209901049 0 0.28284527904782331 0.25050997356174443 0 0.28873450965048891 0.25975596681429841 0 0.28284527904782331 0.25050997356174443 0 0.28873450965048891 0.25975596681429841 0 0.28992534561491962 0.2465990335553159 0 0.27734267444283539 0.26169730864998941 0 0.2833607335760665 0.26515129390516778 0 0.28873450965048891 0.25975596681429841 0 0.2833607335760665 0.26515129390516778 0 0.28873450965048891 0.25975596681429841 0 0.28873450965048891 0.25975596681429841 0 0.28992534561491962 0.2465990335553159 0 0.29583784293604187 0.2460078425053967 0 0.28838855518022238 0.2921997904550902 0 0.28445016627426101 0.27622645995481998 0 0.29588669024166048 0.27225339795478237 0 0.2833607335760665 0.26515129390516778 0 0.28445016627426101 0.27622645995481998 0 0.29588669024166048 0.27225339795478237 0 0.2833607335760665 0.26515129390516778 0 0.28873450965048891 0.25975596681429841 0 0.29588669024166048 0.27225339795478237 0 0.28873450965048891 0.25975596681429841 0 0.29588669024166048 0.27225339795478237 0 0.31021823407997001 0.27085829095869812 0 0.30860339331588049 0.2941832189735939 0 0.29588669024166048 0.27225339795478237 0 0.31021823407997001 0.27085829095869812 0 0.28873450965048891 0.25975596681429841 0 0.30803568788407731 0.24037738304617029 0 0.28873450965048891 0.25975596681429841 0 0.31021823407997001 0.27085829095869812 0 0.30803568788407731 0.24037738304617029 0 0.28873450965048891 0.25975596681429841 0 0.31021823407997001 0.27085829095869812 0 0.31021823407997001 0.27085829095869812 0 0.32807607323130622 0.26124850973904479 0 0.30803568788407731 0.24037738304617029 0 0.32807607323130622 0.26124850973904479 0 0.34864852682061509 0.26642936812908141 0 0.33799269646913971 0.24371408370356129 0 0.34864852682061509 0.26642936812908141 0 0.33799269646913971 0.24371408370356129 0 0.33170195850945011 0.28196061510309989 0 0.34682219993003949 0.28133371633405829 0 0.34864852682061509 0.26642936812908141 0 0.32807607323130622 0.26124850973904479 0 0.33170195850945011 0.28196061510309989 0 0.34864852682061509 0.26642936812908141 0 0.31021823407997001 0.27085829095869812 0 0.32807607323130622 0.26124850973904479 0 0.33170195850945011 0.28196061510309989 0 0.31021823407997001 0.27085829095869812 0 0.33170195850945011 0.28196061510309989 0 0.30860339331588049 0.2941832189735939 0 0.33166573112871173 0.30684392146629219 0 0.33170195850945011 0.28196061510309989 0 0.30860339331588049 0.2941832189735939 0 0.31021823407997001 0.27085829095869812 0 0.33170195850945011 0.28196061510309989 0 0.31014577931849258 0.32062490368508828 0 0.30860339331588049 0.2941832189735939 0 0.33166573112871173 0.30684392146629219 0 0.33166573112871173 0.30684392146629219 0 0.3531856829389321 0.29306293924749788 0 0.33170195850945011 0.28196061510309989 0 0.3531856829389321 0.29306293924749788 0 0.33166573112871173 0.30684392146629219 0 0.33170195850945011 0.28196061510309989 0 0.3531856829389321 0.29306293924749788 0 0.33170195850945011 0.28196061510309989 0 0.34682219993003949 0.28133371633405829 0 0.3531856829389321 0.29306293924749788 0 0.3531856829389321 0.29306293924749788 0 0.35930435717209019 0.28914465255460159 0 0.36368858354433892 0.29849061112815001 0 0.3531856829389321 0.29306293924749788 0 0.36368858354433892 0.29849061112815001 0 0.3531856829389321 0.29306293924749788 0 0.35930435717209019 0.28914465255460159 0 0.34682219993003949 0.28133371633405829 0 0.3531856829389321 0.29306293924749788 0 0.35930435717209019 0.28914465255460159 0 0.33166573112871173 0.30684392146629219 0 0.3531856829389321 0.29306293924749788 0 0.35009208018828641 0.31192499945291507 0 0.3531856829389321 0.29306293924749788 0 0.35009208018828641 0.31192499945291507 0 0.36368858354433892 0.29849061112815001 0 0.36237966200104937 0.31261525078399149 0 0.35009208018828641 0.31192499945291507 0 0.36368858354433892 0.29849061112815001 0 0.37333342264148162 0.31905074169549469 0 0.36237966200104937 0.31261525078399149 0 0.36368858354433892 0.29849061112815001 0 0.37333342264148162 0.31905074169549469 0 0.36824902641172108 0.30084734937072488 0 0.3798325739066285 0.30742370290028598 0 0.37333342264148162 0.31905074169549469 0 0.36368858354433892 0.29849061112815001 0 0.36824902641172108 0.30084734937072488 0 0.37333342264148162 0.31905074169549469 0 0.36368858354433892 0.29849061112815001 0 0.36368858354433892 0.29849061112815001 0 0.36824902641172108 0.30084734937072488 0 0.36368858354433892 0.29849061112815001 0 0.36824902641172108 0.30084734937072488 0 0.37044063525610887 0.29140575947347519 0 0.35930435717209019 0.28914465255460159 0 0.37044063525610887 0.29140575947347519 0 0.37925980669436771 0.27636554889024972 0 0.35930435717209019 0.28914465255460159 0 0.37925980669436771 0.27636554889024972 0 0.35930435717209019 0.28914465255460159 0 0.36368858354433892 0.29849061112815001 0 0.37044063525610887 0.29140575947347519 0 0.35930435717209019 0.28914465255460159 0 0.36368858354433892 0.29849061112815001 0 0.36824902641172108 0.30084734937072488 0 0.37044063525610887 0.29140575947347519 0 0.38170140245802991 0.29218063542364292 0 0.36951061432609211 0.25098971491638888 0 0.34864852682061509 0.26642936812908141 0 0.33799269646913971 0.24371408370356129 0 0.35930435717209019 0.28914465255460159 0 0.36329981480292223 0.27341337904278767 0 0.37925980669436771 0.27636554889024972 0 0.36329981480292223 0.27341337904278767 0 0.36951061432609211 0.25098971491638888 0 0.37925980669436771 0.27636554889024972 0 0.36329981480292223 0.27341337904278767 0 0.36951061432609211 0.25098971491638888 0 0.34864852682061509 0.26642936812908141 0 0.34682219993003949 0.28133371633405829 0 0.35930435717209019 0.28914465255460159 0 0.34864852682061509 0.26642936812908141 0 0.35930435717209019 0.28914465255460159 0 0.36329981480292223 0.27341337904278767 0 0.34864852682061509 0.26642936812908141 0 0.35930435717209019 0.28914465255460159 0 0.34864852682061509 0.26642936812908141 0 0.39921525621664639 0.26358644522589969 0 0.37925980669436771 0.27636554889024972 0 0.39698083459531791 0.2843697791580525 0 0.39921525621664639 0.26358644522589969 0 0.39698083459531791 0.2843697791580525 0 0.41285427238029698 0.27162798825599138 0 0.39921525621664639 0.26358644522589969 0 0.406054156101611 0.23776094270494191 0 0.38914290337293911 0.24913508040708501 0 0.39921525621664639 0.26358644522589969 0 0.37925980669436771 0.27636554889024972 0 0.38914290337293911 0.24913508040708501 0 0.36951061432609211 0.25098971491638888 0 0.37925980669436771 0.27636554889024972 0 0.38914290337293911 0.24913508040708501 0 0.39921525621664639 0.26358644522589969 0 0.37925980669436771 0.27636554889024972 0 0.37044063525610887 0.29140575947347519 0 0.37925980669436771 0.27636554889024972 0 0.38170140245802991 0.29218063542364292 0 0.38170140245802991 0.29218063542364292 0 0.39266171540729328 0.30384039065203622 0 0.39698083459531791 0.2843697791580525 0 0.37925980669436771 0.27636554889024972 0 0.38170140245802991 0.29218063542364292 0 0.39698083459531791 0.2843697791580525 0 0.3798325739066285 0.30742370290028598 0 0.39266171540729328 0.30384039065203622 0 0.39027702277564352 0.32125564092184672 0 0.36824902641172108 0.30084734937072488 0 0.38170140245802991 0.29218063542364292 0 0.3798325739066285 0.30742370290028598 0 0.38170140245802991 0.29218063542364292 0 0.3798325739066285 0.30742370290028598 0 0.39266171540729328 0.30384039065203622 0 0.39266171540729328 0.30384039065203622 0 0.40776337360690151 0.30220279032374181 0 0.4065123060858693 0.32099597477777031 0 0.39266171540729328 0.30384039065203622 0 0.39698083459531791 0.2843697791580525 0 0.40776337360690151 0.30220279032374181 0 0.39698083459531791 0.2843697791580525 0 0.41090131524913148 0.28734024890368198 0 0.40776337360690151 0.30220279032374181 0 0.41090131524913148 0.28734024890368198 0 0.42293413545929198 0.3029707747188119 0 0.41090131524913148 0.28734024890368198 0 0.40776337360690151 0.30220279032374181 0 0.42293413545929198 0.3029707747188119 0 0.40776337360690151 0.30220279032374181 0 0.42293413545929198 0.3029707747188119 0 0.42073603505891821 0.31673540114057619 0 0.42293413545929198 0.3029707747188119 0 0.43496695566945232 0.31860130053394181 0 0.42293413545929198 0.3029707747188119 0 0.44222212271832279 0.30481610529212388 0 0.43496695566945232 0.31860130053394181 0 0.42293413545929198 0.3029707747188119 0 0.43265695227948497 0.28918042796233212 0 0.44222212271832279 0.30481610529212388 0 0.41090131524913148 0.28734024890368198 0 0.42293413545929198 0.3029707747188119 0 0.43265695227948497 0.28918042796233212 0 0.41090131524913148 0.28734024890368198 0 0.43265695227948497 0.28918042796233212 0 0.42961605046856571 0.27176675260414362 0 0.43265695227948497 0.28918042796233212 0 0.42961605046856571 0.27176675260414362 0 0.44084584692294732 0.28111654091406568 0 0.39698083459531791 0.2843697791580525 0 0.41090131524913148 0.28734024890368198 0 0.41285427238029698 0.27162798825599138 0 0.41090131524913148 0.28734024890368198 0 0.42961605046856571 0.27176675260414362 0 0.41285427238029698 0.27162798825599138 0 0.42961605046856571 0.27176675260414362 0 0.41285427238029698 0.27162798825599138 0 0.41917070573892518 0.25080734156154982 0 0.39921525621664639 0.26358644522589969 0 0.41917070573892518 0.25080734156154982 0 0.39921525621664639 0.26358644522589969 0 0.41917070573892518 0.25080734156154982 0 0.406054156101611 0.23776094270494191 0 0.39921525621664639 0.26358644522589969 0 0.41285427238029698 0.27162798825599138 0 0.41917070573892518 0.25080734156154982 0 0.42961605046856571 0.27176675260414362 0 0.41917070573892518 0.25080734156154982 0 0.43810076971185841 0.2507607064802867 0 0.43810076971185841 0.2507607064802867 0 0.45163309517654471 0.27248807303948069 0 0.46372918670737279 0.25099853693779572 0 0.42961605046856571 0.27176675260414362 0 0.43810076971185841 0.2507607064802867 0 0.45163309517654471 0.27248807303948069 0 0.43810076971185841 0.2507607064802867 0 0.45163309517654471 0.27248807303948069 0 0.42961605046856571 0.27176675260414362 0 0.44084584692294732 0.28111654091406568 0 0.45163309517654471 0.27248807303948069 0 0.45163309517654471 0.27248807303948069 0 0.47491881276630049 0.27349257613726929 0 0.46516542064123112 0.29421543959867469 0 0.45163309517654471 0.27248807303948069 0 0.46372918670737279 0.25099853693779572 0 0.47491881276630049 0.27349257613726929 0 0.46372918670737279 0.25099853693779572 0 0.48409980502374422 0.25739444921941468 0 0.47491881276630049 0.27349257613726929 0 0.48409980502374422 0.25739444921941468 0 0.47491881276630049 0.27349257613726929 0 0.5 0.27460887474904111 0 0.47491881276630049 0.27349257613726929 0 0.5 0.27460887474904111 0 0.4846300842968238 0.28967261207393558 0 0.48409980502374422 0.25739444921941468 0 0.5 0.27460887474904111 0 0.5 0.24690516862483161 0 0.49999999999999939 0.30231258087325041 0 0.4833484702945583 0.30456966651886441 0 0.49000404478394288 0.31596783582960453 0 0.49999999999999939 0.30231258087325041 0 0.4846300842968238 0.28967261207393558 0 0.4833484702945583 0.30456966651886441 0 0.4833484702945583 0.30456966651886441 0 0.48195527877256927 0.31308350667245333 0 0.49000404478394288 0.31596783582960453 0 0.49999999999999939 0.30231258087325041 0 0.49000404478394288 0.31596783582960453 0 0.5 0.27460887474904111 0 0.49999999999999939 0.30231258087325041 0 0.4846300842968238 0.28967261207393558 0 0.47491881276630049 0.27349257613726929 0 0.4846300842968238 0.28967261207393558 0 0.46516542064123112 0.29421543959867469 0 0.4846300842968238 0.28967261207393558 0 0.4833484702945583 0.30456966651886441 0 0.46516542064123112 0.29421543959867469 0 0.46516542064123112 0.29421543959867469 0 0.47869774610591798 0.31594280615786852 0 0.4833484702945583 0.30456966651886441 0 0.47833599327278298 0.31216602406526822 0 0.46516542064123112 0.29421543959867469 0 0.47833599327278298 0.31216602406526822 0 0.46516542064123112 0.29421543959867469 0 0.47869774610591798 0.31594280615786852 0 0.46635141291264698 0.30582112308605919 0 0.46516542064123112 0.29421543959867469 0 0.47869774610591798 0.31594280615786852 0 0.4833484702945583 0.30456966651886441 0 0.47833599327278298 0.31216602406526822 0 0.48195527877256927 0.31308350667245333 0 0.46635141291264698 0.30582112308605919 0 0.47161641735365251 0.31433470448805861 0 0.47869774610591798 0.31594280615786852 0 0.46635141291264698 0.30582112308605919 0 0.46822500734503542 0.31556197204107189 0 0.47161641735365251 0.31433470448805861 0 0.46635141291264698 0.30582112308605919 0 0.46023508236945909 0.31408995165500547 0 0.46822500734503542 0.31556197204107189 0 0.46635141291264698 0.30582112308605919 0 0.45484736738224668 0.30317305857419002 0 0.46516542064123112 0.29421543959867469 0 0.46635141291264698 0.30582112308605919 0 0.45484736738224668 0.30317305857419002 0 0.46023508236945909 0.31408995165500547 0 0.45484736738224668 0.30317305857419002 0 0.44755714563449073 0.31642573490127862 0 0.46023508236945909 0.31408995165500547 0 0.45163309517654471 0.27248807303948069 0 0.46516542064123112 0.29421543959867469 0 0.44947728976719381 0.29103091005030618 0 0.45484736738224668 0.30317305857419002 0 0.46516542064123112 0.29421543959867469 0 0.44947728976719381 0.29103091005030618 0 0.45163309517654471 0.27248807303948069 0 0.46516542064123112 0.29421543959867469 0 0.44084584692294732 0.28111654091406568 0 0.45163309517654471 0.27248807303948069 0 0.44947728976719381 0.29103091005030618 0 0.43265695227948497 0.28918042796233212 0 0.44084584692294732 0.28111654091406568 0 0.44947728976719381 0.29103091005030618 0 0.43265695227948497 0.28918042796233212 0 0.44947728976719381 0.29103091005030618 0 0.44222212271832279 0.30481610529212388 0 0.45484736738224668 0.30317305857419002 0 0.44222212271832279 0.30481610529212388 0 0.44755714563449073 0.31642573490127862 0 0.44947728976719381 0.29103091005030618 0 0.44222212271832279 0.30481610529212388 0 0.45484736738224668 0.30317305857419002 0 0.44947728976719381 0.29103091005030618 0 0.44222212271832279 0.30481610529212388 0 0.44222212271832279 0.30481610529212388 0 0.43496695566945232 0.31860130053394181 0 0.44755714563449073 0.31642573490127862 0 0.44857851538412391 0.33628259484304313 0 0.45752545977748987 0.32588741097382418 0 0.44857851538412391 0.33628259484304313 0 0.43496695566945232 0.31860130053394181 0 0.49999999999999939 0.30231258087325041 0 0.49000404478394288 0.31596783582960453 0 0.49999999999999989 0.36625809529669362 0 0.44755714563449073 0.31642573490127862 0 0.44857851538412391 0.33628259484304313 0 0.43496695566945232 0.31860130053394181 0 0.44222212271832279 0.30481610529212388 0 0.44755714563449073 0.31642573490127862 0 0.43496695566945232 0.31860130053394181 0 0.44857851538412391 0.33628259484304313 0 0.43744823437965058 0.34125827118632079 0 0.43496695566945232 0.31860130053394181 0 0.44857851538412391 0.33628259484304313 0 0.44654950223321432 0.35358173161563011 0 0.43744823437965058 0.34125827118632079 0 0.44857851538412391 0.33628259484304313 0 0.46317303046258868 0.33393384216660049 0 0.46219007509879678 0.35396388915214338 0 0.46317303046258868 0.33393384216660049 0 0.48000808956788649 0.32962309078595858 0 0.46219007509879678 0.35396388915214338 0 0.44857851538412391 0.33628259484304313 0 0.46317303046258868 0.33393384216660049 0 0.45752545977748987 0.32588741097382418 0 0.44755714563449073 0.31642573490127862 0 0.46023508236945909 0.31408995165500547 0 0.45752545977748987 0.32588741097382418 0 0.46317303046258868 0.33393384216660049 0 0.45752545977748987 0.32588741097382418 0 0.46756301248464538 0.32391222507803291 0 0.46023508236945909 0.31408995165500547 0 0.45752545977748987 0.32588741097382418 0 0.46756301248464538 0.32391222507803291 0 0.46023508236945909 0.31408995165500547 0 0.46756301248464538 0.32391222507803291 0 0.46822500734503542 0.31556197204107189 0 0.48000808956788649 0.32962309078595858 0 0.49000404478394288 0.31596783582960453 0 0.48200531990997741 0.35047463111924992 0 0.46756301248464538 0.32391222507803291 0 0.46822500734503542 0.31556197204107189 0 0.47319150305100938 0.32001291666723453 0 0.46822500734503542 0.31556197204107189 0 0.47161641735365251 0.31433470448805861 0 0.47319150305100938 0.32001291666723453 0 0.47161641735365251 0.31433470448805861 0 0.47319150305100938 0.32001291666723453 0 0.47869774610591798 0.31594280615786852 0 0.47869774610591798 0.31594280615786852 0 0.48195527877256927 0.31308350667245333 0 0.49000404478394288 0.31596783582960453 0 0.47833599327278298 0.31216602406526822 0 0.47869774610591798 0.31594280615786852 0 0.47833599327278298 0.31216602406526822 0 0.47869774610591798 0.31594280615786852 0 0.48195527877256927 0.31308350667245333 0 0.47869774610591798 0.31594280615786852 0 0.48000808956788649 0.32962309078595858 0 0.49000404478394288 0.31596783582960453 0 0.47319150305100938 0.32001291666723453 0 0.47869774610591798 0.31594280615786852 0 0.48000808956788649 0.32962309078595858 0 0.47869774610591798 0.31594280615786852 0 0.48000808956788649 0.32962309078595858 0 0.46756301248464538 0.32391222507803291 0 0.47319150305100938 0.32001291666723453 0 0.48000808956788649 0.32962309078595858 0 0.48000808956788649 0.32962309078595858 0 0.48200531990997741 0.35047463111924992 0 0.46317303046258868 0.33393384216660049 0 0.46756301248464538 0.32391222507803291 0 0.48000808956788649 0.32962309078595858 0 0.48000808956788649 0.32962309078595858 0 0.46219007509879678 0.35396388915214338 0 0.48000808956788649 0.32962309078595858 0 0.49000404478394288 0.31596783582960453 0 0.49000404478394288 0.31596783582960453 0 0.49999999999999989 0.36625809529669362 0 0.48200531990997741 0.35047463111924992 0 0.49999999999999989 0.36625809529669362 0 0.48200531990997741 0.35047463111924992 0 0.48400255025206912 0.37132617145254099 0 0.49999999999999989 0.36625809529669362 0 0.49246742632698282 0.3744799583246522 0 0.48400255025206912 0.37132617145254099 0 0.48200531990997741 0.35047463111924992 0 0.48400255025206912 0.37132617145254099 0 0.46219007509879678 0.35396388915214338 0 0.48000808956788649 0.32962309078595858 0 0.48200531990997741 0.35047463111924992 0 0.46219007509879678 0.35396388915214338 0 0.48400255025206912 0.37132617145254099 0 0.46219007509879678 0.35396388915214338 0 0.48059492642628537 0.37787162638859439 0 0.46219007509879678 0.35396388915214338 0 0.47240353587193518 0.38046344998477771 0 0.48059492642628537 0.37787162638859439 0 0.46219007509879678 0.35396388915214338 0 0.48059492642628537 0.37787162638859439 0 0.48200531990997741 0.35047463111924992 0 0.48400255025206912 0.37132617145254099 0 0.46351266074724012 0.37405299690465782 0 0.46219007509879678 0.35396388915214338 0 0.47240353587193518 0.38046344998477771 0 0.46351266074724012 0.37405299690465782 0 0.45717856940319879 0.3732490152987008 0 0.46219007509879678 0.35396388915214338 0 0.45385291071246681 0.36535310637527763 0 0.45717856940319879 0.3732490152987008 0 0.46219007509879678 0.35396388915214338 0 0.45385291071246681 0.36535310637527763 0 0.46219007509879678 0.35396388915214338 0 0.45385291071246681 0.36535310637527763 0 0.45717856940319879 0.3732490152987008 0 0.4486496000466374 0.37243534142724732 0 0.44857851538412391 0.33628259484304313 0 0.46219007509879678 0.35396388915214338 0 0.45385291071246681 0.36535310637527763 0 0.46219007509879678 0.35396388915214338 0 0.44654950223321432 0.35358173161563011 0 0.44654950223321432 0.35358173161563011 0 0.43307891485419953 0.35851448411718279 0 0.43744823437965058 0.34125827118632079 0 0.44857851538412391 0.33628259484304313 0 0.46219007509879678 0.35396388915214338 0 0.44654950223321432 0.35358173161563011 0 0.44654950223321432 0.35358173161563011 0 0.44365026638162619 0.36366296035924589 0 0.43307891485419953 0.35851448411718279 0 0.45385291071246681 0.36535310637527763 0 0.44654950223321432 0.35358173161563011 0 0.44365026638162619 0.36366296035924589 0 0.45385291071246681 0.36535310637527763 0 0.4486496000466374 0.37243534142724732 0 0.44365026638162619 0.36366296035924589 0 0.44365026638162619 0.36366296035924589 0 0.43775262426269329 0.37217766864203078 0 0.43307891485419953 0.35851448411718279 0 0.4486496000466374 0.37243534142724732 0 0.44365026638162619 0.36366296035924589 0 0.43775262426269329 0.37217766864203078 0 0.41316761184507561 0.3600211891096714 0 0.43307891485419953 0.35851448411718279 0 0.42525621282126502 0.37947448204751361 0 0.43775262426269329 0.37217766864203078 0 0.43307891485419953 0.35851448411718279 0 0.42525621282126502 0.37947448204751361 0 0.41316761184507561 0.3600211891096714 0 0.40226793993289017 0.38073113339753789 0 0.42525621282126502 0.37947448204751361 0 0.41316761184507561 0.3600211891096714 0 0.40226793993289017 0.38073113339753789 0 0.41316761184507561 0.3600211891096714 0 0.42406728375726371 0.33931124482180652 0 0.40165014739588228 0.3401926533958109 0 0.41316761184507561 0.3600211891096714 0 0.42406728375726371 0.33931124482180652 0 0.43307891485419953 0.35851448411718279 0 0.42406728375726371 0.33931124482180652 0 0.43744823437965058 0.34125827118632079 0 0.41316761184507561 0.3600211891096714 0 0.43307891485419953 0.35851448411718279 0 0.42406728375726371 0.33931124482180652 0 0.42406728375726371 0.33931124482180652 0 0.43744823437965058 0.34125827118632079 0 0.43496695566945232 0.31860130053394181 0 0.42406728375726371 0.33931124482180652 0 0.43496695566945232 0.31860130053394181 0 0.42406728375726371 0.33931124482180652 0 0.43496695566945232 0.31860130053394181 0 0.42073603505891821 0.31673540114057619 0 0.42293413545929198 0.3029707747188119 0 0.43496695566945232 0.31860130053394181 0 0.42073603505891821 0.31673540114057619 0 0.40776337360690151 0.30220279032374181 0 0.4065123060858693 0.32099597477777031 0 0.42073603505891821 0.31673540114057619 0 0.42406728375726371 0.33931124482180652 0 0.4065123060858693 0.32099597477777031 0 0.42073603505891821 0.31673540114057619 0 0.42406728375726371 0.33931124482180652 0 0.4065123060858693 0.32099597477777031 0 0.40165014739588228 0.3401926533958109 0 0.40165014739588228 0.3401926533958109 0 0.39027702277564352 0.32125564092184672 0 0.38297826173861838 0.3396108722628422 0 0.39266171540729328 0.30384039065203622 0 0.4065123060858693 0.32099597477777031 0 0.39027702277564352 0.32125564092184672 0 0.4065123060858693 0.32099597477777031 0 0.40165014739588228 0.3401926533958109 0 0.39027702277564352 0.32125564092184672 0 0.37333342264148162 0.31905074169549469 0 0.3798325739066285 0.30742370290028598 0 0.39027702277564352 0.32125564092184672 0 0.37333342264148162 0.31905074169549469 0 0.39027702277564352 0.32125564092184672 0 0.38297826173861838 0.3396108722628422 0 0.37333342264148162 0.31905074169549469 0 0.38297826173861838 0.3396108722628422 0 0.38297826173861838 0.3396108722628422 0 0.39262310083575508 0.36017100283018971 0 0.38297826173861838 0.3396108722628422 0 0.37692614338843361 0.35668425330612358 0 0.39262310083575508 0.36017100283018971 0 0.36859037937660938 0.34471274598668389 0 0.38297826173861838 0.3396108722628422 0 0.37692614338843361 0.35668425330612358 0 0.37692614338843361 0.35668425330612358 0 0.39262310083575508 0.36017100283018971 0 0.37790201188100231 0.37895028113332768 0 0.41316761184507561 0.3600211891096714 0 0.39262310083575508 0.36017100283018971 0 0.40226793993289017 0.38073113339753789 0 0.39262310083575508 0.36017100283018971 0 0.40226793993289017 0.38073113339753789 0 0.39262310083575508 0.36017100283018971 0 0.40226793993289017 0.38073113339753789 0 0.37790201188100231 0.37895028113332768 0 0.40165014739588228 0.3401926533958109 0 0.38297826173861838 0.3396108722628422 0 0.39262310083575508 0.36017100283018971 0 0.41316761184507561 0.3600211891096714 0 0.40165014739588228 0.3401926533958109 0 0.39262310083575508 0.36017100283018971 0 0.40226793993289017 0.38073113339753789 0 0.38930581071095571 0.40535985398665181 0 0.41304335056566571 0.40370132992392382 0 0.40226793993289017 0.38073113339753789 0 0.38930581071095571 0.40535985398665181 0 0.40226793993289017 0.38073113339753789 0 0.37790201188100231 0.37895028113332768 0 0.38930581071095571 0.40535985398665181 0 0.36941155775392392 0.39991819380793292 0 0.37790201188100231 0.37895028113332768 0 0.38930581071095571 0.40535985398665181 0 0.37228618046380763 0.4257445769310389 0 0.36941155775392392 0.39991819380793292 0 0.38930581071095571 0.40535985398665181 0 0.37228618046380763 0.4257445769310389 0 0.38930581071095571 0.40535985398665181 0 0.39581648354397692 0.43075988948780719 0 0.37228618046380763 0.4257445769310389 0 0.39581648354397692 0.43075988948780719 0 0.38096937117826202 0.45237270787408979 0 0.38930581071095571 0.40535985398665181 0 0.39581648354397692 0.43075988948780719 0 0.41304335056566571 0.40370132992392382 0 0.42381876119843931 0.42667152645031059 0 0.41304335056566571 0.40370132992392382 0 0.39581648354397692 0.43075988948780719 0 0.42381876119843931 0.42667152645031059 0 0.41304335056566571 0.40370132992392382 0 0.42381876119843931 0.42667152645031059 0 0.4265200269383031 0.41139185966317748 0 0.41304335056566571 0.40370132992392382 0 0.39581648354397692 0.43075988948780719 0 0.42381876119843931 0.42667152645031059 0 0.41402133219271509 0.4454345830752322 0 0.43621875325714049 0.42350382736109721 0 0.43459417183121368 0.44964172297669702 0 0.42381876119843931 0.42667152645031059 0 0.43621875325714049 0.42350382736109721 0 0.43459417183121368 0.44964172297669702 0 0.43621875325714049 0.42350382736109721 0 0.43784333468306652 0.39736593174549728 0 0.43621875325714049 0.42350382736109721 0 0.4265200269383031 0.41139185966317748 0 0.43784333468306652 0.39736593174549728 0 0.42381876119843931 0.42667152645031059 0 0.43621875325714049 0.42350382736109721 0 0.4265200269383031 0.41139185966317748 0 0.4265200269383031 0.41139185966317748 0 0.41304335056566571 0.40370132992392382 0 0.43784333468306652 0.39736593174549728 0 0.41304335056566571 0.40370132992392382 0 0.42525621282126502 0.37947448204751361 0 0.43784333468306652 0.39736593174549728 0 0.40226793993289017 0.38073113339753789 0 0.41304335056566571 0.40370132992392382 0 0.40226793993289017 0.38073113339753789 0 0.41304335056566571 0.40370132992392382 0 0.42525621282126502 0.37947448204751361 0 0.42525621282126502 0.37947448204751361 0 0.43983551495183909 0.38342214544568898 0 0.43784333468306652 0.39736593174549728 0 0.43775262426269329 0.37217766864203078 0 0.42525621282126502 0.37947448204751361 0 0.43983551495183909 0.38342214544568898 0 0.4486496000466374 0.37243534142724732 0 0.43775262426269329 0.37217766864203078 0 0.43983551495183909 0.38342214544568898 0 0.4486496000466374 0.37243534142724732 0 0.43983551495183909 0.38342214544568898 0 0.45792163169857503 0.39794827314179798 0 0.43784333468306652 0.39736593174549728 0 0.45792163169857503 0.39794827314179798 0 0.45017747727662111 0.41370394924887383 0 0.43983551495183909 0.38342214544568898 0 0.43784333468306652 0.39736593174549728 0 0.45792163169857503 0.39794827314179798 0 0.45792163169857503 0.39794827314179798 0 0.47054293974282518 0.38959660287097642 0 0.47770275757425779 0.39752271323508531 0 0.4486496000466374 0.37243534142724732 0 0.45792163169857503 0.39794827314179798 0 0.45792163169857503 0.39794827314179798 0 0.46170148958506863 0.38129094660469298 0 0.47054293974282518 0.38959660287097642 0 0.4486496000466374 0.37243534142724732 0 0.45792163169857503 0.39794827314179798 0 0.46170148958506863 0.38129094660469298 0 0.45717856940319879 0.3732490152987008 0 0.4486496000466374 0.37243534142724732 0 0.46170148958506863 0.38129094660469298 0 0.46351266074724012 0.37405299690465782 0 0.45717856940319879 0.3732490152987008 0 0.46170148958506863 0.38129094660469298 0 0.46170148958506863 0.38129094660469298 0 0.47240353587193518 0.38046344998477771 0 0.47054293974282518 0.38959660287097642 0 0.46351266074724012 0.37405299690465782 0 0.46170148958506863 0.38129094660469298 0 0.47240353587193518 0.38046344998477771 0 0.48400255025206912 0.37132617145254099 0 0.48059492642628537 0.37787162638859439 0 0.48599978059416082 0.39217771178583227 0 0.5 0.37283727626861851 0 0.49529098161210638 0.39148194597042291 0 0.5 0.42711489159293842 0 0.47240353587193518 0.38046344998477771 0 0.48059492642628537 0.37787162638859439 0 0.47744878804189289 0.38752642085305322 0 0.48059492642628537 0.37787162638859439 0 0.47744878804189289 0.38752642085305322 0 0.48599978059416082 0.39217771178583227 0 0.47240353587193518 0.38046344998477771 0 0.47744878804189289 0.38752642085305322 0 0.47054293974282518 0.38959660287097642 0 0.47744878804189289 0.38752642085305322 0 0.47054293974282518 0.38959660287097642 0 0.47770275757425779 0.39752271323508531 0 0.45792163169857503 0.39794827314179798 0 0.47770275757425779 0.39752271323508531 0 0.47716903843669312 0.41138202747963692 0 0.47770275757425779 0.39752271323508531 0 0.48544572509963702 0.40185403902302591 0 0.47716903843669312 0.41138202747963692 0 0.47744878804189289 0.38752642085305322 0 0.47770275757425779 0.39752271323508531 0 0.48599978059416082 0.39217771178583227 0 0.47770275757425779 0.39752271323508531 0 0.48599978059416082 0.39217771178583227 0 0.48544572509963702 0.40185403902302591 0 0.49529098161210638 0.39148194597042291 0 0.49106606728096669 0.41670579664415203 0 0.48544572509963702 0.40185403902302591 0 0.49529098161210638 0.39148194597042291 0 0.49106606728096669 0.41670579664415203 0 0.48599978059416082 0.39217771178583227 0 0.48544572509963702 0.40185403902302591 0 0.49529098161210638 0.39148194597042291 0 0.49999999999999989 0.36625809529669362 0 0.49529098161210638 0.39148194597042291 0 0.49246742632698282 0.3744799583246522 0 0.49529098161210638 0.39148194597042291 0 0.4905718379078573 0.3830195283115766 0 0.48400255025206912 0.37132617145254099 0 0.48599978059416082 0.39217771178583227 0 0.49999999999999989 0.36625809529669362 0 0.5 0.37283727626861851 0 0.49529098161210638 0.39148194597042291 0 0.49999999999999989 0.36625809529669362 0 0.49246742632698282 0.3744799583246522 0 0.49529098161210638 0.39148194597042291 0 0.48400255025206912 0.37132617145254099 0 0.48599978059416082 0.39217771178583227 0 0.4882603987702675 0.38025084246865049 0 0.49246742632698282 0.3744799583246522 0 0.4882603987702675 0.38025084246865049 0 0.4905718379078573 0.3830195283115766 0 0.49246742632698282 0.3744799583246522 0 0.48400255025206912 0.37132617145254099 0 0.4882603987702675 0.38025084246865049 0 0.48599978059416082 0.39217771178583227 0 0.4882603987702675 0.38025084246865049 0 0.4905718379078573 0.3830195283115766 0 0.48599978059416082 0.39217771178583227 0 0.49529098161210638 0.39148194597042291 0 0.4905718379078573 0.3830195283115766 0 0.49529098161210638 0.39148194597042291 0 0.5 0.42711489159293842 0 0.49106606728096669 0.41670579664415203 0 0.49106606728096669 0.41670579664415203 0 0.48684115294982699 0.44192964731788131 0 0.49106606728096669 0.41670579664415203 0 0.48095804538201642 0.42816458418632092 0 0.48684115294982699 0.44192964731788131 0 0.5 0.42711489159293842 0 0.49106606728096669 0.41670579664415203 0 0.48684115294982699 0.44192964731788131 0 0.48544572509963702 0.40185403902302591 0 0.49106606728096669 0.41670579664415203 0 0.47716903843669312 0.41138202747963692 0 0.47716903843669312 0.41138202747963692 0 0.48095804538201642 0.42816458418632092 0 0.46719366335051271 0.42346120485634869 0 0.49106606728096669 0.41670579664415203 0 0.47716903843669312 0.41138202747963692 0 0.48095804538201642 0.42816458418632092 0 0.46719366335051271 0.42346120485634869 0 0.47646569500245028 0.44897413657089941 0 0.48095804538201642 0.42816458418632092 0 0.46719366335051271 0.42346120485634869 0 0.47646569500245028 0.44897413657089941 0 0.46719366335051271 0.42346120485634869 0 0.45219263353397121 0.42549577769783031 0 0.45518064025161048 0.44131412932500169 0 0.45792163169857503 0.39794827314179798 0 0.47716903843669312 0.41138202747963692 0 0.46719366335051271 0.42346120485634869 0 0.46719366335051271 0.42346120485634869 0 0.45017747727662111 0.41370394924887383 0 0.45219263353397121 0.42549577769783031 0 0.45792163169857503 0.39794827314179798 0 0.46719366335051271 0.42346120485634869 0 0.45017747727662111 0.41370394924887383 0 0.45792163169857503 0.39794827314179798 0 0.46719366335051271 0.42346120485634869 0 0.43621875325714049 0.42350382736109721 0 0.43784333468306652 0.39736593174549728 0 0.45017747727662111 0.41370394924887383 0 0.43621875325714049 0.42350382736109721 0 0.45017747727662111 0.41370394924887383 0 0.45219263353397121 0.42549577769783031 0 0.43621875325714049 0.42350382736109721 0 0.45219263353397121 0.42549577769783031 0 0.45518064025161048 0.44131412932500169 0 0.5 0.42711489159293842 0 0.5 0.5 0 0.48573772665438802 0.47448706828545018 0 0.46088312500403472 0.46125479244565942 0 0.45518064025161048 0.44131412932500169 0 0.43459417183121368 0.44964172297669702 0 0.43621875325714049 0.42350382736109721 0 0.45518064025161048 0.44131412932500169 0 0.43459417183121368 0.44964172297669702 0 0.44640580594286972 0.47482086148834851 0 0.43315595277057101 0.47278123391751981 0 0.43459417183121368 0.44964172297669702 0 0.46088312500403472 0.46125479244565942 0 0.44640580594286972 0.47482086148834851 0 0.43459417183121368 0.44964172297669702 0 0.44640580594286972 0.47482086148834851 0 0.43459417183121368 0.44964172297669702 0 0.46719366335051271 0.42346120485634869 0 0.45518064025161048 0.44131412932500169 0 0.47646569500245028 0.44897413657089941 0 0.46088312500403472 0.46125479244565942 0 0.45518064025161048 0.44131412932500169 0 0.47646569500245028 0.44897413657089941 0 0.5 0.42711489159293842 0 0.48684115294982699 0.44192964731788131 0 0.48573772665438802 0.47448706828545018 0 0.47646569500245028 0.44897413657089941 0 0.48684115294982699 0.44192964731788131 0 0.48573772665438802 0.47448706828545018 0 0.48095804538201642 0.42816458418632092 0 0.47646569500245028 0.44897413657089941 0 0.48684115294982699 0.44192964731788131 0 0.46088312500403472 0.46125479244565942 0 0.47646569500245028 0.44897413657089941 0 0.48573772665438802 0.47448706828545018 0 0.47646569500245028 0.44897413657089941 0 0.48573772665438802 0.47448706828545018 0 0.49500975830632588 0.50000000000000089 0 0.48573772665438802 0.47448706828545018 0 0.49500975830632588 0.50000000000000089 0 0.48573772665438802 0.47448706828545018 0 0.47661359918042612 0.5 0 0.49500975830632588 0.50000000000000089 0 0.5 0.5 0 0.48573772665438802 0.47448706828545018 0 0.46088312500403472 0.46125479244565942 0 0.48573772665438802 0.47448706828545018 0 0.46627280887118061 0.48108990858044581 0 0.48573772665438802 0.47448706828545018 0 0.47661359918042612 0.5 0 0.46627280887118061 0.48108990858044581 0 0.47661359918042612 0.5 0 0.45821744005452641 0.49999999999999989 0 0.46627280887118061 0.48108990858044581 0 0.45821744005452641 0.49999999999999989 0 0.46627280887118061 0.48108990858044581 0 0.44640580594286972 0.47482086148834851 0 0.46088312500403472 0.46125479244565942 0 0.46627280887118061 0.48108990858044581 0 0.44640580594286972 0.47482086148834851 0 0.44640580594286972 0.47482086148834851 0 0.4392145824268362 0.48500967392097971 0 0.43315595277057101 0.47278123391751981 0 0.45821744005452641 0.49999999999999989 0 0.44640580594286972 0.47482086148834851 0 0.45821744005452641 0.49999999999999989 0 0.43171773370992728 0.49592074485834259 0 0.43134530449863379 0.5 0 0.45821744005452641 0.49999999999999989 0 0.44640580594286972 0.47482086148834851 0 0.4392145824268362 0.48500967392097971 0 0.45821744005452641 0.49999999999999989 0 0.4392145824268362 0.48500967392097971 0 0.43171773370992728 0.49592074485834259 0 0.4392145824268362 0.48500967392097971 0 0.43171773370992728 0.49592074485834259 0 0.43315595277057101 0.47278123391751981 0 0.43171773370992728 0.49592074485834259 0 0.43134530449863379 0.5 0 0.41590389641447301 0.48332339639712579 0 0.43134530449863379 0.5 0 0.41590389641447301 0.48332339639712579 0 0.40447316894274138 0.5 0 0.43171773370992728 0.49592074485834259 0 0.43315595277057101 0.47278123391751981 0 0.43171773370992728 0.49592074485834259 0 0.41590389641447301 0.48332339639712579 0 0.43315595277057101 0.47278123391751981 0 0.41590389641447301 0.48332339639712579 0 0.43315595277057101 0.47278123391751981 0 0.42173580449601189 0.46163142693982179 0 0.43315595277057101 0.47278123391751981 0 0.43459417183121368 0.44964172297669702 0 0.43315595277057101 0.47278123391751981 0 0.43459417183121368 0.44964172297669702 0 0.42173580449601189 0.46163142693982179 0 0.42381876119843931 0.42667152645031059 0 0.43459417183121368 0.44964172297669702 0 0.41402133219271509 0.4454345830752322 0 0.42381876119843931 0.42667152645031059 0 0.43459417183121368 0.44964172297669702 0 0.43459417183121368 0.44964172297669702 0 0.41402133219271509 0.4454345830752322 0 0.42173580449601189 0.46163142693982179 0 0.41402133219271509 0.4454345830752322 0 0.42173580449601189 0.46163142693982179 0 0.40421936366646072 0.46092940807125232 0 0.41590389641447301 0.48332339639712579 0 0.42173580449601189 0.46163142693982179 0 0.40421936366646072 0.46092940807125232 0 0.40421936366646072 0.46092940807125232 0 0.39688043639555459 0.44739686636013942 0 0.38096937117826202 0.45237270787408979 0 0.40421936366646072 0.46092940807125232 0 0.38096937117826202 0.45237270787408979 0 0.39189348782916128 0.47931537032590682 0 0.39581648354397692 0.43075988948780719 0 0.39688043639555459 0.44739686636013942 0 0.38096937117826202 0.45237270787408979 0 0.39581648354397692 0.43075988948780719 0 0.41402133219271509 0.4454345830752322 0 0.39688043639555459 0.44739686636013942 0 0.41402133219271509 0.4454345830752322 0 0.40421936366646072 0.46092940807125232 0 0.39688043639555459 0.44739686636013942 0 0.36819409338618181 0.47926670961297257 0 0.38096937117826202 0.45237270787408979 0 0.39189348782916128 0.47931537032590682 0 0.36819409338618181 0.47926670961297257 0 0.37760103338684892 0.5 0 0.39189348782916128 0.47931537032590682 0 0.37760103338684892 0.5 0 0.40447316894274138 0.5 0 0.39189348782916128 0.47931537032590682 0 0.41590389641447301 0.48332339639712579 0 0.40447316894274138 0.5 0 0.39189348782916128 0.47931537032590682 0 0.41590389641447301 0.48332339639712579 0 0.40421936366646072 0.46092940807125232 0 0.39189348782916128 0.47931537032590682 0 0.33084858947157703 0.089998825023147322 0 0.34074649950639402 0.1032015510217993 0 0.35251364129216339 0.087079308351046394 0 0.33084858947157703 0.089998825023147322 0 0.33985807354288211 0.076996445446451747 0 0.35251364129216339 0.087079308351046394 0 0.33084858947157703 0.089998825023147322 0 0.33985807354288211 0.076996445446451747 0 0.31821388168179943 0.076078290926211711 0 0.33172706180817441 0.063843790847581627 0 0.33985807354288211 0.076996445446451747 0 0.31821388168179943 0.076078290926211711 0 0.33172706180817441 0.063843790847581627 0 0.33985807354288211 0.076996445446451747 0 0.35080820585408512 0.066210145633817372 0 0.33172706180817441 0.063843790847581627 0 0.31821388168179943 0.076078290926211711 0 0.31393056250474283 0.05484690131054596 0 0.33084858947157703 0.089998825023147322 0 0.31821388168179943 0.076078290926211711 0 0.31220083511900287 0.093292636420348921 0 0.32155860568722078 0.1033447179730258 0 0.31807112355588502 0.11375114916785289 0 0.30489438339285552 0.1097509593024167 0 0.32155860568722078 0.1033447179730258 0 0.31220083511900287 0.093292636420348921 0 0.30489438339285552 0.1097509593024167 0 0.33084858947157703 0.089998825023147322 0 0.32155860568722078 0.1033447179730258 0 0.31220083511900287 0.093292636420348921 0 0.31807112355588502 0.11375114916785289 0 0.32322348553757979 0.12164932985998619 0 0.30965627205411328 0.1209779382579915 0 0.32322348553757979 0.12164932985998619 0 0.30965627205411328 0.1209779382579915 0 0.31547262408842208 0.12915382217636601 0 0.32155860568722078 0.1033447179730258 0 0.31807112355588502 0.11375114916785289 0 0.33102287110765538 0.113032800445844 0 0.31807112355588502 0.11375114916785289 0 0.32322348553757979 0.12164932985998619 0 0.33102287110765538 0.113032800445844 0 0.32322348553757979 0.12164932985998619 0 0.33188430642590211 0.12459448939780431 0 0.33102287110765538 0.113032800445844 0 0.33188430642590211 0.12459448939780431 0 0.33102287110765538 0.113032800445844 0 0.34198889311284741 0.1185914792614596 0 0.33102287110765538 0.113032800445844 0 0.34198889311284741 0.1185914792614596 0 0.34074649950639402 0.1032015510217993 0 0.33188430642590211 0.12459448939780431 0 0.34198889311284741 0.1185914792614596 0 0.33901669724782929 0.12925315040062671 0 0.32155860568722078 0.1033447179730258 0 0.33102287110765538 0.113032800445844 0 0.34074649950639402 0.1032015510217993 0 0.33084858947157703 0.089998825023147322 0 0.32155860568722078 0.1033447179730258 0 0.34074649950639402 0.1032015510217993 0 0.34074649950639402 0.1032015510217993 0 0.35319309787704672 0.1000963117811578 0 0.35251364129216339 0.087079308351046394 0 0.34074649950639402 0.1032015510217993 0 0.35319309787704672 0.1000963117811578 0 0.35323040185675159 0.11079724557365329 0 0.35319309787704672 0.1000963117811578 0 0.35323040185675159 0.11079724557365329 0 0.36549102641238479 0.1016940222820566 0 0.35319309787704672 0.1000963117811578 0 0.36549102641238479 0.1016940222820566 0 0.35251364129216339 0.087079308351046394 0 0.35124181243179958 0.12391753768900871 0 0.35323040185675159 0.11079724557365329 0 0.36850939876642852 0.1140914575861406 0 0.34198889311284741 0.1185914792614596 0 0.35124181243179958 0.12391753768900871 0 0.33901669724782929 0.12925315040062671 0 0.34198889311284741 0.1185914792614596 0 0.35124181243179958 0.12391753768900871 0 0.35323040185675159 0.11079724557365329 0 0.34198889311284741 0.1185914792614596 0 0.34074649950639402 0.1032015510217993 0 0.35323040185675159 0.11079724557365329 0 0.36850939876642852 0.1140914575861406 0 0.36411487662952369 0.13090937959614579 0 0.38616381998567911 0.11657679266716089 0 0.35124181243179958 0.12391753768900871 0 0.36850939876642852 0.1140914575861406 0 0.36411487662952369 0.13090937959614579 0 0.36549102641238479 0.1016940222820566 0 0.35251364129216339 0.087079308351046394 0 0.37623785132629661 0.094160230158270186 0 0.35323040185675159 0.11079724557365329 0 0.36850939876642852 0.1140914575861406 0 0.36549102641238479 0.1016940222820566 0 0.36850939876642852 0.1140914575861406 0 0.37291575093450607 0.1050707582973348 0 0.37998068770391968 0.1085975596436005 0 0.36850939876642852 0.1140914575861406 0 0.36549102641238479 0.1016940222820566 0 0.37291575093450607 0.1050707582973348 0 0.36549102641238479 0.1016940222820566 0 0.37291575093450607 0.1050707582973348 0 0.37623785132629661 0.094160230158270186 0 0.35251364129216339 0.087079308351046394 0 0.37022502229348098 0.075346759730714766 0 0.37623785132629661 0.094160230158270186 0 0.33985807354288211 0.076996445446451747 0 0.35251364129216339 0.087079308351046394 0 0.35080820585408512 0.066210145633817372 0 0.35251364129216339 0.087079308351046394 0 0.35080820585408512 0.066210145633817372 0 0.37022502229348098 0.075346759730714766 0 0.35080820585408512 0.066210145633817372 0 0.37022502229348098 0.075346759730714766 0 0.36656895479983798 0.048158329610884142 0 0.36656895479983798 0.048158329610884142 0 0.37367913366601208 0.025587236983636279 0 0.355616891105628 0.0272615201971807 0 0.36656895479983798 0.048158329610884142 0 0.355616891105628 0.0272615201971807 0 0.33939432436403028 0.043598398523210832 0 0.35080820585408512 0.066210145633817372 0 0.36656895479983798 0.048158329610884142 0 0.33939432436403028 0.043598398523210832 0 0.36610373341147812 0.005968604800277522 0 0.37367913366601208 0.025587236983636279 0 0.355616891105628 0.0272615201971807 0 0.355616891105628 0.0272615201971807 0 0.33987270167036532 0.01288206682049987 0 0.33939432436403028 0.043598398523210832 0 0.36610373341147812 0.005968604800277522 0 0.355616891105628 0.0272615201971807 0 0.33987270167036532 0.01288206682049987 0 0.36610373341147812 0.005968604800277522 0 0.33987270167036532 0.01288206682049987 0 0.3477410257926245 -0.0142345229108566 0 0.33987270167036532 0.01288206682049987 0 0.32216879617297589 0.026533170301402679 0 0.32546835434140409 -0.001818073725263207 0 0.33987270167036532 0.01288206682049987 0 0.32216879617297589 0.026533170301402679 0 0.33939432436403028 0.043598398523210832 0 0.32216879617297589 0.026533170301402679 0 0.2950640457745351 0.010950668119169451 0 0.32546835434140409 -0.001818073725263207 0 0.32216879617297589 0.026533170301402679 0 0.32546835434140409 -0.001818073725263207 0 0.33172706180817441 0.063843790847581627 0 0.33939432436403028 0.043598398523210832 0 0.31393056250474283 0.05484690131054596 0 0.33172706180817441 0.063843790847581627 0 0.35080820585408512 0.066210145633817372 0 0.33939432436403028 0.043598398523210832 0 0.32216879617297589 0.026533170301402679 0 0.33939432436403028 0.043598398523210832 0 0.31393056250474283 0.05484690131054596 0 0.31393056250474283 0.05484690131054596 0 0.29487670373366998 0.039939020572105598 0 0.28936604322229181 0.06161075348754428 0 0.31393056250474283 0.05484690131054596 0 0.28936604322229181 0.06161075348754428 0 0.3035288777529711 0.070377432751278127 0 0.32216879617297589 0.026533170301402679 0 0.31393056250474283 0.05484690131054596 0 0.29487670373366998 0.039939020572105598 0 0.29487670373366998 0.039939020572105598 0 0.28936604322229181 0.06161075348754428 0 0.27360028429714278 0.052176245372012438 0 0.32216879617297589 0.026533170301402679 0 0.29487670373366998 0.039939020572105598 0 0.2950640457745351 0.010950668119169451 0 0.29487670373366998 0.039939020572105598 0 0.2950640457745351 0.010950668119169451 0 0.27411148817905429 0.029944088100359409 0 0.2950640457745351 0.010950668119169451 0 0.26918884814116678 0.0097677011845648219 0 0.27683344906570562 -0.00841771381534589 0 0.26918884814116678 0.0097677011845648219 0 0.25086621734364162 0.0024580881529454729 0 0.27683344906570562 -0.00841771381534589 0 0.2950640457745351 0.010950668119169451 0 0.26918884814116678 0.0097677011845648219 0 0.27411148817905429 0.029944088100359409 0 0.26918884814116678 0.0097677011845648219 0 0.27411148817905429 0.029944088100359409 0 0.25035344126441311 0.024856540025677429 0 0.26918884814116678 0.0097677011845648219 0 0.25035344126441311 0.024856540025677429 0 0.25086621734364162 0.0024580881529454729 0 0.29487670373366998 0.039939020572105598 0 0.27411148817905429 0.029944088100359409 0 0.27360028429714278 0.052176245372012438 0 0.27411148817905429 0.029944088100359409 0 0.27360028429714278 0.052176245372012438 0 0.25980382928462298 0.040238413611425328 0 0.24324862580501719 0.043699375385111268 0 0.25035344126441311 0.024856540025677429 0 0.25980382928462298 0.040238413611425328 0 0.27411148817905429 0.029944088100359409 0 0.25035344126441311 0.024856540025677429 0 0.25980382928462298 0.040238413611425328 0 0.24324862580501719 0.043699375385111268 0 0.25980382928462298 0.040238413611425328 0 0.25076260917159371 0.067604295308239623 0 0.27360028429714278 0.052176245372012438 0 0.25980382928462298 0.040238413611425328 0 0.25076260917159371 0.067604295308239623 0 0.25076260917159371 0.067604295308239623 0 0.25988787295121452 0.080529814965790522 0 0.27268103219162387 0.073720901152400417 0 0.25076260917159371 0.067604295308239623 0 0.25988787295121452 0.080529814965790522 0 0.25013484754435239 0.089312210651446719 0 0.25988787295121452 0.080529814965790522 0 0.25013484754435239 0.089312210651446719 0 0.26597300289728798 0.091481852751075329 0 0.26597300289728798 0.091481852751075329 0 0.28462276663105168 0.086787243814977613 0 0.27946672742723799 0.099246023995434224 0 0.26597300289728798 0.091481852751075329 0 0.27268103219162387 0.073720901152400417 0 0.28462276663105168 0.086787243814977613 0 0.25988787295121452 0.080529814965790522 0 0.26597300289728798 0.091481852751075329 0 0.27268103219162387 0.073720901152400417 0 0.27360028429714278 0.052176245372012438 0 0.25076260917159371 0.067604295308239623 0 0.27268103219162387 0.073720901152400417 0 0.28936604322229181 0.06161075348754428 0 0.27360028429714278 0.052176245372012438 0 0.27268103219162387 0.073720901152400417 0 0.28936604322229181 0.06161075348754428 0 0.27268103219162387 0.073720901152400417 0 0.29002739856668941 0.075264166605426161 0 0.28936604322229181 0.06161075348754428 0 0.29002739856668941 0.075264166605426161 0 0.3035288777529711 0.070377432751278127 0 0.27268103219162387 0.073720901152400417 0 0.29002739856668941 0.075264166605426161 0 0.28462276663105168 0.086787243814977613 0 0.28462276663105168 0.086787243814977613 0 0.29993827303550868 0.083824501820930319 0 0.29529908527900173 0.096635524698416131 0 0.29002739856668941 0.075264166605426161 0 0.28462276663105168 0.086787243814977613 0 0.29993827303550868 0.083824501820930319 0 0.31821388168179943 0.076078290926211711 0 0.31220083511900287 0.093292636420348921 0 0.29993827303550868 0.083824501820930319 0 0.31220083511900287 0.093292636420348921 0 0.29993827303550868 0.083824501820930319 0 0.29529908527900173 0.096635524698416131 0 0.31821388168179943 0.076078290926211711 0 0.31393056250474283 0.05484690131054596 0 0.3035288777529711 0.070377432751278127 0 0.31821388168179943 0.076078290926211711 0 0.29993827303550868 0.083824501820930319 0 0.3035288777529711 0.070377432751278127 0 0.29002739856668941 0.075264166605426161 0 0.29993827303550868 0.083824501820930319 0 0.3035288777529711 0.070377432751278127 0 0.30019588233241667 0.12288100980845471 0 0.30489438339285552 0.1097509593024167 0 0.29096759124809152 0.1171236693139559 0 0.30019588233241667 0.12288100980845471 0 0.30965627205411328 0.1209779382579915 0 0.30489438339285552 0.1097509593024167 0 0.31807112355588502 0.11375114916785289 0 0.30965627205411328 0.1209779382579915 0 0.30489438339285552 0.1097509593024167 0 0.31220083511900287 0.093292636420348921 0 0.30489438339285552 0.1097509593024167 0 0.29529908527900173 0.096635524698416131 0 0.30489438339285552 0.1097509593024167 0 0.29067152606835389 0.106911782836389 0 0.29529908527900173 0.096635524698416131 0 0.29067152606835389 0.106911782836389 0 0.29529908527900173 0.096635524698416131 0 0.27946672742723799 0.099246023995434224 0 0.28462276663105168 0.086787243814977613 0 0.29529908527900173 0.096635524698416131 0 0.27946672742723799 0.099246023995434224 0 0.29067152606835389 0.106911782836389 0 0.28137429327683422 0.11162873799620571 0 0.27946672742723799 0.099246023995434224 0 0.29067152606835389 0.106911782836389 0 0.28137429327683422 0.11162873799620571 0 0.29096759124809152 0.1171236693139559 0 0.28137429327683422 0.11162873799620571 0 0.29096759124809152 0.1171236693139559 0 0.27826144401555741 0.12161026243688031 0 0.30489438339285552 0.1097509593024167 0 0.29067152606835389 0.106911782836389 0 0.29096759124809152 0.1171236693139559 0 0.30019588233241667 0.12288100980845471 0 0.29096759124809152 0.1171236693139559 0 0.29056729084842342 0.12948543377474209 0 0.29096759124809152 0.1171236693139559 0 0.27826144401555741 0.12161026243688031 0 0.29056729084842342 0.12948543377474209 0 0.28137429327683422 0.11162873799620571 0 0.27826144401555741 0.12161026243688031 0 0.26963373366944271 0.1116028939700725 0 0.27826144401555741 0.12161026243688031 0 0.26963373366944271 0.1116028939700725 0 0.26333602300067138 0.12712579984536801 0 0.28137429327683422 0.11162873799620571 0 0.26963373366944271 0.1116028939700725 0 0.27946672742723799 0.099246023995434224 0 0.26963373366944271 0.1116028939700725 0 0.27946672742723799 0.099246023995434224 0 0.26495251774187661 0.1020987048591991 0 0.26597300289728798 0.091481852751075329 0 0.27946672742723799 0.099246023995434224 0 0.26495251774187661 0.1020987048591991 0 0.25013484754435239 0.089312210651446719 0 0.26597300289728798 0.091481852751075329 0 0.25462164276584198 0.10216442959658779 0 0.26597300289728798 0.091481852751075329 0 0.26495251774187661 0.1020987048591991 0 0.25462164276584198 0.10216442959658779 0 0.26963373366944271 0.1116028939700725 0 0.26495251774187661 0.1020987048591991 0 0.25917359664068251 0.1132297722587472 0 0.26495251774187661 0.1020987048591991 0 0.25462164276584198 0.10216442959658779 0 0.25917359664068251 0.1132297722587472 0 0.243794950737863 0.1239863275495639 0 0.25917359664068251 0.1132297722587472 0 0.26333602300067138 0.12712579984536801 0 0.243794950737863 0.1239863275495639 0 0.25462164276584198 0.10216442959658779 0 0.25917359664068251 0.1132297722587472 0 0.26963373366944271 0.1116028939700725 0 0.25917359664068251 0.1132297722587472 0 0.26333602300067138 0.12712579984536801 0 0.243794950737863 0.1239863275495639 0 0.26333602300067138 0.12712579984536801 0 0.25079872324042868 0.14386359070849269 0 0.26333602300067138 0.12712579984536801 0 0.26723243145627268 0.14139999217021809 0 0.25079872324042868 0.14386359070849269 0 0.27826144401555741 0.12161026243688031 0 0.26333602300067138 0.12712579984536801 0 0.27694480775103081 0.13391300762091429 0 0.26333602300067138 0.12712579984536801 0 0.27694480775103081 0.13391300762091429 0 0.26723243145627268 0.14139999217021809 0 0.27694480775103081 0.13391300762091429 0 0.28012101641498721 0.14606833686323589 0 0.28565450778310669 0.13773664122918669 0 0.27694480775103081 0.13391300762091429 0 0.28012101641498721 0.14606833686323589 0 0.26723243145627268 0.14139999217021809 0 0.26723243145627268 0.14139999217021809 0 0.27251235735300411 0.15263013435197381 0 0.25898227684926389 0.1598240581261029 0 0.28012101641498721 0.14606833686323589 0 0.27251235735300411 0.15263013435197381 0 0.28664352512760288 0.15371070293000791 0 0.28012101641498721 0.14606833686323589 0 0.26723243145627268 0.14139999217021809 0 0.27251235735300411 0.15263013435197381 0 0.26723243145627268 0.14139999217021809 0 0.25079872324042868 0.14386359070849269 0 0.25898227684926389 0.1598240581261029 0 0.2473586422174934 0.17909700040676241 0 0.25898227684926389 0.1598240581261029 0 0.26751806563362091 0.17399919866169461 0 0.2473586422174934 0.17909700040676241 0 0.26751806563362091 0.17399919866169461 0 0.25755075896001339 0.20267407045912511 0 0.26751806563362091 0.17399919866169461 0 0.28690640291874209 0.1724638740371017 0 0.27570822100969661 0.18837680813930449 0 0.26751806563362091 0.17399919866169461 0 0.28079802822355582 0.16412818589780509 0 0.28690640291874209 0.1724638740371017 0 0.25898227684926389 0.1598240581261029 0 0.26751806563362091 0.17399919866169461 0 0.28079802822355582 0.16412818589780509 0 0.25898227684926389 0.1598240581261029 0 0.28079802822355582 0.16412818589780509 0 0.27251235735300411 0.15263013435197381 0 0.25898227684926389 0.1598240581261029 0 0.28079802822355582 0.16412818589780509 0 0.27251235735300411 0.15263013435197381 0 0.28079802822355582 0.16412818589780509 0 0.28664352512760288 0.15371070293000791 0 0.28079802822355582 0.16412818589780509 0 0.28906376340794571 0.16396376183337791 0 0.28664352512760288 0.15371070293000791 0 0.30655364181375738 0.16832620218081659 0 0.28664352512760288 0.15371070293000791 0 0.28079802822355582 0.16412818589780509 0 0.28906376340794571 0.16396376183337791 0 0.28690640291874209 0.1724638740371017 0 0.28906376340794571 0.16396376183337791 0 0.28690640291874209 0.1724638740371017 0 0.30208469661071108 0.16716815503993521 0 0.28906376340794571 0.16396376183337791 0 0.30208469661071108 0.16716815503993521 0 0.28664352512760288 0.15371070293000791 0 0.28690640291874209 0.1724638740371017 0 0.28962675551845468 0.17932927227563411 0 0.3035452900272107 0.17028173641196079 0 0.28690640291874209 0.1724638740371017 0 0.28962675551845468 0.17932927227563411 0 0.27570822100969661 0.18837680813930449 0 0.28962675551845468 0.17932927227563411 0 0.27570822100969661 0.18837680813930449 0 0.28962675551845468 0.17932927227563411 0 0.3035452900272107 0.17028173641196079 0 0.3035452900272107 0.17028173641196079 0 0.30655364181375738 0.16832620218081659 0 0.31507662537596459 0.1948633554517894 0 0.30078226089669807 0.18658556683963351 0 0.3035452900272107 0.17028173641196079 0 0.31507662537596459 0.1948633554517894 0 0.3035452900272107 0.17028173641196079 0 0.31507662537596459 0.1948633554517894 0 0.28962675551845468 0.17932927227563411 0 0.30078226089669807 0.18658556683963351 0 0.3035452900272107 0.17028173641196079 0 0.28690640291874209 0.1724638740371017 0 0.3035452900272107 0.17028173641196079 0 0.30208469661071108 0.16716815503993521 0 0.30208469661071108 0.16716815503993521 0 0.30655364181375738 0.16832620218081659 0 0.28664352512760288 0.15371070293000791 0 0.30655364181375738 0.16832620218081659 0 0.30436787152586908 0.15043465866013181 0 0.29795474248358977 0.1537805764363625 0 0.30655364181375738 0.16832620218081659 0 0.29795474248358977 0.1537805764363625 0 0.28664352512760288 0.15371070293000791 0 0.3035452900272107 0.17028173641196079 0 0.30208469661071108 0.16716815503993521 0 0.30655364181375738 0.16832620218081659 0 0.3035452900272107 0.17028173641196079 0 0.30208469661071108 0.16716815503993521 0 0.3035452900272107 0.17028173641196079 0 0.30655364181375738 0.16832620218081659 0 0.30655364181375738 0.16832620218081659 0 0.30436787152586908 0.15043465866013181 0 0.315349654879723 0.1492648469383008 0 0.30436787152586908 0.15043465866013181 0 0.29795474248358977 0.1537805764363625 0 0.29425393146713053 0.1426507419744949 0 0.30436787152586908 0.15043465866013181 0 0.30797130861713629 0.14037939280934389 0 0.29425393146713053 0.1426507419744949 0 0.30436787152586908 0.15043465866013181 0 0.30797130861713629 0.14037939280934389 0 0.315349654879723 0.1492648469383008 0 0.30797130861713629 0.14037939280934389 0 0.3027169701584822 0.13145876680576171 0 0.31547262408842208 0.12915382217636601 0 0.30965627205411328 0.1209779382579915 0 0.3027169701584822 0.13145876680576171 0 0.31547262408842208 0.12915382217636601 0 0.30019588233241667 0.12288100980845471 0 0.3027169701584822 0.13145876680576171 0 0.29056729084842342 0.12948543377474209 0 0.30019588233241667 0.12288100980845471 0 0.30965627205411328 0.1209779382579915 0 0.3027169701584822 0.13145876680576171 0 0.30797130861713629 0.14037939280934389 0 0.3027169701584822 0.13145876680576171 0 0.29425393146713053 0.1426507419744949 0 0.29056729084842342 0.12948543377474209 0 0.28565450778310669 0.13773664122918669 0 0.29425393146713053 0.1426507419744949 0 0.3027169701584822 0.13145876680576171 0 0.29056729084842342 0.12948543377474209 0 0.29425393146713053 0.1426507419744949 0 0.27826144401555741 0.12161026243688031 0 0.27694480775103081 0.13391300762091429 0 0.29056729084842342 0.12948543377474209 0 0.27694480775103081 0.13391300762091429 0 0.29056729084842342 0.12948543377474209 0 0.28565450778310669 0.13773664122918669 0 0.28012101641498721 0.14606833686323589 0 0.28664352512760288 0.15371070293000791 0 0.29425393146713053 0.1426507419744949 0 0.28012101641498721 0.14606833686323589 0 0.28565450778310669 0.13773664122918669 0 0.29425393146713053 0.1426507419744949 0 0.29795474248358977 0.1537805764363625 0 0.28664352512760288 0.15371070293000791 0 0.29425393146713053 0.1426507419744949 0 0.2779349924450536 0.24982821056385049 0 0.28086903334085822 0.23456834899021539 0 0.26774287570253352 0.22625114051148781 0 0.2779349924450536 0.24982821056385049 0 0.26774287570253352 0.22625114051148781 0 0.2779349924450536 0.24982821056385049 0 0.26405431753362241 0.240578663440152 0 0.26774287570253352 0.22625114051148781 0 0.2779349924450536 0.24982821056385049 0 0.28086903334085822 0.23456834899021539 0 0.28412071840344222 0.24392807438366881 0 0.2779349924450536 0.24982821056385049 0 0.26677012129226879 0.24853012077798581 0 0.26405431753362241 0.240578663440152 0 0.25512603831525271 0.25269991764641409 0 0.26677012129226879 0.24853012077798581 0 0.25575845577343698 0.24447888614386939 0 0.26677012129226879 0.24853012077798581 0 0.25575845577343698 0.24447888614386939 0 0.26405431753362241 0.240578663440152 0 0.24711866831732671 0.24511003521626959 0 0.25512603831525271 0.25269991764641409 0 0.25575845577343698 0.24447888614386939 0 0.25575845577343698 0.24447888614386939 0 0.26405431753362241 0.240578663440152 0 0.2520651424548192 0.2338049592035665 0 0.24711866831732671 0.24511003521626959 0 0.25575845577343698 0.24447888614386939 0 0.2520651424548192 0.2338049592035665 0 0.26405431753362241 0.240578663440152 0 0.2520651424548192 0.2338049592035665 0 0.26774287570253352 0.22625114051148781 0 0.2520651424548192 0.2338049592035665 0 0.26774287570253352 0.22625114051148781 0 0.25139918172692383 0.21816380135630009 0 0.28086903334085822 0.23456834899021539 0 0.26774287570253352 0.22625114051148781 0 0.29228441318152332 0.2207015474973669 0 0.26774287570253352 0.22625114051148781 0 0.27727419201059339 0.20757644153538299 0 0.29228441318152332 0.2207015474973669 0 0.26774287570253352 0.22625114051148781 0 0.27727419201059339 0.20757644153538299 0 0.25755075896001339 0.20267407045912511 0 0.24190545341244329 0.2051566678978386 0 0.25139918172692383 0.21816380135630009 0 0.25755075896001339 0.20267407045912511 0 0.26774287570253352 0.22625114051148781 0 0.25139918172692383 0.21816380135630009 0 0.25755075896001339 0.20267407045912511 0 0.26774287570253352 0.22625114051148781 0 0.25755075896001339 0.20267407045912511 0 0.2473586422174934 0.17909700040676241 0 0.25755075896001339 0.20267407045912511 0 0.27727419201059339 0.20757644153538299 0 0.25755075896001339 0.20267407045912511 0 0.27570822100969661 0.18837680813930449 0 0.26751806563362091 0.17399919866169461 0 0.25755075896001339 0.20267407045912511 0 0.27570822100969661 0.18837680813930449 0 0.27727419201059339 0.20757644153538299 0 0.27570822100969661 0.18837680813930449 0 0.2930846911992 0.19987864106963049 0 0.28962675551845468 0.17932927227563411 0 0.27570822100969661 0.18837680813930449 0 0.2930846911992 0.19987864106963049 0 0.28962675551845468 0.17932927227563411 0 0.30078226089669807 0.18658556683963351 0 0.2930846911992 0.19987864106963049 0 0.30078226089669807 0.18658556683963351 0 0.2930846911992 0.19987864106963049 0 0.31507662537596459 0.1948633554517894 0 0.2930846911992 0.19987864106963049 0 0.30812675824962033 0.21629243085087671 0 0.29228441318152332 0.2207015474973669 0 0.2930846911992 0.19987864106963049 0 0.30812675824962033 0.21629243085087671 0 0.31507662537596459 0.1948633554517894 0 0.27727419201059339 0.20757644153538299 0 0.2930846911992 0.19987864106963049 0 0.29228441318152332 0.2207015474973669 0 0.28086903334085822 0.23456834899021539 0 0.29561379580358038 0.23338426742197271 0 0.29228441318152332 0.2207015474973669 0 0.30812675824962033 0.21629243085087671 0 0.29228441318152332 0.2207015474973669 0 0.30576545944162709 0.23201860149452261 0 0.30812675824962033 0.21629243085087671 0 0.30576545944162709 0.23201860149452261 0 0.31594139957468809 0.2308474651003328 0 0.29561379580358038 0.23338426742197271 0 0.30576545944162709 0.23201860149452261 0 0.3013081842486966 0.23693230354026851 0 0.29561379580358038 0.23338426742197271 0 0.29228441318152332 0.2207015474973669 0 0.30576545944162709 0.23201860149452261 0 0.30576545944162709 0.23201860149452261 0 0.3013081842486966 0.23693230354026851 0 0.30527483842466491 0.24224995570905139 0 0.28873450965048891 0.25975596681429841 0 0.30803568788407731 0.24037738304617029 0 0.30527483842466491 0.24224995570905139 0 0.29561379580358038 0.23338426742197271 0 0.3013081842486966 0.23693230354026851 0 0.29557248917997231 0.24026600598927231 0 0.29968203181016267 0.2411682504590475 0 0.3013081842486966 0.23693230354026851 0 0.29557248917997231 0.24026600598927231 0 0.29968203181016267 0.2411682504590475 0 0.3013081842486966 0.23693230354026851 0 0.30527483842466491 0.24224995570905139 0 0.30527483842466491 0.24224995570905139 0 0.31594139957468809 0.2308474651003328 0 0.30576545944162709 0.23201860149452261 0 0.30527483842466491 0.24224995570905139 0 0.31594139957468809 0.2308474651003328 0 0.30803568788407731 0.24037738304617029 0 0.30527483842466491 0.24224995570905139 0 0.31594139957468809 0.2308474651003328 0 0.29968203181016267 0.2411682504590475 0 0.30527483842466491 0.24224995570905139 0 0.29583784293604187 0.2460078425053967 0 0.29968203181016267 0.2411682504590475 0 0.29583784293604187 0.2460078425053967 0 0.29557248917997231 0.24026600598927231 0 0.28873450965048891 0.25975596681429841 0 0.30527483842466491 0.24224995570905139 0 0.29583784293604187 0.2460078425053967 0 0.28992534561491962 0.2465990335553159 0 0.29557248917997231 0.24026600598927231 0 0.28922027646855453 0.239749146068089 0 0.28992534561491962 0.2465990335553159 0 0.29583784293604187 0.2460078425053967 0 0.29557248917997231 0.24026600598927231 0 0.29561379580358038 0.23338426742197271 0 0.29557248917997231 0.24026600598927231 0 0.28922027646855453 0.239749146068089 0 0.28086903334085822 0.23456834899021539 0 0.29561379580358038 0.23338426742197271 0 0.28922027646855453 0.239749146068089 0 0.28086903334085822 0.23456834899021539 0 0.28922027646855453 0.239749146068089 0 0.28412071840344222 0.24392807438366881 0 0.28284527904782331 0.25050997356174443 0 0.2779349924450536 0.24982821056385049 0 0.28412071840344222 0.24392807438366881 0 0.28284527904782331 0.25050997356174443 0 0.28992534561491962 0.2465990335553159 0 0.28412071840344222 0.24392807438366881 0 0.28992534561491962 0.2465990335553159 0 0.28922027646855453 0.239749146068089 0 0.28412071840344222 0.24392807438366881 0 0.32807607323130622 0.26124850973904479 0 0.30803568788407731 0.24037738304617029 0 0.33799269646913971 0.24371408370356129 0 0.30803568788407731 0.24037738304617029 0 0.33799269646913971 0.24371408370356129 0 0.32733686611766449 0.22099879927804111 0 0.30803568788407731 0.24037738304617029 0 0.32733686611766449 0.22099879927804111 0 0.30812675824962033 0.21629243085087671 0 0.31594139957468809 0.2308474651003328 0 0.32660796072471671 0.21944497449161901 0 0.30803568788407731 0.24037738304617029 0 0.31594139957468809 0.2308474651003328 0 0.32733686611766449 0.22099879927804111 0 0.31594139957468809 0.2308474651003328 0 0.32733686611766449 0.22099879927804111 0 0.32660796072471671 0.21944497449161901 0 0.31594139957468809 0.2308474651003328 0 0.32660796072471671 0.21944497449161901 0 0.32733686611766449 0.22099879927804111 0 0.32660796072471671 0.21944497449161901 0 0.33799269646913971 0.24371408370356129 0 0.32733686611766449 0.22099879927804111 0 0.33799269646913971 0.24371408370356129 0 0.32733686611766449 0.22099879927804111 0 0.34282121072676691 0.2249036816524064 0 0.32660796072471671 0.21944497449161901 0 0.34679434099328282 0.19786585370478921 0 0.32660796072471671 0.21944497449161901 0 0.33001373087503072 0.1987292830412076 0 0.34679434099328282 0.19786585370478921 0 0.32660796072471671 0.21944497449161901 0 0.33810048952369132 0.21019200938687921 0 0.34679434099328282 0.19786585370478921 0 0.32733686611766449 0.22099879927804111 0 0.34282121072676691 0.2249036816524064 0 0.33810048952369132 0.21019200938687921 0 0.33810048952369132 0.21019200938687921 0 0.34886411292971842 0.1993852194957175 0 0.32733686611766449 0.22099879927804111 0 0.33810048952369132 0.21019200938687921 0 0.32733686611766449 0.22099879927804111 0 0.32660796072471671 0.21944497449161901 0 0.33810048952369132 0.21019200938687921 0 0.30812675824962033 0.21629243085087671 0 0.32660796072471671 0.21944497449161901 0 0.31507662537596459 0.1948633554517894 0 0.32660796072471671 0.21944497449161901 0 0.31507662537596459 0.1948633554517894 0 0.32660796072471671 0.21944497449161901 0 0.31507662537596459 0.1948633554517894 0 0.33001373087503072 0.1987292830412076 0 0.31507662537596459 0.1948633554517894 0 0.33001373087503072 0.1987292830412076 0 0.32667399140351888 0.18309602794280461 0 0.34679434099328282 0.19786585370478921 0 0.32667399140351888 0.18309602794280461 0 0.33001373087503072 0.1987292830412076 0 0.34679434099328282 0.19786585370478921 0 0.32667399140351888 0.18309602794280461 0 0.34679434099328282 0.19786585370478921 0 0.32667399140351888 0.18309602794280461 0 0.34933806326552691 0.18440616012382341 0 0.34679434099328282 0.19786585370478921 0 0.36264955469339649 0.1809167242926 0 0.36321833395268949 0.18497343223830279 0 0.34679434099328282 0.19786585370478921 0 0.34933806326552691 0.18440616012382341 0 0.36264955469339649 0.1809167242926 0 0.34679434099328282 0.19786585370478921 0 0.36264955469339649 0.1809167242926 0 0.34679434099328282 0.19786585370478921 0 0.34886411292971842 0.1993852194957175 0 0.36321833395268949 0.18497343223830279 0 0.33810048952369132 0.21019200938687921 0 0.34679434099328282 0.19786585370478921 0 0.34886411292971842 0.1993852194957175 0 0.34679434099328282 0.19786585370478921 0 0.34886411292971842 0.1993852194957175 0 0.34886411292971842 0.1993852194957175 0 0.36321833395268949 0.18497343223830279 0 0.34886411292971842 0.1993852194957175 0 0.36658108033818287 0.19245598319168791 0 0.36321833395268949 0.18497343223830279 0 0.37381785240378762 0.1941803970078439 0 0.36420110038823889 0.20030660911966369 0 0.36967602198503152 0.21466270108965771 0 0.34886411292971842 0.1993852194957175 0 0.36658108033818287 0.19245598319168791 0 0.36420110038823889 0.20030660911966369 0 0.36658108033818287 0.19245598319168791 0 0.37381785240378762 0.1941803970078439 0 0.37255009964400332 0.1848250870371887 0 0.36658108033818287 0.19245598319168791 0 0.37381785240378762 0.1941803970078439 0 0.36420110038823889 0.20030660911966369 0 0.34886411292971842 0.1993852194957175 0 0.36420110038823889 0.20030660911966369 0 0.36967602198503152 0.21466270108965771 0 0.34886411292971842 0.1993852194957175 0 0.36967602198503152 0.21466270108965771 0 0.34886411292971842 0.1993852194957175 0 0.36967602198503152 0.21466270108965771 0 0.35224456700415119 0.21604390647679289 0 0.33810048952369132 0.21019200938687921 0 0.34886411292971842 0.1993852194957175 0 0.35224456700415119 0.21604390647679289 0 0.34282121072676691 0.2249036816524064 0 0.33810048952369132 0.21019200938687921 0 0.35224456700415119 0.21604390647679289 0 0.36951061432609211 0.25098971491638888 0 0.33799269646913971 0.24371408370356129 0 0.36008254604690632 0.23223568944814829 0 0.33799269646913971 0.24371408370356129 0 0.34282121072676691 0.2249036816524064 0 0.36008254604690632 0.23223568944814829 0 0.34282121072676691 0.2249036816524064 0 0.35224456700415119 0.21604390647679289 0 0.36008254604690632 0.23223568944814829 0 0.36967602198503152 0.21466270108965771 0 0.36008254604690632 0.23223568944814829 0 0.39048793104034468 0.2299401826835977 0 0.36967602198503152 0.21466270108965771 0 0.35224456700415119 0.21604390647679289 0 0.36008254604690632 0.23223568944814829 0 0.36951061432609211 0.25098971491638888 0 0.36008254604690632 0.23223568944814829 0 0.39048793104034468 0.2299401826835977 0 0.3411131955191361 0.1530139201798584 0 0.32574072008567911 0.15585392798592571 0 0.3449277983576014 0.14338165379103579 0 0.33002251570748781 0.14493944275645951 0 0.32574072008567911 0.15585392798592571 0 0.3449277983576014 0.14338165379103579 0 0.32574072008567911 0.15585392798592571 0 0.3449277983576014 0.14338165379103579 0 0.33002251570748781 0.14493944275645951 0 0.34059060697741789 0.13986251371602629 0 0.3449277983576014 0.14338165379103579 0 0.34059060697741789 0.13986251371602629 0 0.33901669724782929 0.12925315040062671 0 0.33542500931161168 0.13595635798176969 0 0.35124181243179958 0.12391753768900871 0 0.34059060697741789 0.13986251371602629 0 0.33901669724782929 0.12925315040062671 0 0.33188430642590211 0.12459448939780431 0 0.33901669724782929 0.12925315040062671 0 0.3295531698279191 0.13322451740388019 0 0.33188430642590211 0.12459448939780431 0 0.3295531698279191 0.13322451740388019 0 0.3234536763714701 0.1290778295938626 0 0.33901669724782929 0.12925315040062671 0 0.3295531698279191 0.13322451740388019 0 0.33542500931161168 0.13595635798176969 0 0.33002251570748781 0.14493944275645951 0 0.3295531698279191 0.13322451740388019 0 0.33542500931161168 0.13595635798176969 0 0.33002251570748781 0.14493944275645951 0 0.34059060697741789 0.13986251371602629 0 0.33542500931161168 0.13595635798176969 0 0.33002251570748781 0.14493944275645951 0 0.3295531698279191 0.13322451740388019 0 0.31954295371612063 0.1377932393890853 0 0.3295531698279191 0.13322451740388019 0 0.3234536763714701 0.1290778295938626 0 0.31954295371612063 0.1377932393890853 0 0.32322348553757979 0.12164932985998619 0 0.33188430642590211 0.12459448939780431 0 0.3234536763714701 0.1290778295938626 0 0.32322348553757979 0.12164932985998619 0 0.3234536763714701 0.1290778295938626 0 0.31547262408842208 0.12915382217636601 0 0.3234536763714701 0.1290778295938626 0 0.31547262408842208 0.12915382217636601 0 0.31954295371612063 0.1377932393890853 0 0.30797130861713629 0.14037939280934389 0 0.31547262408842208 0.12915382217636601 0 0.31954295371612063 0.1377932393890853 0 0.30797130861713629 0.14037939280934389 0 0.31954295371612063 0.1377932393890853 0 0.315349654879723 0.1492648469383008 0 0.33002251570748781 0.14493944275645951 0 0.31954295371612063 0.1377932393890853 0 0.315349654879723 0.1492648469383008 0 0.33002251570748781 0.14493944275645951 0 0.32574072008567911 0.15585392798592571 0 0.315349654879723 0.1492648469383008 0 0.30655364181375738 0.16832620218081659 0 0.32574072008567911 0.15585392798592571 0 0.315349654879723 0.1492648469383008 0 0.30655364181375738 0.16832620218081659 0 0.32574072008567911 0.15585392798592571 0 0.32274883496233131 0.16880296608594569 0 0.30655364181375738 0.16832620218081659 0 0.32574072008567911 0.15585392798592571 0 0.32574072008567911 0.15585392798592571 0 0.32274883496233131 0.16880296608594569 0 0.33202698654637008 0.1679357062342369 0 0.30655364181375738 0.16832620218081659 0 0.32667399140351888 0.18309602794280461 0 0.30655364181375738 0.16832620218081659 0 0.31507662537596459 0.1948633554517894 0 0.32667399140351888 0.18309602794280461 0 0.30655364181375738 0.16832620218081659 0 0.32274883496233131 0.16880296608594569 0 0.32667399140351888 0.18309602794280461 0 0.32274883496233131 0.16880296608594569 0 0.32667399140351888 0.18309602794280461 0 0.33202698654637008 0.1679357062342369 0 0.32667399140351888 0.18309602794280461 0 0.34933806326552691 0.18440616012382341 0 0.34523682223154201 0.1722835980607465 0 0.32667399140351888 0.18309602794280461 0 0.33202698654637008 0.1679357062342369 0 0.34523682223154201 0.1722835980607465 0 0.3411131955191361 0.1530139201798584 0 0.32574072008567911 0.15585392798592571 0 0.34216932376146209 0.15994465156090051 0 0.32574072008567911 0.15585392798592571 0 0.33202698654637008 0.1679357062342369 0 0.34216932376146209 0.15994465156090051 0 0.33202698654637008 0.1679357062342369 0 0.34216932376146209 0.15994465156090051 0 0.34523682223154201 0.1722835980607465 0 0.34216932376146209 0.15994465156090051 0 0.35096695218568141 0.16334388410300149 0 0.35161493987180192 0.15287544738157161 0 0.35096695218568141 0.16334388410300149 0 0.35617546053707222 0.1701714783042417 0 0.34523682223154201 0.1722835980607465 0 0.34216932376146209 0.15994465156090051 0 0.35096695218568141 0.16334388410300149 0 0.34523682223154201 0.1722835980607465 0 0.35096695218568141 0.16334388410300149 0 0.35617546053707222 0.1701714783042417 0 0.35898013634376902 0.15969810037468421 0 0.35096695218568141 0.16334388410300149 0 0.35898013634376902 0.15969810037468421 0 0.35161493987180192 0.15287544738157161 0 0.34933806326552691 0.18440616012382341 0 0.34523682223154201 0.1722835980607465 0 0.35478168405041571 0.1773223426354851 0 0.35617546053707222 0.1701714783042417 0 0.34523682223154201 0.1722835980607465 0 0.35478168405041571 0.1773223426354851 0 0.35478168405041571 0.1773223426354851 0 0.36264955469339649 0.1809167242926 0 0.36004945412330919 0.17501721371010021 0 0.35617546053707222 0.1701714783042417 0 0.35478168405041571 0.1773223426354851 0 0.36004945412330919 0.17501721371010021 0 0.34933806326552691 0.18440616012382341 0 0.35478168405041571 0.1773223426354851 0 0.36264955469339649 0.1809167242926 0 0.35617546053707222 0.1701714783042417 0 0.36004945412330919 0.17501721371010021 0 0.36670742958084718 0.17083412315991289 0 0.36264955469339649 0.1809167242926 0 0.36004945412330919 0.17501721371010021 0 0.36670742958084718 0.17083412315991289 0 0.36264955469339649 0.1809167242926 0 0.36321833395268949 0.18497343223830279 0 0.37757255497566139 0.1705616449808891 0 0.36321833395268949 0.18497343223830279 0 0.37757255497566139 0.1705616449808891 0 0.36264955469339649 0.1809167242926 0 0.36670742958084718 0.17083412315991289 0 0.37757255497566139 0.1705616449808891 0 0.36658108033818287 0.19245598319168791 0 0.36321833395268949 0.18497343223830279 0 0.37255009964400332 0.1848250870371887 0 0.36321833395268949 0.18497343223830279 0 0.37255009964400332 0.1848250870371887 0 0.37757255497566139 0.1705616449808891 0 0.36881491227738061 0.1606475763413083 0 0.37769323371584712 0.15327533806430901 0 0.37757255497566139 0.1705616449808891 0 0.35898013634376902 0.15969810037468421 0 0.36881491227738061 0.1606475763413083 0 0.36312120677077819 0.14886867512674651 0 0.35898013634376902 0.15969810037468421 0 0.36670742958084718 0.17083412315991289 0 0.36881491227738061 0.1606475763413083 0 0.35617546053707222 0.1701714783042417 0 0.35898013634376902 0.15969810037468421 0 0.36670742958084718 0.17083412315991289 0 0.36670742958084718 0.17083412315991289 0 0.36881491227738061 0.1606475763413083 0 0.37757255497566139 0.1705616449808891 0 0.36881491227738061 0.1606475763413083 0 0.36312120677077819 0.14886867512674651 0 0.37769323371584712 0.15327533806430901 0 0.37488391547001421 0.14172456253660409 0 0.36312120677077819 0.14886867512674651 0 0.37769323371584712 0.15327533806430901 0 0.36312120677077819 0.14886867512674651 0 0.3449277983576014 0.14338165379103579 0 0.36411487662952369 0.13090937959614579 0 0.36312120677077819 0.14886867512674651 0 0.35161493987180192 0.15287544738157161 0 0.3449277983576014 0.14338165379103579 0 0.35898013634376902 0.15969810037468421 0 0.36312120677077819 0.14886867512674651 0 0.35161493987180192 0.15287544738157161 0 0.3411131955191361 0.1530139201798584 0 0.34216932376146209 0.15994465156090051 0 0.35161493987180192 0.15287544738157161 0 0.3411131955191361 0.1530139201798584 0 0.35161493987180192 0.15287544738157161 0 0.3449277983576014 0.14338165379103579 0 0.35124181243179958 0.12391753768900871 0 0.34059060697741789 0.13986251371602629 0 0.36411487662952369 0.13090937959614579 0 0.3449277983576014 0.14338165379103579 0 0.36411487662952369 0.13090937959614579 0 0.34059060697741789 0.13986251371602629 0 0.3449277983576014 0.14338165379103579 0 0.36411487662952369 0.13090937959614579 0 0.34059060697741789 0.13986251371602629 0 0.36411487662952369 0.13090937959614579 0 0.37488391547001421 0.14172456253660409 0 0.36411487662952369 0.13090937959614579 0 0.38108404195702977 0.13363924171809219 0 0.37488391547001421 0.14172456253660409 0 0.36312120677077819 0.14886867512674651 0 0.36411487662952369 0.13090937959614579 0 0.36411487662952369 0.13090937959614579 0 0.38587938737310451 0.1226259945379652 0 0.36411487662952369 0.13090937959614579 0 0.38108404195702977 0.13363924171809219 0 0.38587938737310451 0.1226259945379652 0 0.37488391547001421 0.14172456253660409 0 0.38108404195702977 0.13363924171809219 0 0.38840621827689209 0.14193017817772721 0 0.38108404195702977 0.13363924171809219 0 0.39161550465517808 0.1317055814314011 0 0.38840621827689209 0.14193017817772721 0 0.38108404195702977 0.13363924171809219 0 0.39161550465517808 0.1317055814314011 0 0.38587938737310451 0.1226259945379652 0 0.39161550465517808 0.1317055814314011 0 0.40227685080531372 0.1363574986668834 0 0.39979324964032831 0.12616765291782781 0 0.39161550465517808 0.1317055814314011 0 0.39979324964032831 0.12616765291782781 0 0.38587938737310451 0.1226259945379652 0 0.39161550465517808 0.1317055814314011 0 0.40227685080531372 0.1363574986668834 0 0.38840621827689209 0.14193017817772721 0 0.40227685080531372 0.1363574986668834 0 0.39979324964032831 0.12616765291782781 0 0.41251534063605783 0.12801393963922381 0 0.40565882246307228 0.15118773560161161 0 0.39192677599863351 0.15614985772347531 0 0.38840621827689209 0.14193017817772721 0 0.40227685080531372 0.1363574986668834 0 0.40565882246307228 0.15118773560161161 0 0.38840621827689209 0.14193017817772721 0 0.39192677599863351 0.15614985772347531 0 0.38840621827689209 0.14193017817772721 0 0.37769323371584712 0.15327533806430901 0 0.37488391547001421 0.14172456253660409 0 0.38840621827689209 0.14193017817772721 0 0.37769323371584712 0.15327533806430901 0 0.39192677599863351 0.15614985772347531 0 0.37757255497566139 0.1705616449808891 0 0.39292023840963841 0.17686394984262249 0 0.39192677599863351 0.15614985772347531 0 0.37769323371584712 0.15327533806430901 0 0.37757255497566139 0.1705616449808891 0 0.39192677599863351 0.15614985772347531 0 0.37757255497566139 0.1705616449808891 0 0.38156067654969511 0.1819539777672198 0 0.39292023840963841 0.17686394984262249 0 0.38831252720074461 0.19481146909123601 0 0.37381785240378762 0.1941803970078439 0 0.37255009964400332 0.1848250870371887 0 0.38156067654969511 0.1819539777672198 0 0.37255009964400332 0.1848250870371887 0 0.37757255497566139 0.1705616449808891 0 0.38156067654969511 0.1819539777672198 0 0.37757255497566139 0.1705616449808891 0 0.38156067654969511 0.1819539777672198 0 0.39292023840963841 0.17686394984262249 0 0.39292023840963841 0.17686394984262249 0 0.41400647558308712 0.16582608815038741 0 0.40390024817465192 0.18863694387275901 0 0.39292023840963841 0.17686394984262249 0 0.38831252720074461 0.19481146909123601 0 0.40390024817465192 0.18863694387275901 0 0.39192677599863351 0.15614985772347531 0 0.39292023840963841 0.17686394984262249 0 0.41400647558308712 0.16582608815038741 0 0.40565882246307228 0.15118773560161161 0 0.39192677599863351 0.15614985772347531 0 0.41400647558308712 0.16582608815038741 0 0.41400647558308712 0.16582608815038741 0 0.40390024817465192 0.18863694387275901 0 0.42015747951886462 0.19293048378662939 0 0.41400647558308712 0.16582608815038741 0 0.43504573941131619 0.17823205889173879 0 0.42015747951886462 0.19293048378662939 0 0.41400647558308712 0.16582608815038741 0 0.43504573941131619 0.17823205889173879 0 0.43550485668731609 0.1514662256137371 0 0.41400647558308712 0.16582608815038741 0 0.43550485668731609 0.1514662256137371 0 0.43550485668731609 0.1514662256137371 0 0.42570371585032268 0.1290598897063881 0 0.41903134965926209 0.14532537494732009 0 0.41400647558308712 0.16582608815038741 0 0.43550485668731609 0.1514662256137371 0 0.41903134965926209 0.14532537494732009 0 0.43550485668731609 0.1514662256137371 0 0.42570371585032268 0.1290598897063881 0 0.44109358573086899 0.13227830836771159 0 0.42570371585032268 0.1290598897063881 0 0.44109358573086899 0.13227830836771159 0 0.4334746701816079 0.1205970013821306 0 0.40227685080531372 0.1363574986668834 0 0.41251534063605783 0.12801393963922381 0 0.41903134965926209 0.14532537494732009 0 0.42570371585032268 0.1290598897063881 0 0.41251534063605783 0.12801393963922381 0 0.41903134965926209 0.14532537494732009 0 0.42570371585032268 0.1290598897063881 0 0.41251534063605783 0.12801393963922381 0 0.4218081685209038 0.11920720176589671 0 0.40227685080531372 0.1363574986668834 0 0.40565882246307228 0.15118773560161161 0 0.41903134965926209 0.14532537494732009 0 0.40565882246307228 0.15118773560161161 0 0.41400647558308712 0.16582608815038741 0 0.41903134965926209 0.14532537494732009 0 0.36967602198503152 0.21466270108965771 0 0.39048793104034468 0.2299401826835977 0 0.40410452016092457 0.2127527284929199 0 0.406054156101611 0.23776094270494191 0 0.38914290337293911 0.24913508040708501 0 0.39048793104034468 0.2299401826835977 0 0.36951061432609211 0.25098971491638888 0 0.38914290337293911 0.24913508040708501 0 0.39048793104034468 0.2299401826835977 0 0.36967602198503152 0.21466270108965771 0 0.39048793104034468 0.2299401826835977 0 0.406054156101611 0.23776094270494191 0 0.39048793104034468 0.2299401826835977 0 0.40410452016092457 0.2127527284929199 0 0.36967602198503152 0.21466270108965771 0 0.40410452016092457 0.2127527284929199 0 0.38831252720074461 0.19481146909123601 0 0.37381785240378762 0.1941803970078439 0 0.36967602198503152 0.21466270108965771 0 0.38831252720074461 0.19481146909123601 0 0.37381785240378762 0.1941803970078439 0 0.38156067654969511 0.1819539777672198 0 0.38831252720074461 0.19481146909123601 0 0.40410452016092457 0.2127527284929199 0 0.38831252720074461 0.19481146909123601 0 0.40390024817465192 0.18863694387275901 0 0.40410452016092457 0.2127527284929199 0 0.40390024817465192 0.18863694387275901 0 0.42015747951886462 0.19293048378662939 0 0.43504573941131619 0.17823205889173879 0 0.42015747951886462 0.19293048378662939 0 0.43652678583921029 0.19760088658992361 0 0.42015747951886462 0.19293048378662939 0 0.43652678583921029 0.19760088658992361 0 0.42662808808787439 0.2103554547854371 0 0.43652678583921029 0.19760088658992361 0 0.42662808808787439 0.2103554547854371 0 0.4448415950985215 0.21529534158819491 0 0.42662808808787439 0.2103554547854371 0 0.42456844424717199 0.2290333399210927 0 0.4448415950985215 0.21529534158819491 0 0.40410452016092457 0.2127527284929199 0 0.42015747951886462 0.19293048378662939 0 0.42662808808787439 0.2103554547854371 0 0.40410452016092457 0.2127527284929199 0 0.42662808808787439 0.2103554547854371 0 0.42456844424717199 0.2290333399210927 0 0.406054156101611 0.23776094270494191 0 0.40410452016092457 0.2127527284929199 0 0.42456844424717199 0.2290333399210927 0 0.43810076971185841 0.2507607064802867 0 0.42456844424717199 0.2290333399210927 0 0.41917070573892518 0.25080734156154982 0 0.43810076971185841 0.2507607064802867 0 0.42456844424717199 0.2290333399210927 0 0.43810076971185841 0.2507607064802867 0 0.42456844424717199 0.2290333399210927 0 0.44775383067776348 0.2342778648686859 0 0.41917070573892518 0.25080734156154982 0 0.406054156101611 0.23776094270494191 0 0.42456844424717199 0.2290333399210927 0 0.46372918670737279 0.25099853693779572 0 0.44775383067776348 0.2342778648686859 0 0.46752915762389302 0.22530139941605951 0 0.43810076971185841 0.2507607064802867 0 0.46372918670737279 0.25099853693779572 0 0.44775383067776348 0.2342778648686859 0 0.42456844424717199 0.2290333399210927 0 0.44775383067776348 0.2342778648686859 0 0.4448415950985215 0.21529534158819491 0 0.44775383067776348 0.2342778648686859 0 0.46752915762389302 0.22530139941605951 0 0.4448415950985215 0.21529534158819491 0 0.4614697571160975 0.20903738040888711 0 0.4448415950985215 0.21529534158819491 0 0.45596102707947522 0.19119109389761771 0 0.46752915762389302 0.22530139941605951 0 0.4614697571160975 0.20903738040888711 0 0.4448415950985215 0.21529534158819491 0 0.43504573941131619 0.17823205889173879 0 0.43652678583921029 0.19760088658992361 0 0.45596102707947522 0.19119109389761771 0 0.43652678583921029 0.19760088658992361 0 0.4448415950985215 0.21529534158819491 0 0.45596102707947522 0.19119109389761771 0 0.4614697571160975 0.20903738040888711 0 0.45596102707947522 0.19119109389761771 0 0.47754724866250048 0.20436168673367619 0 0.46752915762389302 0.22530139941605951 0 0.47754724866250048 0.20436168673367619 0 0.5 0.2192014625006222 0 0.45596102707947522 0.19119109389761771 0 0.47754724866250048 0.20436168673367619 0 0.48038043918683238 0.18372017233538501 0 0.5 0.19149775637641309 0 0.47754724866250048 0.20436168673367619 0 0.48038043918683238 0.18372017233538501 0 0.5 0.19149775637641309 0 0.47754724866250048 0.20436168673367619 0 0.5 0.2192014625006222 0 0.46752915762389302 0.22530139941605951 0 0.4614697571160975 0.20903738040888711 0 0.47754724866250048 0.20436168673367619 0 0.46752915762389302 0.22530139941605951 0 0.5 0.2192014625006222 0 0.48185102564504761 0.24096708964813579 0 0.5 0.2192014625006222 0 0.5 0.24690516862483161 0 0.48185102564504761 0.24096708964813579 0 0.48409980502374422 0.25739444921941468 0 0.5 0.24690516862483161 0 0.48185102564504761 0.24096708964813579 0 0.46372918670737279 0.25099853693779572 0 0.46752915762389302 0.22530139941605951 0 0.48185102564504761 0.24096708964813579 0 0.46372918670737279 0.25099853693779572 0 0.48409980502374422 0.25739444921941468 0 0.48185102564504761 0.24096708964813579 0 0.45700323779154522 0.13710636307708679 0 0.44938184914594631 0.1650911134720143 0 0.47031746828050253 0.16442486533957859 0 0.45700323779154522 0.13710636307708679 0 0.47850161889577408 0.12274650054043661 0 0.45700323779154522 0.13710636307708679 0 0.47850161889577408 0.12274650054043661 0 0.44902467665510598 0.11586693024065151 0 0.43550485668731609 0.1514662256137371 0 0.45700323779154522 0.13710636307708679 0 0.44109358573086899 0.13227830836771159 0 0.45700323779154522 0.13710636307708679 0 0.44109358573086899 0.13227830836771159 0 0.44902467665510598 0.11586693024065151 0 0.43550485668731609 0.1514662256137371 0 0.45700323779154522 0.13710636307708679 0 0.44938184914594631 0.1650911134720143 0 0.43550485668731609 0.1514662256137371 0 0.45700323779154522 0.13710636307708679 0 0.43504573941131619 0.17823205889173879 0 0.43550485668731609 0.1514662256137371 0 0.44938184914594631 0.1650911134720143 0 0.43504573941131619 0.17823205889173879 0 0.45596102707947522 0.19119109389761771 0 0.44938184914594631 0.1650911134720143 0 0.45596102707947522 0.19119109389761771 0 0.44938184914594631 0.1650911134720143 0 0.47031746828050253 0.16442486533957859 0 0.47031746828050253 0.16442486533957859 0 0.5 0.1637940502522037 0 0.48059697684660768 0.14506498876337551 0 0.47031746828050253 0.16442486533957859 0 0.48038043918683238 0.18372017233538501 0 0.5 0.1637940502522037 0 0.45596102707947522 0.19119109389761771 0 0.47031746828050253 0.16442486533957859 0 0.48038043918683238 0.18372017233538501 0 0.5 0.19149775637641309 0 0.48038043918683238 0.18372017233538501 0 0.5 0.1637940502522037 0 0.5 0.1637940502522037 0 0.48059697684660768 0.14506498876337551 0 0.5 0.13609034412799451 0 0.45700323779154522 0.13710636307708679 0 0.47031746828050253 0.16442486533957859 0 0.48059697684660768 0.14506498876337551 0 0.45700323779154522 0.13710636307708679 0 0.48059697684660768 0.14506498876337551 0 0.47850161889577408 0.12274650054043661 0 0.48059697684660768 0.14506498876337551 0 0.5 0.13609034412799451 0 0.47850161889577408 0.12274650054043661 0 0.50000000000000233 0.1083866380037853 0 0.47850161889577408 0.12274650054043661 0 0.5 0.13609034412799451 0 0.50000000000000233 0.1083866380037853 0 0.47850161889577408 0.12274650054043661 0 0.50000000000000233 0.1083866380037853 0 0.48354996832112962 0.095329169775142594 0 0.47850161889577408 0.12274650054043661 0 0.50000000000000233 0.1083866380037853 0 0.48354996832112962 0.095329169775142594 0 0.5 0.078631569983753091 0 0.48354996832112962 0.095329169775142594 0 0.47850161889577408 0.12274650054043661 0 0.46110630502126609 0.096249003328831878 0 0.5 0.078631569983753091 0 0.48083550890192811 0.073994682827120767 0 0.5 0.048876501963720953 0 0.48354996832112962 0.095329169775142594 0 0.5 0.078631569983753091 0 0.48083550890192811 0.073994682827120767 0 0.48354996832112962 0.095329169775142594 0 0.48083550890192811 0.073994682827120767 0 0.46110630502126609 0.096249003328831878 0 0.48083550890192811 0.073994682827120767 0 0.46090546386167669 0.070555347329745874 0 0.47945131620749648 0.054326504581530273 0 0.46090546386167669 0.070555347329745874 0 0.44732001677242428 0.083792590304154008 0 0.46110630502126609 0.096249003328831878 0 0.48083550890192811 0.073994682827120767 0 0.46090546386167669 0.070555347329745874 0 0.46110630502126609 0.096249003328831878 0 0.44732001677242428 0.083792590304154008 0 0.43853903081274298 0.067099296339700576 0 0.43026170669799008 0.087911618809190822 0 0.44732001677242428 0.083792590304154008 0 0.46110630502126609 0.096249003328831878 0 0.44342422280141058 0.097975873420886483 0 0.44732001677242428 0.083792590304154008 0 0.44342422280141058 0.097975873420886483 0 0.43026170669799008 0.087911618809190822 0 0.46090546386167669 0.070555347329745874 0 0.44732001677242428 0.083792590304154008 0 0.43853903081274298 0.067099296339700576 0 0.46090546386167669 0.070555347329745874 0 0.43853903081274298 0.067099296339700576 0 0.45566629616555449 0.052986410778758923 0 0.47850161889577408 0.12274650054043661 0 0.46110630502126609 0.096249003328831878 0 0.44902467665510598 0.11586693024065151 0 0.46110630502126609 0.096249003328831878 0 0.44342422280141058 0.097975873420886483 0 0.44902467665510598 0.11586693024065151 0 0.44342422280141058 0.097975873420886483 0 0.44902467665510598 0.11586693024065151 0 0.42940840886026621 0.10605922442160411 0 0.44109358573086899 0.13227830836771159 0 0.44902467665510598 0.11586693024065151 0 0.4334746701816079 0.1205970013821306 0 0.44902467665510598 0.11586693024065151 0 0.4334746701816079 0.1205970013821306 0 0.42940840886026621 0.10605922442160411 0 0.4334746701816079 0.1205970013821306 0 0.4218081685209038 0.11920720176589671 0 0.42940840886026621 0.10605922442160411 0 0.42570371585032268 0.1290598897063881 0 0.4334746701816079 0.1205970013821306 0 0.4218081685209038 0.11920720176589671 0 0.40764389811668528 0.1143426094797847 0 0.42940840886026621 0.10605922442160411 0 0.4218081685209038 0.11920720176589671 0 0.40764389811668528 0.1143426094797847 0 0.42940840886026621 0.10605922442160411 0 0.41251534063605783 0.12801393963922381 0 0.4218081685209038 0.11920720176589671 0 0.40764389811668528 0.1143426094797847 0 0.39979324964032831 0.12616765291782781 0 0.41251534063605783 0.12801393963922381 0 0.40764389811668528 0.1143426094797847 0 0.40764389811668528 0.1143426094797847 0 0.40821276334183471 0.1022442057381759 0 0.42940840886026621 0.10605922442160411 0 0.40821276334183471 0.1022442057381759 0 0.43026170669799008 0.087911618809190822 0 0.44342422280141058 0.097975873420886483 0 0.42940840886026621 0.10605922442160411 0 0.43026170669799008 0.087911618809190822 0 0.40821276334183471 0.1022442057381759 0 0.42940840886026621 0.10605922442160411 0 0.43026170669799008 0.087911618809190822 0 0.43853903081274298 0.067099296339700576 0 0.43026170669799008 0.087911618809190822 0 0.42430053642558091 0.074276874234145848 0 0.43853903081274298 0.067099296339700576 0 0.42430053642558091 0.074276874234145848 0 0.41811064221560329 0.060781725001792873 0 0.41029076597598713 0.081314856785899142 0 0.40320005086432498 0.067313750126359151 0 0.41811064221560329 0.060781725001792873 0 0.42430053642558091 0.074276874234145848 0 0.41029076597598713 0.081314856785899142 0 0.41811064221560329 0.060781725001792873 0 0.40821276334183471 0.1022442057381759 0 0.43026170669799008 0.087911618809190822 0 0.41029076597598713 0.081314856785899142 0 0.43026170669799008 0.087911618809190822 0 0.42430053642558091 0.074276874234145848 0 0.41029076597598713 0.081314856785899142 0 0.40821276334183471 0.1022442057381759 0 0.41029076597598713 0.081314856785899142 0 0.40121952514409093 0.090982037995142095 0 0.41029076597598713 0.081314856785899142 0 0.40121952514409093 0.090982037995142095 0 0.3893277518175437 0.085123067956590942 0 0.40121952514409093 0.090982037995142095 0 0.3893277518175437 0.085123067956590942 0 0.39714154608180652 0.096908797928987975 0 0.41029076597598713 0.081314856785899142 0 0.40320005086432498 0.067313750126359151 0 0.3893277518175437 0.085123067956590942 0 0.40320005086432498 0.067313750126359151 0 0.3893277518175437 0.085123067956590942 0 0.3888493596113306 0.060960255887139013 0 0.37022502229348098 0.075346759730714766 0 0.3893277518175437 0.085123067956590942 0 0.3888493596113306 0.060960255887139013 0 0.3893277518175437 0.085123067956590942 0 0.3888493596113306 0.060960255887139013 0 0.37022502229348098 0.075346759730714766 0 0.3893277518175437 0.085123067956590942 0 0.37623785132629661 0.094160230158270186 0 0.3893277518175437 0.085123067956590942 0 0.38980614402375691 0.109285880026043 0 0.3893277518175437 0.085123067956590942 0 0.37623785132629661 0.094160230158270186 0 0.38980614402375691 0.109285880026043 0 0.37623785132629661 0.094160230158270186 0 0.38980614402375691 0.109285880026043 0 0.37998068770391968 0.1085975596436005 0 0.37291575093450607 0.1050707582973348 0 0.37623785132629661 0.094160230158270186 0 0.37998068770391968 0.1085975596436005 0 0.36411487662952369 0.13090937959614579 0 0.38616381998567911 0.11657679266716089 0 0.36411487662952369 0.13090937959614579 0 0.38587938737310451 0.1226259945379652 0 0.38616381998567911 0.11657679266716089 0 0.36850939876642852 0.1140914575861406 0 0.37998068770391968 0.1085975596436005 0 0.38616381998567911 0.11657679266716089 0 0.38980614402375691 0.109285880026043 0 0.37998068770391968 0.1085975596436005 0 0.38616381998567911 0.11657679266716089 0 0.40764389811668528 0.1143426094797847 0 0.38587938737310451 0.1226259945379652 0 0.38616381998567911 0.11657679266716089 0 0.40821276334183471 0.1022442057381759 0 0.38616381998567911 0.11657679266716089 0 0.40764389811668528 0.1143426094797847 0 0.38587938737310451 0.1226259945379652 0 0.39979324964032831 0.12616765291782781 0 0.40764389811668528 0.1143426094797847 0 0.38587938737310451 0.1226259945379652 0 0.40764389811668528 0.1143426094797847 0 0.40821276334183471 0.1022442057381759 0 0.38616381998567911 0.11657679266716089 0 0.3893277518175437 0.085123067956590942 0 0.38980614402375691 0.109285880026043 0 0.39714154608180652 0.096908797928987975 0 0.40821276334183471 0.1022442057381759 0 0.38980614402375691 0.109285880026043 0 0.38616381998567911 0.11657679266716089 0 0.40821276334183471 0.1022442057381759 0 0.38980614402375691 0.109285880026043 0 0.39714154608180652 0.096908797928987975 0 0.40821276334183471 0.1022442057381759 0 0.40121952514409093 0.090982037995142095 0 0.39714154608180652 0.096908797928987975 0 0.40381660071057007 0.02056685208473269 0 0.38789257519890441 0.012634631748235351 0 0.38837096740511751 0.036797443817687181 0 0.38789257519890441 0.012634631748235351 0 0.40612538130006531 -0.00027456011524365671 0 0.38719321142694452 -0.0069632075071056829 0 0.40381660071057007 0.02056685208473269 0 0.38789257519890441 0.012634631748235351 0 0.40612538130006531 -0.00027456011524365671 0 0.36610373341147812 0.005968604800277522 0 0.38789257519890441 0.012634631748235351 0 0.38719321142694452 -0.0069632075071056829 0 0.36610373341147812 0.005968604800277522 0 0.37367913366601208 0.025587236983636279 0 0.38789257519890441 0.012634631748235351 0 0.37367913366601208 0.025587236983636279 0 0.38789257519890441 0.012634631748235351 0 0.38837096740511751 0.036797443817687181 0 0.38789257519890441 0.012634631748235351 0 0.38837096740511751 0.036797443817687181 0 0.36656895479983798 0.048158329610884142 0 0.37367913366601208 0.025587236983636279 0 0.38837096740511751 0.036797443817687181 0 0.37022502229348098 0.075346759730714766 0 0.36656895479983798 0.048158329610884142 0 0.3888493596113306 0.060960255887139013 0 0.38837096740511751 0.036797443817687181 0 0.3888493596113306 0.060960255887139013 0 0.36656895479983798 0.048158329610884142 0 0.38837096740511751 0.036797443817687181 0 0.3888493596113306 0.060960255887139013 0 0.38837096740511751 0.036797443817687181 0 0.3888493596113306 0.060960255887139013 0 0.40196402187388308 0.050721818214157263 0 0.40320005086432498 0.067313750126359151 0 0.3888493596113306 0.060960255887139013 0 0.40196402187388308 0.050721818214157263 0 0.40381660071057007 0.02056685208473269 0 0.38837096740511751 0.036797443817687181 0 0.41263830241386462 0.037959384778557093 0 0.38837096740511751 0.036797443817687181 0 0.40196402187388308 0.050721818214157263 0 0.41263830241386462 0.037959384778557093 0 0.40196402187388308 0.050721818214157263 0 0.41263830241386462 0.037959384778557093 0 0.41811064221560329 0.060781725001792873 0 0.40320005086432498 0.067313750126359151 0 0.40196402187388308 0.050721818214157263 0 0.41811064221560329 0.060781725001792873 0 0.43853903081274298 0.067099296339700576 0 0.41811064221560329 0.060781725001792873 0 0.43686537810755399 0.039776651560173237 0 0.41263830241386462 0.037959384778557093 0 0.41811064221560329 0.060781725001792873 0 0.43686537810755399 0.039776651560173237 0 0.41263830241386462 0.037959384778557093 0 0.43686537810755399 0.039776651560173237 0 0.42605562121750251 0.01294812747266756 0 0.40381660071057007 0.02056685208473269 0 0.41263830241386462 0.037959384778557093 0 0.42605562121750251 0.01294812747266756 0 0.40381660071057007 0.02056685208473269 0 0.42605562121750251 0.01294812747266756 0 0.40612538130006531 -0.00027456011524365671 0 0.43686537810755399 0.039776651560173237 0 0.45033086744115769 0.017332707158011891 0 0.46971530604214728 0.035427799858755431 0 0.42605562121750251 0.01294812747266756 0 0.45033086744115769 0.017332707158011891 0 0.44658415384665678 -0.0078272237682335752 0 0.43686537810755399 0.039776651560173237 0 0.42605562121750251 0.01294812747266756 0 0.45033086744115769 0.017332707158011891 0 0.45033086744115769 0.017332707158011891 0 0.46971530604214728 0.035427799858755431 0 0.47243387799192782 0.0063381806666968016 0 0.45033086744115769 0.017332707158011891 0 0.47243387799192782 0.0063381806666968016 0 0.44658415384665678 -0.0078272237682335752 0 0.43686537810755399 0.039776651560173237 0 0.45566629616555449 0.052986410778758923 0 0.46971530604214728 0.035427799858755431 0 0.43853903081274298 0.067099296339700576 0 0.43686537810755399 0.039776651560173237 0 0.45566629616555449 0.052986410778758923 0 0.46090546386167669 0.070555347329745874 0 0.45566629616555449 0.052986410778758923 0 0.47945131620749648 0.054326504581530273 0 0.45566629616555449 0.052986410778758923 0 0.47945131620749648 0.054326504581530273 0 0.46971530604214728 0.035427799858755431 0 0.47945131620749648 0.054326504581530273 0 0.46971530604214728 0.035427799858755431 0 0.5 0.048876501963720953 0 0.46971530604214728 0.035427799858755431 0 0.5 0.048876501963720953 0 0.5 0.019121433943688811 0 0.48083550890192811 0.073994682827120767 0 0.47945131620749648 0.054326504581530273 0 0.5 0.048876501963720953 0 0.46971530604214728 0.035427799858755431 0 0.47243387799192782 0.0063381806666968016 0 0.5 0.019121433943688811 0 0.47243387799192782 0.0063381806666968016 0 0.5 0.019121433943688811 0 0.5 -0.01063363407634332 0 0.47243387799192782 0.0063381806666968016 0 0.5 -0.01063363407634332 0 0.46759517451972632 -0.01616006187122521 0 0.5 -0.01063363407634332 0 0.47832447456108163 -0.036732842325334421 0 0.46759517451972632 -0.01616006187122521 0 0.5 -0.01063363407634332 0 0.5 -0.040388702096375413 0 0.47832447456108163 -0.036732842325334421 0 0.5 -0.040388702096375413 0 0.48453079673106381 -0.060750481880199728 0 0.47832447456108163 -0.036732842325334421 0 0.5 -0.040388702096375413 0 0.48453079673106381 -0.060750481880199728 0 0.5 -0.0701437701164076 0 0.48453079673106381 -0.060750481880199728 0 0.47832447456108163 -0.036732842325334421 0 0.46723062822593597 -0.055045441352959523 0 0.47832447456108163 -0.036732842325334421 0 0.46723062822593597 -0.055045441352959523 0 0.44996213853366451 -0.036613292757970893 0 0.46723062822593597 -0.055045441352959523 0 0.44996213853366451 -0.036613292757970893 0 0.45334012322067219 -0.065399361747708218 0 0.44996213853366451 -0.036613292757970893 0 0.45334012322067219 -0.065399361747708218 0 0.44080329890390502 -0.053633645979385268 0 0.44996213853366451 -0.036613292757970893 0 0.45334012322067219 -0.065399361747708218 0 0.44080329890390502 -0.053633645979385268 0 0.45334012322067219 -0.065399361747708218 0 0.43316414056465657 -0.067947802542553171 0 0.44080329890390502 -0.053633645979385268 0 0.44996213853366451 -0.036613292757970893 0 0.42674679329662668 -0.044574126869308818 0 0.44996213853366451 -0.036613292757970893 0 0.44658415384665678 -0.0078272237682335752 0 0.42685474422977032 -0.019695876988545091 0 0.44996213853366451 -0.036613292757970893 0 0.44658415384665678 -0.0078272237682335752 0 0.47243387799192782 0.0063381806666968016 0 0.44658415384665678 -0.0078272237682335752 0 0.46759517451972632 -0.01616006187122521 0 0.44996213853366451 -0.036613292757970893 0 0.44658415384665678 -0.0078272237682335752 0 0.46759517451972632 -0.01616006187122521 0 0.47832447456108163 -0.036732842325334421 0 0.44996213853366451 -0.036613292757970893 0 0.46759517451972632 -0.01616006187122521 0 0.48301986092895871 -0.1115353229676911 0 0.46009609259468748 -0.1229714997271829 0 0.48226439302790602 -0.13692774351143669 0 0.48301986092895871 -0.1115353229676911 0 0.47273094224352108 -0.09852176155301344 0 0.46009609259468748 -0.1229714997271829 0 0.48301986092895871 -0.1115353229676911 0 0.48226439302790602 -0.13692774351143669 0 0.48301986092895871 -0.1115353229676911 0 0.5 -0.099898838136439738 0 0.5 -0.1296539061564719 0 0.48301986092895871 -0.1115353229676911 0 0.5 -0.099898838136439738 0 0.48377532883001118 -0.0861429024239454 0 0.48301986092895871 -0.1115353229676911 0 0.47273094224352108 -0.09852176155301344 0 0.48377532883001118 -0.0861429024239454 0 0.48301986092895871 -0.1115353229676911 0 0.48377532883001118 -0.0861429024239454 0 0.47273094224352108 -0.09852176155301344 0 0.48377532883001118 -0.0861429024239454 0 0.46999560808319779 -0.075731228053584315 0 0.5 -0.099898838136439738 0 0.48377532883001118 -0.0861429024239454 0 0.5 -0.0701437701164076 0 0.48453079673106381 -0.060750481880199728 0 0.48377532883001118 -0.0861429024239454 0 0.5 -0.0701437701164076 0 0.48453079673106381 -0.060750481880199728 0 0.46723062822593597 -0.055045441352959523 0 0.46999560808319779 -0.075731228053584315 0 0.48453079673106381 -0.060750481880199728 0 0.48377532883001118 -0.0861429024239454 0 0.48453079673106381 -0.060750481880199728 0 0.48377532883001118 -0.0861429024239454 0 0.46999560808319779 -0.075731228053584315 0 0.46723062822593597 -0.055045441352959523 0 0.46999560808319779 -0.075731228053584315 0 0.45334012322067219 -0.065399361747708218 0 0.45334012322067219 -0.065399361747708218 0 0.44236937296493523 -0.083375321718333645 0 0.43316414056465657 -0.067947802542553171 0 0.45334012322067219 -0.065399361747708218 0 0.44236937296493523 -0.083375321718333645 0 0.45671810790767992 -0.094185430737445536 0 0.45334012322067219 -0.065399361747708218 0 0.45671810790767992 -0.094185430737445536 0 0.47273094224352108 -0.09852176155301344 0 0.46999560808319779 -0.075731228053584315 0 0.45671810790767992 -0.094185430737445536 0 0.46999560808319779 -0.075731228053584315 0 0.45334012322067219 -0.065399361747708218 0 0.45671810790767992 -0.094185430737445536 0 0.47273094224352108 -0.09852176155301344 0 0.45671810790767992 -0.094185430737445536 0 0.46009609259468748 -0.1229714997271829 0 0.45671810790767992 -0.094185430737445536 0 0.46009609259468748 -0.1229714997271829 0 0.44236937296493523 -0.083375321718333645 0 0.45671810790767992 -0.094185430737445536 0 0.44161639523016838 -0.10856284518628349 0 0.45671810790767992 -0.094185430737445536 0 0.44161639523016838 -0.10856284518628349 0 0.46009609259468748 -0.1229714997271829 0 0.44161639523016838 -0.10856284518628349 0 0.46009609259468748 -0.1229714997271829 0 0.44222101677141978 -0.12795478293019949 0 0.42146129709783398 -0.11840302637901851 0 0.40611033144855352 -0.1155173733273115 0 0.40919305284169633 -0.1293941054884252 0 0.42146129709783398 -0.11840302637901851 0 0.41610832238156009 -0.10397315948770409 0 0.40611033144855352 -0.1155173733273115 0 0.44161639523016838 -0.10856284518628349 0 0.42146129709783398 -0.11840302637901851 0 0.44222101677141978 -0.12795478293019949 0 0.42146129709783398 -0.11840302637901851 0 0.42731271883124528 -0.093175414460785852 0 0.44161639523016838 -0.10856284518628349 0 0.42146129709783398 -0.11840302637901851 0 0.42731271883124528 -0.093175414460785852 0 0.44236937296493523 -0.083375321718333645 0 0.44161639523016838 -0.10856284518628349 0 0.42731271883124528 -0.093175414460785852 0 0.42146129709783398 -0.11840302637901851 0 0.41610832238156009 -0.10397315948770409 0 0.42731271883124528 -0.093175414460785852 0 0.41610832238156009 -0.10397315948770409 0 0.4034008152946047 -0.096946555843045901 0 0.40611033144855352 -0.1155173733273115 0 0.41610832238156009 -0.10397315948770409 0 0.42731271883124528 -0.093175414460785852 0 0.4034008152946047 -0.096946555843045901 0 0.42328983214135568 -0.076121414642498844 0 0.40408977263289941 -0.075288794294514766 0 0.4034008152946047 -0.096946555843045901 0 0.42731271883124528 -0.093175414460785852 0 0.42328983214135568 -0.076121414642498844 0 0.4034008152946047 -0.096946555843045901 0 0.42328983214135568 -0.076121414642498844 0 0.4034008152946047 -0.096946555843045901 0 0.42731271883124528 -0.093175414460785852 0 0.43316414056465657 -0.067947802542553171 0 0.44236937296493523 -0.083375321718333645 0 0.42731271883124528 -0.093175414460785852 0 0.43316414056465657 -0.067947802542553171 0 0.42731271883124528 -0.093175414460785852 0 0.42328983214135568 -0.076121414642498844 0 0.43316414056465657 -0.067947802542553171 0 0.42328983214135568 -0.076121414642498844 0 0.43316414056465657 -0.067947802542553171 0 0.41820586804957022 -0.060662372688465749 0 0.42328983214135568 -0.076121414642498844 0 0.40408977263289941 -0.075288794294514766 0 0.41820586804957022 -0.060662372688465749 0 0.40408977263289941 -0.075288794294514766 0 0.38524763250256738 -0.070183871723753802 0 0.40413632023757451 -0.050288517844930249 0 0.40408977263289941 -0.075288794294514766 0 0.38524763250256738 -0.070183871723753802 0 0.38856079346673938 -0.086091956987023488 0 0.38856079346673938 -0.086091956987023488 0 0.38370680213606551 -0.097961337471225596 0 0.36635894476756042 -0.090079225602577334 0 0.38524763250256738 -0.070183871723753802 0 0.36635894476756042 -0.090079225602577334 0 0.38524763250256738 -0.070183871723753802 0 0.38856079346673938 -0.086091956987023488 0 0.36635894476756042 -0.090079225602577334 0 0.40408977263289941 -0.075288794294514766 0 0.38856079346673938 -0.086091956987023488 0 0.4034008152946047 -0.096946555843045901 0 0.38856079346673938 -0.086091956987023488 0 0.4034008152946047 -0.096946555843045901 0 0.38370680213606551 -0.097961337471225596 0 0.4034008152946047 -0.096946555843045901 0 0.39592486724349241 -0.10657187622218089 0 0.40611033144855352 -0.1155173733273115 0 0.4034008152946047 -0.096946555843045901 0 0.38351179844785338 -0.11777169704359319 0 0.4034008152946047 -0.096946555843045901 0 0.39592486724349241 -0.10657187622218089 0 0.38351179844785338 -0.11777169704359319 0 0.4034008152946047 -0.096946555843045901 0 0.38370680213606551 -0.097961337471225596 0 0.38358881620067148 -0.1073746186882706 0 0.4034008152946047 -0.096946555843045901 0 0.38358881620067148 -0.1073746186882706 0 0.38351179844785338 -0.11777169704359319 0 0.38370680213606551 -0.097961337471225596 0 0.38358881620067148 -0.1073746186882706 0 0.37302927262327212 -0.1077815484355871 0 0.39592486724349241 -0.10657187622218089 0 0.38300944660508401 -0.12652824937753429 0 0.39592486724349241 -0.10657187622218089 0 0.38351179844785338 -0.11777169704359319 0 0.38300944660508401 -0.12652824937753429 0 0.38358881620067148 -0.1073746186882706 0 0.38351179844785338 -0.11777169704359319 0 0.37429539250156219 -0.1164119546479014 0 0.38358881620067148 -0.1073746186882706 0 0.37429539250156219 -0.1164119546479014 0 0.37302927262327212 -0.1077815484355871 0 0.38351179844785338 -0.11777169704359319 0 0.36979721931647791 -0.1239124930345446 0 0.37429539250156219 -0.1164119546479014 0 0.39476750695441232 -0.1200828360850604 0 0.39222318798589811 -0.1273142468786132 0 0.38300944660508401 -0.12652824937753429 0 0.39592486724349241 -0.10657187622218089 0 0.39476750695441232 -0.1200828360850604 0 0.38300944660508401 -0.12652824937753429 0 0.39592486724349241 -0.10657187622218089 0 0.39476750695441232 -0.1200828360850604 0 0.40611033144855352 -0.1155173733273115 0 0.40611033144855352 -0.1155173733273115 0 0.39973173221415942 -0.1285909049216542 0 0.40919305284169633 -0.1293941054884252 0 0.39476750695441232 -0.1200828360850604 0 0.40611033144855352 -0.1155173733273115 0 0.39973173221415942 -0.1285909049216542 0 0.42605562121750251 0.01294812747266756 0 0.42685474422977032 -0.019695876988545091 0 0.40612538130006531 -0.00027456011524365671 0 0.42605562121750251 0.01294812747266756 0 0.44658415384665678 -0.0078272237682335752 0 0.42685474422977032 -0.019695876988545091 0 0.42685474422977032 -0.019695876988545091 0 0.42674679329662668 -0.044574126869308818 0 0.40493953501669999 -0.02113788750144676 0 0.42685474422977032 -0.019695876988545091 0 0.40493953501669999 -0.02113788750144676 0 0.40612538130006531 -0.00027456011524365671 0 0.44996213853366451 -0.036613292757970893 0 0.42685474422977032 -0.019695876988545091 0 0.42674679329662668 -0.044574126869308818 0 0.43316414056465657 -0.067947802542553171 0 0.42674679329662668 -0.044574126869308818 0 0.41820586804957022 -0.060662372688465749 0 0.44080329890390502 -0.053633645979385268 0 0.43316414056465657 -0.067947802542553171 0 0.42674679329662668 -0.044574126869308818 0 0.42674679329662668 -0.044574126869308818 0 0.41820586804957022 -0.060662372688465749 0 0.40413632023757451 -0.050288517844930249 0 0.40408977263289941 -0.075288794294514766 0 0.41820586804957022 -0.060662372688465749 0 0.40413632023757451 -0.050288517844930249 0 0.42674679329662668 -0.044574126869308818 0 0.40413632023757451 -0.050288517844930249 0 0.40493953501669999 -0.02113788750144676 0 0.40413632023757451 -0.050288517844930249 0 0.38624852307540969 -0.04952838833271845 0 0.38534862840821249 -0.031571182702324667 0 0.40413632023757451 -0.050288517844930249 0 0.38534862840821249 -0.031571182702324667 0 0.40493953501669999 -0.02113788750144676 0 0.38524763250256738 -0.070183871723753802 0 0.40413632023757451 -0.050288517844930249 0 0.38524763250256738 -0.070183871723753802 0 0.40413632023757451 -0.050288517844930249 0 0.38624852307540969 -0.04952838833271845 0 0.38524763250256738 -0.070183871723753802 0 0.38624852307540969 -0.04952838833271845 0 0.36854898126031321 -0.046830740519207353 0 0.38624852307540969 -0.04952838833271845 0 0.38534862840821249 -0.031571182702324667 0 0.36854898126031321 -0.046830740519207353 0 0.38534862840821249 -0.031571182702324667 0 0.38719321142694452 -0.0069632075071056829 0 0.36942085121588802 -0.01527459391450498 0 0.38534862840821249 -0.031571182702324667 0 0.40493953501669999 -0.02113788750144676 0 0.38719321142694452 -0.0069632075071056829 0 0.40493953501669999 -0.02113788750144676 0 0.40612538130006531 -0.00027456011524365671 0 0.38719321142694452 -0.0069632075071056829 0 0.36610373341147812 0.005968604800277522 0 0.38719321142694452 -0.0069632075071056829 0 0.36942085121588802 -0.01527459391450498 0 0.36610373341147812 0.005968604800277522 0 0.36942085121588802 -0.01527459391450498 0 0.3477410257926245 -0.0142345229108566 0 0.38534862840821249 -0.031571182702324667 0 0.36942085121588802 -0.01527459391450498 0 0.36375532972122959 -0.030365308228110059 0 0.36942085121588802 -0.01527459391450498 0 0.36375532972122959 -0.030365308228110059 0 0.3477410257926245 -0.0142345229108566 0 0.36375532972122959 -0.030365308228110059 0 0.3477410257926245 -0.0142345229108566 0 0.34865844688507341 -0.038500029135567992 0 0.33987270167036532 0.01288206682049987 0 0.3477410257926245 -0.0142345229108566 0 0.32546835434140409 -0.001818073725263207 0 0.3477410257926245 -0.0142345229108566 0 0.32876791250983339 -0.030169317751929169 0 0.32546835434140409 -0.001818073725263207 0 0.3477410257926245 -0.0142345229108566 0 0.32876791250983339 -0.030169317751929169 0 0.34865844688507341 -0.038500029135567992 0 0.32876791250983339 -0.030169317751929169 0 0.30280068078776962 -0.01929351578363725 0 0.32876791250983339 -0.030169317751929169 0 0.32546835434140409 -0.001818073725263207 0 0.32876791250983339 -0.030169317751929169 0 0.32546835434140409 -0.001818073725263207 0 0.30280068078776962 -0.01929351578363725 0 0.33173000069867459 -0.055620872409739557 0 0.31484363291229039 -0.063716809383400158 0 0.30530486723641342 -0.046981926873852803 0 0.32876791250983339 -0.030169317751929169 0 0.33173000069867459 -0.055620872409739557 0 0.30530486723641342 -0.046981926873852803 0 0.32876791250983339 -0.030169317751929169 0 0.33173000069867459 -0.055620872409739557 0 0.34865844688507341 -0.038500029135567992 0 0.32876791250983339 -0.030169317751929169 0 0.34865844688507341 -0.038500029135567992 0 0.32876791250983339 -0.030169317751929169 0 0.33173000069867459 -0.055620872409739557 0 0.34865844688507341 -0.038500029135567992 0 0.36854898126031321 -0.046830740519207353 0 0.35484053322131048 -0.067780771126681919 0 0.33173000069867459 -0.055620872409739557 0 0.34865844688507341 -0.038500029135567992 0 0.35484053322131048 -0.067780771126681919 0 0.34865844688507341 -0.038500029135567992 0 0.36854898126031321 -0.046830740519207353 0 0.36375532972122959 -0.030365308228110059 0 0.34865844688507341 -0.038500029135567992 0 0.36854898126031321 -0.046830740519207353 0 0.38534862840821249 -0.031571182702324667 0 0.36375532972122959 -0.030365308228110059 0 0.36854898126031321 -0.046830740519207353 0 0.38524763250256738 -0.070183871723753802 0 0.36854898126031321 -0.046830740519207353 0 0.35484053322131048 -0.067780771126681919 0 0.38524763250256738 -0.070183871723753802 0 0.36635894476756042 -0.090079225602577334 0 0.35484053322131048 -0.067780771126681919 0 0.36635894476756042 -0.090079225602577334 0 0.34864763754746791 -0.092178231428377694 0 0.35484053322131048 -0.067780771126681919 0 0.34864763754746791 -0.092178231428377694 0 0.35484053322131048 -0.067780771126681919 0 0.334692088887517 -0.081072427067549718 0 0.36412591368213348 -0.1189485730140513 0 0.36979721931647791 -0.1239124930345446 0 0.36343021034973771 -0.12783340222303699 0 0.36412591368213348 -0.1189485730140513 0 0.36979721931647791 -0.1239124930345446 0 0.37429539250156219 -0.1164119546479014 0 0.36412591368213348 -0.1189485730140513 0 0.37429539250156219 -0.1164119546479014 0 0.37302927262327212 -0.1077815484355871 0 0.36412591368213348 -0.1189485730140513 0 0.36098336369063261 -0.1089918652547493 0 0.35377501148893192 -0.11982233019757731 0 0.36412591368213348 -0.1189485730140513 0 0.36098336369063261 -0.1089918652547493 0 0.37302927262327212 -0.1077815484355871 0 0.38370680213606551 -0.097961337471225596 0 0.36635894476756042 -0.090079225602577334 0 0.37302927262327212 -0.1077815484355871 0 0.36635894476756042 -0.090079225602577334 0 0.36098336369063261 -0.1089918652547493 0 0.37302927262327212 -0.1077815484355871 0 0.36635894476756042 -0.090079225602577334 0 0.34747025703255352 -0.1099745794814008 0 0.34864763754746791 -0.092178231428377694 0 0.34747025703255352 -0.1099745794814008 0 0.33765417707635931 -0.1065239817253599 0 0.36635894476756042 -0.090079225602577334 0 0.34864763754746791 -0.092178231428377694 0 0.34747025703255352 -0.1099745794814008 0 0.36635894476756042 -0.090079225602577334 0 0.36098336369063261 -0.1089918652547493 0 0.34747025703255352 -0.1099745794814008 0 0.34747025703255352 -0.1099745794814008 0 0.35377501148893192 -0.11982233019757731 0 0.34061626526520161 -0.13197553638317 0 0.36098336369063261 -0.1089918652547493 0 0.34747025703255352 -0.1099745794814008 0 0.35377501148893192 -0.11982233019757731 0 0.36412591368213348 -0.1189485730140513 0 0.35377501148893192 -0.11982233019757731 0 0.35567925777413828 -0.1292210968545148 0 0.34747025703255352 -0.1099745794814008 0 0.33765417707635931 -0.1065239817253599 0 0.34061626526520161 -0.13197553638317 0 0.33765417707635931 -0.1065239817253599 0 0.34061626526520161 -0.13197553638317 0 0.33765417707635931 -0.1065239817253599 0 0.32594740397003619 -0.12103341905376171 0 0.34061626526520161 -0.13197553638317 0 0.33765417707635931 -0.1065239817253599 0 0.32490298378504129 -0.1079276679459267 0 0.32594740397003619 -0.12103341905376171 0 0.33765417707635931 -0.1065239817253599 0 0.32377337611152168 -0.095241305765475015 0 0.334692088887517 -0.081072427067549718 0 0.33765417707635931 -0.1065239817253599 0 0.334692088887517 -0.081072427067549718 0 0.33765417707635931 -0.1065239817253599 0 0.32377337611152168 -0.095241305765475015 0 0.32490298378504129 -0.1079276679459267 0 0.32377337611152168 -0.095241305765475015 0 0.31223697798224831 -0.1089119652391102 0 0.30846030351263221 -0.096281466347892364 0 0.32377337611152168 -0.095241305765475015 0 0.32490298378504129 -0.1079276679459267 0 0.31223697798224831 -0.1089119652391102 0 0.32594740397003619 -0.12103341905376171 0 0.30749390161664181 -0.1219187744144741 0 0.31223697798224831 -0.1089119652391102 0 0.32490298378504129 -0.1079276679459267 0 0.32594740397003619 -0.12103341905376171 0 0.31223697798224831 -0.1089119652391102 0 0.33173000069867459 -0.055620872409739557 0 0.334692088887517 -0.081072427067549718 0 0.33173000069867459 -0.055620872409739557 0 0.35484053322131048 -0.067780771126681919 0 0.334692088887517 -0.081072427067549718 0 0.34864763754746791 -0.092178231428377694 0 0.33765417707635931 -0.1065239817253599 0 0.334692088887517 -0.081072427067549718 0 0.32377337611152168 -0.095241305765475015 0 0.334692088887517 -0.081072427067549718 0 0.31031752295377207 -0.080853667920387631 0 0.32377337611152168 -0.095241305765475015 0 0.31031752295377207 -0.080853667920387631 0 0.30846030351263221 -0.096281466347892364 0 0.33173000069867459 -0.055620872409739557 0 0.334692088887517 -0.081072427067549718 0 0.31484363291229039 -0.063716809383400158 0 0.334692088887517 -0.081072427067549718 0 0.31484363291229039 -0.063716809383400158 0 0.31031752295377207 -0.080853667920387631 0 0.31484363291229039 -0.063716809383400158 0 0.31031752295377207 -0.080853667920387631 0 0.29210244111685513 -0.071007940914862622 0 0.31031752295377207 -0.080853667920387631 0 0.29345168497899299 -0.093553350665880289 0 0.29210244111685513 -0.071007940914862622 0 0.31031752295377207 -0.080853667920387631 0 0.29345168497899299 -0.093553350665880289 0 0.30846030351263221 -0.096281466347892364 0 0.29345168497899299 -0.093553350665880289 0 0.29210244111685513 -0.071007940914862622 0 0.27220476110437419 -0.090095923691190627 0 0.30749390161664181 -0.1219187744144741 0 0.298608896083145 -0.1103907775797599 0 0.29488597599643779 -0.12763839589580531 0 0.30749390161664181 -0.1219187744144741 0 0.298608896083145 -0.1103907775797599 0 0.31223697798224831 -0.1089119652391102 0 0.29345168497899299 -0.093553350665880289 0 0.298608896083145 -0.1103907775797599 0 0.30846030351263221 -0.096281466347892364 0 0.298608896083145 -0.1103907775797599 0 0.31223697798224831 -0.1089119652391102 0 0.30846030351263221 -0.096281466347892364 0 0.29345168497899299 -0.093553350665880289 0 0.28228645195174862 -0.11322340441528481 0 0.27220476110437419 -0.090095923691190627 0 0.29345168497899299 -0.093553350665880289 0 0.298608896083145 -0.1103907775797599 0 0.28228645195174862 -0.11322340441528481 0 0.298608896083145 -0.1103907775797599 0 0.28228645195174862 -0.11322340441528481 0 0.29488597599643779 -0.12763839589580531 0 0.28228645195174862 -0.11322340441528481 0 0.29488597599643779 -0.12763839589580531 0 0.28228645195174862 -0.11322340441528481 0 0.26674285210850163 -0.12088280224418819 0 0.26508634375158407 -0.1075533262183615 0 0.28228645195174862 -0.11322340441528481 0 0.26674285210850163 -0.12088280224418819 0 0.27479445463492369 -0.13485448994631841 0 0.28228645195174862 -0.11322340441528481 0 0.26508634375158407 -0.1075533262183615 0 0.27220476110437419 -0.090095923691190627 0 0.25385718178354683 -0.098270239605644127 0 0.26508634375158407 -0.1075533262183615 0 0.25034047180974922 -0.1152942611355 0 0.25385718178354683 -0.098270239605644127 0 0.26508634375158407 -0.1075533262183615 0 0.27220476110437419 -0.090095923691190627 0 0.26674285210850163 -0.12088280224418819 0 0.26508634375158407 -0.1075533262183615 0 0.25034047180974922 -0.1152942611355 0 0.26674285210850163 -0.12088280224418819 0 0.25034047180974922 -0.1152942611355 0 0.25754178294737229 -0.13071600479872139 0 0.29210244111685513 -0.071007940914862622 0 0.26744817982815777 -0.067486613418568014 0 0.27220476110437419 -0.090095923691190627 0 0.29210244111685513 -0.071007940914862622 0 0.26744817982815777 -0.067486613418568014 0 0.28190907318977659 -0.053581258048604988 0 0.25385718178354683 -0.098270239605644127 0 0.27220476110437419 -0.090095923691190627 0 0.24712736137610669 -0.081010114448245338 0 0.26744817982815777 -0.067486613418568014 0 0.27220476110437419 -0.090095923691190627 0 0.24712736137610669 -0.081010114448245338 0 0.26744817982815777 -0.067486613418568014 0 0.23975376712630381 -0.057066258051083833 0 0.24712736137610669 -0.081010114448245338 0 0.26744817982815777 -0.067486613418568014 0 0.26132800399236278 -0.045056464510215673 0 0.23975376712630381 -0.057066258051083833 0 0.26744817982815777 -0.067486613418568014 0 0.26132800399236278 -0.045056464510215673 0 0.28190907318977659 -0.053581258048604988 0 0.26132800399236278 -0.045056464510215673 0 0.25561305250790239 -0.022646727376996412 0 0.28340213558650018 -0.034357633577994262 0 0.26132800399236278 -0.045056464510215673 0 0.28190907318977659 -0.053581258048604988 0 0.28340213558650018 -0.034357633577994262 0 0.26132800399236278 -0.045056464510215673 0 0.25561305250790239 -0.022646727376996412 0 0.2380567425234171 -0.036497849958806748 0 0.25086621734364162 0.0024580881529454729 0 0.27683344906570562 -0.00841771381534589 0 0.25086621734364162 0.0024580881529454729 0 0.25561305250790239 -0.022646727376996412 0 0.27683344906570562 -0.00841771381534589 0 0.25561305250790239 -0.022646727376996412 0 0.27683344906570562 -0.00841771381534589 0 0.28340213558650018 -0.034357633577994262 0 0.27683344906570562 -0.00841771381534589 0 0.30280068078776962 -0.01929351578363725 0 0.28340213558650018 -0.034357633577994262 0 0.27683344906570562 -0.00841771381534589 0 0.30280068078776962 -0.01929351578363725 0 0.2950640457745351 0.010950668119169451 0 0.27683344906570562 -0.00841771381534589 0 0.30280068078776962 -0.01929351578363725 0 0.2950640457745351 0.010950668119169451 0 0.32546835434140409 -0.001818073725263207 0 0.30280068078776962 -0.01929351578363725 0 0.30280068078776962 -0.01929351578363725 0 0.30530486723641342 -0.046981926873852803 0 0.28340213558650018 -0.034357633577994262 0 0.32876791250983339 -0.030169317751929169 0 0.30280068078776962 -0.01929351578363725 0 0.30530486723641342 -0.046981926873852803 0 0.31484363291229039 -0.063716809383400158 0 0.29210244111685513 -0.071007940914862622 0 0.30530486723641342 -0.046981926873852803 0 0.29210244111685513 -0.071007940914862622 0 0.30530486723641342 -0.046981926873852803 0 0.28190907318977659 -0.053581258048604988 0 0.30530486723641342 -0.046981926873852803 0 0.28190907318977659 -0.053581258048604988 0 0.28340213558650018 -0.034357633577994262 0 0.29279783144644173 -0.2163759542514623 0 0.28328886347083021 -0.21003827669374411 0 0.27826534703925282 -0.2264109182684981 0 0.29267646404488029 -0.20732721676527679 0 0.29279783144644173 -0.2163759542514623 0 0.28328886347083021 -0.21003827669374411 0 0.29267646404488029 -0.20732721676527679 0 0.29279783144644173 -0.2163759542514623 0 0.30087884686029481 -0.20918379179091781 0 0.28328886347083021 -0.21003827669374411 0 0.28808822778631171 -0.2005698763760308 0 0.27817768550261768 -0.1993077984829292 0 0.29267646404488029 -0.20732721676527679 0 0.28328886347083021 -0.21003827669374411 0 0.28808822778631171 -0.2005698763760308 0 0.28808822778631171 -0.2005698763760308 0 0.28560605389626831 -0.1942374865260556 0 0.29288754726049843 -0.19232640229768391 0 0.28808822778631171 -0.2005698763760308 0 0.28560605389626831 -0.1942374865260556 0 0.27817768550261768 -0.1993077984829292 0 0.28130231814089651 -0.1903263510951054 0 0.28560605389626831 -0.1942374865260556 0 0.27817768550261768 -0.1993077984829292 0 0.28130231814089651 -0.1903263510951054 0 0.28560605389626831 -0.1942374865260556 0 0.28757449079101732 -0.18865700437852881 0 0.28130231814089651 -0.1903263510951054 0 0.28757449079101732 -0.18865700437852881 0 0.28538225310214188 -0.1835367118388059 0 0.28560605389626831 -0.1942374865260556 0 0.28757449079101732 -0.18865700437852881 0 0.29288754726049843 -0.19232640229768391 0 0.28757449079101732 -0.18865700437852881 0 0.29288754726049843 -0.19232640229768391 0 0.29185455762084622 -0.18503304553929401 0 0.29288754726049843 -0.19232640229768391 0 0.29185455762084622 -0.18503304553929401 0 0.2971815338879763 -0.18720840881958861 0 0.28808822778631171 -0.2005698763760308 0 0.29288754726049843 -0.19232640229768391 0 0.29832855066052322 -0.20046818471422889 0 0.29267646404488029 -0.20732721676527679 0 0.28808822778631171 -0.2005698763760308 0 0.29832855066052322 -0.20046818471422889 0 0.29832855066052322 -0.20046818471422889 0 0.30060763344794927 -0.19285048859945461 0 0.30679030881953928 -0.19773166437763309 0 0.29832855066052322 -0.20046818471422889 0 0.30679030881953928 -0.19773166437763309 0 0.30565687433444938 -0.20395201344965019 0 0.29288754726049843 -0.19232640229768391 0 0.29832855066052322 -0.20046818471422889 0 0.30060763344794927 -0.19285048859945461 0 0.29288754726049843 -0.19232640229768391 0 0.30060763344794927 -0.19285048859945461 0 0.2971815338879763 -0.18720840881958861 0 0.30060763344794927 -0.19285048859945461 0 0.3024685242039904 -0.18818829445875801 0 0.2971815338879763 -0.18720840881958861 0 0.30060763344794927 -0.19285048859945461 0 0.30599413852975699 -0.19143273216267109 0 0.30679030881953928 -0.19773166437763309 0 0.30060763344794927 -0.19285048859945461 0 0.3024685242039904 -0.18818829445875801 0 0.30599413852975699 -0.19143273216267109 0 0.3024685242039904 -0.18818829445875801 0 0.30599413852975699 -0.19143273216267109 0 0.30760611592130588 -0.18622262171548451 0 0.30599413852975699 -0.19143273216267109 0 0.31196712353831002 -0.19243178167646299 0 0.30760611592130588 -0.18622262171548451 0 0.30599413852975699 -0.19143273216267109 0 0.31196712353831002 -0.19243178167646299 0 0.30679030881953928 -0.19773166437763309 0 0.31196712353831002 -0.19243178167646299 0 0.30760611592130588 -0.18622262171548451 0 0.31261501619004928 -0.18756057878826141 0 0.30679030881953928 -0.19773166437763309 0 0.30565687433444938 -0.20395201344965019 0 0.31273909865769289 -0.2027463082668724 0 0.31196712353831002 -0.19243178167646299 0 0.30679030881953928 -0.19773166437763309 0 0.31334237436966961 -0.19737686197577739 0 0.30679030881953928 -0.19773166437763309 0 0.31273909865769289 -0.2027463082668724 0 0.31334237436966961 -0.19737686197577739 0 0.30954756667419681 -0.2096301180985988 0 0.30565687433444938 -0.20395201344965019 0 0.31273909865769289 -0.2027463082668724 0 0.30954756667419681 -0.2096301180985988 0 0.30565687433444938 -0.20395201344965019 0 0.30087884686029481 -0.20918379179091781 0 0.29267646404488029 -0.20732721676527679 0 0.29832855066052322 -0.20046818471422889 0 0.30087884686029481 -0.20918379179091781 0 0.29832855066052322 -0.20046818471422889 0 0.30565687433444938 -0.20395201344965019 0 0.30087884686029481 -0.20918379179091781 0 0.29279783144644173 -0.2163759542514623 0 0.30087884686029481 -0.20918379179091781 0 0.30505542454616419 -0.21774683618459109 0 0.30954756667419681 -0.2096301180985988 0 0.30505542454616419 -0.21774683618459109 0 0.31621987405555241 -0.21587579390444259 0 0.30954756667419681 -0.2096301180985988 0 0.30087884686029481 -0.20918379179091781 0 0.30505542454616419 -0.21774683618459109 0 0.30505542454616419 -0.21774683618459109 0 0.31011927762462388 -0.2279011094452788 0 0.31621987405555241 -0.21587579390444259 0 0.31011927762462388 -0.2279011094452788 0 0.29735663024631293 -0.22553622355674741 0 0.30054527057508201 -0.2392462996339064 0 0.29279783144644173 -0.2163759542514623 0 0.30505542454616419 -0.21774683618459109 0 0.29735663024631293 -0.22553622355674741 0 0.30505542454616419 -0.21774683618459109 0 0.31011927762462388 -0.2279011094452788 0 0.29735663024631293 -0.22553622355674741 0 0.30054527057508201 -0.2392462996339064 0 0.31012990445961619 -0.25360961348613381 0 0.29397042506590088 -0.25463924831475693 0 0.30054527057508201 -0.2392462996339064 0 0.32282519411091049 -0.25208168099931572 0 0.30054527057508201 -0.2392462996339064 0 0.32282519411091049 -0.25208168099931572 0 0.31012990445961619 -0.25360961348613381 0 0.31011927762462388 -0.2279011094452788 0 0.30054527057508201 -0.2392462996339064 0 0.31659941824500842 -0.2382968576379724 0 0.30054527057508201 -0.2392462996339064 0 0.2797126088167971 -0.24519596555511219 0 0.29397042506590088 -0.25463924831475693 0 0.30054527057508201 -0.2392462996339064 0 0.27826534703925282 -0.2264109182684981 0 0.2797126088167971 -0.24519596555511219 0 0.29279783144644173 -0.2163759542514623 0 0.29735663024631293 -0.22553622355674741 0 0.27826534703925282 -0.2264109182684981 0 0.30054527057508201 -0.2392462996339064 0 0.27826534703925282 -0.2264109182684981 0 0.29735663024631293 -0.22553622355674741 0 0.30054527057508201 -0.2392462996339064 0 0.27826534703925282 -0.2264109182684981 0 0.26704199214281499 -0.23316984783789649 0 0.27826534703925282 -0.2264109182684981 0 0.26947626501962119 -0.21423117466193151 0 0.26704199214281499 -0.23316984783789649 0 0.2797126088167971 -0.24519596555511219 0 0.26339886892923842 -0.25212127595917111 0 0.26704199214281499 -0.23316984783789649 0 0.27826534703925282 -0.2264109182684981 0 0.2797126088167971 -0.24519596555511219 0 0.26704199214281499 -0.23316984783789649 0 0.25185667136151929 -0.24251713028608249 0 0.26339886892923842 -0.25212127595917111 0 0.25185667136151929 -0.24251713028608249 0 0.2570216928513267 -0.22504576041722299 0 0.24443541936635649 -0.23116554093704181 0 0.26704199214281499 -0.23316984783789649 0 0.2570216928513267 -0.22504576041722299 0 0.26947626501962119 -0.21423117466193151 0 0.26704199214281499 -0.23316984783789649 0 0.25185667136151929 -0.24251713028608249 0 0.2570216928513267 -0.22504576041722299 0 0.2569747124512281 -0.21016832620680351 0 0.24443541936635649 -0.23116554093704181 0 0.2570216928513267 -0.22504576041722299 0 0.2569747124512281 -0.21016832620680351 0 0.24443541936635649 -0.23116554093704181 0 0.2569747124512281 -0.21016832620680351 0 0.26947626501962119 -0.21423117466193151 0 0.26541572836711108 -0.1958587194003569 0 0.2570216928513267 -0.22504576041722299 0 0.2569747124512281 -0.21016832620680351 0 0.2570216928513267 -0.22504576041722299 0 0.2569747124512281 -0.21016832620680351 0 0.26947626501962119 -0.21423117466193151 0 0.26947626501962119 -0.21423117466193151 0 0.27817768550261768 -0.1993077984829292 0 0.26541572836711108 -0.1958587194003569 0 0.28328886347083021 -0.21003827669374411 0 0.27826534703925282 -0.2264109182684981 0 0.26947626501962119 -0.21423117466193151 0 0.28328886347083021 -0.21003827669374411 0 0.26947626501962119 -0.21423117466193151 0 0.27817768550261768 -0.1993077984829292 0 0.27590261358588353 -0.19040736361760749 0 0.26541572836711108 -0.1958587194003569 0 0.27943898559178382 -0.1779236087256803 0 0.28130231814089651 -0.1903263510951054 0 0.27590261358588353 -0.19040736361760749 0 0.27817768550261768 -0.1993077984829292 0 0.28130231814089651 -0.1903263510951054 0 0.27590261358588353 -0.19040736361760749 0 0.28026855645525001 -0.18499994729950001 0 0.27590261358588353 -0.19040736361760749 0 0.27817768550261768 -0.1993077984829292 0 0.26541572836711108 -0.1958587194003569 0 0.26541572836711108 -0.1958587194003569 0 0.25690785679394712 -0.18899693046176849 0 0.26662212933436252 -0.1834101082011573 0 0.2569747124512281 -0.21016832620680351 0 0.26541572836711108 -0.1958587194003569 0 0.25690785679394712 -0.18899693046176849 0 0.2569747124512281 -0.21016832620680351 0 0.25690785679394712 -0.18899693046176849 0 0.2569747124512281 -0.21016832620680351 0 0.25690785679394712 -0.18899693046176849 0 0.2483962521489555 -0.1935428095221525 0 0.2569747124512281 -0.21016832620680351 0 0.26541572836711108 -0.1958587194003569 0 0.25690785679394712 -0.18899693046176849 0 0.2568410011366673 -0.16782553471673339 0 0.25690785679394712 -0.18899693046176849 0 0.26662212933436252 -0.1834101082011573 0 0.26674840843410708 -0.17284654436887581 0 0.25690785679394712 -0.18899693046176849 0 0.2568410011366673 -0.16782553471673339 0 0.26674840843410708 -0.17284654436887581 0 0.25690785679394712 -0.18899693046176849 0 0.2568410011366673 -0.16782553471673339 0 0.24458333138207591 -0.1793105664267399 0 0.2568410011366673 -0.16782553471673339 0 0.25677414547938748 -0.14665413897169841 0 0.2568410011366673 -0.16782553471673339 0 0.25677414547938748 -0.14665413897169841 0 0.2444436461762462 -0.1548086980679525 0 0.2738168882507509 -0.1660164280659146 0 0.27461626512423909 -0.15348332461933209 0 0.29346224281645661 -0.15998849805100371 0 0.2568410011366673 -0.16782553471673339 0 0.2738168882507509 -0.1660164280659146 0 0.26674840843410708 -0.17284654436887581 0 0.2738168882507509 -0.1660164280659146 0 0.27741652374228443 -0.17593823857362789 0 0.26674840843410708 -0.17284654436887581 0 0.2568410011366673 -0.16782553471673339 0 0.2738168882507509 -0.1660164280659146 0 0.27461626512423909 -0.15348332461933209 0 0.26541572836711108 -0.1958587194003569 0 0.27741652374228443 -0.17593823857362789 0 0.26541572836711108 -0.1958587194003569 0 0.27943898559178382 -0.1779236087256803 0 0.26541572836711108 -0.1958587194003569 0 0.27741652374228443 -0.17593823857362789 0 0.27943898559178382 -0.1779236087256803 0 0.26541572836711108 -0.1958587194003569 0 0.27741652374228443 -0.17593823857362789 0 0.26662212933436252 -0.1834101082011573 0 0.27590261358588353 -0.19040736361760749 0 0.27943898559178382 -0.1779236087256803 0 0.28026855645525001 -0.18499994729950001 0 0.27943898559178382 -0.1779236087256803 0 0.28026855645525001 -0.18499994729950001 0 0.28269563037065792 -0.1811122432316114 0 0.27741652374228443 -0.17593823857362789 0 0.26662212933436252 -0.1834101082011573 0 0.26674840843410708 -0.17284654436887581 0 0.25754178294737229 -0.13071600479872139 0 0.25677414547938748 -0.14665413897169841 0 0.23905699070429959 -0.1358943316959024 0 0.25754178294737229 -0.13071600479872139 0 0.25677414547938748 -0.14665413897169841 0 0.27479445463492369 -0.13485448994631841 0 0.2568410011366673 -0.16782553471673339 0 0.25677414547938748 -0.14665413897169841 0 0.27461626512423909 -0.15348332461933209 0 0.25677414547938748 -0.14665413897169841 0 0.27461626512423909 -0.15348332461933209 0 0.27479445463492369 -0.13485448994631841 0 0.27461626512423909 -0.15348332461933209 0 0.27479445463492369 -0.13485448994631841 0 0.28904888772263693 -0.14360361917775699 0 0.26674285210850163 -0.12088280224418819 0 0.25754178294737229 -0.13071600479872139 0 0.27479445463492369 -0.13485448994631841 0 0.27479445463492369 -0.13485448994631841 0 0.29488597599643779 -0.12763839589580531 0 0.28904888772263693 -0.14360361917775699 0 0.28228645195174862 -0.11322340441528481 0 0.27479445463492369 -0.13485448994631841 0 0.29488597599643779 -0.12763839589580531 0 0.28904888772263693 -0.14360361917775699 0 0.30748550004112729 -0.14205338737632539 0 0.29346224281645661 -0.15998849805100371 0 0.27461626512423909 -0.15348332461933209 0 0.28904888772263693 -0.14360361917775699 0 0.29346224281645661 -0.15998849805100371 0 0.30748550004112729 -0.14205338737632539 0 0.29346224281645661 -0.15998849805100371 0 0.30748550004112729 -0.14205338737632539 0 0.29346224281645661 -0.15998849805100371 0 0.31129157280251729 -0.1580392790423191 0 0.30749390161664181 -0.1219187744144741 0 0.29488597599643779 -0.12763839589580531 0 0.31346039794782582 -0.13441176364300819 0 0.29488597599643779 -0.12763839589580531 0 0.28904888772263693 -0.14360361917775699 0 0.30748550004112729 -0.14205338737632539 0 0.29488597599643779 -0.12763839589580531 0 0.30748550004112729 -0.14205338737632539 0 0.31346039794782582 -0.13441176364300819 0 0.29488597599643779 -0.12763839589580531 0 0.30748550004112729 -0.14205338737632539 0 0.30748550004112729 -0.14205338737632539 0 0.31346039794782582 -0.13441176364300819 0 0.2899160131318822 -0.1742500248119343 0 0.29524221699381159 -0.18058633499802329 0 0.30064517627642012 -0.17404361023190851 0 0.2899160131318822 -0.1742500248119343 0 0.29524221699381159 -0.18058633499802329 0 0.28973585749622582 -0.18022135411833071 0 0.29524221699381159 -0.18058633499802329 0 0.29185455762084622 -0.18503304553929401 0 0.2971815338879763 -0.18720840881958861 0 0.29524221699381159 -0.18058633499802329 0 0.29185455762084622 -0.18503304553929401 0 0.28973585749622582 -0.18022135411833071 0 0.28973585749622582 -0.18022135411833071 0 0.28538225310214188 -0.1835367118388059 0 0.28543374793853832 -0.17940878854527251 0 0.29185455762084622 -0.18503304553929401 0 0.28973585749622582 -0.18022135411833071 0 0.28538225310214188 -0.1835367118388059 0 0.28757449079101732 -0.18865700437852881 0 0.29185455762084622 -0.18503304553929401 0 0.28538225310214188 -0.1835367118388059 0 0.28130231814089651 -0.1903263510951054 0 0.28026855645525001 -0.18499994729950001 0 0.28538225310214188 -0.1835367118388059 0 0.28538225310214188 -0.1835367118388059 0 0.28269563037065792 -0.1811122432316114 0 0.28543374793853832 -0.17940878854527251 0 0.28026855645525001 -0.18499994729950001 0 0.28538225310214188 -0.1835367118388059 0 0.28269563037065792 -0.1811122432316114 0 0.27943898559178382 -0.1779236087256803 0 0.28269563037065792 -0.1811122432316114 0 0.28543374793853832 -0.17940878854527251 0 0.27943898559178382 -0.1779236087256803 0 0.2899160131318822 -0.1742500248119343 0 0.28543374793853832 -0.17940878854527251 0 0.2899160131318822 -0.1742500248119343 0 0.28973585749622582 -0.18022135411833071 0 0.28543374793853832 -0.17940878854527251 0 0.27943898559178382 -0.1779236087256803 0 0.29346224281645661 -0.15998849805100371 0 0.2738168882507509 -0.1660164280659146 0 0.27741652374228443 -0.17593823857362789 0 0.29346224281645661 -0.15998849805100371 0 0.27741652374228443 -0.17593823857362789 0 0.27943898559178382 -0.1779236087256803 0 0.29346224281645661 -0.15998849805100371 0 0.27943898559178382 -0.1779236087256803 0 0.2899160131318822 -0.1742500248119343 0 0.29346224281645661 -0.15998849805100371 0 0.2899160131318822 -0.1742500248119343 0 0.29346224281645661 -0.15998849805100371 0 0.30064517627642012 -0.17404361023190851 0 0.29346224281645661 -0.15998849805100371 0 0.31129157280251729 -0.1580392790423191 0 0.30471768966948748 -0.16602467081578601 0 0.29346224281645661 -0.15998849805100371 0 0.30471768966948748 -0.16602467081578601 0 0.30064517627642012 -0.17404361023190851 0 0.31129157280251729 -0.1580392790423191 0 0.30471768966948748 -0.16602467081578601 0 0.31347176678255578 -0.1720272959379128 0 0.30471768966948748 -0.16602467081578601 0 0.30064517627642012 -0.17404361023190851 0 0.31347176678255578 -0.1720272959379128 0 0.30666848209011383 -0.179513160442382 0 0.30064517627642012 -0.17404361023190851 0 0.31347176678255578 -0.1720272959379128 0 0.30666848209011383 -0.179513160442382 0 0.31279179353664482 -0.18124842157805821 0 0.31347176678255578 -0.1720272959379128 0 0.30666848209011383 -0.179513160442382 0 0.30064517627642012 -0.17404361023190851 0 0.30095319923296338 -0.18322722099659131 0 0.29524221699381159 -0.18058633499802329 0 0.30064517627642012 -0.17404361023190851 0 0.30095319923296338 -0.18322722099659131 0 0.3024685242039904 -0.18818829445875801 0 0.2971815338879763 -0.18720840881958861 0 0.30095319923296338 -0.18322722099659131 0 0.29524221699381159 -0.18058633499802329 0 0.2971815338879763 -0.18720840881958861 0 0.30095319923296338 -0.18322722099659131 0 0.3024685242039904 -0.18818829445875801 0 0.30095319923296338 -0.18322722099659131 0 0.30760611592130588 -0.18622262171548451 0 0.30666848209011383 -0.179513160442382 0 0.30095319923296338 -0.18322722099659131 0 0.30760611592130588 -0.18622262171548451 0 0.30666848209011383 -0.179513160442382 0 0.30760611592130588 -0.18622262171548451 0 0.31279179353664482 -0.18124842157805821 0 0.30760611592130588 -0.18622262171548451 0 0.31279179353664482 -0.18124842157805821 0 0.31261501619004928 -0.18756057878826141 0 0.31279179353664482 -0.18124842157805821 0 0.31719174425304669 -0.18692947368401791 0 0.31261501619004928 -0.18756057878826141 0 0.31279179353664482 -0.18124842157805821 0 0.31719174425304669 -0.18692947368401791 0 0.31941409382288649 -0.17845932526271849 0 0.31719174425304669 -0.18692947368401791 0 0.32241808692234081 -0.18447660962033791 0 0.31941409382288649 -0.17845932526271849 0 0.32241808692234081 -0.18447660962033791 0 0.32613227912239312 -0.18730420852642549 0 0.32254525195180173 -0.18967856924860171 0 0.31719174425304669 -0.18692947368401791 0 0.32241808692234081 -0.18447660962033791 0 0.32254525195180173 -0.18967856924860171 0 0.32241808692234081 -0.18447660962033791 0 0.32530567498087692 -0.180301971524544 0 0.31941409382288649 -0.17845932526271849 0 0.32241808692234081 -0.18447660962033791 0 0.32530567498087692 -0.180301971524544 0 0.32634867481794699 -0.1835349323959832 0 0.32530567498087692 -0.180301971524544 0 0.32634867481794699 -0.1835349323959832 0 0.3296492823483258 -0.18131952781776789 0 0.32634867481794699 -0.1835349323959832 0 0.32613227912239312 -0.18730420852642549 0 0.32945588394575298 -0.18545441221331971 0 0.32241808692234081 -0.18447660962033791 0 0.32634867481794699 -0.1835349323959832 0 0.32613227912239312 -0.18730420852642549 0 0.31347176678255578 -0.1720272959379128 0 0.31941409382288649 -0.17845932526271849 0 0.32869823699288431 -0.1737194625259125 0 0.32530567498087692 -0.180301971524544 0 0.31941409382288649 -0.17845932526271849 0 0.32869823699288431 -0.1737194625259125 0 0.32530567498087692 -0.180301971524544 0 0.3296492823483258 -0.18131952781776789 0 0.32869823699288431 -0.1737194625259125 0 0.31279179353664482 -0.18124842157805821 0 0.31347176678255578 -0.1720272959379128 0 0.31941409382288649 -0.17845932526271849 0 0.31129157280251729 -0.1580392790423191 0 0.31347176678255578 -0.1720272959379128 0 0.32629583449249261 -0.16357410592890209 0 0.31347176678255578 -0.1720272959379128 0 0.32629583449249261 -0.16357410592890209 0 0.32869823699288431 -0.1737194625259125 0 0.32629583449249261 -0.16357410592890209 0 0.34357835345404403 -0.15742709104098021 0 0.32266575515150181 -0.1477659907270068 0 0.32629583449249261 -0.16357410592890209 0 0.34357835345404403 -0.15742709104098021 0 0.34654044164288639 -0.18287864569879039 0 0.32629583449249261 -0.16357410592890209 0 0.34510616894385882 -0.18509482448147779 0 0.33523771674143771 -0.18283998064034601 0 0.32869823699288431 -0.1737194625259125 0 0.34510616894385882 -0.18509482448147779 0 0.32629583449249261 -0.16357410592890209 0 0.32869823699288431 -0.1737194625259125 0 0.34510616894385882 -0.18509482448147779 0 0.32629583449249261 -0.16357410592890209 0 0.34510616894385882 -0.18509482448147779 0 0.34654044164288639 -0.18287864569879039 0 0.33942657298902901 -0.18590064221959479 0 0.33523771674143771 -0.18283998064034601 0 0.34510616894385882 -0.18509482448147779 0 0.33942657298902901 -0.18590064221959479 0 0.34510616894385882 -0.18509482448147779 0 0.33908283750081131 -0.19070218878694251 0 0.33942657298902901 -0.18590064221959479 0 0.33523771674143771 -0.18283998064034601 0 0.33577298275698181 -0.18645797513340401 0 0.33942657298902901 -0.18590064221959479 0 0.33577298275698181 -0.18645797513340401 0 0.33826200832795222 -0.18816426486852109 0 0.33523771674143771 -0.18283998064034601 0 0.33277305641754651 -0.18454745166391839 0 0.3296492823483258 -0.18131952781776789 0 0.33523771674143771 -0.18283998064034601 0 0.33577298275698181 -0.18645797513340401 0 0.33277305641754651 -0.18454745166391839 0 0.33577298275698181 -0.18645797513340401 0 0.33277305641754651 -0.18454745166391839 0 0.33257960430014322 -0.18773771313527779 0 0.33277305641754651 -0.18454745166391839 0 0.32945588394575298 -0.18545441221331971 0 0.3296492823483258 -0.18131952781776789 0 0.32945588394575298 -0.18545441221331971 0 0.33257960430014322 -0.18773771313527779 0 0.32942892362116688 -0.18861035236632251 0 0.33277305641754651 -0.18454745166391839 0 0.32945588394575298 -0.18545441221331971 0 0.33257960430014322 -0.18773771313527779 0 0.32613227912239312 -0.18730420852642549 0 0.32945588394575298 -0.18545441221331971 0 0.32942892362116688 -0.18861035236632251 0 0.32634867481794699 -0.1835349323959832 0 0.32945588394575298 -0.18545441221331971 0 0.3296492823483258 -0.18131952781776789 0 0.33523771674143771 -0.18283998064034601 0 0.3296492823483258 -0.18131952781776789 0 0.32869823699288431 -0.1737194625259125 0 0.32594740397003619 -0.12103341905376171 0 0.30749390161664181 -0.1219187744144741 0 0.31346039794782582 -0.13441176364300819 0 0.32594740397003619 -0.12103341905376171 0 0.31346039794782582 -0.13441176364300819 0 0.32718266993588557 -0.13480254446470741 0 0.31720489930789442 -0.14055064411907131 0 0.31346039794782582 -0.13441176364300819 0 0.32718266993588557 -0.13480254446470741 0 0.30748550004112729 -0.14205338737632539 0 0.31720489930789442 -0.14055064411907131 0 0.31346039794782582 -0.13441176364300819 0 0.30748550004112729 -0.14205338737632539 0 0.31129157280251729 -0.1580392790423191 0 0.32629583449249261 -0.16357410592890209 0 0.30748550004112729 -0.14205338737632539 0 0.32629583449249261 -0.16357410592890209 0 0.30748550004112729 -0.14205338737632539 0 0.32629583449249261 -0.16357410592890209 0 0.32266575515150181 -0.1477659907270068 0 0.31720489930789442 -0.14055064411907131 0 0.32718266993588557 -0.13480254446470741 0 0.32266575515150181 -0.1477659907270068 0 0.30748550004112729 -0.14205338737632539 0 0.31720489930789442 -0.14055064411907131 0 0.32266575515150181 -0.1477659907270068 0 0.34357835345404403 -0.15742709104098021 0 0.32266575515150181 -0.1477659907270068 0 0.34061626526520161 -0.13197553638317 0 0.34357835345404403 -0.15742709104098021 0 0.34061626526520161 -0.13197553638317 0 0.32718266993588557 -0.13480254446470741 0 0.32266575515150181 -0.1477659907270068 0 0.34061626526520161 -0.13197553638317 0 0.32594740397003619 -0.12103341905376171 0 0.32718266993588557 -0.13480254446470741 0 0.34061626526520161 -0.13197553638317 0 0.35377501148893192 -0.11982233019757731 0 0.34061626526520161 -0.13197553638317 0 0.35567925777413828 -0.1292210968545148 0 0.34061626526520161 -0.13197553638317 0 0.35567925777413828 -0.1292210968545148 0 0.3520596652055028 -0.14160239486461079 0 0.35567925777413828 -0.1292210968545148 0 0.3520596652055028 -0.14160239486461079 0 0.36362278160110229 -0.13859683824414029 0 0.34357835345404403 -0.15742709104098021 0 0.3520596652055028 -0.14160239486461079 0 0.3568016679330282 -0.15079141180024891 0 0.34357835345404403 -0.15742709104098021 0 0.34061626526520161 -0.13197553638317 0 0.3520596652055028 -0.14160239486461079 0 0.3520596652055028 -0.14160239486461079 0 0.3568016679330282 -0.15079141180024891 0 0.36362278160110229 -0.13859683824414029 0 0.3568016679330282 -0.15079141180024891 0 0.37009402596667629 -0.14648462253288819 0 0.35831723380478098 -0.16468163411583911 0 0.37009402596667629 -0.14648462253288819 0 0.35831723380478098 -0.16468163411583911 0 0.3568016679330282 -0.15079141180024891 0 0.37009402596667629 -0.14648462253288819 0 0.36362278160110229 -0.13859683824414029 0 0.38351179844785338 -0.11777169704359319 0 0.36362278160110229 -0.13859683824414029 0 0.38351179844785338 -0.11777169704359319 0 0.36979721931647791 -0.1239124930345446 0 0.36362278160110229 -0.13859683824414029 0 0.37009402596667629 -0.14648462253288819 0 0.37136155890903078 -0.13472669765894429 0 0.38300944660508401 -0.12652824937753429 0 0.38351179844785338 -0.11777169704359319 0 0.36362278160110229 -0.13859683824414029 0 0.37136155890903078 -0.13472669765894429 0 0.37009402596667629 -0.14648462253288819 0 0.36362278160110229 -0.13859683824414029 0 0.37136155890903078 -0.13472669765894429 0 0.37009402596667629 -0.14648462253288819 0 0.37136155890903078 -0.13472669765894429 0 0.36412591368213348 -0.1189485730140513 0 0.35567925777413828 -0.1292210968545148 0 0.36343021034973771 -0.12783340222303699 0 0.36979721931647791 -0.1239124930345446 0 0.36362278160110229 -0.13859683824414029 0 0.36343021034973771 -0.12783340222303699 0 0.35567925777413828 -0.1292210968545148 0 0.36362278160110229 -0.13859683824414029 0 0.36343021034973771 -0.12783340222303699 0 0.34654044164288639 -0.18287864569879039 0 0.35831723380478098 -0.16468163411583911 0 0.35724279803155762 -0.17550356377130191 0 0.34654044164288639 -0.18287864569879039 0 0.35831723380478098 -0.16468163411583911 0 0.35724279803155762 -0.17550356377130191 0 0.35674746765239262 -0.18266401600633439 0 0.34654044164288639 -0.18287864569879039 0 0.35674746765239262 -0.18266401600633439 0 0.34705829028881591 -0.18732822730341819 0 0.34654044164288639 -0.18287864569879039 0 0.34705829028881591 -0.18732822730341819 0 0.34510616894385882 -0.18509482448147779 0 0.34654044164288639 -0.18287864569879039 0 0.34705829028881591 -0.18732822730341819 0 0.34654044164288639 -0.18287864569879039 0 0.34705829028881591 -0.18732822730341819 0 0.34510616894385882 -0.18509482448147779 0 0.34510616894385882 -0.18509482448147779 0 0.34654044164288639 -0.18287864569879039 0 0.34357835345404403 -0.15742709104098021 0 0.34654044164288639 -0.18287864569879039 0 0.35831723380478098 -0.16468163411583911 0 0.34357835345404403 -0.15742709104098021 0 0.34654044164288639 -0.18287864569879039 0 0.34357835345404403 -0.15742709104098021 0 0.3568016679330282 -0.15079141180024891 0 0.35831723380478098 -0.16468163411583911 0 0.37009402596667629 -0.14648462253288819 0 0.35831723380478098 -0.16468163411583911 0 0.36736604902617032 -0.17178995926424381 0 0.37009402596667629 -0.14648462253288819 0 0.36736604902617032 -0.17178995926424381 0 0.37684010389737732 -0.16859387379759899 0 0.37009402596667629 -0.14648462253288819 0 0.36736604902617032 -0.17178995926424381 0 0.35724279803155762 -0.17550356377130191 0 0.35831723380478098 -0.16468163411583911 0 0.36736604902617032 -0.17178995926424381 0 0.36736604902617032 -0.17178995926424381 0 0.36463807208566301 -0.19709529599559919 0 0.35674746765239262 -0.18266401600633439 0 0.36736604902617032 -0.17178995926424381 0 0.36463807208566301 -0.19709529599559919 0 0.36736604902617032 -0.17178995926424381 0 0.37684010389737732 -0.16859387379759899 0 0.37932494907747699 -0.18006984040659099 0 0.36736604902617032 -0.17178995926424381 0 0.36463807208566301 -0.19709529599559919 0 0.37932494907747699 -0.18006984040659099 0 0.35724279803155762 -0.17550356377130191 0 0.35674746765239262 -0.18266401600633439 0 0.36736604902617032 -0.17178995926424381 0 0.36463807208566301 -0.19709529599559919 0 0.36191009514515571 -0.22240063272695459 0 0.36463807208566301 -0.19709529599559919 0 0.36191009514515571 -0.22240063272695459 0 0.37939432004002349 -0.20451699058946179 0 0.36463807208566301 -0.19709529599559919 0 0.36221155589754112 -0.2046649293785979 0 0.36191009514515571 -0.22240063272695459 0 0.36221155589754112 -0.2046649293785979 0 0.35010823274253872 -0.21353466415310349 0 0.36191009514515571 -0.22240063272695459 0 0.34705829028881591 -0.18732822730341819 0 0.36463807208566301 -0.19709529599559919 0 0.36221155589754112 -0.2046649293785979 0 0.34705829028881591 -0.18732822730341819 0 0.36221155589754112 -0.2046649293785979 0 0.34705829028881591 -0.18732822730341819 0 0.35010823274253872 -0.21353466415310349 0 0.33512497771989452 -0.2005173478492436 0 0.34705829028881591 -0.18732822730341819 0 0.36221155589754112 -0.2046649293785979 0 0.35010823274253872 -0.21353466415310349 0 0.34705829028881591 -0.18732822730341819 0 0.35010823274253872 -0.21353466415310349 0 0.35674746765239262 -0.18266401600633439 0 0.34705829028881591 -0.18732822730341819 0 0.36463807208566301 -0.19709529599559919 0 0.34705829028881591 -0.18732822730341819 0 0.34510616894385882 -0.18509482448147779 0 0.33512497771989452 -0.2005173478492436 0 0.34510616894385882 -0.18509482448147779 0 0.33908283750081131 -0.19070218878694251 0 0.33512497771989452 -0.2005173478492436 0 0.33908283750081131 -0.19070218878694251 0 0.33475622594623339 -0.19204245031626571 0 0.33512497771989452 -0.2005173478492436 0 0.34510616894385882 -0.18509482448147779 0 0.33512497771989452 -0.2005173478492436 0 0.33908283750081131 -0.19070218878694251 0 0.33826200832795222 -0.18816426486852109 0 0.33475622594623339 -0.19204245031626571 0 0.33942657298902901 -0.18590064221959479 0 0.33908283750081131 -0.19070218878694251 0 0.33826200832795222 -0.18816426486852109 0 0.33826200832795222 -0.18816426486852109 0 0.33529521512888372 -0.18962316730084319 0 0.33475622594623339 -0.19204245031626571 0 0.33577298275698181 -0.18645797513340401 0 0.33826200832795222 -0.18816426486852109 0 0.33529521512888372 -0.18962316730084319 0 0.33577298275698181 -0.18645797513340401 0 0.33257960430014322 -0.18773771313527779 0 0.33529521512888372 -0.18962316730084319 0 0.33257960430014322 -0.18773771313527779 0 0.33529521512888372 -0.18962316730084319 0 0.33193451428590742 -0.191493606142498 0 0.33529521512888372 -0.18962316730084319 0 0.33475622594623339 -0.19204245031626571 0 0.33193451428590742 -0.191493606142498 0 0.33475622594623339 -0.19204245031626571 0 0.33318204250402311 -0.1952484556222901 0 0.33193451428590742 -0.191493606142498 0 0.33318204250402311 -0.1952484556222901 0 0.32819766119883792 -0.19475187566516849 0 0.33193451428590742 -0.191493606142498 0 0.32819766119883792 -0.19475187566516849 0 0.33193451428590742 -0.191493606142498 0 0.32657094077081011 -0.1910723260489475 0 0.33193451428590742 -0.191493606142498 0 0.32942892362116688 -0.18861035236632251 0 0.32657094077081011 -0.1910723260489475 0 0.33257960430014322 -0.18773771313527779 0 0.33193451428590742 -0.191493606142498 0 0.32942892362116688 -0.18861035236632251 0 0.33475622594623339 -0.19204245031626571 0 0.33318204250402311 -0.1952484556222901 0 0.33512497771989452 -0.2005173478492436 0 0.33187512688263082 -0.20275368201312791 0 0.32977154698172312 -0.1987808801212366 0 0.32762357102976991 -0.2045026771328049 0 0.33187512688263082 -0.20275368201312791 0 0.32977154698172312 -0.1987808801212366 0 0.33248842352206781 -0.19932509140147461 0 0.33318204250402311 -0.1952484556222901 0 0.32977154698172312 -0.1987808801212366 0 0.33248842352206781 -0.19932509140147461 0 0.33318204250402311 -0.1952484556222901 0 0.32819766119883792 -0.19475187566516849 0 0.32977154698172312 -0.1987808801212366 0 0.33318204250402311 -0.1952484556222901 0 0.33512497771989452 -0.2005173478492436 0 0.33248842352206781 -0.19932509140147461 0 0.33187512688263082 -0.20275368201312791 0 0.33512497771989452 -0.2005173478492436 0 0.33248842352206781 -0.19932509140147461 0 0.33187512688263082 -0.20275368201312791 0 0.34251665103944701 -0.22124739150795811 0 0.35010823274253872 -0.21353466415310349 0 0.33187512688263082 -0.20275368201312791 0 0.34251665103944701 -0.22124739150795811 0 0.33187512688263082 -0.20275368201312791 0 0.33244699371596398 -0.21454336721552411 0 0.34251665103944701 -0.22124739150795811 0 0.35010823274253872 -0.21353466415310349 0 0.33187512688263082 -0.20275368201312791 0 0.33512497771989452 -0.2005173478492436 0 0.33244699371596398 -0.21454336721552411 0 0.3261070881010173 -0.21646398205542919 0 0.33326685366964959 -0.2230071495036795 0 0.33244699371596398 -0.21454336721552411 0 0.32813898291487148 -0.2093466307607435 0 0.3261070881010173 -0.21646398205542919 0 0.33187512688263082 -0.20275368201312791 0 0.33244699371596398 -0.21454336721552411 0 0.32813898291487148 -0.2093466307607435 0 0.33187512688263082 -0.20275368201312791 0 0.32813898291487148 -0.2093466307607435 0 0.32762357102976991 -0.2045026771328049 0 0.32762357102976991 -0.2045026771328049 0 0.32250722305311408 -0.2082394657176341 0 0.3246485444914759 -0.20138730433588109 0 0.32813898291487148 -0.2093466307607435 0 0.32762357102976991 -0.2045026771328049 0 0.32250722305311408 -0.2082394657176341 0 0.32250722305311408 -0.2082394657176341 0 0.31895890280308797 -0.20218279390574839 0 0.3246485444914759 -0.20138730433588109 0 0.32250722305311408 -0.2082394657176341 0 0.3261070881010173 -0.21646398205542919 0 0.31621987405555241 -0.21587579390444259 0 0.32813898291487148 -0.2093466307607435 0 0.32250722305311408 -0.2082394657176341 0 0.3261070881010173 -0.21646398205542919 0 0.30954756667419681 -0.2096301180985988 0 0.31621987405555241 -0.21587579390444259 0 0.31565070616244301 -0.20791830884500689 0 0.32250722305311408 -0.2082394657176341 0 0.31621987405555241 -0.21587579390444259 0 0.31565070616244301 -0.20791830884500689 0 0.32250722305311408 -0.2082394657176341 0 0.31565070616244301 -0.20791830884500689 0 0.31895890280308797 -0.20218279390574839 0 0.30954756667419681 -0.2096301180985988 0 0.31565070616244301 -0.20791830884500689 0 0.31273909865769289 -0.2027463082668724 0 0.31565070616244301 -0.20791830884500689 0 0.31273909865769289 -0.2027463082668724 0 0.31895890280308797 -0.20218279390574839 0 0.31273909865769289 -0.2027463082668724 0 0.31895890280308797 -0.20218279390574839 0 0.31334237436966961 -0.19737686197577739 0 0.31895890280308797 -0.20218279390574839 0 0.31839360215580831 -0.1964656913724547 0 0.32184683589073609 -0.19851248194364529 0 0.31895890280308797 -0.20218279390574839 0 0.31839360215580831 -0.1964656913724547 0 0.31334237436966961 -0.19737686197577739 0 0.31196712353831002 -0.19243178167646299 0 0.31839360215580831 -0.1964656913724547 0 0.31334237436966961 -0.19737686197577739 0 0.31196712353831002 -0.19243178167646299 0 0.31839360215580831 -0.1964656913724547 0 0.31760101419533338 -0.19122748584396129 0 0.31196712353831002 -0.19243178167646299 0 0.31261501619004928 -0.18756057878826141 0 0.31760101419533338 -0.19122748584396129 0 0.31719174425304669 -0.18692947368401791 0 0.31261501619004928 -0.18756057878826141 0 0.31760101419533338 -0.19122748584396129 0 0.31719174425304669 -0.18692947368401791 0 0.31760101419533338 -0.19122748584396129 0 0.32254525195180173 -0.18967856924860171 0 0.31839360215580831 -0.1964656913724547 0 0.31760101419533338 -0.19122748584396129 0 0.32318070001755622 -0.1943169009919338 0 0.31760101419533338 -0.19122748584396129 0 0.32318070001755622 -0.1943169009919338 0 0.32254525195180173 -0.18967856924860171 0 0.32318070001755622 -0.1943169009919338 0 0.32254525195180173 -0.18967856924860171 0 0.32657094077081011 -0.1910723260489475 0 0.32613227912239312 -0.18730420852642549 0 0.32254525195180173 -0.18967856924860171 0 0.32657094077081011 -0.1910723260489475 0 0.32613227912239312 -0.18730420852642549 0 0.32942892362116688 -0.18861035236632251 0 0.32657094077081011 -0.1910723260489475 0 0.32819766119883792 -0.19475187566516849 0 0.32318070001755622 -0.1943169009919338 0 0.32657094077081011 -0.1910723260489475 0 0.32819766119883792 -0.19475187566516849 0 0.32977154698172312 -0.1987808801212366 0 0.32552905771606588 -0.1975498886115731 0 0.32819766119883792 -0.19475187566516849 0 0.32318070001755622 -0.1943169009919338 0 0.32552905771606588 -0.1975498886115731 0 0.32977154698172312 -0.1987808801212366 0 0.32762357102976991 -0.2045026771328049 0 0.3246485444914759 -0.20138730433588109 0 0.32977154698172312 -0.1987808801212366 0 0.32552905771606588 -0.1975498886115731 0 0.3246485444914759 -0.20138730433588109 0 0.31895890280308797 -0.20218279390574839 0 0.3246485444914759 -0.20138730433588109 0 0.32184683589073609 -0.19851248194364529 0 0.31839360215580831 -0.1964656913724547 0 0.32318070001755622 -0.1943169009919338 0 0.32184683589073609 -0.19851248194364529 0 0.32318070001755622 -0.1943169009919338 0 0.32552905771606588 -0.1975498886115731 0 0.32184683589073609 -0.19851248194364529 0 0.32552905771606588 -0.1975498886115731 0 0.3246485444914759 -0.20138730433588109 0 0.32184683589073609 -0.19851248194364529 0 0.30054527057508201 -0.2392462996339064 0 0.31659941824500842 -0.2382968576379724 0 0.32282519411091049 -0.25208168099931572 0 0.32650427446612817 -0.2428450432927195 0 0.32308127996223868 -0.22881812435033611 0 0.33297114901272751 -0.2356792493015728 0 0.32650427446612817 -0.2428450432927195 0 0.31659941824500842 -0.2382968576379724 0 0.32308127996223868 -0.22881812435033611 0 0.32650427446612817 -0.2428450432927195 0 0.31659941824500842 -0.2382968576379724 0 0.32282519411091049 -0.25208168099931572 0 0.31011927762462388 -0.2279011094452788 0 0.31659941824500842 -0.2382968576379724 0 0.32308127996223868 -0.22881812435033611 0 0.31011927762462388 -0.2279011094452788 0 0.31621987405555241 -0.21587579390444259 0 0.32308127996223868 -0.22881812435033611 0 0.3261070881010173 -0.21646398205542919 0 0.32308127996223868 -0.22881812435033611 0 0.33326685366964959 -0.2230071495036795 0 0.3261070881010173 -0.21646398205542919 0 0.31621987405555241 -0.21587579390444259 0 0.32308127996223868 -0.22881812435033611 0 0.32308127996223868 -0.22881812435033611 0 0.33326685366964959 -0.2230071495036795 0 0.33297114901272751 -0.2356792493015728 0 0.33244699371596398 -0.21454336721552411 0 0.33326685366964959 -0.2230071495036795 0 0.34251665103944701 -0.22124739150795811 0 0.33326685366964959 -0.2230071495036795 0 0.34251665103944701 -0.22124739150795811 0 0.34180008451129051 -0.23346649264274219 0 0.33326685366964959 -0.2230071495036795 0 0.34180008451129051 -0.23346649264274219 0 0.33297114901272751 -0.2356792493015728 0 0.32650427446612817 -0.2428450432927195 0 0.32282519411091049 -0.25208168099931572 0 0.33849036963403628 -0.25019631002701931 0 0.34180008451129051 -0.23346649264274219 0 0.33297114901272751 -0.2356792493015728 0 0.33849036963403628 -0.25019631002701931 0 0.32650427446612817 -0.2428450432927195 0 0.33297114901272751 -0.2356792493015728 0 0.33849036963403628 -0.25019631002701931 0 0.35415554515716102 -0.24831093905471299 0 0.33849036963403628 -0.25019631002701931 0 0.35315817519626219 -0.23974110100278881 0 0.35783458666365131 -0.24786815065110421 0 0.36191009514515571 -0.22240063272695459 0 0.34180008451129051 -0.23346649264274219 0 0.35315817519626219 -0.23974110100278881 0 0.33849036963403628 -0.25019631002701931 0 0.35315817519626219 -0.23974110100278881 0 0.35415554515716102 -0.24831093905471299 0 0.33849036963403628 -0.25019631002701931 0 0.35315817519626219 -0.23974110100278881 0 0.35783458666365131 -0.24786815065110421 0 0.35315817519626219 -0.23974110100278881 0 0.35415554515716102 -0.24831093905471299 0 0.35315817519626219 -0.23974110100278881 0 0.35783458666365131 -0.24786815065110421 0 0.35415554515716102 -0.24831093905471299 0 0.35783458666365131 -0.24786815065110421 0 0.3589547705978951 -0.24981489774816881 0 0.35415554515716102 -0.24831093905471299 0 0.35783458666365131 -0.24786815065110421 0 0.3589547705978951 -0.24981489774816881 0 0.35783458666365131 -0.24786815065110421 0 0.35415554515716102 -0.24831093905471299 0 0.35010823274253872 -0.21353466415310349 0 0.35315817519626219 -0.23974110100278881 0 0.36191009514515571 -0.22240063272695459 0 0.34251665103944701 -0.22124739150795811 0 0.35315817519626219 -0.23974110100278881 0 0.35010823274253872 -0.21353466415310349 0 0.35315817519626219 -0.23974110100278881 0 0.35010823274253872 -0.21353466415310349 0 0.34251665103944701 -0.22124739150795811 0 0.35315817519626219 -0.23974110100278881 0 0.34251665103944701 -0.22124739150795811 0 0.34180008451129051 -0.23346649264274219 0 0.35315817519626219 -0.23974110100278881 0 0.36191009514515571 -0.22240063272695459 0 0.37641765629879148 -0.2456315986243163 0 0.38330783886485781 -0.23251967314531491 0 0.35783458666365131 -0.24786815065110421 0 0.37641765629879148 -0.2456315986243163 0 0.36854417670357048 -0.25292360155684701 0 0.35783458666365131 -0.24786815065110421 0 0.36191009514515571 -0.22240063272695459 0 0.35783458666365131 -0.24786815065110421 0 0.37641765629879148 -0.2456315986243163 0 0.35783458666365131 -0.24786815065110421 0 0.36191009514515571 -0.22240063272695459 0 0.37641765629879148 -0.2456315986243163 0 0.37641765629879148 -0.2456315986243163 0 0.39365319439293311 -0.2435572277903183 0 0.38035274350617743 -0.2561222821423137 0 0.37641765629879148 -0.2456315986243163 0 0.39365319439293311 -0.2435572277903183 0 0.37641765629879148 -0.2456315986243163 0 0.39365319439293311 -0.2435572277903183 0 0.38330783886485781 -0.23251967314531491 0 0.39365319439293311 -0.2435572277903183 0 0.39687768398386292 -0.23045161197181521 0 0.41440413361372069 -0.24546874755649339 0 0.39365319439293311 -0.2435572277903183 0 0.39687768398386292 -0.23045161197181521 0 0.38330783886485781 -0.23251967314531491 0 0.39687768398386292 -0.23045161197181521 0 0.38696802312366629 -0.21919579932641189 0 0.40064814296106699 -0.21081750419035281 0 0.39687768398386292 -0.23045161197181521 0 0.40064814296106699 -0.21081750419035281 0 0.41028621025593892 -0.22891345648057021 0 0.36191009514515571 -0.22240063272695459 0 0.38696802312366629 -0.21919579932641189 0 0.38330783886485781 -0.23251967314531491 0 0.39687768398386292 -0.23045161197181521 0 0.38696802312366629 -0.21919579932641189 0 0.38330783886485781 -0.23251967314531491 0 0.38696802312366629 -0.21919579932641189 0 0.37939432004002349 -0.20451699058946179 0 0.40064814296106699 -0.21081750419035281 0 0.36191009514515571 -0.22240063272695459 0 0.38696802312366629 -0.21919579932641189 0 0.37939432004002349 -0.20451699058946179 0 0.37939432004002349 -0.20451699058946179 0 0.38857310407839712 -0.19200222071672371 0 0.40064814296106699 -0.21081750419035281 0 0.36463807208566301 -0.19709529599559919 0 0.37939432004002349 -0.20451699058946179 0 0.38857310407839712 -0.19200222071672371 0 0.36463807208566301 -0.19709529599559919 0 0.38857310407839712 -0.19200222071672371 0 0.37932494907747699 -0.18006984040659099 0 0.38857310407839712 -0.19200222071672371 0 0.40064814296106699 -0.21081750419035281 0 0.40905747417659222 -0.18512238453120539 0 0.41593046947905848 -0.201027643600275 0 0.4232051350175331 -0.2184679688445656 0 0.41028621025593892 -0.22891345648057021 0 0.40064814296106699 -0.21081750419035281 0 0.41593046947905848 -0.201027643600275 0 0.41028621025593892 -0.22891345648057021 0 0.41593046947905848 -0.201027643600275 0 0.41028621025593892 -0.22891345648057021 0 0.40064814296106699 -0.21081750419035281 0 0.41593046947905848 -0.201027643600275 0 0.40905747417659222 -0.18512238453120539 0 0.41593046947905848 -0.201027643600275 0 0.43411046422807009 -0.19709623150661801 0 0.42157472870217738 -0.17314183071997971 0 0.41593046947905848 -0.201027643600275 0 0.43411046422807009 -0.19709623150661801 0 0.42731341845956933 -0.2078629958131365 0 0.41593046947905848 -0.201027643600275 0 0.4232051350175331 -0.2184679688445656 0 0.42731341845956933 -0.2078629958131365 0 0.43411046422807009 -0.19709623150661801 0 0.42731341845956933 -0.2078629958131365 0 0.43600760511361553 -0.21486013930108749 0 0.4232051350175331 -0.2184679688445656 0 0.42731341845956933 -0.2078629958131365 0 0.43600760511361553 -0.21486013930108749 0 0.4232051350175331 -0.2184679688445656 0 0.43600760511361553 -0.21486013930108749 0 0.43324988033689982 -0.2278651346812291 0 0.43600760511361553 -0.21486013930108749 0 0.43324988033689982 -0.2278651346812291 0 0.43600760511361553 -0.21486013930108749 0 0.43324988033689982 -0.2278651346812291 0 0.44297116329597919 -0.2187845869918181 0 0.4232051350175331 -0.2184679688445656 0 0.43324988033689982 -0.2278651346812291 0 0.42028633980602309 -0.23017882689071451 0 0.43324988033689982 -0.2278651346812291 0 0.41440413361372069 -0.24546874755649339 0 0.43324988033689982 -0.2278651346812291 0 0.41440413361372069 -0.24546874755649339 0 0.42738697927529867 -0.25551365198940817 0 0.43324988033689982 -0.2278651346812291 0 0.41440413361372069 -0.24546874755649339 0 0.42028633980602309 -0.23017882689071451 0 0.43324988033689982 -0.2278651346812291 0 0.4400288186723188 -0.240254335932369 0 0.42738697927529867 -0.25551365198940817 0 0.43324988033689982 -0.2278651346812291 0 0.42738697927529867 -0.25551365198940817 0 0.41440413361372069 -0.24546874755649339 0 0.41028621025593892 -0.22891345648057021 0 0.42028633980602309 -0.23017882689071451 0 0.39687768398386292 -0.23045161197181521 0 0.41440413361372069 -0.24546874755649339 0 0.41028621025593892 -0.22891345648057021 0 0.4232051350175331 -0.2184679688445656 0 0.41028621025593892 -0.22891345648057021 0 0.42028633980602309 -0.23017882689071451 0 0.39973173221415942 -0.1285909049216542 0 0.4030520280835122 -0.14082858451689051 0 0.40919305284169633 -0.1293941054884252 0 0.39973173221415942 -0.1285909049216542 0 0.39138406616993598 -0.1340549971302038 0 0.4030520280835122 -0.14082858451689051 0 0.39973173221415942 -0.1285909049216542 0 0.39138406616993598 -0.1340549971302038 0 0.39222318798589811 -0.1273142468786132 0 0.39476750695441232 -0.1200828360850604 0 0.39973173221415942 -0.1285909049216542 0 0.39222318798589811 -0.1273142468786132 0 0.38351179844785338 -0.11777169704359319 0 0.37136155890903078 -0.13472669765894429 0 0.38300944660508401 -0.12652824937753429 0 0.37009402596667629 -0.14648462253288819 0 0.38300944660508401 -0.12652824937753429 0 0.39138406616993598 -0.1340549971302038 0 0.39222318798589811 -0.1273142468786132 0 0.38300944660508401 -0.12652824937753429 0 0.37009402596667629 -0.14648462253288819 0 0.38300944660508401 -0.12652824937753429 0 0.3841690544361111 -0.14150382873199391 0 0.39138406616993598 -0.1340549971302038 0 0.38300944660508401 -0.12652824937753429 0 0.3841690544361111 -0.14150382873199391 0 0.39138406616993598 -0.1340549971302038 0 0.3841690544361111 -0.14150382873199391 0 0.39334079159807611 -0.14791974317069301 0 0.3841690544361111 -0.14150382873199391 0 0.38301694184078378 -0.15253153144865081 0 0.39334079159807611 -0.14791974317069301 0 0.37009402596667629 -0.14648462253288819 0 0.38301694184078378 -0.15253153144865081 0 0.37684010389737732 -0.16859387379759899 0 0.37009402596667629 -0.14648462253288819 0 0.3841690544361111 -0.14150382873199391 0 0.38301694184078378 -0.15253153144865081 0 0.38301694184078378 -0.15253153144865081 0 0.39334079159807611 -0.14791974317069301 0 0.39196281629041502 -0.1591835935716864 0 0.39334079159807611 -0.14791974317069301 0 0.39196281629041502 -0.1591835935716864 0 0.40740882781606058 -0.15600496718269971 0 0.39138406616993598 -0.1340549971302038 0 0.39334079159807611 -0.14791974317069301 0 0.4030520280835122 -0.14082858451689051 0 0.39334079159807611 -0.14791974317069301 0 0.4030520280835122 -0.14082858451689051 0 0.40740882781606058 -0.15600496718269971 0 0.39920741629977741 -0.17086785225878931 0 0.39196281629041502 -0.1591835935716864 0 0.40740882781606058 -0.15600496718269971 0 0.39920741629977741 -0.17086785225878931 0 0.39196281629041502 -0.1591835935716864 0 0.37684010389737732 -0.16859387379759899 0 0.39920741629977741 -0.17086785225878931 0 0.37684010389737732 -0.16859387379759899 0 0.38301694184078378 -0.15253153144865081 0 0.39196281629041502 -0.1591835935716864 0 0.37684010389737732 -0.16859387379759899 0 0.38857310407839712 -0.19200222071672371 0 0.39920741629977741 -0.17086785225878931 0 0.37932494907747699 -0.18006984040659099 0 0.39920741629977741 -0.17086785225878931 0 0.37684010389737732 -0.16859387379759899 0 0.37932494907747699 -0.18006984040659099 0 0.38857310407839712 -0.19200222071672371 0 0.39920741629977741 -0.17086785225878931 0 0.40905747417659222 -0.18512238453120539 0 0.39920741629977741 -0.17086785225878931 0 0.40905747417659222 -0.18512238453120539 0 0.42157472870217738 -0.17314183071997971 0 0.39920741629977741 -0.17086785225878931 0 0.42157472870217738 -0.17314183071997971 0 0.41593046947905848 -0.201027643600275 0 0.42157472870217738 -0.17314183071997971 0 0.41593046947905848 -0.201027643600275 0 0.40905747417659222 -0.18512238453120539 0 0.42157472870217738 -0.17314183071997971 0 0.42157472870217738 -0.17314183071997971 0 0.44743840444857658 -0.1757712678430651 0 0.43411046422807009 -0.19709623150661801 0 0.42157472870217738 -0.17314183071997971 0 0.44743840444857658 -0.1757712678430651 0 0.42157472870217738 -0.17314183071997971 0 0.42529692781514972 -0.15475207506482441 0 0.44075497358700239 -0.15985245203467019 0 0.42157472870217738 -0.17314183071997971 0 0.42529692781514972 -0.15475207506482441 0 0.42157472870217738 -0.17314183071997971 0 0.44075497358700239 -0.15985245203467019 0 0.44743840444857658 -0.1757712678430651 0 0.39920741629977741 -0.17086785225878931 0 0.42157472870217738 -0.17314183071997971 0 0.40740882781606058 -0.15600496718269971 0 0.42157472870217738 -0.17314183071997971 0 0.40740882781606058 -0.15600496718269971 0 0.42529692781514972 -0.15475207506482441 0 0.40740882781606058 -0.15600496718269971 0 0.41560987536442268 -0.14363063829725109 0 0.42529692781514972 -0.15475207506482441 0 0.4030520280835122 -0.14082858451689051 0 0.40740882781606058 -0.15600496718269971 0 0.41560987536442268 -0.14363063829725109 0 0.42529692781514972 -0.15475207506482441 0 0.42901912692812127 -0.136362319409669 0 0.41560987536442268 -0.14363063829725109 0 0.42529692781514972 -0.15475207506482441 0 0.42901912692812127 -0.136362319409669 0 0.42529692781514972 -0.15475207506482441 0 0.43706074958256869 -0.14756156882981961 0 0.42901912692812127 -0.136362319409669 0 0.42529692781514972 -0.15475207506482441 0 0.43706074958256869 -0.14756156882981961 0 0.44075497358700239 -0.15985245203467019 0 0.42146129709783398 -0.11840302637901851 0 0.42901912692812127 -0.136362319409669 0 0.44222101677141978 -0.12795478293019949 0 0.43706074958256869 -0.14756156882981961 0 0.42901912692812127 -0.136362319409669 0 0.44222101677141978 -0.12795478293019949 0 0.42146129709783398 -0.11840302637901851 0 0.41560987536442268 -0.14363063829725109 0 0.42901912692812127 -0.136362319409669 0 0.42146129709783398 -0.11840302637901851 0 0.41560987536442268 -0.14363063829725109 0 0.42146129709783398 -0.11840302637901851 0 0.41560987536442268 -0.14363063829725109 0 0.40919305284169633 -0.1293941054884252 0 0.4030520280835122 -0.14082858451689051 0 0.41560987536442268 -0.14363063829725109 0 0.40919305284169633 -0.1293941054884252 0 0.46009609259468748 -0.1229714997271829 0 0.45235136741166199 -0.14549286810860551 0 0.46865818292044381 -0.14696492347711379 0 0.43706074958256869 -0.14756156882981961 0 0.44222101677141978 -0.12795478293019949 0 0.45235136741166199 -0.14549286810860551 0 0.46009609259468748 -0.1229714997271829 0 0.44222101677141978 -0.12795478293019949 0 0.45235136741166199 -0.14549286810860551 0 0.45235136741166199 -0.14549286810860551 0 0.46080766356188058 -0.16239510164172741 0 0.44075497358700239 -0.15985245203467019 0 0.43706074958256869 -0.14756156882981961 0 0.45235136741166199 -0.14549286810860551 0 0.44075497358700239 -0.15985245203467019 0 0.45235136741166199 -0.14549286810860551 0 0.46865818292044381 -0.14696492347711379 0 0.46080766356188058 -0.16239510164172741 0 0.46080766356188058 -0.16239510164172741 0 0.44075497358700239 -0.15985245203467019 0 0.44743840444857658 -0.1757712678430651 0 0.44743840444857658 -0.1757712678430651 0 0.47330208019497583 -0.1784007049661506 0 0.46439375952493711 -0.19158588872248941 0 0.44743840444857658 -0.1757712678430651 0 0.47330208019497583 -0.1784007049661506 0 0.46080766356188058 -0.16239510164172741 0 0.44743840444857658 -0.1757712678430651 0 0.47330208019497583 -0.1784007049661506 0 0.49056559558816359 -0.1746514412567878 0 0.4815089251268535 -0.16232016405518229 0 0.48075345722580087 -0.1877125845989279 0 0.47330208019497583 -0.1784007049661506 0 0.4815089251268535 -0.16232016405518229 0 0.48075345722580087 -0.1877125845989279 0 0.4815089251268535 -0.16232016405518229 0 0.48075345722580087 -0.1877125845989279 0 0.47330208019497583 -0.1784007049661506 0 0.46439375952493711 -0.19158588872248941 0 0.48075345722580087 -0.1877125845989279 0 0.49056559558816359 -0.1746514412567878 0 0.48075345722580087 -0.1877125845989279 0 0.5 -0.1891640421965366 0 0.49056559558816359 -0.1746514412567878 0 0.5 -0.15940897417650421 0 0.5 -0.1891640421965366 0 0.49056559558816359 -0.1746514412567878 0 0.5 -0.15940897417650421 0 0.4815089251268535 -0.16232016405518229 0 0.46080766356188058 -0.16239510164172741 0 0.47330208019497583 -0.1784007049661506 0 0.4815089251268535 -0.16232016405518229 0 0.46865818292044381 -0.14696492347711379 0 0.46080766356188058 -0.16239510164172741 0 0.4815089251268535 -0.16232016405518229 0 0.46865818292044381 -0.14696492347711379 0 0.4815089251268535 -0.16232016405518229 0 0.48226439302790602 -0.13692774351143669 0 0.4815089251268535 -0.16232016405518229 0 0.48226439302790602 -0.13692774351143669 0 0.5 -0.15940897417650421 0 0.5 -0.1296539061564719 0 0.48226439302790602 -0.13692774351143669 0 0.5 -0.15940897417650421 0 0.4815089251268535 -0.16232016405518229 0 0.48226439302790602 -0.13692774351143669 0 0.48301986092895871 -0.1115353229676911 0 0.5 -0.1296539061564719 0 0.48226439302790602 -0.13692774351143669 0 0.46009609259468748 -0.1229714997271829 0 0.46865818292044381 -0.14696492347711379 0 0.48226439302790602 -0.13692774351143669 0 0.45798871238403738 -0.22251112456942221 0 0.46658944248437939 -0.23473678370529871 0 0.450864800185385 -0.2358078852538994 0 0.45798871238403738 -0.22251112456942221 0 0.46658944248437939 -0.23473678370529871 0 0.47043978602270242 -0.21943415244410591 0 0.46658944248437939 -0.23473678370529871 0 0.46142632750171242 -0.24828586013282899 0 0.450864800185385 -0.2358078852538994 0 0.46658944248437939 -0.23473678370529871 0 0.46142632750171242 -0.24828586013282899 0 0.47602865925542581 -0.25123139893216417 0 0.450864800185385 -0.2358078852538994 0 0.4400288186723188 -0.240254335932369 0 0.44584296358024628 -0.25374034044481741 0 0.46142632750171242 -0.24828586013282899 0 0.450864800185385 -0.2358078852538994 0 0.44584296358024628 -0.25374034044481741 0 0.4400288186723188 -0.240254335932369 0 0.44584296358024628 -0.25374034044481741 0 0.42738697927529867 -0.25551365198940817 0 0.450864800185385 -0.2358078852538994 0 0.4400288186723188 -0.240254335932369 0 0.44336806644682392 -0.22927988372866789 0 0.43324988033689982 -0.2278651346812291 0 0.4400288186723188 -0.240254335932369 0 0.44336806644682392 -0.22927988372866789 0 0.45798871238403738 -0.22251112456942221 0 0.450864800185385 -0.2358078852538994 0 0.44920615745045678 -0.22433892601025821 0 0.450864800185385 -0.2358078852538994 0 0.44336806644682392 -0.22927988372866789 0 0.44920615745045678 -0.22433892601025821 0 0.45798871238403738 -0.22251112456942221 0 0.44920615745045678 -0.22433892601025821 0 0.45083804494005891 -0.21531114950748331 0 0.44920615745045678 -0.22433892601025821 0 0.44297116329597919 -0.2187845869918181 0 0.45083804494005891 -0.21531114950748331 0 0.43324988033689982 -0.2278651346812291 0 0.44297116329597919 -0.2187845869918181 0 0.44336806644682392 -0.22927988372866789 0 0.44920615745045678 -0.22433892601025821 0 0.44297116329597919 -0.2187845869918181 0 0.43324988033689982 -0.2278651346812291 0 0.44336806644682392 -0.22927988372866789 0 0.44297116329597919 -0.2187845869918181 0 0.43411046422807009 -0.19709623150661801 0 0.43600760511361553 -0.21486013930108749 0 0.44467063861226352 -0.20762872129737231 0 0.43600760511361553 -0.21486013930108749 0 0.44297116329597919 -0.2187845869918181 0 0.44467063861226352 -0.20762872129737231 0 0.44467063861226352 -0.20762872129737231 0 0.45083804494005891 -0.21531114950748331 0 0.4582993687653325 -0.20883283290148691 0 0.44467063861226352 -0.20762872129737231 0 0.4500389245637747 -0.19732299792408631 0 0.4582993687653325 -0.20883283290148691 0 0.44297116329597919 -0.2187845869918181 0 0.44467063861226352 -0.20762872129737231 0 0.45083804494005891 -0.21531114950748331 0 0.43411046422807009 -0.19709623150661801 0 0.44467063861226352 -0.20762872129737231 0 0.4500389245637747 -0.19732299792408631 0 0.43411046422807009 -0.19709623150661801 0 0.44743840444857658 -0.1757712678430651 0 0.4500389245637747 -0.19732299792408631 0 0.44743840444857658 -0.1757712678430651 0 0.4500389245637747 -0.19732299792408631 0 0.46439375952493711 -0.19158588872248941 0 0.46439375952493711 -0.19158588872248941 0 0.4582993687653325 -0.20883283290148691 0 0.47542108128310712 -0.20260631058943929 0 0.4500389245637747 -0.19732299792408631 0 0.46439375952493711 -0.19158588872248941 0 0.4582993687653325 -0.20883283290148691 0 0.4582993687653325 -0.20883283290148691 0 0.47542108128310712 -0.20260631058943929 0 0.47043978602270242 -0.21943415244410591 0 0.45798871238403738 -0.22251112456942221 0 0.45083804494005891 -0.21531114950748331 0 0.4582993687653325 -0.20883283290148691 0 0.45798871238403738 -0.22251112456942221 0 0.4582993687653325 -0.20883283290148691 0 0.47043978602270242 -0.21943415244410591 0 0.48349584958702252 -0.2146266505882585 0 0.47542108128310712 -0.20260631058943929 0 0.47043978602270242 -0.21943415244410591 0 0.48349584958702252 -0.2146266505882585 0 0.47542108128310712 -0.20260631058943929 0 0.48883001107228891 -0.2010233987918067 0 0.46439375952493711 -0.19158588872248941 0 0.47542108128310712 -0.20260631058943929 0 0.48075345722580087 -0.1877125845989279 0 0.47542108128310712 -0.20260631058943929 0 0.48075345722580087 -0.1877125845989279 0 0.48883001107228891 -0.2010233987918067 0 0.5 -0.1891640421965366 0 0.48883001107228891 -0.2010233987918067 0 0.5 -0.2189191102165689 0 0.48075345722580087 -0.1877125845989279 0 0.5 -0.1891640421965366 0 0.48883001107228891 -0.2010233987918067 0 0.48349584958702252 -0.2146266505882585 0 0.48883001107228891 -0.2010233987918067 0 0.5 -0.2189191102165689 0 0.5 -0.2189191102165689 0 0.48278836955701371 -0.23115028089937181 0 0.5 -0.24867417823660129 0 0.48349584958702252 -0.2146266505882585 0 0.5 -0.2189191102165689 0 0.48278836955701371 -0.23115028089937181 0 0.48349584958702252 -0.2146266505882585 0 0.48278836955701371 -0.23115028089937181 0 0.47043978602270242 -0.21943415244410591 0 0.46658944248437939 -0.23473678370529871 0 0.48278836955701371 -0.23115028089937181 0 0.47043978602270242 -0.21943415244410591 0 0.46658944248437939 -0.23473678370529871 0 0.48278836955701371 -0.23115028089937181 0 0.47602865925542581 -0.25123139893216417 0 0.48278836955701371 -0.23115028089937181 0 0.5 -0.24867417823660129 0 0.47602865925542581 -0.25123139893216417 0 0.5 -0.24867417823660129 0 0.48808784623789808 -0.26350695559771742 0 0.47602865925542581 -0.25123139893216417 0 0.5 -0.24867417823660129 0 0.48808784623789808 -0.26350695559771742 0 0.5 -0.27467059507256808 0 0.5 -0.27467059507256808 0 0.48552726645786759 -0.27486842545263018 0 0.47819214223181111 -0.29297229045510748 0 0.48808784623789808 -0.26350695559771742 0 0.5 -0.27467059507256808 0 0.48552726645786759 -0.27486842545263018 0 0.48552726645786759 -0.27486842545263018 0 0.47595339270544518 -0.26832386068512781 0 0.47819214223181111 -0.29297229045510748 0 0.48808784623789808 -0.26350695559771742 0 0.48552726645786759 -0.27486842545263018 0 0.47595339270544518 -0.26832386068512781 0 0.47595339270544518 -0.26832386068512781 0 0.47602865925542581 -0.25123139893216417 0 0.46128382727624051 -0.26367405488039941 0 0.48808784623789808 -0.26350695559771742 0 0.47595339270544518 -0.26832386068512781 0 0.47602865925542581 -0.25123139893216417 0 0.46142632750171242 -0.24828586013282899 0 0.47602865925542581 -0.25123139893216417 0 0.46128382727624051 -0.26367405488039941 0 0.46142632750171242 -0.24828586013282899 0 0.46128382727624051 -0.26367405488039941 0 0.44584296358024628 -0.25374034044481741 0 0.46128382727624051 -0.26367405488039941 0 0.44882470656998291 -0.2727066157094396 0 0.46214765112546458 -0.2830634441887277 0 0.47595339270544518 -0.26832386068512781 0 0.46128382727624051 -0.26367405488039941 0 0.46214765112546458 -0.2830634441887277 0 0.46128382727624051 -0.26367405488039941 0 0.44882470656998291 -0.2727066157094396 0 0.44584296358024628 -0.25374034044481741 0 0.44882470656998291 -0.2727066157094396 0 0.44584296358024628 -0.25374034044481741 0 0.43650766780147132 -0.2656839438152101 0 0.44716225928616149 -0.29242387631901628 0 0.45650859980730563 -0.31127398583764709 0 0.43610693659427391 -0.30909843346379801 0 0.44882470656998291 -0.2727066157094396 0 0.44716225928616149 -0.29242387631901628 0 0.42152407821370058 -0.28316216929758808 0 0.44882470656998291 -0.2727066157094396 0 0.44716225928616149 -0.29242387631901628 0 0.46214765112546458 -0.2830634441887277 0 0.44716225928616149 -0.29242387631901628 0 0.46214765112546458 -0.2830634441887277 0 0.45650859980730563 -0.31127398583764709 0 0.46214765112546458 -0.2830634441887277 0 0.45650859980730563 -0.31127398583764709 0 0.47819214223181111 -0.29297229045510748 0 0.45650859980730563 -0.31127398583764709 0 0.47819214223181111 -0.29297229045510748 0 0.45650859980730563 -0.31127398583764709 0 0.47819214223181111 -0.29297229045510748 0 0.4782955376227408 -0.32399220069858559 0 0.47595339270544518 -0.26832386068512781 0 0.46214765112546458 -0.2830634441887277 0 0.47819214223181111 -0.29297229045510748 0 0.5 -0.27842924625663362 0 0.5 -0.27467059507256808 0 0.47819214223181111 -0.29297229045510748 0 0.5 -0.27467059507256808 0 0.47819214223181111 -0.29297229045510748 0 0.5 -0.27842924625663362 0 0.47819214223181111 -0.29297229045510748 0 0.5 -0.30818431427666593 0 0.47819214223181111 -0.29297229045510748 0 0.5 -0.30818431427666593 0 0.4782955376227408 -0.32399220069858559 0 0.5 -0.30818431427666593 0 0.5 -0.33793938229669829 0 0.4782955376227408 -0.32399220069858559 0 0.5 -0.33793938229669829 0 0.48322070498087538 -0.3399012598664517 0 0.4782955376227408 -0.32399220069858559 0 0.48322070498087538 -0.3399012598664517 0 0.4782955376227408 -0.32399220069858559 0 0.46781989900519211 -0.34663506196220961 0 0.49999999999999972 -0.36769445031673059 0 0.48118836313093288 -0.37834694623423121 0 0.49999999999999972 -0.36769445031673059 0 0.48129515257825861 -0.35659919876052648 0 0.48118836313093288 -0.37834694623423121 0 0.5 -0.33793938229669829 0 0.48322070498087538 -0.3399012598664517 0 0.48129515257825861 -0.35659919876052648 0 0.5 -0.33793938229669829 0 0.49999999999999972 -0.36769445031673059 0 0.48129515257825861 -0.35659919876052648 0 0.48129515257825861 -0.35659919876052648 0 0.4601100973240756 -0.36151543289279708 0 0.46781989900519211 -0.34663506196220961 0 0.48322070498087538 -0.3399012598664517 0 0.48129515257825861 -0.35659919876052648 0 0.46781989900519211 -0.34663506196220961 0 0.48129515257825861 -0.35659919876052648 0 0.46675934178265371 -0.37480253422137938 0 0.4601100973240756 -0.36151543289279708 0 0.48129515257825861 -0.35659919876052648 0 0.46675934178265371 -0.37480253422137938 0 0.48118836313093288 -0.37834694623423121 0 0.46675934178265371 -0.37480253422137938 0 0.4601100973240756 -0.36151543289279708 0 0.44986454423246941 -0.37810445247437557 0 0.4601100973240756 -0.36151543289279708 0 0.46781989900519211 -0.34663506196220961 0 0.4526148665228612 -0.34904976451631248 0 0.4601100973240756 -0.36151543289279708 0 0.4526148665228612 -0.34904976451631248 0 0.43878561813361422 -0.36374446234945279 0 0.43856472500038463 -0.34528613647487072 0 0.4526148665228612 -0.34904976451631248 0 0.43878561813361422 -0.36374446234945279 0 0.4601100973240756 -0.36151543289279708 0 0.43878561813361422 -0.36374446234945279 0 0.44986454423246941 -0.37810445247437557 0 0.45650859980730563 -0.31127398583764709 0 0.4782955376227408 -0.32399220069858559 0 0.45587939998612148 -0.33487534410124042 0 0.4782955376227408 -0.32399220069858559 0 0.46781989900519211 -0.34663506196220961 0 0.45587939998612148 -0.33487534410124042 0 0.46781989900519211 -0.34663506196220961 0 0.4526148665228612 -0.34904976451631248 0 0.45587939998612148 -0.33487534410124042 0 0.43856472500038463 -0.34528613647487072 0 0.45587939998612148 -0.33487534410124042 0 0.4348250573828002 -0.32957568122018671 0 0.43856472500038463 -0.34528613647487072 0 0.45587939998612148 -0.33487534410124042 0 0.43856472500038463 -0.34528613647487072 0 0.4526148665228612 -0.34904976451631248 0 0.45587939998612148 -0.33487534410124042 0 0.45650859980730563 -0.31127398583764709 0 0.4348250573828002 -0.32957568122018671 0 0.45650859980730563 -0.31127398583764709 0 0.45587939998612148 -0.33487534410124042 0 0.4348250573828002 -0.32957568122018671 0 0.45650859980730563 -0.31127398583764709 0 0.4348250573828002 -0.32957568122018671 0 0.43610693659427391 -0.30909843346379801 0 0.4230179143205704 -0.3254442269156147 0 0.43610693659427391 -0.30909843346379801 0 0.41566117715210249 -0.31081068660576788 0 0.4230179143205704 -0.3254442269156147 0 0.4348250573828002 -0.32957568122018671 0 0.43610693659427391 -0.30909843346379801 0 0.43856472500038463 -0.34528613647487072 0 0.4348250573828002 -0.32957568122018671 0 0.42487365181827152 -0.33892740764732859 0 0.4230179143205704 -0.3254442269156147 0 0.4348250573828002 -0.32957568122018671 0 0.42487365181827152 -0.33892740764732859 0 0.4230179143205704 -0.3254442269156147 0 0.42487365181827152 -0.33892740764732859 0 0.40979827609050451 -0.33845920391394768 0 0.40979827609050451 -0.33845920391394768 0 0.40405461715999358 -0.32819309322937368 0 0.41566117715210249 -0.31081068660576788 0 0.40979827609050451 -0.33845920391394768 0 0.41566117715210249 -0.31081068660576788 0 0.4230179143205704 -0.3254442269156147 0 0.40979827609050451 -0.33845920391394768 0 0.41566117715210249 -0.31081068660576788 0 0.43878561813361422 -0.36374446234945279 0 0.42125005001464783 -0.35569692884850101 0 0.42101581430946172 -0.3699981545061497 0 0.43878561813361422 -0.36374446234945279 0 0.42101581430946172 -0.3699981545061497 0 0.4284403776547977 -0.3839000716239423 0 0.43856472500038463 -0.34528613647487072 0 0.42125005001464783 -0.35569692884850101 0 0.43856472500038463 -0.34528613647487072 0 0.43878561813361422 -0.36374446234945279 0 0.42125005001464783 -0.35569692884850101 0 0.43856472500038463 -0.34528613647487072 0 0.42487365181827152 -0.33892740764732859 0 0.42125005001464783 -0.35569692884850101 0 0.40979827609050451 -0.33845920391394768 0 0.42125005001464783 -0.35569692884850101 0 0.40393537502890892 -0.36610772122212809 0 0.40979827609050451 -0.33845920391394768 0 0.40393537502890892 -0.36610772122212809 0 0.42487365181827152 -0.33892740764732859 0 0.40979827609050451 -0.33845920391394768 0 0.42125005001464783 -0.35569692884850101 0 0.42101581430946172 -0.3699981545061497 0 0.40393537502890892 -0.36610772122212809 0 0.41266765071534001 -0.38054158848672431 0 0.42125005001464783 -0.35569692884850101 0 0.42101581430946172 -0.3699981545061497 0 0.40393537502890892 -0.36610772122212809 0 0.42125005001464783 -0.35569692884850101 0 0.40393537502890892 -0.36610772122212809 0 0.40393537502890892 -0.36610772122212809 0 0.38644455952723178 -0.36218459001234282 0 0.38848518838810681 -0.37539745293143278 0 0.40393537502890892 -0.36610772122212809 0 0.38848518838810681 -0.37539745293143278 0 0.40979827609050451 -0.33845920391394768 0 0.40393537502890892 -0.36610772122212809 0 0.39519732500534671 -0.34980893106148908 0 0.40393537502890892 -0.36610772122212809 0 0.39519732500534671 -0.34980893106148908 0 0.38644455952723178 -0.36218459001234282 0 0.39519732500534671 -0.34980893106148908 0 0.38644455952723178 -0.36218459001234282 0 0.37396184577916541 -0.35407800710865139 0 0.39519732500534671 -0.34980893106148908 0 0.38711237156631889 -0.33317650469599602 0 0.37396184577916541 -0.35407800710865139 0 0.38644455952723178 -0.36218459001234282 0 0.37451150439712788 -0.37164664873798309 0 0.37396184577916541 -0.35407800710865139 0 0.38644455952723178 -0.36218459001234282 0 0.38848518838810681 -0.37539745293143278 0 0.37451150439712788 -0.37164664873798309 0 0.40405461715999358 -0.32819309322937368 0 0.38711237156631889 -0.33317650469599602 0 0.38392967490950741 -0.31825712303906029 0 0.40405461715999358 -0.32819309322937368 0 0.38392967490950741 -0.31825712303906029 0 0.39038362866367682 -0.30443453326819481 0 0.40405461715999358 -0.32819309322937368 0 0.39038362866367682 -0.30443453326819481 0 0.41566117715210249 -0.31081068660576788 0 0.40405461715999358 -0.32819309322937368 0 0.39038362866367682 -0.30443453326819481 0 0.40979827609050451 -0.33845920391394768 0 0.40405461715999358 -0.32819309322937368 0 0.39798508127477789 -0.33832864216676278 0 0.39519732500534671 -0.34980893106148908 0 0.39798508127477789 -0.33832864216676278 0 0.38711237156631889 -0.33317650469599602 0 0.40405461715999358 -0.32819309322937368 0 0.39798508127477789 -0.33832864216676278 0 0.38711237156631889 -0.33317650469599602 0 0.40979827609050451 -0.33845920391394768 0 0.39519732500534671 -0.34980893106148908 0 0.39798508127477789 -0.33832864216676278 0 0.38711237156631889 -0.33317650469599602 0 0.37396184577916541 -0.35407800710865139 0 0.38711237156631889 -0.33317650469599602 0 0.37223893054638268 -0.33893862583127271 0 0.37396184577916541 -0.35407800710865139 0 0.38711237156631889 -0.33317650469599602 0 0.36901326181781341 -0.32145370363596959 0 0.37223893054638268 -0.33893862583127271 0 0.38711237156631889 -0.33317650469599602 0 0.38392967490950741 -0.31825712303906029 0 0.36901326181781341 -0.32145370363596959 0 0.38392967490950741 -0.31825712303906029 0 0.39038362866367682 -0.30443453326819481 0 0.37616232238117681 -0.30069057419004158 0 0.38392967490950741 -0.31825712303906029 0 0.37616232238117681 -0.30069057419004158 0 0.36614022676041302 -0.30720333574315051 0 0.39038362866367682 -0.30443453326819481 0 0.4007899735479083 -0.28410590515557299 0 0.41566117715210249 -0.31081068660576788 0 0.39038362866367682 -0.30443453326819481 0 0.37616232238117681 -0.30069057419004158 0 0.37671264016735773 -0.28067597330701721 0 0.39038362866367682 -0.30443453326819481 0 0.4007899735479083 -0.28410590515557299 0 0.37671264016735773 -0.28067597330701721 0 0.39038362866367682 -0.30443453326819481 0 0.37671264016735773 -0.28067597330701721 0 0.37671264016735773 -0.28067597330701721 0 0.38010934136860391 -0.26630346892305279 0 0.39555838689053902 -0.26307236043175508 0 0.37671264016735773 -0.28067597330701721 0 0.39555838689053902 -0.26307236043175508 0 0.39365319439293311 -0.2435572277903183 0 0.38035274350617743 -0.2561222821423137 0 0.39555838689053902 -0.26307236043175508 0 0.37641765629879148 -0.2456315986243163 0 0.38035274350617743 -0.2561222821423137 0 0.36854417670357048 -0.25292360155684701 0 0.38010934136860391 -0.26630346892305279 0 0.38035274350617743 -0.2561222821423137 0 0.36783370538262689 -0.26524543552759272 0 0.38010934136860391 -0.26630346892305279 0 0.38035274350617743 -0.2561222821423137 0 0.39555838689053902 -0.26307236043175508 0 0.41440413361372069 -0.24546874755649339 0 0.39555838689053902 -0.26307236043175508 0 0.39365319439293311 -0.2435572277903183 0 0.41440413361372069 -0.24546874755649339 0 0.39555838689053902 -0.26307236043175508 0 0.4007899735479083 -0.28410590515557299 0 0.37671264016735773 -0.28067597330701721 0 0.39555838689053902 -0.26307236043175508 0 0.4007899735479083 -0.28410590515557299 0 0.39555838689053902 -0.26307236043175508 0 0.41193271030823347 -0.26626456688616362 0 0.4007899735479083 -0.28410590515557299 0 0.41193271030823347 -0.26626456688616362 0 0.42152407821370058 -0.28316216929758808 0 0.41193271030823347 -0.26626456688616362 0 0.42738697927529867 -0.25551365198940817 0 0.42152407821370058 -0.28316216929758808 0 0.41440413361372069 -0.24546874755649339 0 0.39555838689053902 -0.26307236043175508 0 0.41193271030823347 -0.26626456688616362 0 0.41440413361372069 -0.24546874755649339 0 0.41193271030823347 -0.26626456688616362 0 0.42738697927529867 -0.25551365198940817 0 0.44584296358024628 -0.25374034044481741 0 0.42738697927529867 -0.25551365198940817 0 0.43650766780147132 -0.2656839438152101 0 0.42738697927529867 -0.25551365198940817 0 0.42152407821370058 -0.28316216929758808 0 0.44882470656998291 -0.2727066157094396 0 0.43650766780147132 -0.2656839438152101 0 0.42152407821370058 -0.28316216929758808 0 0.42738697927529867 -0.25551365198940817 0 0.43650766780147132 -0.2656839438152101 0 0.42152407821370058 -0.28316216929758808 0 0.44716225928616149 -0.29242387631901628 0 0.43610693659427391 -0.30909843346379801 0 0.42152407821370058 -0.28316216929758808 0 0.43610693659427391 -0.30909843346379801 0 0.41566117715210249 -0.31081068660576788 0 0.42152407821370058 -0.28316216929758808 0 0.41566117715210249 -0.31081068660576788 0 0.42152407821370058 -0.28316216929758808 0 0.4007899735479083 -0.28410590515557299 0 0.41566117715210249 -0.31081068660576788 0 0.42152407821370058 -0.28316216929758808 0 0.44521538152979218 -0.5 0 0.45343524718364647 -0.47801234328898218 0 0.5 -0.5 0 0.44521538152979218 -0.5 0 0.45343524718364647 -0.47801234328898218 0 0.43036727972832778 -0.47820211889659309 0 0.45343524718364647 -0.47801234328898218 0 0.43258776666213838 -0.46493198276262931 0 0.43036727972832778 -0.47820211889659309 0 0.45343524718364647 -0.47801234328898218 0 0.5 -0.5 0 0.47211684301772189 -0.46603359731644911 0 0.5 -0.5 0 0.49999999999999278 -0.47502733470945402 0 0.47211684301772189 -0.46603359731644911 0 0.49999999999999278 -0.47502733470945402 0 0.47211684301772189 -0.46603359731644911 0 0.49999999999999278 -0.47502733470945402 0 0.47211684301772189 -0.46603359731644911 0 0.5 -0.44819411361127331 0 0.47211684301772189 -0.46603359731644911 0 0.5 -0.44819411361127331 0 0.47890411688769968 -0.43945295121387179 0 0.47211684301772189 -0.46603359731644911 0 0.47890411688769968 -0.43945295121387179 0 0.45422518673896872 -0.44141107892100639 0 0.47211684301772189 -0.46603359731644911 0 0.44423368603545188 -0.4570398599234422 0 0.45343524718364647 -0.47801234328898218 0 0.47211684301772189 -0.46603359731644911 0 0.44423368603545188 -0.4570398599234422 0 0.47211684301772189 -0.46603359731644911 0 0.45422518673896872 -0.44141107892100639 0 0.44423368603545188 -0.4570398599234422 0 0.45343524718364647 -0.47801234328898218 0 0.44423368603545188 -0.4570398599234422 0 0.43258776666213838 -0.46493198276262931 0 0.45422518673896872 -0.44141107892100639 0 0.43562540856833393 -0.43478553026344141 0 0.4356154746812389 -0.44515219195411049 0 0.45422518673896872 -0.44141107892100639 0 0.44423368603545188 -0.4570398599234422 0 0.4356154746812389 -0.44515219195411049 0 0.45422518673896872 -0.44141107892100639 0 0.44646070980592351 -0.42300393280292808 0 0.43562540856833393 -0.43478553026344141 0 0.44646070980592351 -0.42300393280292808 0 0.45507030440723389 -0.40786958954237212 0 0.43407507084353408 -0.41192021563623588 0 0.45507030440723389 -0.40786958954237212 0 0.46552035106169298 -0.42283618105273529 0 0.47927386423257767 -0.40479299400365032 0 0.44646070980592351 -0.42300393280292808 0 0.45507030440723389 -0.40786958954237212 0 0.46552035106169298 -0.42283618105273529 0 0.47890411688769968 -0.43945295121387179 0 0.45422518673896872 -0.44141107892100639 0 0.46552035106169298 -0.42283618105273529 0 0.45422518673896872 -0.44141107892100639 0 0.44646070980592351 -0.42300393280292808 0 0.46552035106169298 -0.42283618105273529 0 0.47890411688769968 -0.43945295121387179 0 0.46552035106169298 -0.42283618105273529 0 0.48092458304549263 -0.42211075469583748 0 0.5 -0.44819411361127331 0 0.47890411688769968 -0.43945295121387179 0 0.5 -0.4213608925130925 0 0.47890411688769968 -0.43945295121387179 0 0.48092458304549263 -0.42211075469583748 0 0.5 -0.4213608925130925 0 0.5 -0.4213608925130925 0 0.47927386423257767 -0.40479299400365032 0 0.5 -0.39452767141491157 0 0.48092458304549263 -0.42211075469583748 0 0.5 -0.4213608925130925 0 0.47927386423257767 -0.40479299400365032 0 0.46552035106169298 -0.42283618105273529 0 0.48092458304549263 -0.42211075469583748 0 0.47927386423257767 -0.40479299400365032 0 0.47927386423257767 -0.40479299400365032 0 0.48118836313093288 -0.37834694623423121 0 0.46237672626186638 -0.38899944215173171 0 0.47927386423257767 -0.40479299400365032 0 0.5 -0.39452767141491157 0 0.48118836313093288 -0.37834694623423121 0 0.49999999999999972 -0.36769445031673059 0 0.5 -0.39452767141491157 0 0.48118836313093288 -0.37834694623423121 0 0.46675934178265371 -0.37480253422137938 0 0.48118836313093288 -0.37834694623423121 0 0.46237672626186638 -0.38899944215173171 0 0.48118836313093288 -0.37834694623423121 0 0.46237672626186638 -0.38899944215173171 0 0.46675934178265371 -0.37480253422137938 0 0.46237672626186638 -0.38899944215173171 0 0.44986454423246941 -0.37810445247437557 0 0.45507030440723389 -0.40786958954237212 0 0.47927386423257767 -0.40479299400365032 0 0.46237672626186638 -0.38899944215173171 0 0.45507030440723389 -0.40786958954237212 0 0.46237672626186638 -0.38899944215173171 0 0.44271510423780941 -0.39566477160695118 0 0.45507030440723389 -0.40786958954237212 0 0.44271510423780941 -0.39566477160695118 0 0.43407507084353408 -0.41192021563623588 0 0.46237672626186638 -0.38899944215173171 0 0.44271510423780941 -0.39566477160695118 0 0.44986454423246941 -0.37810445247437557 0 0.44271510423780941 -0.39566477160695118 0 0.44986454423246941 -0.37810445247437557 0 0.4284403776547977 -0.3839000716239423 0 0.43878561813361422 -0.36374446234945279 0 0.44986454423246941 -0.37810445247437557 0 0.4284403776547977 -0.3839000716239423 0 0.44271510423780941 -0.39566477160695118 0 0.42604237029013542 -0.3996256343762411 0 0.43407507084353408 -0.41192021563623588 0 0.4284403776547977 -0.3839000716239423 0 0.42604237029013542 -0.3996256343762411 0 0.41565452669457958 -0.39253298624070693 0 0.44271510423780941 -0.39566477160695118 0 0.4284403776547977 -0.3839000716239423 0 0.42604237029013542 -0.3996256343762411 0 0.42604237029013542 -0.3996256343762411 0 0.41001363446302769 -0.40457901804131507 0 0.41937809457971148 -0.41437778790494362 0 0.42604237029013542 -0.3996256343762411 0 0.41565452669457958 -0.39253298624070693 0 0.41001363446302769 -0.40457901804131507 0 0.41565452669457958 -0.39253298624070693 0 0.41001363446302769 -0.40457901804131507 0 0.39877937404291008 -0.39042260919389471 0 0.41565452669457958 -0.39253298624070693 0 0.41266765071534001 -0.38054158848672431 0 0.39877937404291008 -0.39042260919389471 0 0.42101581430946172 -0.3699981545061497 0 0.4284403776547977 -0.3839000716239423 0 0.41266765071534001 -0.38054158848672431 0 0.4284403776547977 -0.3839000716239423 0 0.41565452669457958 -0.39253298624070693 0 0.41266765071534001 -0.38054158848672431 0 0.40393537502890892 -0.36610772122212809 0 0.39877937404291008 -0.39042260919389471 0 0.40393537502890892 -0.36610772122212809 0 0.41266765071534001 -0.38054158848672431 0 0.39877937404291008 -0.39042260919389471 0 0.39877937404291008 -0.39042260919389471 0 0.38848518838810681 -0.37539745293143278 0 0.38510465077014611 -0.39115721342144089 0 0.40393537502890892 -0.36610772122212809 0 0.39877937404291008 -0.39042260919389471 0 0.38848518838810681 -0.37539745293143278 0 0.38848518838810681 -0.37539745293143278 0 0.38510465077014611 -0.39115721342144089 0 0.37303500174730247 -0.38468718464073431 0 0.38848518838810681 -0.37539745293143278 0 0.37303500174730247 -0.38468718464073431 0 0.37451150439712788 -0.37164664873798309 0 0.38848518838810681 -0.37539745293143278 0 0.37303500174730247 -0.38468718464073431 0 0.38510465077014611 -0.39115721342144089 0 0.37839306386533778 -0.40309422733518863 0 0.37303500174730247 -0.38468718464073431 0 0.38510465077014611 -0.39115721342144089 0 0.37839306386533778 -0.40309422733518863 0 0.39362337305691381 -0.41473749716566172 0 0.41001363446302769 -0.40457901804131507 0 0.39877937404291008 -0.39042260919389471 0 0.39362337305691381 -0.41473749716566172 0 0.39877937404291008 -0.39042260919389471 0 0.38510465077014611 -0.39115721342144089 0 0.39362337305691381 -0.41473749716566172 0 0.39877937404291008 -0.39042260919389471 0 0.39362337305691381 -0.41473749716566172 0 0.41001363446302769 -0.40457901804131507 0 0.39362337305691381 -0.41473749716566172 0 0.40741795340970821 -0.41744002401069918 0 0.39362337305691381 -0.41473749716566172 0 0.40145326674229581 -0.42607967548021569 0 0.40741795340970821 -0.41744002401069918 0 0.37839306386533778 -0.40309422733518863 0 0.39362337305691381 -0.41473749716566172 0 0.37354476214336729 -0.41238243016856718 0 0.39362337305691381 -0.41473749716566172 0 0.37988697926101772 -0.42723254258536358 0 0.37354476214336729 -0.41238243016856718 0 0.37988697926101772 -0.42723254258536358 0 0.38846737207091148 -0.4390523851374275 0 0.35985175201838288 -0.42982239112153708 0 0.39362337305691381 -0.41473749716566172 0 0.37988697926101772 -0.42723254258536358 0 0.38846737207091148 -0.4390523851374275 0 0.40145326674229581 -0.42607967548021569 0 0.4068256222511657 -0.43523453980844401 0 0.38846737207091148 -0.4390523851374275 0 0.39362337305691381 -0.41473749716566172 0 0.38846737207091148 -0.4390523851374275 0 0.39362337305691381 -0.41473749716566172 0 0.40145326674229581 -0.42607967548021569 0 0.38846737207091148 -0.4390523851374275 0 0.4068256222511657 -0.43523453980844401 0 0.41534549599687309 -0.43677587613789909 0 0.41350416617795382 -0.42652340366164121 0 0.41534549599687309 -0.43677587613789909 0 0.41350416617795382 -0.42652340366164121 0 0.42314643095307891 -0.43325352242210791 0 0.41534549599687309 -0.43677587613789909 0 0.42314643095307891 -0.43325352242210791 0 0.42007139619598838 -0.43985181834563403 0 0.41350416617795382 -0.42652340366164121 0 0.42314643095307891 -0.43325352242210791 0 0.42733401542517752 -0.4240118609842044 0 0.40145326674229581 -0.42607967548021569 0 0.41350416617795382 -0.42652340366164121 0 0.40741795340970821 -0.41744002401069918 0 0.40145326674229581 -0.42607967548021569 0 0.4068256222511657 -0.43523453980844401 0 0.41350416617795382 -0.42652340366164121 0 0.41350416617795382 -0.42652340366164121 0 0.40741795340970821 -0.41744002401069918 0 0.41937809457971148 -0.41437778790494362 0 0.41001363446302769 -0.40457901804131507 0 0.40741795340970821 -0.41744002401069918 0 0.41937809457971148 -0.41437778790494362 0 0.41350416617795382 -0.42652340366164121 0 0.41937809457971148 -0.41437778790494362 0 0.42733401542517752 -0.4240118609842044 0 0.41937809457971148 -0.41437778790494362 0 0.43407507084353408 -0.41192021563623588 0 0.42733401542517752 -0.4240118609842044 0 0.44646070980592351 -0.42300393280292808 0 0.43407507084353408 -0.41192021563623588 0 0.42733401542517752 -0.4240118609842044 0 0.42604237029013542 -0.3996256343762411 0 0.41937809457971148 -0.41437778790494362 0 0.43407507084353408 -0.41192021563623588 0 0.44646070980592351 -0.42300393280292808 0 0.43562540856833393 -0.43478553026344141 0 0.42733401542517752 -0.4240118609842044 0 0.43562540856833393 -0.43478553026344141 0 0.42314643095307891 -0.43325352242210791 0 0.42544312878082019 -0.44133175229209409 0 0.43562540856833393 -0.43478553026344141 0 0.42314643095307891 -0.43325352242210791 0 0.42733401542517752 -0.4240118609842044 0 0.44521538152979218 -0.5 0 0.40946071592856548 -0.48044675306795481 0 0.37419233456604423 -0.50000000000000333 0 0.44423368603545188 -0.4570398599234422 0 0.41635052905318159 -0.44804612253043508 0 0.42034672049370397 -0.45173702562654122 0 0.42544312878082019 -0.44133175229209409 0 0.4356154746812389 -0.44515219195411049 0 0.41635052905318159 -0.44804612253043508 0 0.44423368603545188 -0.4570398599234422 0 0.4356154746812389 -0.44515219195411049 0 0.41635052905318159 -0.44804612253043508 0 0.44423368603545188 -0.4570398599234422 0 0.41635052905318159 -0.44804612253043508 0 0.42314643095307891 -0.43325352242210791 0 0.42544312878082019 -0.44133175229209409 0 0.42007139619598838 -0.43985181834563403 0 0.43562540856833393 -0.43478553026344141 0 0.42544312878082019 -0.44133175229209409 0 0.4356154746812389 -0.44515219195411049 0 0.44423368603545188 -0.4570398599234422 0 0.43258776666213838 -0.46493198276262931 0 0.42034672049370397 -0.45173702562654122 0 0.43258776666213838 -0.46493198276262931 0 0.41882451163273698 -0.46694152168239228 0 0.42034672049370397 -0.45173702562654122 0 0.41635052905318159 -0.44804612253043508 0 0.42034672049370397 -0.45173702562654122 0 0.40315501718118701 -0.4631882285025532 0 0.41635052905318159 -0.44804612253043508 0 0.40039022149320019 -0.45176976611000708 0 0.40315501718118701 -0.4631882285025532 0 0.42034672049370397 -0.45173702562654122 0 0.40315501718118701 -0.4631882285025532 0 0.41882451163273698 -0.46694152168239228 0 0.42034672049370397 -0.45173702562654122 0 0.40315501718118701 -0.4631882285025532 0 0.42544312878082019 -0.44133175229209409 0 0.41635052905318159 -0.44804612253043508 0 0.42007139619598838 -0.43985181834563403 0 0.41534549599687309 -0.43677587613789909 0 0.41635052905318159 -0.44804612253043508 0 0.42007139619598838 -0.43985181834563403 0 0.4068256222511657 -0.43523453980844401 0 0.41534549599687309 -0.43677587613789909 0 0.41635052905318159 -0.44804612253043508 0 0.40039022149320019 -0.45176976611000708 0 0.38846737207091148 -0.4390523851374275 0 0.39358796766752091 -0.45679232826961252 0 0.41635052905318159 -0.44804612253043508 0 0.38846737207091148 -0.4390523851374275 0 0.4068256222511657 -0.43523453980844401 0 0.41635052905318159 -0.44804612253043508 0 0.38846737207091148 -0.4390523851374275 0 0.41635052905318159 -0.44804612253043508 0 0.40039022149320019 -0.45176976611000708 0 0.38846737207091148 -0.4390523851374275 0 0.38846737207091148 -0.4390523851374275 0 0.37729741190030891 -0.45363843978303309 0 0.38352258503559811 -0.46237122140890868 0 0.38846737207091148 -0.4390523851374275 0 0.38352258503559811 -0.46237122140890868 0 0.38846737207091148 -0.4390523851374275 0 0.38352258503559811 -0.46237122140890868 0 0.39358796766752091 -0.45679232826961252 0 0.38846737207091148 -0.4390523851374275 0 0.37666051265768258 -0.44583359975717768 0 0.36750971581362002 -0.44213350118636202 0 0.38846737207091148 -0.4390523851374275 0 0.37666051265768258 -0.44583359975717768 0 0.37729741190030891 -0.45363843978303309 0 0.38352258503559811 -0.46237122140890868 0 0.39358796766752091 -0.45679232826961252 0 0.38596331386866989 -0.47463943137856512 0 0.37689061266261359 -0.46791241852571552 0 0.38352258503559811 -0.46237122140890868 0 0.38596331386866989 -0.47463943137856512 0 0.37689061266261359 -0.46791241852571552 0 0.38352258503559811 -0.46237122140890868 0 0.37499393780208851 -0.46098855123749288 0 0.37729741190030891 -0.45363843978303309 0 0.38352258503559811 -0.46237122140890868 0 0.37499393780208851 -0.46098855123749288 0 0.39358796766752091 -0.45679232826961252 0 0.40315501718118701 -0.4631882285025532 0 0.38596331386866989 -0.47463943137856512 0 0.40039022149320019 -0.45176976611000708 0 0.39358796766752091 -0.45679232826961252 0 0.40315501718118701 -0.4631882285025532 0 0.40315501718118701 -0.4631882285025532 0 0.38596331386866989 -0.47463943137856512 0 0.40946071592856548 -0.48044675306795481 0 0.38596331386866989 -0.47463943137856512 0 0.40946071592856548 -0.48044675306795481 0 0.37419233456604423 -0.50000000000000333 0 0.40315501718118701 -0.4631882285025532 0 0.38596331386866989 -0.47463943137856512 0 0.38596331386866989 -0.47463943137856512 0 0.3687716105561526 -0.48609063425457683 0 0.38596331386866989 -0.47463943137856512 0 0.3687716105561526 -0.48609063425457683 0 0.37418990103849081 -0.47559455677567952 0 0.37689061266261359 -0.46791241852571552 0 0.38596331386866989 -0.47463943137856512 0 0.37418990103849081 -0.47559455677567952 0 0.38596331386866989 -0.47463943137856512 0 0.3687716105561526 -0.48609063425457683 0 0.37419233456604423 -0.50000000000000333 0 0.44521538152979218 -0.5 0 0.40946071592856548 -0.48044675306795481 0 0.43036727972832778 -0.47820211889659309 0 0.41882451163273698 -0.46694152168239228 0 0.40946071592856548 -0.48044675306795481 0 0.43036727972832778 -0.47820211889659309 0 0.41882451163273698 -0.46694152168239228 0 0.40315501718118701 -0.4631882285025532 0 0.40946071592856548 -0.48044675306795481 0 0.43258776666213838 -0.46493198276262931 0 0.41882451163273698 -0.46694152168239228 0 0.43036727972832778 -0.47820211889659309 0 0.32521495915343451 -0.5 0 0.31943693113783689 -0.48884706101217068 0 0.30254045364838328 -0.50000000000000089 0 0.32521495915343451 -0.5 0 0.31943693113783689 -0.48884706101217068 0 0.32966672938533098 -0.48936122302148349 0 0.31943693113783689 -0.48884706101217068 0 0.33764547099931308 -0.4783526690019681 0 0.31718935335724552 -0.46808538694706509 0 0.33764547099931308 -0.4783526690019681 0 0.31718935335724552 -0.46808538694706509 0 0.31943693113783689 -0.48884706101217068 0 0.31718935335724552 -0.46808538694706509 0 0.30287693929843618 -0.48213438827068578 0 0.33764547099931308 -0.4783526690019681 0 0.32610015708504492 -0.46183681461625647 0 0.31718935335724552 -0.46808538694706509 0 0.33764547099931308 -0.4783526690019681 0 0.32610015708504492 -0.46183681461625647 0 0.31943693113783689 -0.48884706101217068 0 0.33764547099931308 -0.4783526690019681 0 0.32521495915343451 -0.5 0 0.33768161862276269 -0.4909037090494231 0 0.34788946465848558 -0.50000000000000211 0 0.31943693113783689 -0.48884706101217068 0 0.33764547099931308 -0.4783526690019681 0 0.32966672938533098 -0.48936122302148349 0 0.33764547099931308 -0.4783526690019681 0 0.33768161862276269 -0.4909037090494231 0 0.35122486597755609 -0.497778326179599 0 0.33764547099931308 -0.4783526690019681 0 0.33768161862276269 -0.4909037090494231 0 0.32966672938533098 -0.48936122302148349 0 0.32521495915343451 -0.5 0 0.33768161862276269 -0.4909037090494231 0 0.32966672938533098 -0.48936122302148349 0 0.33768161862276269 -0.4909037090494231 0 0.35122486597755609 -0.497778326179599 0 0.34788946465848558 -0.50000000000000211 0 0.33764547099931308 -0.4783526690019681 0 0.35122486597755609 -0.497778326179599 0 0.35122486597755609 -0.497778326179599 0 0.35277791440439388 -0.49999999999999928 0 0.3687716105561526 -0.48609063425457683 0 0.33764547099931308 -0.4783526690019681 0 0.35860775130843903 -0.48887400292337307 0 0.35122486597755609 -0.497778326179599 0 0.35122486597755609 -0.497778326179599 0 0.34788946465848558 -0.50000000000000211 0 0.35277791440439388 -0.49999999999999928 0 0.35122486597755609 -0.497778326179599 0 0.34788946465848558 -0.50000000000000211 0 0.35122486597755609 -0.497778326179599 0 0.35277791440439388 -0.49999999999999928 0 0.35122486597755609 -0.497778326179599 0 0.3687716105561526 -0.48609063425457683 0 0.35277791440439388 -0.49999999999999928 0 0.3687716105561526 -0.48609063425457683 0 0.37419233456604423 -0.50000000000000333 0 0.35860775130843903 -0.48887400292337307 0 0.35122486597755609 -0.497778326179599 0 0.3687716105561526 -0.48609063425457683 0 0.3687716105561526 -0.48609063425457683 0 0.37419233456604423 -0.50000000000000333 0 0.3687716105561526 -0.48609063425457683 0 0.37418990103849081 -0.47559455677567952 0 0.36881904502828289 -0.46507412808138898 0 0.3687716105561526 -0.48609063425457683 0 0.3595317400679181 -0.46238148805443152 0 0.36881904502828289 -0.46507412808138898 0 0.35860775130843903 -0.48887400292337307 0 0.3687716105561526 -0.48609063425457683 0 0.3595317400679181 -0.46238148805443152 0 0.3687716105561526 -0.48609063425457683 0 0.3595317400679181 -0.46238148805443152 0 0.37689061266261359 -0.46791241852571552 0 0.37418990103849081 -0.47559455677567952 0 0.36881904502828289 -0.46507412808138898 0 0.33764547099931308 -0.4783526690019681 0 0.35860775130843903 -0.48887400292337307 0 0.33764547099931308 -0.4783526690019681 0 0.3595317400679181 -0.46238148805443152 0 0.33764547099931308 -0.4783526690019681 0 0.35860775130843903 -0.48887400292337307 0 0.3595317400679181 -0.46238148805443152 0 0.3595317400679181 -0.46238148805443152 0 0.34377024397865402 -0.45163522094481129 0 0.34187758738508062 -0.46232444926295008 0 0.3595317400679181 -0.46238148805443152 0 0.35427087544770131 -0.44888231524905498 0 0.34377024397865402 -0.45163522094481129 0 0.33764547099931308 -0.4783526690019681 0 0.3595317400679181 -0.46238148805443152 0 0.34187758738508062 -0.46232444926295008 0 0.3595317400679181 -0.46238148805443152 0 0.36384291059145818 -0.45953579303633008 0 0.35427087544770131 -0.44888231524905498 0 0.36384291059145818 -0.45953579303633008 0 0.35427087544770131 -0.44888231524905498 0 0.3595317400679181 -0.46238148805443152 0 0.35427087544770131 -0.44888231524905498 0 0.3595317400679181 -0.46238148805443152 0 0.36384291059145818 -0.45953579303633008 0 0.36881904502828289 -0.46507412808138898 0 0.36384291059145818 -0.45953579303633008 0 0.36881904502828289 -0.46507412808138898 0 0.3595317400679181 -0.46238148805443152 0 0.36384291059145818 -0.45953579303633008 0 0.36384291059145818 -0.45953579303633008 0 0.36995789411366958 -0.4554994465151474 0 0.36352622135618551 -0.44950419483029402 0 0.36384291059145818 -0.45953579303633008 0 0.36995789411366958 -0.4554994465151474 0 0.36995789411366958 -0.4554994465151474 0 0.37499393780208851 -0.46098855123749288 0 0.36881904502828289 -0.46507412808138898 0 0.36384291059145818 -0.45953579303633008 0 0.36995789411366958 -0.4554994465151474 0 0.36881904502828289 -0.46507412808138898 0 0.37729741190030891 -0.45363843978303309 0 0.36995789411366958 -0.4554994465151474 0 0.37499393780208851 -0.46098855123749288 0 0.37689061266261359 -0.46791241852571552 0 0.37499393780208851 -0.46098855123749288 0 0.36881904502828289 -0.46507412808138898 0 0.37666051265768258 -0.44583359975717768 0 0.36750971581362002 -0.44213350118636202 0 0.37099035116829332 -0.44932183641440288 0 0.37729741190030891 -0.45363843978303309 0 0.36995789411366958 -0.4554994465151474 0 0.37099035116829332 -0.44932183641440288 0 0.37666051265768258 -0.44583359975717768 0 0.37729741190030891 -0.45363843978303309 0 0.37099035116829332 -0.44932183641440288 0 0.36995789411366958 -0.4554994465151474 0 0.37099035116829332 -0.44932183641440288 0 0.36352622135618551 -0.44950419483029402 0 0.36750971581362002 -0.44213350118636202 0 0.37099035116829332 -0.44932183641440288 0 0.36352622135618551 -0.44950419483029402 0 0.36384291059145818 -0.45953579303633008 0 0.36352622135618551 -0.44950419483029402 0 0.35427087544770131 -0.44888231524905498 0 0.36750971581362002 -0.44213350118636202 0 0.36352622135618551 -0.44950419483029402 0 0.35811255686164217 -0.43929464515776268 0 0.35427087544770131 -0.44888231524905498 0 0.34540421967232138 -0.42613082340156577 0 0.35427087544770131 -0.44888231524905498 0 0.34377024397865402 -0.45163522094481129 0 0.34186067956772093 -0.43507002307111248 0 0.35811255686164217 -0.43929464515776268 0 0.35427087544770131 -0.44888231524905498 0 0.34540421967232138 -0.42613082340156577 0 0.36352622135618551 -0.44950419483029402 0 0.35811255686164217 -0.43929464515776268 0 0.35427087544770131 -0.44888231524905498 0 0.35427087544770131 -0.44888231524905498 0 0.34186067956772093 -0.43507002307111248 0 0.34377024397865402 -0.45163522094481129 0 0.33320678193967868 -0.44913421699247358 0 0.34186067956772093 -0.43507002307111248 0 0.33079622109450479 -0.43848076971913041 0 0.33320678193967868 -0.44913421699247358 0 0.34186067956772093 -0.43507002307111248 0 0.33320678193967868 -0.44913421699247358 0 0.34187758738508062 -0.46232444926295008 0 0.32610015708504492 -0.46183681461625647 0 0.33764547099931308 -0.4783526690019681 0 0.34187758738508062 -0.46232444926295008 0 0.32610015708504492 -0.46183681461625647 0 0.34377024397865402 -0.45163522094481129 0 0.33320678193967868 -0.44913421699247358 0 0.34187758738508062 -0.46232444926295008 0 0.33320678193967868 -0.44913421699247358 0 0.32610015708504492 -0.46183681461625647 0 0.31866693918287903 -0.44846110791976518 0 0.32610015708504492 -0.46183681461625647 0 0.31528411074818657 -0.44636419536526389 0 0.32610015708504492 -0.46183681461625647 0 0.31718935335724552 -0.46808538694706509 0 0.31622076217791228 -0.4572261919304183 0 0.32610015708504492 -0.46183681461625647 0 0.31622076217791228 -0.4572261919304183 0 0.31528411074818657 -0.44636419536526389 0 0.32610015708504492 -0.46183681461625647 0 0.31866693918287903 -0.44846110791976518 0 0.31528411074818657 -0.44636419536526389 0 0.31866693918287903 -0.44846110791976518 0 0.31528411074818657 -0.44636419536526389 0 0.31247693377907471 -0.43845264232064579 0 0.33079622109450479 -0.43848076971913041 0 0.33320678193967868 -0.44913421699247358 0 0.31866693918287903 -0.44846110791976518 0 0.33079622109450479 -0.43848076971913041 0 0.31866693918287903 -0.44846110791976518 0 0.32945048368773938 -0.42125773089317109 0 0.31866693918287903 -0.44846110791976518 0 0.32945048368773938 -0.42125773089317109 0 0.31247693377907471 -0.43845264232064579 0 0.31866693918287903 -0.44846110791976518 0 0.32945048368773938 -0.42125773089317109 0 0.3269085694709486 -0.41842863277150161 0 0.32945048368773938 -0.42125773089317109 0 0.31247693377907471 -0.43845264232064579 0 0.3269085694709486 -0.41842863277150161 0 0.31247693377907471 -0.43845264232064579 0 0.3269085694709486 -0.41842863277150161 0 0.30664526662835617 -0.42672837031671002 0 0.31247693377907471 -0.43845264232064579 0 0.3269085694709486 -0.41842863277150161 0 0.33504968166223947 -0.40713277471773468 0 0.31438657082491822 -0.40449190641976229 0 0.3269085694709486 -0.41842863277150161 0 0.31039601729182309 -0.41557524146567432 0 0.30664526662835617 -0.42672837031671002 0 0.3269085694709486 -0.41842863277150161 0 0.31438657082491822 -0.40449190641976229 0 0.31039601729182309 -0.41557524146567432 0 0.3269085694709486 -0.41842863277150161 0 0.31438657082491822 -0.40449190641976229 0 0.32945048368773938 -0.42125773089317109 0 0.33504968166223947 -0.40713277471773468 0 0.34540421967232138 -0.42613082340156577 0 0.33504968166223947 -0.40713277471773468 0 0.34540421967232138 -0.42613082340156577 0 0.33653756389694151 -0.40337933155407668 0 0.34540421967232138 -0.42613082340156577 0 0.33653756389694151 -0.40337933155407668 0 0.3269085694709486 -0.41842863277150161 0 0.32945048368773938 -0.42125773089317109 0 0.33504968166223947 -0.40713277471773468 0 0.32945048368773938 -0.42125773089317109 0 0.33504968166223947 -0.40713277471773468 0 0.3269085694709486 -0.41842863277150161 0 0.32945048368773938 -0.42125773089317109 0 0.3269085694709486 -0.41842863277150161 0 0.33504968166223947 -0.40713277471773468 0 0.33079622109450479 -0.43848076971913041 0 0.32945048368773938 -0.42125773089317109 0 0.34186067956772093 -0.43507002307111248 0 0.32945048368773938 -0.42125773089317109 0 0.34186067956772093 -0.43507002307111248 0 0.34540421967232138 -0.42613082340156577 0 0.32945048368773938 -0.42125773089317109 0 0.34186067956772093 -0.43507002307111248 0 0.35427087544770131 -0.44888231524905498 0 0.34186067956772093 -0.43507002307111248 0 0.34540421967232138 -0.42613082340156577 0 0.34540421967232138 -0.42613082340156577 0 0.35985175201838288 -0.42982239112153708 0 0.3591725927220763 -0.41288335902866169 0 0.35811255686164217 -0.43929464515776268 0 0.34540421967232138 -0.42613082340156577 0 0.35985175201838288 -0.42982239112153708 0 0.38846737207091148 -0.4390523851374275 0 0.36750971581362002 -0.44213350118636202 0 0.35985175201838288 -0.42982239112153708 0 0.37988697926101772 -0.42723254258536358 0 0.35985175201838288 -0.42982239112153708 0 0.3591725927220763 -0.41288335902866169 0 0.38846737207091148 -0.4390523851374275 0 0.35985175201838288 -0.42982239112153708 0 0.36750971581362002 -0.44213350118636202 0 0.35811255686164217 -0.43929464515776268 0 0.35985175201838288 -0.42982239112153708 0 0.37988697926101772 -0.42723254258536358 0 0.37354476214336729 -0.41238243016856718 0 0.3591725927220763 -0.41288335902866169 0 0.37988697926101772 -0.42723254258536358 0 0.3591725927220763 -0.41288335902866169 0 0.37354476214336729 -0.41238243016856718 0 0.3591725927220763 -0.41288335902866169 0 0.36734920974556462 -0.40118652974448687 0 0.34540421967232138 -0.42613082340156577 0 0.3591725927220763 -0.41288335902866169 0 0.33653756389694151 -0.40337933155407668 0 0.3591725927220763 -0.41288335902866169 0 0.34369850404782332 -0.40216421278012981 0 0.3591725927220763 -0.41288335902866169 0 0.34369850404782332 -0.40216421278012981 0 0.33653756389694151 -0.40337933155407668 0 0.34766079420485851 -0.39588101193396241 0 0.35626120091305219 -0.40081271228942272 0 0.34369850404782332 -0.40216421278012981 0 0.34766079420485851 -0.39588101193396241 0 0.34369850404782332 -0.40216421278012981 0 0.34766079420485851 -0.39588101193396241 0 0.36278095248076903 -0.39196813060129199 0 0.34766079420485851 -0.39588101193396241 0 0.35626120091305219 -0.40081271228942272 0 0.36278095248076903 -0.39196813060129199 0 0.3591725927220763 -0.41288335902866169 0 0.35626120091305219 -0.40081271228942272 0 0.34369850404782332 -0.40216421278012981 0 0.3591725927220763 -0.41288335902866169 0 0.35626120091305219 -0.40081271228942272 0 0.36734920974556462 -0.40118652974448687 0 0.36278095248076903 -0.39196813060129199 0 0.36734920974556462 -0.40118652974448687 0 0.37303500174730247 -0.38468718464073431 0 0.37839306386533778 -0.40309422733518863 0 0.36734920974556462 -0.40118652974448687 0 0.37303500174730247 -0.38468718464073431 0 0.35626120091305219 -0.40081271228942272 0 0.36278095248076903 -0.39196813060129199 0 0.36734920974556462 -0.40118652974448687 0 0.37839306386533778 -0.40309422733518863 0 0.37354476214336729 -0.41238243016856718 0 0.36734920974556462 -0.40118652974448687 0 0.37303500174730247 -0.38468718464073431 0 0.36375991456441398 -0.38383249708705569 0 0.37451150439712788 -0.37164664873798309 0 0.36278095248076903 -0.39196813060129199 0 0.37303500174730247 -0.38468718464073431 0 0.36375991456441398 -0.38383249708705569 0 0.36375991456441398 -0.38383249708705569 0 0.36081131999201199 -0.37497950952130688 0 0.37451150439712788 -0.37164664873798309 0 0.34766079420485851 -0.39588101193396241 0 0.36081131999201199 -0.37497950952130688 0 0.34766079420485851 -0.39588101193396241 0 0.33845820618313471 -0.39853417547196002 0 0.34872322422665353 -0.37263887213297769 0 0.34766079420485851 -0.39588101193396241 0 0.36278095248076903 -0.39196813060129199 0 0.36375991456441398 -0.38383249708705569 0 0.34766079420485851 -0.39588101193396241 0 0.36081131999201199 -0.37497950952130688 0 0.34872322422665353 -0.37263887213297769 0 0.34766079420485851 -0.39588101193396241 0 0.36375991456441398 -0.38383249708705569 0 0.36081131999201199 -0.37497950952130688 0 0.3335276772932631 -0.38342873676980471 0 0.33324081666998828 -0.39492000714164571 0 0.3255407396791461 -0.37516191081759498 0 0.34012659714689841 -0.38720223653423491 0 0.33845820618313471 -0.39853417547196002 0 0.34872322422665353 -0.37263887213297769 0 0.33963776365932441 -0.37837766517931642 0 0.34012659714689841 -0.38720223653423491 0 0.34872322422665353 -0.37263887213297769 0 0.33324081666998828 -0.39492000714164571 0 0.3255407396791461 -0.37516191081759498 0 0.33845820618313471 -0.39853417547196002 0 0.34872322422665353 -0.37263887213297769 0 0.33963776365932441 -0.37837766517931642 0 0.3335276772932631 -0.38342873676980471 0 0.3361735559704826 -0.37024081528024833 0 0.3335276772932631 -0.38342873676980471 0 0.3255407396791461 -0.37516191081759498 0 0.3361735559704826 -0.37024081528024833 0 0.3335276772932631 -0.38342873676980471 0 0.33596399694773832 -0.38980215751724329 0 0.33324081666998828 -0.39492000714164571 0 0.3335276772932631 -0.38342873676980471 0 0.33596399694773832 -0.38980215751724329 0 0.34012659714689841 -0.38720223653423491 0 0.33596399694773832 -0.38980215751724329 0 0.34012659714689841 -0.38720223653423491 0 0.33806406418366158 -0.39185132503326447 0 0.33963776365932441 -0.37837766517931642 0 0.3335276772932631 -0.38342873676980471 0 0.34012659714689841 -0.38720223653423491 0 0.34012659714689841 -0.38720223653423491 0 0.33806406418366158 -0.39185132503326447 0 0.33845820618313471 -0.39853417547196002 0 0.34766079420485851 -0.39588101193396241 0 0.33845820618313471 -0.39853417547196002 0 0.33733768649288198 -0.39427380079334751 0 0.33806406418366158 -0.39185132503326447 0 0.33845820618313471 -0.39853417547196002 0 0.33733768649288198 -0.39427380079334751 0 0.33845820618313471 -0.39853417547196002 0 0.33324081666998828 -0.39492000714164571 0 0.33596399694773832 -0.38980215751724329 0 0.33733768649288198 -0.39427380079334751 0 0.33806406418366158 -0.39185132503326447 0 0.34766079420485851 -0.39588101193396241 0 0.34369850404782332 -0.40216421278012981 0 0.33845820618313471 -0.39853417547196002 0 0.34369850404782332 -0.40216421278012981 0 0.33845820618313471 -0.39853417547196002 0 0.34369850404782332 -0.40216421278012981 0 0.33845820618313471 -0.39853417547196002 0 0.33653756389694151 -0.40337933155407668 0 0.33845820618313471 -0.39853417547196002 0 0.33653756389694151 -0.40337933155407668 0 0.33845820618313471 -0.39853417547196002 0 0.33653756389694151 -0.40337933155407668 0 0.33490209464253468 -0.39918278142840541 0 0.33845820618313471 -0.39853417547196002 0 0.33490209464253468 -0.39918278142840541 0 0.33504968166223947 -0.40713277471773468 0 0.33653756389694151 -0.40337933155407668 0 0.33490209464253468 -0.39918278142840541 0 0.33504968166223947 -0.40713277471773468 0 0.33653756389694151 -0.40337933155407668 0 0.33653756389694151 -0.40337933155407668 0 0.33490209464253468 -0.39918278142840541 0 0.33490209464253468 -0.39918278142840541 0 0.33324081666998828 -0.39492000714164571 0 0.32202976484946311 -0.39619206334789991 0 0.33596399694773832 -0.38980215751724329 0 0.33733768649288198 -0.39427380079334751 0 0.33324081666998828 -0.39492000714164571 0 0.33490209464253468 -0.39918278142840541 0 0.33324081666998828 -0.39492000714164571 0 0.33845820618313471 -0.39853417547196002 0 0.33490209464253468 -0.39918278142840541 0 0.33324081666998828 -0.39492000714164571 0 0.33845820618313471 -0.39853417547196002 0 0.33324081666998828 -0.39492000714164571 0 0.33504968166223947 -0.40713277471773468 0 0.33490209464253468 -0.39918278142840541 0 0.31438657082491822 -0.40449190641976229 0 0.33490209464253468 -0.39918278142840541 0 0.32202976484946311 -0.39619206334789991 0 0.31438657082491822 -0.40449190641976229 0 0.33490209464253468 -0.39918278142840541 0 0.31438657082491822 -0.40449190641976229 0 0.32202976484946311 -0.39619206334789991 0 0.31436114419615052 -0.39877813833215842 0 0.31438657082491822 -0.40449190641976229 0 0.31436114419615052 -0.39877813833215842 0 0.31296222298584891 -0.40290663663784132 0 0.31438657082491822 -0.40449190641976229 0 0.31296222298584891 -0.40290663663784132 0 0.31438657082491822 -0.40449190641976229 0 0.32202976484946311 -0.39619206334789991 0 0.31436114419615052 -0.39877813833215842 0 0.31175043851944501 -0.39234954429874852 0 0.33324081666998828 -0.39492000714164571 0 0.3110852699496548 -0.37957250910729518 0 0.33324081666998828 -0.39492000714164571 0 0.32202976484946311 -0.39619206334789991 0 0.3110852699496548 -0.37957250910729518 0 0.33324081666998828 -0.39492000714164571 0 0.3255407396791461 -0.37516191081759498 0 0.3110852699496548 -0.37957250910729518 0 0.32202976484946311 -0.39619206334789991 0 0.3110852699496548 -0.37957250910729518 0 0.31175043851944501 -0.39234954429874852 0 0.30109883395466608 -0.38274755720295311 0 0.3110852699496548 -0.37957250910729518 0 0.30882709279485931 -0.36882749165478201 0 0.30109883395466608 -0.38274755720295311 0 0.3110852699496548 -0.37957250910729518 0 0.31175043851944501 -0.39234954429874852 0 0.30109883395466608 -0.38274755720295311 0 0.31175043851944501 -0.39234954429874852 0 0.30255335025274122 -0.39459265470328148 0 0.31296222298584891 -0.40290663663784132 0 0.31438657082491822 -0.40449190641976229 0 0.29714657144245549 -0.40895337239967711 0 0.31175043851944501 -0.39234954429874852 0 0.30775474547932818 -0.39951606927434141 0 0.30255335025274122 -0.39459265470328148 0 0.31296222298584891 -0.40290663663784132 0 0.30775474547932818 -0.39951606927434141 0 0.29714657144245549 -0.40895337239967711 0 0.31436114419615052 -0.39877813833215842 0 0.31175043851944501 -0.39234954429874852 0 0.30775474547932818 -0.39951606927434141 0 0.31436114419615052 -0.39877813833215842 0 0.31296222298584891 -0.40290663663784132 0 0.30775474547932818 -0.39951606927434141 0 0.30775474547932818 -0.39951606927434141 0 0.30255335025274122 -0.39459265470328148 0 0.29714657144245549 -0.40895337239967711 0 0.30255335025274122 -0.39459265470328148 0 0.28759803121572602 -0.40219536299696301 0 0.30255335025274122 -0.39459265470328148 0 0.28759803121572602 -0.40219536299696301 0 0.28689729851783108 -0.38744478906196422 0 0.30255335025274122 -0.39459265470328148 0 0.28759803121572602 -0.40219536299696301 0 0.29714657144245549 -0.40895337239967711 0 0.28759803121572602 -0.40219536299696301 0 0.28689729851783108 -0.38744478906196422 0 0.27342185864613888 -0.39668035868305068 0 0.28689729851783108 -0.38744478906196422 0 0.27924795193184992 -0.3768585552903434 0 0.29377578123326092 -0.37160679410765263 0 0.30109883395466608 -0.38274755720295311 0 0.28689729851783108 -0.38744478906196422 0 0.29377578123326092 -0.37160679410765263 0 0.30109883395466608 -0.38274755720295311 0 0.30255335025274122 -0.39459265470328148 0 0.28689729851783108 -0.38744478906196422 0 0.28689729851783108 -0.38744478906196422 0 0.27924795193184992 -0.3768585552903434 0 0.26866061728238999 -0.3854653203980245 0 0.28689729851783108 -0.38744478906196422 0 0.26866061728238999 -0.3854653203980245 0 0.27342185864613888 -0.39668035868305068 0 0.27924795193184992 -0.3768585552903434 0 0.26866061728238999 -0.3854653203980245 0 0.26540827376925558 -0.37267879730610909 0 0.26866061728238999 -0.3854653203980245 0 0.25342967067809119 -0.38117269180066449 0 0.26540827376925558 -0.37267879730610909 0 0.26866061728238999 -0.3854653203980245 0 0.25342967067809119 -0.38117269180066449 0 0.2465173062916603 -0.39678990349254017 0 0.27264271217871039 -0.40979807129064372 0 0.2465173062916603 -0.39678990349254017 0 0.27342185864613888 -0.39668035868305068 0 0.27264271217871039 -0.40979807129064372 0 0.2465173062916603 -0.39678990349254017 0 0.26866061728238999 -0.3854653203980245 0 0.27342185864613888 -0.39668035868305068 0 0.2465173062916603 -0.39678990349254017 0 0.28759803121572602 -0.40219536299696301 0 0.27264271217871039 -0.40979807129064372 0 0.28759803121572602 -0.40219536299696301 0 0.27342185864613888 -0.39668035868305068 0 0.27264271217871039 -0.40979807129064372 0 0.27352646881323178 -0.42094713742039569 0 0.27264271217871039 -0.40979807129064372 0 0.26626639404949132 -0.42572612395426718 0 0.28759803121572602 -0.40219536299696301 0 0.27990657205999242 -0.4134148383795897 0 0.27264271217871039 -0.40979807129064372 0 0.27990657205999242 -0.4134148383795897 0 0.27622474892180199 -0.41436764170113921 0 0.27990657205999242 -0.4134148383795897 0 0.27622474892180199 -0.41436764170113921 0 0.27264271217871039 -0.40979807129064372 0 0.27990657205999242 -0.4134148383795897 0 0.27264271217871039 -0.40979807129064372 0 0.27622474892180199 -0.41436764170113921 0 0.27352646881323178 -0.42094713742039569 0 0.27264271217871039 -0.40979807129064372 0 0.27990657205999242 -0.4134148383795897 0 0.28025349963267898 -0.42072024362051558 0 0.27622474892180199 -0.41436764170113921 0 0.28025349963267898 -0.42072024362051558 0 0.27622474892180199 -0.41436764170113921 0 0.27352646881323178 -0.42094713742039569 0 0.27264271217871039 -0.40979807129064372 0 0.25063166162834921 -0.42098764178109621 0 0.2465173062916603 -0.39678990349254017 0 0.27264271217871039 -0.40979807129064372 0 0.25063166162834921 -0.42098764178109621 0 0.27264271217871039 -0.40979807129064372 0 0.25063166162834921 -0.42098764178109621 0 0.26626639404949132 -0.42572612395426718 0 0.25063166162834921 -0.42098764178109621 0 0.25918536974532758 -0.43149909003365872 0 0.26626639404949132 -0.42572612395426718 0 0.25918536974532758 -0.43149909003365872 0 0.26100887060239158 -0.43988742326120511 0 0.24926376447426149 -0.43463356081109539 0 0.25063166162834921 -0.42098764178109621 0 0.25918536974532758 -0.43149909003365872 0 0.24926376447426149 -0.43463356081109539 0 0.25918536974532758 -0.43149909003365872 0 0.26722093990196338 -0.43444843478174749 0 0.26626639404949132 -0.42572612395426718 0 0.25918536974532758 -0.43149909003365872 0 0.26722093990196338 -0.43444843478174749 0 0.26100887060239158 -0.43988742326120511 0 0.26722093990196338 -0.43444843478174749 0 0.26626639404949132 -0.42572612395426718 0 0.28021522687164752 -0.43152388332811398 0 0.26722093990196338 -0.43444843478174749 0 0.28021522687164752 -0.43152388332811398 0 0.26818409343061478 -0.44348879268394731 0 0.27352646881323178 -0.42094713742039569 0 0.26626639404949132 -0.42572612395426718 0 0.28021522687164752 -0.43152388332811398 0 0.28025349963267898 -0.42072024362051558 0 0.27352646881323178 -0.42094713742039569 0 0.28021522687164752 -0.43152388332811398 0 0.28021522687164752 -0.43152388332811398 0 0.29544979096900559 -0.42920176181020392 0 0.29558684600284513 -0.43954131734998492 0 0.28021522687164752 -0.43152388332811398 0 0.29544979096900559 -0.42920176181020392 0 0.29224636031267842 -0.41955897397227898 0 0.28025349963267898 -0.42072024362051558 0 0.28021522687164752 -0.43152388332811398 0 0.29224636031267842 -0.41955897397227898 0 0.28021522687164752 -0.43152388332811398 0 0.29224636031267842 -0.41955897397227898 0 0.27990657205999242 -0.4134148383795897 0 0.29224636031267842 -0.41955897397227898 0 0.28759803121572602 -0.40219536299696301 0 0.27990657205999242 -0.4134148383795897 0 0.29714657144245549 -0.40895337239967711 0 0.27990657205999242 -0.4134148383795897 0 0.29224636031267842 -0.41955897397227898 0 0.29714657144245549 -0.40895337239967711 0 0.27990657205999242 -0.4134148383795897 0 0.29714657144245549 -0.40895337239967711 0 0.27990657205999242 -0.4134148383795897 0 0.28025349963267898 -0.42072024362051558 0 0.29224636031267842 -0.41955897397227898 0 0.29224636031267842 -0.41955897397227898 0 0.302928945586035 -0.41782395660837929 0 0.30242813811128127 -0.40943324067885312 0 0.31438657082491822 -0.40449190641976229 0 0.29714657144245549 -0.40895337239967711 0 0.29224636031267842 -0.41955897397227898 0 0.30242813811128127 -0.40943324067885312 0 0.29224636031267842 -0.41955897397227898 0 0.302928945586035 -0.41782395660837929 0 0.30664526662835617 -0.42672837031671002 0 0.31438657082491822 -0.40449190641976229 0 0.29714657144245549 -0.40895337239967711 0 0.30242813811128127 -0.40943324067885312 0 0.29224636031267842 -0.41955897397227898 0 0.29714657144245549 -0.40895337239967711 0 0.30242813811128127 -0.40943324067885312 0 0.31438657082491822 -0.40449190641976229 0 0.30242813811128127 -0.40943324067885312 0 0.31039601729182309 -0.41557524146567432 0 0.302928945586035 -0.41782395660837929 0 0.31039601729182309 -0.41557524146567432 0 0.30664526662835617 -0.42672837031671002 0 0.302928945586035 -0.41782395660837929 0 0.30242813811128127 -0.40943324067885312 0 0.31039601729182309 -0.41557524146567432 0 0.30664526662835617 -0.42672837031671002 0 0.31247693377907471 -0.43845264232064579 0 0.29558684600284513 -0.43954131734998492 0 0.29544979096900559 -0.42920176181020392 0 0.30664526662835617 -0.42672837031671002 0 0.29558684600284513 -0.43954131734998492 0 0.29544979096900559 -0.42920176181020392 0 0.29224636031267842 -0.41955897397227898 0 0.30664526662835617 -0.42672837031671002 0 0.29224636031267842 -0.41955897397227898 0 0.30664526662835617 -0.42672837031671002 0 0.31247693377907471 -0.43845264232064579 0 0.29804529808720059 -0.45847665186978998 0 0.29558684600284513 -0.43954131734998492 0 0.31528411074818657 -0.44636419536526389 0 0.31247693377907471 -0.43845264232064579 0 0.29804529808720059 -0.45847665186978998 0 0.31247693377907471 -0.43845264232064579 0 0.29804529808720059 -0.45847665186978998 0 0.31718935335724552 -0.46808538694706509 0 0.31622076217791228 -0.4572261919304183 0 0.29804529808720059 -0.45847665186978998 0 0.31622076217791228 -0.4572261919304183 0 0.31528411074818657 -0.44636419536526389 0 0.29804529808720059 -0.45847665186978998 0 0.31718935335724552 -0.46808538694706509 0 0.29804529808720059 -0.45847665186978998 0 0.29804529808720059 -0.45847665186978998 0 0.28311469575890791 -0.45098272227686842 0 0.29804529808720059 -0.45847665186978998 0 0.28311469575890791 -0.45098272227686842 0 0.287283372783109 -0.47340890900663601 0 0.29804529808720059 -0.45847665186978998 0 0.287283372783109 -0.47340890900663601 0 0.28021522687164752 -0.43152388332811398 0 0.28311469575890791 -0.45098272227686842 0 0.29558684600284513 -0.43954131734998492 0 0.29804529808720059 -0.45847665186978998 0 0.28311469575890791 -0.45098272227686842 0 0.29558684600284513 -0.43954131734998492 0 0.28021522687164752 -0.43152388332811398 0 0.26818409343061478 -0.44348879268394731 0 0.28021522687164752 -0.43152388332811398 0 0.28311469575890791 -0.45098272227686842 0 0.26818409343061478 -0.44348879268394731 0 0.28311469575890791 -0.45098272227686842 0 0.26818409343061478 -0.44348879268394731 0 0.26861630828114202 -0.46194460619472988 0 0.28311469575890791 -0.45098272227686842 0 0.26818409343061478 -0.44348879268394731 0 0.26722093990196338 -0.43444843478174749 0 0.26818409343061478 -0.44348879268394731 0 0.26100887060239158 -0.43988742326120511 0 0.26818409343061478 -0.44348879268394731 0 0.25121407728899542 -0.46036539918962038 0 0.26818409343061478 -0.44348879268394731 0 0.26100887060239158 -0.43988742326120511 0 0.25121407728899542 -0.46036539918962038 0 0.26100887060239158 -0.43988742326120511 0 0.25121407728899542 -0.46036539918962038 0 0.24380187317688931 -0.44499190555020518 0 0.26100887060239158 -0.43988742326120511 0 0.24380187317688931 -0.44499190555020518 0 0.24926376447426149 -0.43463356081109539 0 0.26818409343061478 -0.44348879268394731 0 0.26100887060239158 -0.43988742326120511 0 0.26818409343061478 -0.44348879268394731 0 0.25121407728899542 -0.46036539918962038 0 0.26861630828114202 -0.46194460619472988 0 0.25121407728899542 -0.46036539918962038 0 0.26861630828114202 -0.46194460619472988 0 0.25343276995694342 -0.47861405652005812 0 0.28311469575890791 -0.45098272227686842 0 0.26861630828114202 -0.46194460619472988 0 0.287283372783109 -0.47340890900663601 0 0.26861630828114202 -0.46194460619472988 0 0.26980901938455432 -0.48267770432143858 0 0.287283372783109 -0.47340890900663601 0 0.26861630828114202 -0.46194460619472988 0 0.26980901938455432 -0.48267770432143858 0 0.25343276995694342 -0.47861405652005812 0 0.26980901938455432 -0.48267770432143858 0 0.25343276995694342 -0.47861405652005812 0 0.25313288455412453 -0.5 0 0.26980901938455432 -0.48267770432143858 0 0.25313288455412453 -0.5 0 0.27783666910125387 -0.5 0 0.26980901938455432 -0.48267770432143858 0 0.27783666910125387 -0.5 0 0.28806929084314731 -0.48764420031975209 0 0.27783666910125387 -0.5 0 0.28806929084314731 -0.48764420031975209 0 0.30254045364838328 -0.50000000000000089 0 0.26980901938455432 -0.48267770432143858 0 0.28806929084314731 -0.48764420031975209 0 0.287283372783109 -0.47340890900663601 0 0.29804529808720059 -0.45847665186978998 0 0.287283372783109 -0.47340890900663601 0 0.30287693929843618 -0.48213438827068578 0 0.28806929084314731 -0.48764420031975209 0 0.287283372783109 -0.47340890900663601 0 0.30287693929843618 -0.48213438827068578 0 0.31718935335724552 -0.46808538694706509 0 0.29804529808720059 -0.45847665186978998 0 0.30287693929843618 -0.48213438827068578 0 0.31943693113783689 -0.48884706101217068 0 0.30287693929843618 -0.48213438827068578 0 0.30254045364838328 -0.50000000000000089 0 0.28806929084314731 -0.48764420031975209 0 0.30287693929843618 -0.48213438827068578 0 0.30254045364838328 -0.50000000000000089 0 0.31943693113783689 -0.48884706101217068 0 0.30254045364838328 -0.50000000000000089 0 0.33831965634088867 -0.28513471903745891 0 0.34301329912250039 -0.29405184519522037 0 0.32546916380182528 -0.29541709402509592 0 0.33831965634088867 -0.28513471903745891 0 0.32546916380182528 -0.29541709402509592 0 0.32684678612697532 -0.28174319796862302 0 0.33869073070511752 -0.3028914447881495 0 0.3519402539889529 -0.31031590523017127 0 0.33628755180547559 -0.31720080624862718 0 0.34301329912250039 -0.29405184519522037 0 0.33869073070511752 -0.3028914447881495 0 0.32546916380182528 -0.29541709402509592 0 0.33869073070511752 -0.3028914447881495 0 0.32507005087688201 -0.3084622574087641 0 0.33628755180547559 -0.31720080624862718 0 0.33869073070511752 -0.3028914447881495 0 0.32507005087688201 -0.3084622574087641 0 0.32546916380182528 -0.29541709402509592 0 0.33869073070511752 -0.3028914447881495 0 0.32546916380182528 -0.29541709402509592 0 0.31370213667148478 -0.30773639664550401 0 0.32546916380182528 -0.29541709402509592 0 0.30106669249438339 -0.30003766329790832 0 0.32507005087688201 -0.3084622574087641 0 0.31370213667148478 -0.30773639664550401 0 0.32546916380182528 -0.29541709402509592 0 0.32546916380182528 -0.29541709402509592 0 0.30106669249438339 -0.30003766329790832 0 0.32507005087688201 -0.3084622574087641 0 0.31370213667148478 -0.30773639664550401 0 0.31762612064872248 -0.31734014645243469 0 0.32546916380182528 -0.29541709402509592 0 0.31559942615922082 -0.27980432315946002 0 0.30347029083162957 -0.28315543187738001 0 0.32546916380182528 -0.29541709402509592 0 0.30347029083162957 -0.28315543187738001 0 0.32546916380182528 -0.29541709402509592 0 0.32684678612697532 -0.28174319796862302 0 0.31559942615922082 -0.27980432315946002 0 0.31559942615922082 -0.27980432315946002 0 0.31866946870625718 -0.27105787335995812 0 0.30354142132941669 -0.26764801856624271 0 0.31866946870625718 -0.27105787335995812 0 0.3174403735311353 -0.26084556398648112 0 0.30354142132941669 -0.26764801856624271 0 0.31866946870625718 -0.27105787335995812 0 0.32636302483885499 -0.26382848000722747 0 0.33302874546746131 -0.27326689978385171 0 0.32684678612697532 -0.28174319796862302 0 0.31559942615922082 -0.27980432315946002 0 0.31866946870625718 -0.27105787335995812 0 0.32684678612697532 -0.28174319796862302 0 0.31866946870625718 -0.27105787335995812 0 0.33302874546746131 -0.27326689978385171 0 0.32282519411091049 -0.25208168099931572 0 0.31012990445961619 -0.25360961348613381 0 0.3174403735311353 -0.26084556398648112 0 0.32282519411091049 -0.25208168099931572 0 0.31012990445961619 -0.25360961348613381 0 0.31866946870625718 -0.27105787335995812 0 0.3174403735311353 -0.26084556398648112 0 0.32636302483885499 -0.26382848000722747 0 0.3174403735311353 -0.26084556398648112 0 0.32636302483885499 -0.26382848000722747 0 0.32282519411091049 -0.25208168099931572 0 0.32282519411091049 -0.25208168099931572 0 0.33849036963403628 -0.25019631002701931 0 0.32282519411091049 -0.25208168099931572 0 0.33985134237851011 -0.26189038190653191 0 0.33849036963403628 -0.25019631002701931 0 0.32636302483885499 -0.26382848000722747 0 0.32282519411091049 -0.25208168099931572 0 0.33985134237851011 -0.26189038190653191 0 0.32282519411091049 -0.25208168099931572 0 0.33985134237851011 -0.26189038190653191 0 0.33985134237851011 -0.26189038190653191 0 0.33849036963403628 -0.25019631002701931 0 0.34725407518351792 -0.25719689382678662 0 0.33831965634088867 -0.28513471903745891 0 0.32684678612697532 -0.28174319796862302 0 0.33302874546746131 -0.27326689978385171 0 0.32636302483885499 -0.26382848000722747 0 0.33985134237851011 -0.26189038190653191 0 0.33302874546746131 -0.27326689978385171 0 0.33985134237851011 -0.26189038190653191 0 0.33302874546746131 -0.27326689978385171 0 0.34667829151054019 -0.27665942024412638 0 0.33831965634088867 -0.28513471903745891 0 0.33302874546746131 -0.27326689978385171 0 0.34667829151054019 -0.27665942024412638 0 0.33985134237851011 -0.26189038190653191 0 0.35687749064610952 -0.27169908281374849 0 0.33985134237851011 -0.26189038190653191 0 0.34667829151054019 -0.27665942024412638 0 0.35687749064610952 -0.27169908281374849 0 0.34667829151054019 -0.27665942024412638 0 0.35687749064610952 -0.27169908281374849 0 0.3576791137235818 -0.27858697820054679 0 0.35687749064610952 -0.27169908281374849 0 0.3576791137235818 -0.27858697820054679 0 0.35415554515716102 -0.24831093905471299 0 0.35687749064610952 -0.27169908281374849 0 0.35731995320931059 -0.26497983697406863 0 0.33985134237851011 -0.26189038190653191 0 0.35687749064610952 -0.27169908281374849 0 0.34725407518351792 -0.25719689382678662 0 0.35415554515716102 -0.24831093905471299 0 0.33849036963403628 -0.25019631002701931 0 0.34725407518351792 -0.25719689382678662 0 0.35415554515716102 -0.24831093905471299 0 0.35687749064610952 -0.27169908281374849 0 0.34725407518351792 -0.25719689382678662 0 0.35415554515716102 -0.24831093905471299 0 0.35687749064610952 -0.27169908281374849 0 0.3589547705978951 -0.24981489774816881 0 0.35415554515716102 -0.24831093905471299 0 0.35731995320931059 -0.26497983697406863 0 0.3589547705978951 -0.24981489774816881 0 0.35731995320931059 -0.26497983697406863 0 0.35783458666365131 -0.24786815065110421 0 0.3589547705978951 -0.24981489774816881 0 0.36854417670357048 -0.25292360155684701 0 0.3589547705978951 -0.24981489774816881 0 0.36783370538262689 -0.26524543552759272 0 0.3589547705978951 -0.24981489774816881 0 0.36783370538262689 -0.26524543552759272 0 0.36854417670357048 -0.25292360155684701 0 0.3589547705978951 -0.24981489774816881 0 0.35731995320931059 -0.26497983697406863 0 0.36783370538262689 -0.26524543552759272 0 0.38035274350617743 -0.2561222821423137 0 0.36783370538262689 -0.26524543552759272 0 0.36854417670357048 -0.25292360155684701 0 0.35687749064610952 -0.27169908281374849 0 0.37406912045152002 -0.28160311702151991 0 0.37671264016735773 -0.28067597330701721 0 0.36783370538262689 -0.26524543552759272 0 0.37406912045152002 -0.28160311702151991 0 0.35687749064610952 -0.27169908281374849 0 0.36783370538262689 -0.26524543552759272 0 0.37406912045152002 -0.28160311702151991 0 0.35687749064610952 -0.27169908281374849 0 0.37406912045152002 -0.28160311702151991 0 0.36360133158142821 -0.28297451254781508 0 0.35687749064610952 -0.27169908281374849 0 0.3576791137235818 -0.27858697820054679 0 0.36360133158142821 -0.28297451254781508 0 0.35687749064610952 -0.27169908281374849 0 0.35731995320931059 -0.26497983697406863 0 0.36783370538262689 -0.26524543552759272 0 0.37671264016735773 -0.28067597330701721 0 0.38010934136860391 -0.26630346892305279 0 0.36783370538262689 -0.26524543552759272 0 0.37671264016735773 -0.28067597330701721 0 0.36783370538262689 -0.26524543552759272 0 0.37671264016735773 -0.28067597330701721 0 0.37406912045152002 -0.28160311702151991 0 0.3636454414049286 -0.29288190559278499 0 0.37671264016735773 -0.28067597330701721 0 0.3636454414049286 -0.29288190559278499 0 0.37616232238117681 -0.30069057419004158 0 0.37671264016735773 -0.28067597330701721 0 0.3636454414049286 -0.29288190559278499 0 0.37406912045152002 -0.28160311702151991 0 0.3636454414049286 -0.29288190559278499 0 0.36360133158142821 -0.28297451254781508 0 0.3636454414049286 -0.29288190559278499 0 0.36360133158142821 -0.28297451254781508 0 0.35851642808999729 -0.28588995173519649 0 0.3576791137235818 -0.27858697820054679 0 0.36360133158142821 -0.28297451254781508 0 0.35851642808999729 -0.28588995173519649 0 0.34667829151054019 -0.27665942024412638 0 0.3576791137235818 -0.27858697820054679 0 0.35176176340255177 -0.28896385882245929 0 0.3576791137235818 -0.27858697820054679 0 0.35176176340255177 -0.28896385882245929 0 0.35851642808999729 -0.28588995173519649 0 0.3636454414049286 -0.29288190559278499 0 0.35176176340255177 -0.28896385882245929 0 0.35851642808999729 -0.28588995173519649 0 0.3636454414049286 -0.29288190559278499 0 0.35176176340255177 -0.28896385882245929 0 0.35253195256407732 -0.29938471589532262 0 0.34301329912250039 -0.29405184519522037 0 0.35176176340255177 -0.28896385882245929 0 0.35253195256407732 -0.29938471589532262 0 0.33831965634088867 -0.28513471903745891 0 0.34301329912250039 -0.29405184519522037 0 0.35176176340255177 -0.28896385882245929 0 0.33831965634088867 -0.28513471903745891 0 0.34667829151054019 -0.27665942024412638 0 0.35176176340255177 -0.28896385882245929 0 0.33869073070511752 -0.3028914447881495 0 0.3519402539889529 -0.31031590523017127 0 0.33869073070511752 -0.3028914447881495 0 0.35253195256407732 -0.29938471589532262 0 0.3519402539889529 -0.31031590523017127 0 0.34301329912250039 -0.29405184519522037 0 0.33869073070511752 -0.3028914447881495 0 0.35253195256407732 -0.29938471589532262 0 0.35253195256407732 -0.29938471589532262 0 0.3519402539889529 -0.31031590523017127 0 0.36614022676041302 -0.30720333574315051 0 0.3636454414049286 -0.29288190559278499 0 0.35253195256407732 -0.29938471589532262 0 0.36614022676041302 -0.30720333574315051 0 0.37616232238117681 -0.30069057419004158 0 0.3636454414049286 -0.29288190559278499 0 0.36614022676041302 -0.30720333574315051 0 0.38392967490950741 -0.31825712303906029 0 0.36614022676041302 -0.30720333574315051 0 0.36901326181781341 -0.32145370363596959 0 0.3519402539889529 -0.31031590523017127 0 0.36614022676041302 -0.30720333574315051 0 0.36901326181781341 -0.32145370363596959 0 0.36901326181781341 -0.32145370363596959 0 0.35886824302223341 -0.34704628788447373 0 0.36901326181781341 -0.32145370363596959 0 0.37223893054638268 -0.33893862583127271 0 0.35886824302223341 -0.34704628788447373 0 0.36901326181781341 -0.32145370363596959 0 0.34856141279818792 -0.32885465902537869 0 0.35886824302223341 -0.34704628788447373 0 0.34856141279818792 -0.32885465902537869 0 0.35886824302223341 -0.34704628788447373 0 0.34264496471042488 -0.34399561174040649 0 0.3519402539889529 -0.31031590523017127 0 0.34856141279818792 -0.32885465902537869 0 0.33628755180547559 -0.31720080624862718 0 0.3519402539889529 -0.31031590523017127 0 0.36901326181781341 -0.32145370363596959 0 0.34856141279818792 -0.32885465902537869 0 0.36081131999201199 -0.37497950952130688 0 0.37451150439712788 -0.37164664873798309 0 0.37396184577916541 -0.35407800710865139 0 0.36081131999201199 -0.37497950952130688 0 0.36088038880759638 -0.36181553917547582 0 0.37396184577916541 -0.35407800710865139 0 0.36081131999201199 -0.37497950952130688 0 0.37396184577916541 -0.35407800710865139 0 0.36088038880759638 -0.36181553917547582 0 0.37396184577916541 -0.35407800710865139 0 0.35886824302223341 -0.34704628788447373 0 0.37223893054638268 -0.33893862583127271 0 0.37396184577916541 -0.35407800710865139 0 0.35886824302223341 -0.34704628788447373 0 0.35886824302223341 -0.34704628788447373 0 0.34684787589137672 -0.3556367075449085 0 0.34872322422665353 -0.37263887213297769 0 0.35886824302223341 -0.34704628788447373 0 0.34684787589137672 -0.3556367075449085 0 0.34264496471042488 -0.34399561174040649 0 0.35886824302223341 -0.34704628788447373 0 0.34872322422665353 -0.37263887213297769 0 0.34684787589137672 -0.3556367075449085 0 0.34872322422665353 -0.37263887213297769 0 0.34258453080200418 -0.36302998159055089 0 0.36088038880759638 -0.36181553917547582 0 0.35886824302223341 -0.34704628788447373 0 0.34872322422665353 -0.37263887213297769 0 0.36081131999201199 -0.37497950952130688 0 0.36088038880759638 -0.36181553917547582 0 0.34872322422665353 -0.37263887213297769 0 0.3255407396791461 -0.37516191081759498 0 0.3361735559704826 -0.37024081528024833 0 0.32313864197006298 -0.36225332216850747 0 0.33963776365932441 -0.37837766517931642 0 0.34872322422665353 -0.37263887213297769 0 0.3361735559704826 -0.37024081528024833 0 0.34872322422665353 -0.37263887213297769 0 0.3361735559704826 -0.37024081528024833 0 0.34258453080200418 -0.36302998159055089 0 0.3361735559704826 -0.37024081528024833 0 0.34258453080200418 -0.36302998159055089 0 0.33576851754344023 -0.35573427843200423 0 0.3361735559704826 -0.37024081528024833 0 0.33576851754344023 -0.35573427843200423 0 0.32313864197006298 -0.36225332216850747 0 0.33576851754344023 -0.35573427843200423 0 0.34264496471042488 -0.34399561174040649 0 0.32617649288877287 -0.34821108507393511 0 0.33576851754344023 -0.35573427843200423 0 0.32617649288877287 -0.34821108507393511 0 0.32313864197006298 -0.36225332216850747 0 0.34684787589137672 -0.3556367075449085 0 0.34258453080200418 -0.36302998159055089 0 0.33576851754344023 -0.35573427843200423 0 0.34684787589137672 -0.3556367075449085 0 0.33576851754344023 -0.35573427843200423 0 0.34264496471042488 -0.34399561174040649 0 0.32617649288877287 -0.34821108507393511 0 0.31542857440926408 -0.34003829446382178 0 0.31159456247753858 -0.35513816766909218 0 0.32617649288877287 -0.34821108507393511 0 0.32313864197006298 -0.36225332216850747 0 0.31159456247753858 -0.35513816766909218 0 0.3255407396791461 -0.37516191081759498 0 0.32313864197006298 -0.36225332216850747 0 0.30882709279485931 -0.36882749165478201 0 0.3255407396791461 -0.37516191081759498 0 0.3110852699496548 -0.37957250910729518 0 0.30882709279485931 -0.36882749165478201 0 0.32313864197006298 -0.36225332216850747 0 0.30882709279485931 -0.36882749165478201 0 0.31159456247753858 -0.35513816766909218 0 0.34856141279818792 -0.32885465902537869 0 0.33628755180547559 -0.31720080624862718 0 0.32848369622190671 -0.33210683596977869 0 0.34264496471042488 -0.34399561174040649 0 0.32617649288877287 -0.34821108507393511 0 0.32848369622190671 -0.33210683596977869 0 0.34856141279818792 -0.32885465902537869 0 0.34264496471042488 -0.34399561174040649 0 0.32848369622190671 -0.33210683596977869 0 0.32617649288877287 -0.34821108507393511 0 0.32848369622190671 -0.33210683596977869 0 0.31542857440926408 -0.34003829446382178 0 0.32848369622190671 -0.33210683596977869 0 0.31542857440926408 -0.34003829446382178 0 0.31206598456144041 -0.32836244128156489 0 0.32848369622190671 -0.33210683596977869 0 0.31762612064872248 -0.31734014645243469 0 0.31206598456144041 -0.32836244128156489 0 0.32507005087688201 -0.3084622574087641 0 0.33628755180547559 -0.31720080624862718 0 0.31762612064872248 -0.31734014645243469 0 0.33628755180547559 -0.31720080624862718 0 0.32848369622190671 -0.33210683596977869 0 0.31762612064872248 -0.31734014645243469 0 0.31370213667148478 -0.30773639664550401 0 0.31762612064872248 -0.31734014645243469 0 0.29927865553561039 -0.31742482204331679 0 0.31762612064872248 -0.31734014645243469 0 0.29927865553561039 -0.31742482204331679 0 0.31206598456144041 -0.32836244128156489 0 0.29927865553561039 -0.31742482204331679 0 0.31206598456144041 -0.32836244128156489 0 0.29951287599169862 -0.33490210747847232 0 0.31542857440926408 -0.34003829446382178 0 0.29951287599169862 -0.33490210747847232 0 0.31159456247753858 -0.35513816766909218 0 0.31542857440926408 -0.34003829446382178 0 0.31206598456144041 -0.32836244128156489 0 0.29951287599169862 -0.33490210747847232 0 0.29951287599169862 -0.33490210747847232 0 0.28205588744256682 -0.34601514957487173 0 0.29951287599169862 -0.33490210747847232 0 0.28462195448147931 -0.33077834289880481 0 0.28205588744256682 -0.34601514957487173 0 0.29927865553561039 -0.31742482204331679 0 0.29951287599169862 -0.33490210747847232 0 0.28462195448147931 -0.33077834289880481 0 0.29927865553561039 -0.31742482204331679 0 0.28462195448147931 -0.33077834289880481 0 0.28187006820496691 -0.31557399813642928 0 0.30882709279485931 -0.36882749165478201 0 0.31159456247753858 -0.35513816766909218 0 0.29555582029968502 -0.35531218051037861 0 0.30882709279485931 -0.36882749165478201 0 0.29555582029968502 -0.35531218051037861 0 0.29377578123326092 -0.37160679410765263 0 0.30109883395466608 -0.38274755720295311 0 0.30882709279485931 -0.36882749165478201 0 0.29377578123326092 -0.37160679410765263 0 0.29951287599169862 -0.33490210747847232 0 0.31159456247753858 -0.35513816766909218 0 0.29555582029968502 -0.35531218051037861 0 0.29555582029968502 -0.35531218051037861 0 0.28205588744256682 -0.34601514957487173 0 0.279187340063348 -0.36436749288946102 0 0.29951287599169862 -0.33490210747847232 0 0.29555582029968502 -0.35531218051037861 0 0.28205588744256682 -0.34601514957487173 0 0.29555582029968502 -0.35531218051037861 0 0.29377578123326092 -0.37160679410765263 0 0.279187340063348 -0.36436749288946102 0 0.27924795193184992 -0.3768585552903434 0 0.29377578123326092 -0.37160679410765263 0 0.279187340063348 -0.36436749288946102 0 0.29377578123326092 -0.37160679410765263 0 0.279187340063348 -0.36436749288946102 0 0.27924795193184992 -0.3768585552903434 0 0.279187340063348 -0.36436749288946102 0 0.26540827376925558 -0.37267879730610909 0 0.279187340063348 -0.36436749288946102 0 0.26459889889343452 -0.35712819167127052 0 0.26540827376925558 -0.37267879730610909 0 0.279187340063348 -0.36436749288946102 0 0.26459889889343452 -0.35712819167127052 0 0.28205588744256682 -0.34601514957487173 0 0.26459889889343452 -0.35712819167127052 0 0.28205588744256682 -0.34601514957487173 0 0.26459889889343452 -0.35712819167127052 0 0.26267344391554992 -0.33111033297495002 0 0.28205588744256682 -0.34601514957487173 0 0.279187340063348 -0.36436749288946102 0 0.26459889889343452 -0.35712819167127052 0 0.26459889889343452 -0.35712819167127052 0 0.26267344391554992 -0.33111033297495002 0 0.24347681962613299 -0.34664666781347092 0 0.26459889889343452 -0.35712819167127052 0 0.2458175116625721 -0.36908434014086122 0 0.24347681962613299 -0.34664666781347092 0 0.26459889889343452 -0.35712819167127052 0 0.24347681962613299 -0.34664666781347092 0 0.26459889889343452 -0.35712819167127052 0 0.26540827376925558 -0.37267879730610909 0 0.2458175116625721 -0.36908434014086122 0 0.25342967067809119 -0.38117269180066449 0 0.26540827376925558 -0.37267879730610909 0 0.2458175116625721 -0.36908434014086122 0 0.26459889889343452 -0.35712819167127052 0 0.2458175116625721 -0.36908434014086122 0 0.28187006820496691 -0.31557399813642928 0 0.26267344391554992 -0.33111033297495002 0 0.27364949877028538 -0.30522906548304829 0 0.28462195448147931 -0.33077834289880481 0 0.28187006820496691 -0.31557399813642928 0 0.26267344391554992 -0.33111033297495002 0 0.28187006820496691 -0.31557399813642928 0 0.26267344391554992 -0.33111033297495002 0 0.28462195448147931 -0.33077834289880481 0 0.28205588744256682 -0.34601514957487173 0 0.26267344391554992 -0.33111033297495002 0 0.26267344391554992 -0.33111033297495002 0 0.24347681962613299 -0.34664666781347092 0 0.26267344391554992 -0.33111033297495002 0 0.27364949877028538 -0.30522906548304829 0 0.24623230504618751 -0.31042046766818909 0 0.26652324504125441 -0.28635384682161108 0 0.27364949877028538 -0.30522906548304829 0 0.24623230504618751 -0.31042046766818909 0 0.27364949877028538 -0.30522906548304829 0 0.24623230504618751 -0.31042046766818909 0 0.26652324504125441 -0.28635384682161108 0 0.24675695282988749 -0.28093558115746919 0 0.24623230504618751 -0.31042046766818909 0 0.26652324504125441 -0.28635384682161108 0 0.27364949877028538 -0.30522906548304829 0 0.2856325856156261 -0.28922801968881201 0 0.26652324504125441 -0.28635384682161108 0 0.2856325856156261 -0.28922801968881201 0 0.28149937424197707 -0.27084387940863208 0 0.27364949877028538 -0.30522906548304829 0 0.2856325856156261 -0.28922801968881201 0 0.30106669249438339 -0.30003766329790832 0 0.29927865553561039 -0.31742482204331679 0 0.28187006820496691 -0.31557399813642928 0 0.30106669249438339 -0.30003766329790832 0 0.28187006820496691 -0.31557399813642928 0 0.27364949877028538 -0.30522906548304829 0 0.30106669249438339 -0.30003766329790832 0 0.27364949877028538 -0.30522906548304829 0 0.30106669249438339 -0.30003766329790832 0 0.28187006820496691 -0.31557399813642928 0 0.30106669249438339 -0.30003766329790832 0 0.2856325856156261 -0.28922801968881201 0 0.2977134493078829 -0.29214754484760458 0 0.30347029083162957 -0.28315543187738001 0 0.2856325856156261 -0.28922801968881201 0 0.2977134493078829 -0.29214754484760458 0 0.30106669249438339 -0.30003766329790832 0 0.2977134493078829 -0.29214754484760458 0 0.30347029083162957 -0.28315543187738001 0 0.30361800277528112 -0.29797282053162971 0 0.2977134493078829 -0.29214754484760458 0 0.30106669249438339 -0.30003766329790832 0 0.30361800277528112 -0.29797282053162971 0 0.32546916380182528 -0.29541709402509592 0 0.30347029083162957 -0.28315543187738001 0 0.30361800277528112 -0.29797282053162971 0 0.31370213667148478 -0.30773639664550401 0 0.29927865553561039 -0.31742482204331679 0 0.30106669249438339 -0.30003766329790832 0 0.32546916380182528 -0.29541709402509592 0 0.30106669249438339 -0.30003766329790832 0 0.30361800277528112 -0.29797282053162971 0 0.30106669249438339 -0.30003766329790832 0 0.30361800277528112 -0.29797282053162971 0 0.31012990445961619 -0.25360961348613381 0 0.30354142132941669 -0.26764801856624271 0 0.29397042506590088 -0.25463924831475693 0 0.3174403735311353 -0.26084556398648112 0 0.31012990445961619 -0.25360961348613381 0 0.30354142132941669 -0.26764801856624271 0 0.31559942615922082 -0.27980432315946002 0 0.30347029083162957 -0.28315543187738001 0 0.30354142132941669 -0.26764801856624271 0 0.30347029083162957 -0.28315543187738001 0 0.28149937424197707 -0.27084387940863208 0 0.30347029083162957 -0.28315543187738001 0 0.30354142132941669 -0.26764801856624271 0 0.28149937424197707 -0.27084387940863208 0 0.2856325856156261 -0.28922801968881201 0 0.30347029083162957 -0.28315543187738001 0 0.28149937424197707 -0.27084387940863208 0 0.30354142132941669 -0.26764801856624271 0 0.28149937424197707 -0.27084387940863208 0 0.29397042506590088 -0.25463924831475693 0 0.2797126088167971 -0.24519596555511219 0 0.28149937424197707 -0.27084387940863208 0 0.29397042506590088 -0.25463924831475693 0 0.2797126088167971 -0.24519596555511219 0 0.28149937424197707 -0.27084387940863208 0 0.26339886892923842 -0.25212127595917111 0 0.28149937424197707 -0.27084387940863208 0 0.26107530726561712 -0.27041472178373932 0 0.26339886892923842 -0.25212127595917111 0 0.26652324504125441 -0.28635384682161108 0 0.28149937424197707 -0.27084387940863208 0 0.26107530726561712 -0.27041472178373932 0 0.26107530726561712 -0.27041472178373932 0 0.2471980952857282 -0.26181902557181319 0 0.24675695282988749 -0.28093558115746919 0 0.26652324504125441 -0.28635384682161108 0 0.26107530726561712 -0.27041472178373932 0 0.24675695282988749 -0.28093558115746919 0 0.25185667136151929 -0.24251713028608249 0 0.26339886892923842 -0.25212127595917111 0 0.2471980952857282 -0.26181902557181319 0 0.26107530726561712 -0.27041472178373932 0 0.26339886892923842 -0.25212127595917111 0 0.2471980952857282 -0.26181902557181319 0 0.25185667136151929 -0.24251713028608249 0 0.2471980952857282 -0.26181902557181319 0 0.23189612628148359 -0.25216275566727953 0 0.2471980952857282 -0.26181902557181319 0 0.24675695282988749 -0.28093558115746919 0 0.21935683319661081 -0.2731599703975171 0 0.21935683319661081 -0.2731599703975171 0 0.23189612628148359 -0.25216275566727953 0 0.21559093293083001 -0.249209929994017 0 0.2471980952857282 -0.26181902557181319 0 0.21935683319661081 -0.2731599703975171 0 0.23189612628148359 -0.25216275566727953 0 0.21935683319661081 -0.2731599703975171 0 0.23189612628148359 -0.25216275566727953 0 0.21935683319661081 -0.2731599703975171 0 0.2027345437256638 -0.26387943896798521 0 0.21559093293083001 -0.249209929994017 0 0.2027345437256638 -0.26387943896798521 0 0.21559093293083001 -0.249209929994017 0 0.19850411860872419 -0.24812436988014369 0 0.21935683319661081 -0.2731599703975171 0 0.2027345437256638 -0.26387943896798521 0 0.19322529029693691 -0.28278240698612278 0 0.2027345437256638 -0.26387943896798521 0 0.19322529029693691 -0.28278240698612278 0 0.18699554359521711 -0.26612051758212529 0 0.2027345437256638 -0.26387943896798521 0 0.18699554359521711 -0.26612051758212529 0 0.19850411860872419 -0.24812436988014369 0 0.18699554359521711 -0.26612051758212529 0 0.19850411860872419 -0.24812436988014369 0 0.18933981929927479 -0.29897169618120978 0 0.1913979175979916 -0.32080327203846992 0 0.18187576577862899 -0.30714523127816679 0 0.18933981929927479 -0.29897169618120978 0 0.21003295723528009 -0.29606928588164921 0 0.1913979175979916 -0.32080327203846992 0 0.18933981929927479 -0.29897169618120978 0 0.19322529029693691 -0.28278240698612278 0 0.21003295723528009 -0.29606928588164921 0 0.18933981929927479 -0.29897169618120978 0 0.19322529029693691 -0.28278240698612278 0 0.18443046111875441 -0.29022801857636649 0 0.21935683319661081 -0.2731599703975171 0 0.19322529029693691 -0.28278240698612278 0 0.21003295723528009 -0.29606928588164921 0 0.21003295723528009 -0.29606928588164921 0 0.21881511132208961 -0.3156118698533299 0 0.1913979175979916 -0.32080327203846992 0 0.22906964260013929 -0.29411683798611032 0 0.24623230504618751 -0.31042046766818909 0 0.21881511132208961 -0.3156118698533299 0 0.21003295723528009 -0.29606928588164921 0 0.22906964260013929 -0.29411683798611032 0 0.21881511132208961 -0.3156118698533299 0 0.24675695282988749 -0.28093558115746919 0 0.21935683319661081 -0.2731599703975171 0 0.22906964260013929 -0.29411683798611032 0 0.21935683319661081 -0.2731599703975171 0 0.21003295723528009 -0.29606928588164921 0 0.22906964260013929 -0.29411683798611032 0 0.24675695282988749 -0.28093558115746919 0 0.22906964260013929 -0.29411683798611032 0 0.24623230504618751 -0.31042046766818909 0 0.26267344391554992 -0.33111033297495002 0 0.24623230504618751 -0.31042046766818909 0 0.23772700970440441 -0.32750286164718201 0 0.26267344391554992 -0.33111033297495002 0 0.23772700970440441 -0.32750286164718201 0 0.24347681962613299 -0.34664666781347092 0 0.24347681962613299 -0.34664666781347092 0 0.21743736861206239 -0.33372496992597028 0 0.23772700970440441 -0.32750286164718201 0 0.24347681962613299 -0.34664666781347092 0 0.21743736861206239 -0.33372496992597028 0 0.24623230504618751 -0.31042046766818909 0 0.21881511132208961 -0.3156118698533299 0 0.24623230504618751 -0.31042046766818909 0 0.23772700970440441 -0.32750286164718201 0 0.21881511132208961 -0.3156118698533299 0 0.23772700970440441 -0.32750286164718201 0 0.21881511132208961 -0.3156118698533299 0 0.21743736861206239 -0.33372496992597028 0 0.2458175116625721 -0.36908434014086122 0 0.23113123051178519 -0.37033360834347367 0 0.22703612443170931 -0.38104048861045131 0 0.2458175116625721 -0.36908434014086122 0 0.22773895192968929 -0.35938373962828352 0 0.23113123051178519 -0.37033360834347367 0 0.2458175116625721 -0.36908434014086122 0 0.24347681962613299 -0.34664666781347092 0 0.22773895192968929 -0.35938373962828352 0 0.24347681962613299 -0.34664666781347092 0 0.22773895192968929 -0.35938373962828352 0 0.24347681962613299 -0.34664666781347092 0 0.22773895192968929 -0.35938373962828352 0 0.21743736861206239 -0.33372496992597028 0 0.22773895192968929 -0.35938373962828352 0 0.21200108423324571 -0.37212081144309628 0 0.22773895192968929 -0.35938373962828352 0 0.2220437725860446 -0.37436975951670021 0 0.21200108423324571 -0.37212081144309628 0 0.22773895192968929 -0.35938373962828352 0 0.2220437725860446 -0.37436975951670021 0 0.23113123051178519 -0.37033360834347367 0 0.21200108423324571 -0.37212081144309628 0 0.20979915178817901 -0.35330875919090288 0 0.20131351684592269 -0.36475834105520238 0 0.22773895192968929 -0.35938373962828352 0 0.21200108423324571 -0.37212081144309628 0 0.20979915178817901 -0.35330875919090288 0 0.21200108423324571 -0.37212081144309628 0 0.20131351684592269 -0.36475834105520238 0 0.2044397925318884 -0.37809609077449269 0 0.22773895192968929 -0.35938373962828352 0 0.20979915178817901 -0.35330875919090288 0 0.21743736861206239 -0.33372496992597028 0 0.20979915178817901 -0.35330875919090288 0 0.19086127543892251 -0.3529946639630151 0 0.20131351684592269 -0.36475834105520238 0 0.19086127543892251 -0.3529946639630151 0 0.1971832681356675 -0.34010315062865187 0 0.17642062724118199 -0.33968408802490058 0 0.20979915178817901 -0.35330875919090288 0 0.19086127543892251 -0.3529946639630151 0 0.1971832681356675 -0.34010315062865187 0 0.20131351684592269 -0.36475834105520238 0 0.19414342483430011 -0.37347331336868828 0 0.1854494730080429 -0.36517339476675731 0 0.19086127543892251 -0.3529946639630151 0 0.20131351684592269 -0.36475834105520238 0 0.1854494730080429 -0.36517339476675731 0 0.20131351684592269 -0.36475834105520238 0 0.19414342483430011 -0.37347331336868828 0 0.2044397925318884 -0.37809609077449269 0 0.21743736861206239 -0.33372496992597028 0 0.1913979175979916 -0.32080327203846992 0 0.21881511132208961 -0.3156118698533299 0 0.21743736861206239 -0.33372496992597028 0 0.1913979175979916 -0.32080327203846992 0 0.21881511132208961 -0.3156118698533299 0 0.1913979175979916 -0.32080327203846992 0 0.20979915178817901 -0.35330875919090288 0 0.21743736861206239 -0.33372496992597028 0 0.1971832681356675 -0.34010315062865187 0 0.1971832681356675 -0.34010315062865187 0 0.1913979175979916 -0.32080327203846992 0 0.17642062724118199 -0.33968408802490058 0 0.21743736861206239 -0.33372496992597028 0 0.1971832681356675 -0.34010315062865187 0 0.1913979175979916 -0.32080327203846992 0 0.1913979175979916 -0.32080327203846992 0 0.18187576577862899 -0.30714523127816679 0 0.170999827768921 -0.31068101738298709 0 0.1913979175979916 -0.32080327203846992 0 0.161979979043441 -0.3263735120867865 0 0.1913979175979916 -0.32080327203846992 0 0.161979979043441 -0.3263735120867865 0 0.1672973989197144 -0.31899140300710238 0 0.1913979175979916 -0.32080327203846992 0 0.170999827768921 -0.31068101738298709 0 0.1913979175979916 -0.32080327203846992 0 0.1672973989197144 -0.31899140300710238 0 0.170999827768921 -0.31068101738298709 0 0.1913979175979916 -0.32080327203846992 0 0.17642062724118199 -0.33968408802490058 0 0.161979979043441 -0.3263735120867865 0 0.17642062724118199 -0.33968408802490058 0 0.161979979043441 -0.3263735120867865 0 0.15730912909049141 -0.34423804375836192 0 0.17642062724118199 -0.33968408802490058 0 0.161979979043441 -0.3263735120867865 0 0.1600804989571368 -0.32673317563112958 0 0.161979979043441 -0.3263735120867865 0 0.15730912909049141 -0.34423804375836192 0 0.1600804989571368 -0.32673317563112958 0 0.15730912909049141 -0.34423804375836192 0 0.16037208195542921 -0.32489144313824381 0 0.1565100872394625 -0.31379112621061211 0 0.16397839356820321 -0.30211281298608889 0 0.16037208195542921 -0.32489144313824381 0 0.1672973989197144 -0.31899140300710238 0 0.16397839356820321 -0.30211281298608889 0 0.16037208195542921 -0.32489144313824381 0 0.16397839356820321 -0.30211281298608889 0 0.1600804989571368 -0.32673317563112958 0 0.161979979043441 -0.3263735120867865 0 0.1600804989571368 -0.32673317563112958 0 0.161979979043441 -0.3263735120867865 0 0.16037208195542921 -0.32489144313824381 0 0.1600804989571368 -0.32673317563112958 0 0.16037208195542921 -0.32489144313824381 0 0.161979979043441 -0.3263735120867865 0 0.16037208195542921 -0.32489144313824381 0 0.161979979043441 -0.3263735120867865 0 0.16037208195542921 -0.32489144313824381 0 0.1672973989197144 -0.31899140300710238 0 0.1854494730080429 -0.36517339476675731 0 0.170770318083768 -0.36418904540782648 0 0.1816176235205659 -0.37747207831012852 0 0.170770318083768 -0.36418904540782648 0 0.16728881332853329 -0.3731902502836274 0 0.1816176235205659 -0.37747207831012852 0 0.19414342483430011 -0.37347331336868828 0 0.1854494730080429 -0.36517339476675731 0 0.1816176235205659 -0.37747207831012852 0 0.1854494730080429 -0.36517339476675731 0 0.16991789505267749 -0.35186249049311807 0 0.170770318083768 -0.36418904540782648 0 0.19086127543892251 -0.3529946639630151 0 0.17642062724118199 -0.33968408802490058 0 0.16991789505267749 -0.35186249049311807 0 0.19086127543892251 -0.3529946639630151 0 0.1854494730080429 -0.36517339476675731 0 0.16991789505267749 -0.35186249049311807 0 0.19086127543892251 -0.3529946639630151 0 0.17642062724118199 -0.33968408802490058 0 0.17642062724118199 -0.33968408802490058 0 0.15730912909049141 -0.34423804375836192 0 0.16991789505267749 -0.35186249049311807 0 0.15730912909049141 -0.34423804375836192 0 0.16991789505267749 -0.35186249049311807 0 0.15453775922384169 -0.36174291188559338 0 0.16991789505267749 -0.35186249049311807 0 0.170770318083768 -0.36418904540782648 0 0.15453775922384169 -0.36174291188559338 0 0.170770318083768 -0.36418904540782648 0 0.16728881332853329 -0.3731902502836274 0 0.15453775922384169 -0.36174291188559338 0 0.15768028884456081 -0.37409513802127797 0 0.16728881332853329 -0.3731902502836274 0 0.15453775922384169 -0.36174291188559338 0 0.15453775922384169 -0.36174291188559338 0 0.15123921126710471 -0.3825776072789579 0 0.15768028884456081 -0.37409513802127797 0 0.15453775922384169 -0.36174291188559338 0 0.15123921126710471 -0.3825776072789579 0 0.144375128547297 -0.37094685467430238 0 0.15453775922384169 -0.36174291188559338 0 0.15123921126710471 -0.3825776072789579 0 0.15768028884456081 -0.37409513802127797 0 0.15453775922384169 -0.36174291188559338 0 0.144375128547297 -0.37094685467430238 0 0.15453775922384169 -0.36174291188559338 0 0.14144858569626281 -0.35950854215303008 0 0.15453775922384169 -0.36174291188559338 0 0.14723831770520129 -0.3330512643326039 0 0.15453775922384169 -0.36174291188559338 0 0.14144858569626281 -0.35950854215303008 0 0.14723831770520129 -0.3330512643326039 0 0.15730912909049141 -0.34423804375836192 0 0.15453775922384169 -0.36174291188559338 0 0.14723831770520129 -0.3330512643326039 0 0.15730912909049141 -0.34423804375836192 0 0.15453775922384169 -0.36174291188559338 0 0.14144858569626281 -0.35950854215303008 0 0.1322362839482141 -0.34994546899427309 0 0.13430499023928841 -0.36860714256714672 0 0.14144858569626281 -0.35950854215303008 0 0.1322362839482141 -0.34994546899427309 0 0.14723831770520129 -0.3330512643326039 0 0.13430499023928841 -0.36860714256714672 0 0.12599062728280991 -0.38057110935496141 0 0.11723425019122601 -0.36683967365594161 0 0.1322362839482141 -0.34994546899427309 0 0.13430499023928841 -0.36860714256714672 0 0.11723425019122601 -0.36683967365594161 0 0.144375128547297 -0.37094685467430238 0 0.14144858569626281 -0.35950854215303008 0 0.13430499023928841 -0.36860714256714672 0 0.144375128547297 -0.37094685467430238 0 0.13430499023928841 -0.36860714256714672 0 0.14034509630998829 -0.38229806948678419 0 0.1462950092356457 -0.32934343626478568 0 0.14050308148879351 -0.30657731790618431 0 0.16037208195542921 -0.32489144313824381 0 0.1565100872394625 -0.31379112621061211 0 0.14050308148879351 -0.30657731790618431 0 0.16037208195542921 -0.32489144313824381 0 0.14050308148879351 -0.30657731790618431 0 0.16037208195542921 -0.32489144313824381 0 0.1462950092356457 -0.32934343626478568 0 0.14050308148879351 -0.30657731790618431 0 0.1600804989571368 -0.32673317563112958 0 0.1462950092356457 -0.32934343626478568 0 0.1600804989571368 -0.32673317563112958 0 0.16037208195542921 -0.32489144313824381 0 0.1462950092356457 -0.32934343626478568 0 0.1600804989571368 -0.32673317563112958 0 0.15730912909049141 -0.34423804375836192 0 0.14723831770520129 -0.3330512643326039 0 0.1462950092356457 -0.32934343626478568 0 0.14723831770520129 -0.3330512643326039 0 0.1286883276397652 -0.3326772335246268 0 0.1600804989571368 -0.32673317563112958 0 0.1462950092356457 -0.32934343626478568 0 0.14723831770520129 -0.3330512643326039 0 0.1462950092356457 -0.32934343626478568 0 0.14723831770520129 -0.3330512643326039 0 0.1322362839482141 -0.34994546899427309 0 0.1286883276397652 -0.3326772335246268 0 0.1191047906302566 -0.34688682220090328 0 0.1462950092356457 -0.32934343626478568 0 0.1286883276397652 -0.3326772335246268 0 0.1322362839482141 -0.34994546899427309 0 0.14723831770520129 -0.3330512643326039 0 0.1322362839482141 -0.34994546899427309 0 0.14723831770520129 -0.3330512643326039 0 0.1286883276397652 -0.3326772335246268 0 0.1286883276397652 -0.3326772335246268 0 0.13356718910658269 -0.32083115106104337 0 0.1196631584862892 -0.32523303504599399 0 0.1462950092356457 -0.32934343626478568 0 0.1286883276397652 -0.3326772335246268 0 0.13356718910658269 -0.32083115106104337 0 0.1462950092356457 -0.32934343626478568 0 0.13356718910658269 -0.32083115106104337 0 0.14050308148879351 -0.30657731790618431 0 0.13356718910658269 -0.32083115106104337 0 0.14050308148879351 -0.30657731790618431 0 0.12386135129487701 -0.3143432727957402 0 0.13356718910658269 -0.32083115106104337 0 0.12386135129487701 -0.3143432727957402 0 0.1196631584862892 -0.32523303504599399 0 0.14050308148879351 -0.30657731790618431 0 0.1148577082674538 -0.30239269194700807 0 0.12386135129487701 -0.3143432727957402 0 0.1565100872394625 -0.31379112621061211 0 0.14050308148879351 -0.30657731790618431 0 0.15113512926261721 -0.29659122917823522 0 0.14050308148879351 -0.30657731790618431 0 0.15113512926261721 -0.29659122917823522 0 0.1339883042226577 -0.28096992140485089 0 0.15091997147586539 -0.28373941795151619 0 0.15113512926261721 -0.29659122917823522 0 0.1339883042226577 -0.28096992140485089 0 0.15091997147586539 -0.28373941795151619 0 0.15113512926261721 -0.29659122917823522 0 0.15928259160831329 -0.28918797441361949 0 0.14050308148879351 -0.30657731790618431 0 0.1339883042226577 -0.28096992140485089 0 0.1184946949964554 -0.28629122716633132 0 0.14050308148879351 -0.30657731790618431 0 0.1184946949964554 -0.28629122716633132 0 0.14050308148879351 -0.30657731790618431 0 0.1339883042226577 -0.28096992140485089 0 0.1339883042226577 -0.28096992140485089 0 0.127473526956523 -0.25536252490351707 0 0.1339883042226577 -0.28096992140485089 0 0.1399527727991482 -0.26473304616420901 0 0.1455186828143771 -0.27250956705977331 0 0.1339883042226577 -0.28096992140485089 0 0.127473526956523 -0.25536252490351707 0 0.11861801279902939 -0.2710219053847534 0 0.1339883042226577 -0.28096992140485089 0 0.127473526956523 -0.25536252490351707 0 0.1399527727991482 -0.26473304616420901 0 0.127473526956523 -0.25536252490351707 0 0.1399527727991482 -0.26473304616420901 0 0.14252071954862611 -0.25372535972677868 0 0.127473526956523 -0.25536252490351707 0 0.14252071954862611 -0.25372535972677868 0 0.13774941539295449 -0.24277821171802949 0 0.1399527727991482 -0.26473304616420901 0 0.14252071954862611 -0.25372535972677868 0 0.14954251549568021 -0.26193449132982177 0 0.14954251549568021 -0.26193449132982177 0 0.15598486249525911 -0.27324929699174538 0 0.16020059439254439 -0.26133852038242272 0 0.14252071954862611 -0.25372535972677868 0 0.14954251549568021 -0.26193449132982177 0 0.15442881530101629 -0.2478343658160625 0 0.14954251549568021 -0.26193449132982177 0 0.16020059439254439 -0.26133852038242272 0 0.15442881530101629 -0.2478343658160625 0 0.15091997147586539 -0.28373941795151619 0 0.1339883042226577 -0.28096992140485089 0 0.1455186828143771 -0.27250956705977331 0 0.1399527727991482 -0.26473304616420901 0 0.14954251549568021 -0.26193449132982177 0 0.1455186828143771 -0.27250956705977331 0 0.14954251549568021 -0.26193449132982177 0 0.1455186828143771 -0.27250956705977331 0 0.15598486249525911 -0.27324929699174538 0 0.15091997147586539 -0.28373941795151619 0 0.1455186828143771 -0.27250956705977331 0 0.15598486249525911 -0.27324929699174538 0 0.15091997147586539 -0.28373941795151619 0 0.15598486249525911 -0.27324929699174538 0 0.15898770866838241 -0.28130085942251981 0 0.15598486249525911 -0.27324929699174538 0 0.16813506312168519 -0.27585794413665821 0 0.15898770866838241 -0.28130085942251981 0 0.15598486249525911 -0.27324929699174538 0 0.16813506312168519 -0.27585794413665821 0 0.16020059439254439 -0.26133852038242272 0 0.16020059439254439 -0.26133852038242272 0 0.17229173267516701 -0.24960307528722739 0 0.15442881530101629 -0.2478343658160625 0 0.16813506312168519 -0.27585794413665821 0 0.16020059439254439 -0.26133852038242272 0 0.17229173267516701 -0.24960307528722739 0 0.16813506312168519 -0.27585794413665821 0 0.17229173267516701 -0.24960307528722739 0 0.18699554359521711 -0.26612051758212529 0 0.19850411860872419 -0.24812436988014369 0 0.17229173267516701 -0.24960307528722739 0 0.16813506312168519 -0.27585794413665821 0 0.18699554359521711 -0.26612051758212529 0 0.17229173267516701 -0.24960307528722739 0 0.19322529029693691 -0.28278240698612278 0 0.18699554359521711 -0.26612051758212529 0 0.17548696858171001 -0.28411666528410712 0 0.16813506312168519 -0.27585794413665821 0 0.18699554359521711 -0.26612051758212529 0 0.17548696858171001 -0.28411666528410712 0 0.18699554359521711 -0.26612051758212529 0 0.17548696858171001 -0.28411666528410712 0 0.17548696858171001 -0.28411666528410712 0 0.1775041015314261 -0.2988050609634228 0 0.16397839356820321 -0.30211281298608889 0 0.19322529029693691 -0.28278240698612278 0 0.17548696858171001 -0.28411666528410712 0 0.18443046111875441 -0.29022801857636649 0 0.17548696858171001 -0.28411666528410712 0 0.18443046111875441 -0.29022801857636649 0 0.1775041015314261 -0.2988050609634228 0 0.18933981929927479 -0.29897169618120978 0 0.18443046111875441 -0.29022801857636649 0 0.1775041015314261 -0.2988050609634228 0 0.18933981929927479 -0.29897169618120978 0 0.18187576577862899 -0.30714523127816679 0 0.1775041015314261 -0.2988050609634228 0 0.18187576577862899 -0.30714523127816679 0 0.1775041015314261 -0.2988050609634228 0 0.170999827768921 -0.31068101738298709 0 0.1775041015314261 -0.2988050609634228 0 0.170999827768921 -0.31068101738298709 0 0.16397839356820321 -0.30211281298608889 0 0.1672973989197144 -0.31899140300710238 0 0.170999827768921 -0.31068101738298709 0 0.16397839356820321 -0.30211281298608889 0 0.1565100872394625 -0.31379112621061211 0 0.15113512926261721 -0.29659122917823522 0 0.16397839356820321 -0.30211281298608889 0 0.1565100872394625 -0.31379112621061211 0 0.16397839356820321 -0.30211281298608889 0 0.16813506312168519 -0.27585794413665821 0 0.16397839356820321 -0.30211281298608889 0 0.16813506312168519 -0.27585794413665821 0 0.17548696858171001 -0.28411666528410712 0 0.16397839356820321 -0.30211281298608889 0 0.16813506312168519 -0.27585794413665821 0 0.16397839356820321 -0.30211281298608889 0 0.15928259160831329 -0.28918797441361949 0 0.17548696858171001 -0.28411666528410712 0 0.16397839356820321 -0.30211281298608889 0 0.15113512926261721 -0.29659122917823522 0 0.16397839356820321 -0.30211281298608889 0 0.15928259160831329 -0.28918797441361949 0 0.16813506312168519 -0.27585794413665821 0 0.15928259160831329 -0.28918797441361949 0 0.15898770866838241 -0.28130085942251981 0 0.15091997147586539 -0.28373941795151619 0 0.15928259160831329 -0.28918797441361949 0 0.15898770866838241 -0.28130085942251981 0 0.20232723100842581 -0.49707047313368991 0 0.2037253154598658 -0.5 0 0.1790215309127364 -0.5 0 0.20232723100842581 -0.49707047313368991 0 0.19310917997641011 -0.48884588790412747 0 0.1767137729677199 -0.49518986413685179 0 0.20232723100842581 -0.49707047313368991 0 0.1767137729677199 -0.49518986413685179 0 0.20066714971506919 -0.49040520957739919 0 0.19310917997641011 -0.48884588790412747 0 0.20340453926474741 -0.48455175161460928 0 0.20066714971506919 -0.49040520957739919 0 0.20232723100842581 -0.49707047313368991 0 0.19310917997641011 -0.48884588790412747 0 0.20066714971506919 -0.49040520957739919 0 0.20432880426839931 -0.49133770925643222 0 0.20340453926474741 -0.48455175161460928 0 0.20066714971506919 -0.49040520957739919 0 0.20232723100842581 -0.49707047313368991 0 0.20432880426839931 -0.49133770925643222 0 0.19310917997641011 -0.48884588790412747 0 0.19191368166470221 -0.47865381130841012 0 0.18220645825195819 -0.4824247196333657 0 0.19191368166470221 -0.47865381130841012 0 0.2002851630722034 -0.47430774505932688 0 0.19242627085437941 -0.46850982950069442 0 0.19191368166470221 -0.47865381130841012 0 0.19242627085437941 -0.46850982950069442 0 0.18046424802181221 -0.47149587531530363 0 0.19310917997641011 -0.48884588790412747 0 0.19191368166470221 -0.47865381130841012 0 0.20340453926474741 -0.48455175161460928 0 0.19191368166470221 -0.47865381130841012 0 0.2002851630722034 -0.47430774505932688 0 0.20340453926474741 -0.48455175161460928 0 0.20958154047568661 -0.47595876160233819 0 0.21706585236010509 -0.48500551319310647 0 0.20340453926474741 -0.48455175161460928 0 0.2002851630722034 -0.47430774505932688 0 0.20958154047568661 -0.47595876160233819 0 0.20340453926474741 -0.48455175161460928 0 0.2002851630722034 -0.47430774505932688 0 0.20958154047568661 -0.47595876160233819 0 0.20563971997032679 -0.46320615386537828 0 0.20958154047568661 -0.47595876160233819 0 0.22105301678140479 -0.47367448864178008 0 0.20563971997032679 -0.46320615386537828 0 0.20958154047568661 -0.47595876160233819 0 0.21706585236010509 -0.48500551319310647 0 0.22105301678140479 -0.47367448864178008 0 0.20232723100842581 -0.49707047313368991 0 0.22794068904913159 -0.49895108213052952 0 0.20232723100842581 -0.49707047313368991 0 0.2173565100436877 -0.49528038101771688 0 0.22794068904913159 -0.49895108213052952 0 0.21706585236010509 -0.48500551319310647 0 0.2156028483739178 -0.49263010252739048 0 0.22355527174327561 -0.49246986627925798 0 0.20232723100842581 -0.49707047313368991 0 0.2037253154598658 -0.5 0 0.22794068904913159 -0.49895108213052952 0 0.21706585236010509 -0.48500551319310647 0 0.20972411281994949 -0.49090852997349232 0 0.2156028483739178 -0.49263010252739048 0 0.21706585236010509 -0.48500551319310647 0 0.20972411281994949 -0.49090852997349232 0 0.20340453926474741 -0.48455175161460928 0 0.20972411281994949 -0.49090852997349232 0 0.20432880426839931 -0.49133770925643222 0 0.20340453926474741 -0.48455175161460928 0 0.20232723100842581 -0.49707047313368991 0 0.20972411281994949 -0.49090852997349232 0 0.2156028483739178 -0.49263010252739048 0 0.20232723100842581 -0.49707047313368991 0 0.20972411281994949 -0.49090852997349232 0 0.20432880426839931 -0.49133770925643222 0 0.20232723100842581 -0.49707047313368991 0 0.2173565100436877 -0.49528038101771688 0 0.2156028483739178 -0.49263010252739048 0 0.2173565100436877 -0.49528038101771688 0 0.2156028483739178 -0.49263010252739048 0 0.22355527174327561 -0.49246986627925798 0 0.2173565100436877 -0.49528038101771688 0 0.22355527174327561 -0.49246986627925798 0 0.22794068904913159 -0.49895108213052952 0 0.21706585236010509 -0.48500551319310647 0 0.22355527174327561 -0.49246986627925798 0 0.2294695918905674 -0.48762535821215858 0 0.2294695918905674 -0.48762535821215858 0 0.2377748494341895 -0.49040541709300639 0 0.23424406114737489 -0.47724200569529279 0 0.22355527174327561 -0.49246986627925798 0 0.2294695918905674 -0.48762535821215858 0 0.22794068904913159 -0.49895108213052952 0 0.2294695918905674 -0.48762535821215858 0 0.22794068904913159 -0.49895108213052952 0 0.2377748494341895 -0.49040541709300639 0 0.25313288455412453 -0.5 0 0.22794068904913159 -0.49895108213052952 0 0.2377748494341895 -0.49040541709300639 0 0.25343276995694342 -0.47861405652005812 0 0.25313288455412453 -0.5 0 0.2377748494341895 -0.49040541709300639 0 0.25121407728899542 -0.46036539918962038 0 0.25343276995694342 -0.47861405652005812 0 0.23424406114737489 -0.47724200569529279 0 0.25343276995694342 -0.47861405652005812 0 0.2377748494341895 -0.49040541709300639 0 0.23424406114737489 -0.47724200569529279 0 0.25121407728899542 -0.46036539918962038 0 0.23424406114737489 -0.47724200569529279 0 0.23424406114737489 -0.47724200569529279 0 0.22105301678140479 -0.47367448864178008 0 0.2273668243706293 -0.45608366663867522 0 0.2294695918905674 -0.48762535821215858 0 0.23424406114737489 -0.47724200569529279 0 0.22105301678140479 -0.47367448864178008 0 0.21706585236010509 -0.48500551319310647 0 0.2294695918905674 -0.48762535821215858 0 0.22105301678140479 -0.47367448864178008 0 0.25121407728899542 -0.46036539918962038 0 0.23424406114737489 -0.47724200569529279 0 0.2273668243706293 -0.45608366663867522 0 0.25121407728899542 -0.46036539918962038 0 0.2273668243706293 -0.45608366663867522 0 0.24380187317688931 -0.44499190555020518 0 0.2273668243706293 -0.45608366663867522 0 0.24380187317688931 -0.44499190555020518 0 0.2286206110779877 -0.43217721227154787 0 0.2273668243706293 -0.45608366663867522 0 0.2066095605276263 -0.44336678276199959 0 0.2286206110779877 -0.43217721227154787 0 0.2066095605276263 -0.44336678276199959 0 0.2286206110779877 -0.43217721227154787 0 0.2273668243706293 -0.45608366663867522 0 0.2066095605276263 -0.44336678276199959 0 0.20563971997032679 -0.46320615386537828 0 0.22105301678140479 -0.47367448864178008 0 0.2273668243706293 -0.45608366663867522 0 0.20563971997032679 -0.46320615386537828 0 0.2066095605276263 -0.44336678276199959 0 0.20563971997032679 -0.46320615386537828 0 0.18459850997726479 -0.45455635325245131 0 0.20563971997032679 -0.46320615386537828 0 0.19242627085437941 -0.46850982950069442 0 0.18459850997726479 -0.45455635325245131 0 0.2002851630722034 -0.47430774505932688 0 0.20563971997032679 -0.46320615386537828 0 0.19242627085437941 -0.46850982950069442 0 0.2066095605276263 -0.44336678276199959 0 0.18459850997726479 -0.45455635325245131 0 0.2066095605276263 -0.44336678276199959 0 0.19167818428046421 -0.43346618535507592 0 0.18459850997726479 -0.45455635325245131 0 0.19167818428046421 -0.43346618535507592 0 0.19256204595616469 -0.42033705913795338 0 0.20837122091432461 -0.42378353082382658 0 0.2066095605276263 -0.44336678276199959 0 0.19167818428046421 -0.43346618535507592 0 0.20837122091432461 -0.42378353082382658 0 0.19167818428046421 -0.43346618535507592 0 0.19256204595616469 -0.42033705913795338 0 0.18183388457675581 -0.42194089541399121 0 0.19256204595616469 -0.42033705913795338 0 0.2010099100838765 -0.41296219473526458 0 0.20837122091432461 -0.42378353082382658 0 0.19256204595616469 -0.42033705913795338 0 0.1925430950891005 -0.40780732390851743 0 0.1849411547035627 -0.41169438822896792 0 0.1925430950891005 -0.40780732390851743 0 0.2010099100838765 -0.41296219473526458 0 0.20033524325075261 -0.40402717002632638 0 0.19256204595616469 -0.42033705913795338 0 0.1925430950891005 -0.40780732390851743 0 0.2010099100838765 -0.41296219473526458 0 0.2010099100838765 -0.41296219473526458 0 0.21123794520903999 -0.408855889779699 0 0.20837122091432461 -0.42378353082382658 0 0.21123794520903999 -0.408855889779699 0 0.20837122091432461 -0.42378353082382658 0 0.22759669356381751 -0.41252341840224871 0 0.2010099100838765 -0.41296219473526458 0 0.21123794520903999 -0.408855889779699 0 0.20033524325075261 -0.40402717002632638 0 0.2066095605276263 -0.44336678276199959 0 0.20837122091432461 -0.42378353082382658 0 0.2286206110779877 -0.43217721227154787 0 0.20837122091432461 -0.42378353082382658 0 0.2286206110779877 -0.43217721227154787 0 0.22759669356381751 -0.41252341840224871 0 0.24380187317688931 -0.44499190555020518 0 0.2286206110779877 -0.43217721227154787 0 0.24926376447426149 -0.43463356081109539 0 0.25063166162834921 -0.42098764178109621 0 0.2286206110779877 -0.43217721227154787 0 0.25063166162834921 -0.42098764178109621 0 0.2286206110779877 -0.43217721227154787 0 0.24926376447426149 -0.43463356081109539 0 0.25063166162834921 -0.42098764178109621 0 0.2286206110779877 -0.43217721227154787 0 0.22759669356381751 -0.41252341840224871 0 0.25063166162834921 -0.42098764178109621 0 0.22759669356381751 -0.41252341840224871 0 0.2465173062916603 -0.39678990349254017 0 0.21123794520903999 -0.408855889779699 0 0.22759669356381751 -0.41252341840224871 0 0.21946737743340419 -0.40213559231942819 0 0.22759669356381751 -0.41252341840224871 0 0.22679493257128849 -0.3979439927716778 0 0.2465173062916603 -0.39678990349254017 0 0.22679493257128849 -0.3979439927716778 0 0.2465173062916603 -0.39678990349254017 0 0.2203919004046099 -0.38378173569443708 0 0.22759669356381751 -0.41252341840224871 0 0.21946737743340419 -0.40213559231942819 0 0.22679493257128849 -0.3979439927716778 0 0.21946737743340419 -0.40213559231942819 0 0.22679493257128849 -0.3979439927716778 0 0.2185060122615459 -0.39413558041800628 0 0.22679493257128849 -0.3979439927716778 0 0.2203919004046099 -0.38378173569443708 0 0.2185060122615459 -0.39413558041800628 0 0.2458175116625721 -0.36908434014086122 0 0.2424985792998853 -0.38197135362674611 0 0.22703612443170931 -0.38104048861045131 0 0.2458175116625721 -0.36908434014086122 0 0.22703612443170931 -0.38104048861045131 0 0.2465173062916603 -0.39678990349254017 0 0.2424985792998853 -0.38197135362674611 0 0.22703612443170931 -0.38104048861045131 0 0.25342967067809119 -0.38117269180066449 0 0.2458175116625721 -0.36908434014086122 0 0.2424985792998853 -0.38197135362674611 0 0.25342967067809119 -0.38117269180066449 0 0.2465173062916603 -0.39678990349254017 0 0.2424985792998853 -0.38197135362674611 0 0.2465173062916603 -0.39678990349254017 0 0.22703612443170931 -0.38104048861045131 0 0.2203919004046099 -0.38378173569443708 0 0.2465173062916603 -0.39678990349254017 0 0.2203919004046099 -0.38378173569443708 0 0.2220437725860446 -0.37436975951670021 0 0.23113123051178519 -0.37033360834347367 0 0.22703612443170931 -0.38104048861045131 0 0.2220437725860446 -0.37436975951670021 0 0.2203919004046099 -0.38378173569443708 0 0.21396334400522829 -0.37955817338045922 0 0.2220437725860446 -0.37436975951670021 0 0.22703612443170931 -0.38104048861045131 0 0.2203919004046099 -0.38378173569443708 0 0.2220437725860446 -0.37436975951670021 0 0.21200108423324571 -0.37212081144309628 0 0.21396334400522829 -0.37955817338045922 0 0.21396334400522829 -0.37955817338045922 0 0.2044397925318884 -0.37809609077449269 0 0.21092809700045409 -0.3874453473344589 0 0.21200108423324571 -0.37212081144309628 0 0.21396334400522829 -0.37955817338045922 0 0.2044397925318884 -0.37809609077449269 0 0.2044397925318884 -0.37809609077449269 0 0.21092809700045409 -0.3874453473344589 0 0.20116955022710081 -0.38836480702791032 0 0.2203919004046099 -0.38378173569443708 0 0.21396334400522829 -0.37955817338045922 0 0.21092809700045409 -0.3874453473344589 0 0.2203919004046099 -0.38378173569443708 0 0.21092809700045409 -0.3874453473344589 0 0.2185060122615459 -0.39413558041800628 0 0.21092809700045409 -0.3874453473344589 0 0.2132013035613293 -0.39721908022550889 0 0.2185060122615459 -0.39413558041800628 0 0.21946737743340419 -0.40213559231942819 0 0.2132013035613293 -0.39721908022550889 0 0.2185060122615459 -0.39413558041800628 0 0.21123794520903999 -0.408855889779699 0 0.21946737743340419 -0.40213559231942819 0 0.2132013035613293 -0.39721908022550889 0 0.21123794520903999 -0.408855889779699 0 0.20510769334991699 -0.39700350364959369 0 0.20033524325075261 -0.40402717002632638 0 0.21123794520903999 -0.408855889779699 0 0.2132013035613293 -0.39721908022550889 0 0.20510769334991699 -0.39700350364959369 0 0.21092809700045409 -0.3874453473344589 0 0.2132013035613293 -0.39721908022550889 0 0.20510769334991699 -0.39700350364959369 0 0.21092809700045409 -0.3874453473344589 0 0.20510769334991699 -0.39700350364959369 0 0.20116955022710081 -0.38836480702791032 0 0.20510769334991699 -0.39700350364959369 0 0.19377402085082521 -0.39610872750365872 0 0.20116955022710081 -0.38836480702791032 0 0.20510769334991699 -0.39700350364959369 0 0.20033524325075261 -0.40402717002632638 0 0.19377402085082521 -0.39610872750365872 0 0.1925430950891005 -0.40780732390851743 0 0.20033524325075261 -0.40402717002632638 0 0.19377402085082521 -0.39610872750365872 0 0.1925430950891005 -0.40780732390851743 0 0.19377402085082521 -0.39610872750365872 0 0.18388392596231631 -0.40180350724286951 0 0.19377402085082521 -0.39610872750365872 0 0.18960625683781401 -0.38842321867646362 0 0.18422218840216839 -0.39364222019282907 0 0.19377402085082521 -0.39610872750365872 0 0.18960625683781401 -0.38842321867646362 0 0.20116955022710081 -0.38836480702791032 0 0.18960625683781401 -0.38842321867646362 0 0.1956173605698564 -0.38210062430742209 0 0.1816176235205659 -0.37747207831012852 0 0.19414342483430011 -0.37347331336868828 0 0.1956173605698564 -0.38210062430742209 0 0.1816176235205659 -0.37747207831012852 0 0.19414342483430011 -0.37347331336868828 0 0.2044397925318884 -0.37809609077449269 0 0.1956173605698564 -0.38210062430742209 0 0.2044397925318884 -0.37809609077449269 0 0.1956173605698564 -0.38210062430742209 0 0.20116955022710081 -0.38836480702791032 0 0.18960625683781401 -0.38842321867646362 0 0.1956173605698564 -0.38210062430742209 0 0.20116955022710081 -0.38836480702791032 0 0.17912326571433479 -0.38822300071804738 0 0.17411359300057841 -0.38302004632273912 0 0.17055595545532379 -0.38940396098086788 0 0.17912326571433479 -0.38822300071804738 0 0.17411359300057841 -0.38302004632273912 0 0.1816176235205659 -0.37747207831012852 0 0.16728881332853329 -0.3731902502836274 0 0.17411359300057841 -0.38302004632273912 0 0.1816176235205659 -0.37747207831012852 0 0.18960625683781401 -0.38842321867646362 0 0.17912326571433479 -0.38822300071804738 0 0.18422218840216839 -0.39364222019282907 0 0.18960625683781401 -0.38842321867646362 0 0.17912326571433479 -0.38822300071804738 0 0.1816176235205659 -0.37747207831012852 0 0.19377402085082521 -0.39610872750365872 0 0.18422218840216839 -0.39364222019282907 0 0.18388392596231631 -0.40180350724286951 0 0.18422218840216839 -0.39364222019282907 0 0.18388392596231631 -0.40180350724286951 0 0.1750555243658716 -0.39709405442129803 0 0.1750555243658716 -0.39709405442129803 0 0.16624096640684549 -0.40243020808164531 0 0.1746267145004741 -0.40816146328969888 0 0.18388392596231631 -0.40180350724286951 0 0.1750555243658716 -0.39709405442129803 0 0.1746267145004741 -0.40816146328969888 0 0.17912326571433479 -0.38822300071804738 0 0.1750555243658716 -0.39709405442129803 0 0.17055595545532379 -0.38940396098086788 0 0.17912326571433479 -0.38822300071804738 0 0.18422218840216839 -0.39364222019282907 0 0.1750555243658716 -0.39709405442129803 0 0.1750555243658716 -0.39709405442129803 0 0.1666159405213144 -0.39539257263609051 0 0.16624096640684549 -0.40243020808164531 0 0.1750555243658716 -0.39709405442129803 0 0.1666159405213144 -0.39539257263609051 0 0.17055595545532379 -0.38940396098086788 0 0.1666159405213144 -0.39539257263609051 0 0.16143021354597581 -0.38917038963066802 0 0.17055595545532379 -0.38940396098086788 0 0.1666159405213144 -0.39539257263609051 0 0.16624096640684549 -0.40243020808164531 0 0.16101550387837449 -0.39696142446930588 0 0.16624096640684549 -0.40243020808164531 0 0.1570223304963424 -0.4026884327269164 0 0.16101550387837449 -0.39696142446930588 0 0.16624096640684549 -0.40243020808164531 0 0.1570223304963424 -0.4026884327269164 0 0.16305369139574921 -0.41112133178106802 0 0.1666159405213144 -0.39539257263609051 0 0.16101550387837449 -0.39696142446930588 0 0.16143021354597581 -0.38917038963066802 0 0.1570223304963424 -0.4026884327269164 0 0.16101550387837449 -0.39696142446930588 0 0.1555066446458053 -0.39489074954218989 0 0.16101550387837449 -0.39696142446930588 0 0.16143021354597581 -0.38917038963066802 0 0.1555066446458053 -0.39489074954218989 0 0.16143021354597581 -0.38917038963066802 0 0.15952444733188001 -0.38152437698735181 0 0.15123921126710471 -0.3825776072789579 0 0.16143021354597581 -0.38917038963066802 0 0.16661976437548909 -0.38327481972415228 0 0.15952444733188001 -0.38152437698735181 0 0.16143021354597581 -0.38917038963066802 0 0.16661976437548909 -0.38327481972415228 0 0.17055595545532379 -0.38940396098086788 0 0.17411359300057841 -0.38302004632273912 0 0.16661976437548909 -0.38327481972415228 0 0.17055595545532379 -0.38940396098086788 0 0.16728881332853329 -0.3731902502836274 0 0.16661976437548909 -0.38327481972415228 0 0.15952444733188001 -0.38152437698735181 0 0.16728881332853329 -0.3731902502836274 0 0.17411359300057841 -0.38302004632273912 0 0.16661976437548909 -0.38327481972415228 0 0.15768028884456081 -0.37409513802127797 0 0.16728881332853329 -0.3731902502836274 0 0.15952444733188001 -0.38152437698735181 0 0.15768028884456081 -0.37409513802127797 0 0.15952444733188001 -0.38152437698735181 0 0.15123921126710471 -0.3825776072789579 0 0.16143021354597581 -0.38917038963066802 0 0.15123921126710471 -0.3825776072789579 0 0.1555066446458053 -0.39489074954218989 0 0.15123921126710471 -0.3825776072789579 0 0.14034509630998829 -0.38229806948678419 0 0.1430647210195963 -0.39209468808631592 0 0.144375128547297 -0.37094685467430238 0 0.15123921126710471 -0.3825776072789579 0 0.14034509630998829 -0.38229806948678419 0 0.13430499023928841 -0.36860714256714672 0 0.14034509630998829 -0.38229806948678419 0 0.12599062728280991 -0.38057110935496141 0 0.14034509630998829 -0.38229806948678419 0 0.12599062728280991 -0.38057110935496141 0 0.13392602615877561 -0.39189853635679528 0 0.14034509630998829 -0.38229806948678419 0 0.13392602615877561 -0.39189853635679528 0 0.1430647210195963 -0.39209468808631592 0 0.12599062728280991 -0.38057110935496141 0 0.13392602615877561 -0.39189853635679528 0 0.120122305916046 -0.39343520813558941 0 0.12933263374811721 -0.40061839502967528 0 0.13392602615877561 -0.39189853635679528 0 0.120122305916046 -0.39343520813558941 0 0.13392602615877561 -0.39189853635679528 0 0.13941907635261641 -0.39904108331312438 0 0.1430647210195963 -0.39209468808631592 0 0.12933263374811721 -0.40061839502967528 0 0.13392602615877561 -0.39189853635679528 0 0.13941907635261641 -0.39904108331312438 0 0.12933263374811721 -0.40061839502967528 0 0.13941907635261641 -0.39904108331312438 0 0.14283133752622409 -0.40718149442051282 0 0.15123921126710471 -0.3825776072789579 0 0.14794066331036859 -0.40341230267232259 0 0.1555066446458053 -0.39489074954218989 0 0.15123921126710471 -0.3825776072789579 0 0.14794066331036859 -0.40341230267232259 0 0.13941907635261641 -0.39904108331312438 0 0.14794066331036859 -0.40341230267232259 0 0.14283133752622409 -0.40718149442051282 0 0.15123921126710471 -0.3825776072789579 0 0.14794066331036859 -0.40341230267232259 0 0.1430647210195963 -0.39209468808631592 0 0.13941907635261641 -0.39904108331312438 0 0.14794066331036859 -0.40341230267232259 0 0.1430647210195963 -0.39209468808631592 0 0.1570223304963424 -0.4026884327269164 0 0.14794066331036859 -0.40341230267232259 0 0.1555066446458053 -0.39489074954218989 0 0.14794066331036859 -0.40341230267232259 0 0.14064345804633679 -0.41604246520093502 0 0.1446421153536325 -0.42424699806568728 0 0.14794066331036859 -0.40341230267232259 0 0.1446421153536325 -0.42424699806568728 0 0.1570223304963424 -0.4026884327269164 0 0.14794066331036859 -0.40341230267232259 0 0.15402046011730031 -0.41274216969338678 0 0.14794066331036859 -0.40341230267232259 0 0.15402046011730031 -0.41274216969338678 0 0.1446421153536325 -0.42424699806568728 0 0.15402046011730031 -0.41274216969338678 0 0.1446421153536325 -0.42424699806568728 0 0.15728075140419179 -0.42289031042886438 0 0.14794066331036859 -0.40341230267232259 0 0.14064345804633679 -0.41604246520093502 0 0.14283133752622409 -0.40718149442051282 0 0.14283133752622409 -0.40718149442051282 0 0.1181328258232151 -0.41120945423900979 0 0.12933263374811721 -0.40061839502967528 0 0.14283133752622409 -0.40718149442051282 0 0.1181328258232151 -0.41120945423900979 0 0.14064345804633679 -0.41604246520093502 0 0.14283133752622409 -0.40718149442051282 0 0.1318712486619554 -0.41573993249752988 0 0.14283133752622409 -0.40718149442051282 0 0.1318712486619554 -0.41573993249752988 0 0.1181328258232151 -0.41120945423900979 0 0.14064345804633679 -0.41604246520093502 0 0.1318712486619554 -0.41573993249752988 0 0.13494126025734871 -0.42469370977362098 0 0.14064345804633679 -0.41604246520093502 0 0.13494126025734871 -0.42469370977362098 0 0.1446421153536325 -0.42424699806568728 0 0.1318712486619554 -0.41573993249752988 0 0.13494126025734871 -0.42469370977362098 0 0.12321136919599281 -0.42001608402221963 0 0.12570813374346559 -0.42973461951938158 0 0.13867376060661829 -0.43551618238879469 0 0.12961974084746411 -0.44057309606575418 0 0.12570813374346559 -0.42973461951938158 0 0.13494126025734871 -0.42469370977362098 0 0.12321136919599281 -0.42001608402221963 0 0.13494126025734871 -0.42469370977362098 0 0.13867376060661829 -0.43551618238879469 0 0.1446421153536325 -0.42424699806568728 0 0.12570813374346559 -0.42973461951938158 0 0.13494126025734871 -0.42469370977362098 0 0.13867376060661829 -0.43551618238879469 0 0.13867376060661829 -0.43551618238879469 0 0.1446421153536325 -0.42424699806568728 0 0.14984748459220601 -0.43563047667863319 0 0.1446421153536325 -0.42424699806568728 0 0.14984748459220601 -0.43563047667863319 0 0.15728075140419179 -0.42289031042886438 0 0.14984748459220601 -0.43563047667863319 0 0.16150740280896 -0.43603406069180961 0 0.15728075140419179 -0.42289031042886438 0 0.16150740280896 -0.43603406069180961 0 0.1700799090063565 -0.42205819698911951 0 0.17609388373064891 -0.43681249074023321 0 0.16150740280896 -0.43603406069180961 0 0.1700799090063565 -0.42205819698911951 0 0.15728075140419179 -0.42289031042886438 0 0.1700799090063565 -0.42205819698911951 0 0.15728075140419179 -0.42289031042886438 0 0.16305369139574921 -0.41112133178106802 0 0.15402046011730031 -0.41274216969338678 0 0.15728075140419179 -0.42289031042886438 0 0.16305369139574921 -0.41112133178106802 0 0.1570223304963424 -0.4026884327269164 0 0.15402046011730031 -0.41274216969338678 0 0.16305369139574921 -0.41112133178106802 0 0.16624096640684549 -0.40243020808164531 0 0.16305369139574921 -0.41112133178106802 0 0.1746267145004741 -0.40816146328969888 0 0.1700799090063565 -0.42205819698911951 0 0.16305369139574921 -0.41112133178106802 0 0.1746267145004741 -0.40816146328969888 0 0.1700799090063565 -0.42205819698911951 0 0.1746267145004741 -0.40816146328969888 0 0.18183388457675581 -0.42194089541399121 0 0.1925430950891005 -0.40780732390851743 0 0.18388392596231631 -0.40180350724286951 0 0.1849411547035627 -0.41169438822896792 0 0.1746267145004741 -0.40816146328969888 0 0.1849411547035627 -0.41169438822896792 0 0.18183388457675581 -0.42194089541399121 0 0.18388392596231631 -0.40180350724286951 0 0.1746267145004741 -0.40816146328969888 0 0.1849411547035627 -0.41169438822896792 0 0.19256204595616469 -0.42033705913795338 0 0.1849411547035627 -0.41169438822896792 0 0.18183388457675581 -0.42194089541399121 0 0.19167818428046421 -0.43346618535507592 0 0.18183388457675581 -0.42194089541399121 0 0.17609388373064891 -0.43681249074023321 0 0.1700799090063565 -0.42205819698911951 0 0.18183388457675581 -0.42194089541399121 0 0.17609388373064891 -0.43681249074023321 0 0.19167818428046421 -0.43346618535507592 0 0.17609388373064891 -0.43681249074023321 0 0.18459850997726479 -0.45455635325245131 0 0.17609388373064891 -0.43681249074023321 0 0.18459850997726479 -0.45455635325245131 0 0.16633408575990119 -0.44993417599201818 0 0.18459850997726479 -0.45455635325245131 0 0.1625874594269032 -0.46574592374290269 0 0.18046424802181221 -0.47149587531530363 0 0.18459850997726479 -0.45455635325245131 0 0.1625874594269032 -0.46574592374290269 0 0.19242627085437941 -0.46850982950069442 0 0.18459850997726479 -0.45455635325245131 0 0.18046424802181221 -0.47149587531530363 0 0.1625874594269032 -0.46574592374290269 0 0.15902984729788541 -0.45833067565507479 0 0.16633408575990119 -0.44993417599201818 0 0.18459850997726479 -0.45455635325245131 0 0.1625874594269032 -0.46574592374290269 0 0.16633408575990119 -0.44993417599201818 0 0.1625874594269032 -0.46574592374290269 0 0.15902984729788541 -0.45833067565507479 0 0.15902984729788541 -0.45833067565507479 0 0.16633408575990119 -0.44993417599201818 0 0.15405240757270169 -0.44749194098019263 0 0.16150740280896 -0.43603406069180961 0 0.17609388373064891 -0.43681249074023321 0 0.16633408575990119 -0.44993417599201818 0 0.16150740280896 -0.43603406069180961 0 0.16633408575990119 -0.44993417599201818 0 0.15405240757270169 -0.44749194098019263 0 0.14984748459220601 -0.43563047667863319 0 0.15405240757270169 -0.44749194098019263 0 0.14265710111018809 -0.44694199111372251 0 0.14984748459220601 -0.43563047667863319 0 0.16150740280896 -0.43603406069180961 0 0.15405240757270169 -0.44749194098019263 0 0.1501287461805238 -0.45310693408031649 0 0.15405240757270169 -0.44749194098019263 0 0.14265710111018809 -0.44694199111372251 0 0.15902984729788541 -0.45833067565507479 0 0.1501287461805238 -0.45310693408031649 0 0.15405240757270169 -0.44749194098019263 0 0.13867376060661829 -0.43551618238879469 0 0.14984748459220601 -0.43563047667863319 0 0.14265710111018809 -0.44694199111372251 0 0.13867376060661829 -0.43551618238879469 0 0.14265710111018809 -0.44694199111372251 0 0.12961974084746411 -0.44057309606575418 0 0.14265710111018809 -0.44694199111372251 0 0.13180318348961451 -0.45056690158855572 0 0.12961974084746411 -0.44057309606575418 0 0.14265710111018809 -0.44694199111372251 0 0.13180318348961451 -0.45056690158855572 0 0.14477562874132011 -0.45966312857227631 0 0.13180318348961451 -0.45056690158855572 0 0.12961974084746411 -0.44057309606575418 0 0.120131373729577 -0.44628036919872649 0 0.13051139745928181 -0.4608837363583459 0 0.14477562874132011 -0.45966312857227631 0 0.13817398331986011 -0.47815679487291513 0 0.13051139745928181 -0.4608837363583459 0 0.1270565339381361 -0.47194660042502329 0 0.12198371544622889 -0.46311746673122328 0 0.13180318348961451 -0.45056690158855572 0 0.13051139745928181 -0.4608837363583459 0 0.12211506253505131 -0.45581790851004161 0 0.13180318348961451 -0.45056690158855572 0 0.13051139745928181 -0.4608837363583459 0 0.14477562874132011 -0.45966312857227631 0 0.1625874594269032 -0.46574592374290269 0 0.14477562874132011 -0.45966312857227631 0 0.13817398331986011 -0.47815679487291513 0 0.1625874594269032 -0.46574592374290269 0 0.15902984729788541 -0.45833067565507479 0 0.14477562874132011 -0.45966312857227631 0 0.1501287461805238 -0.45310693408031649 0 0.14265710111018809 -0.44694199111372251 0 0.14477562874132011 -0.45966312857227631 0 0.15902984729788541 -0.45833067565507479 0 0.1501287461805238 -0.45310693408031649 0 0.14477562874132011 -0.45966312857227631 0 0.1625874594269032 -0.46574592374290269 0 0.13817398331986011 -0.47815679487291513 0 0.15653535249837339 -0.4795049359953093 0 0.13817398331986011 -0.47815679487291513 0 0.1557293510494189 -0.49364913142554212 0 0.15653535249837339 -0.4795049359953093 0 0.1625874594269032 -0.46574592374290269 0 0.13817398331986011 -0.47815679487291513 0 0.13817398331986011 -0.47815679487291513 0 0.1270565339381361 -0.47194660042502329 0 0.11281598457137119 -0.49104782494182031 0 0.13051139745928181 -0.4608837363583459 0 0.13817398331986011 -0.47815679487291513 0 0.1270565339381361 -0.47194660042502329 0 0.13817398331986011 -0.47815679487291513 0 0.1347449291311178 -0.49210839871423401 0 0.11281598457137119 -0.49104782494182031 0 0.1364103072242551 -0.5 0 0.1347449291311178 -0.49210839871423401 0 0.1151046953800143 -0.4999999999999975 0 0.13817398331986011 -0.47815679487291513 0 0.11281598457137119 -0.49104782494182031 0 0.1364103072242551 -0.5 0 0.1347449291311178 -0.49210839871423401 0 0.1557293510494189 -0.49364913142554212 0 0.1364103072242551 -0.5 0 0.1557293510494189 -0.49364913142554212 0 0.15771591906849569 -0.5 0 0.1347449291311178 -0.49210839871423401 0 0.1557293510494189 -0.49364913142554212 0 0.13817398331986011 -0.47815679487291513 0 0.1347449291311178 -0.49210839871423401 0 0.1557293510494189 -0.49364913142554212 0 0.1557293510494189 -0.49364913142554212 0 0.15771591906849569 -0.5 0 0.1767137729677199 -0.49518986413685179 0 0.1557293510494189 -0.49364913142554212 0 0.1767137729677199 -0.49518986413685179 0 0.15771591906849569 -0.5 0 0.1767137729677199 -0.49518986413685179 0 0.1790215309127364 -0.5 0 0.1557293510494189 -0.49364913142554212 0 0.1696506161973112 -0.48046789393987738 0 0.1767137729677199 -0.49518986413685179 0 0.1557293510494189 -0.49364913142554212 0 0.15653535249837339 -0.4795049359953093 0 0.1696506161973112 -0.48046789393987738 0 0.1625874594269032 -0.46574592374290269 0 0.1696506161973112 -0.48046789393987738 0 0.18046424802181221 -0.47149587531530363 0 0.1625874594269032 -0.46574592374290269 0 0.15653535249837339 -0.4795049359953093 0 0.1696506161973112 -0.48046789393987738 0 0.1625874594269032 -0.46574592374290269 0 0.1696506161973112 -0.48046789393987738 0 0.1696506161973112 -0.48046789393987738 0 0.18046424802181221 -0.47149587531530363 0 0.18220645825195819 -0.4824247196333657 0 0.19191368166470221 -0.47865381130841012 0 0.18046424802181221 -0.47149587531530363 0 0.18220645825195819 -0.4824247196333657 0 0.19310917997641011 -0.48884588790412747 0 0.18220645825195819 -0.4824247196333657 0 0.1767137729677199 -0.49518986413685179 0 0.20232723100842581 -0.49707047313368991 0 0.1767137729677199 -0.49518986413685179 0 0.1790215309127364 -0.5 0 0.1767137729677199 -0.49518986413685179 0 0.1790215309127364 -0.5 0 0.1696506161973112 -0.48046789393987738 0 0.1767137729677199 -0.49518986413685179 0 0.1696506161973112 -0.48046789393987738 0 0.18220645825195819 -0.4824247196333657 0 0.1767137729677199 -0.49518986413685179 0 0.07322412626721761 -0.48759137585950008 0 0.074930234953771491 -0.5 0 0.054654346046148702 -0.50000000000000178 0 0.07322412626721761 -0.48759137585950008 0 0.054654346046148702 -0.50000000000000178 0 0.07322412626721761 -0.48759137585950008 0 0.063646675438631034 -0.47448029456242752 0 0.078491805090833963 -0.46997931948817939 0 0.063646675438631034 -0.47448029456242752 0 0.078491805090833963 -0.46997931948817939 0 0.068163064386583011 -0.46207623335530251 0 0.089754274667340775 -0.47654566632271511 0 0.078491805090833963 -0.46997931948817939 0 0.094644050642035266 -0.46457929243064638 0 0.07322412626721761 -0.48759137585950008 0 0.089754274667340775 -0.47654566632271511 0 0.078491805090833963 -0.46997931948817939 0 0.07322412626721761 -0.48759137585950008 0 0.089754274667340775 -0.47654566632271511 0 0.07322412626721761 -0.48759137585950008 0 0.092948468056147676 -0.48903959009773529 0 0.07322412626721761 -0.48759137585950008 0 0.089754274667340775 -0.47654566632271511 0 0.092948468056147676 -0.48903959009773529 0 0.074930234953771491 -0.5 0 0.092948468056147676 -0.48903959009773529 0 0.095206123861394404 -0.50000000000000333 0 0.07322412626721761 -0.48759137585950008 0 0.074930234953771491 -0.5 0 0.092948468056147676 -0.48903959009773529 0 0.095206123861394404 -0.50000000000000333 0 0.11281598457137119 -0.49104782494182031 0 0.092948468056147676 -0.48903959009773529 0 0.11281598457137119 -0.49104782494182031 0 0.095206123861394404 -0.50000000000000333 0 0.1151046953800143 -0.4999999999999975 0 0.11281598457137119 -0.49104782494182031 0 0.092948468056147676 -0.48903959009773529 0 0.095206123861394404 -0.50000000000000333 0 0.11281598457137119 -0.49104782494182031 0 0.089754274667340775 -0.47654566632271511 0 0.092948468056147676 -0.48903959009773529 0 0.11281598457137119 -0.49104782494182031 0 0.1347449291311178 -0.49210839871423401 0 0.11281598457137119 -0.49104782494182031 0 0.1151046953800143 -0.4999999999999975 0 0.11281598457137119 -0.49104782494182031 0 0.1347449291311178 -0.49210839871423401 0 0.1151046953800143 -0.4999999999999975 0 0.11281598457137119 -0.49104782494182031 0 0.11281598457137119 -0.49104782494182031 0 0.1151704000615062 -0.47734705945400679 0 0.1062844230674639 -0.46549995678592998 0 0.11281598457137119 -0.49104782494182031 0 0.1062844230674639 -0.46549995678592998 0 0.1270565339381361 -0.47194660042502329 0 0.11281598457137119 -0.49104782494182031 0 0.1151704000615062 -0.47734705945400679 0 0.1270565339381361 -0.47194660042502329 0 0.1151704000615062 -0.47734705945400679 0 0.1160204806856414 -0.46755661203294041 0 0.1151704000615062 -0.47734705945400679 0 0.1062844230674639 -0.46549995678592998 0 0.1160204806856414 -0.46755661203294041 0 0.089754274667340775 -0.47654566632271511 0 0.11281598457137119 -0.49104782494182031 0 0.1062844230674639 -0.46549995678592998 0 0.089754274667340775 -0.47654566632271511 0 0.094644050642035266 -0.46457929243064638 0 0.1062844230674639 -0.46549995678592998 0 0.089754274667340775 -0.47654566632271511 0 0.1062844230674639 -0.46549995678592998 0 0.094644050642035266 -0.46457929243064638 0 0.10432157647542779 -0.45782238291426242 0 0.08581435332074204 -0.45845173334386408 0 0.10432157647542779 -0.45782238291426242 0 0.1097265904052666 -0.45886052713648062 0 0.11318582327053819 -0.45339594279947892 0 0.10432157647542779 -0.45782238291426242 0 0.1058274750962114 -0.45955326944572539 0 0.10432157647542779 -0.45782238291426242 0 0.1058274750962114 -0.45955326944572539 0 0.1097265904052666 -0.45886052713648062 0 0.1058274750962114 -0.45955326944572539 0 0.1102231953690886 -0.46286800613901607 0 0.1097265904052666 -0.45886052713648062 0 0.094644050642035266 -0.46457929243064638 0 0.10432157647542779 -0.45782238291426242 0 0.1062844230674639 -0.46549995678592998 0 0.10432157647542779 -0.45782238291426242 0 0.1062844230674639 -0.46549995678592998 0 0.1058274750962114 -0.45955326944572539 0 0.1062844230674639 -0.46549995678592998 0 0.1102231953690886 -0.46286800613901607 0 0.1062844230674639 -0.46549995678592998 0 0.1102231953690886 -0.46286800613901607 0 0.10432157647542779 -0.45782238291426242 0 0.1058274750962114 -0.45955326944572539 0 0.1062844230674639 -0.46549995678592998 0 0.1062844230674639 -0.46549995678592998 0 0.1160204806856414 -0.46755661203294041 0 0.1102231953690886 -0.46286800613901607 0 0.1160204806856414 -0.46755661203294041 0 0.1102231953690886 -0.46286800613901607 0 0.1150748818150676 -0.46066303438391981 0 0.1097265904052666 -0.45886052713648062 0 0.11318582327053819 -0.45339594279947892 0 0.1150748818150676 -0.46066303438391981 0 0.1102231953690886 -0.46286800613901607 0 0.1097265904052666 -0.45886052713648062 0 0.1150748818150676 -0.46066303438391981 0 0.11318582327053819 -0.45339594279947892 0 0.1150748818150676 -0.46066303438391981 0 0.12211506253505131 -0.45581790851004161 0 0.1150748818150676 -0.46066303438391981 0 0.12211506253505131 -0.45581790851004161 0 0.12198371544622889 -0.46311746673122328 0 0.13051139745928181 -0.4608837363583459 0 0.12211506253505131 -0.45581790851004161 0 0.12198371544622889 -0.46311746673122328 0 0.1270565339381361 -0.47194660042502329 0 0.1160204806856414 -0.46755661203294041 0 0.12198371544622889 -0.46311746673122328 0 0.1160204806856414 -0.46755661203294041 0 0.1150748818150676 -0.46066303438391981 0 0.12198371544622889 -0.46311746673122328 0 0.12961974084746411 -0.44057309606575418 0 0.120131373729577 -0.44628036919872649 0 0.11624100461808171 -0.43589235776528318 0 0.13180318348961451 -0.45056690158855572 0 0.12211506253505131 -0.45581790851004161 0 0.120131373729577 -0.44628036919872649 0 0.11318582327053819 -0.45339594279947892 0 0.12211506253505131 -0.45581790851004161 0 0.120131373729577 -0.44628036919872649 0 0.11318582327053819 -0.45339594279947892 0 0.120131373729577 -0.44628036919872649 0 0.1098195278817139 -0.44525714992232007 0 0.120131373729577 -0.44628036919872649 0 0.1098195278817139 -0.44525714992232007 0 0.11624100461808171 -0.43589235776528318 0 0.10432157647542779 -0.45782238291426242 0 0.087525198947879981 -0.43851655233673448 0 0.1098195278817139 -0.44525714992232007 0 0.09887794529781721 -0.43652989848588403 0 0.11624100461808171 -0.43589235776528318 0 0.10432157647542779 -0.45782238291426242 0 0.1098195278817139 -0.44525714992232007 0 0.09887794529781721 -0.43652989848588403 0 0.10432157647542779 -0.45782238291426242 0 0.087525198947879981 -0.43851655233673448 0 0.09887794529781721 -0.43652989848588403 0 0.10432157647542779 -0.45782238291426242 0 0.09887794529781721 -0.43652989848588403 0 0.10432157647542779 -0.45782238291426242 0 0.11318582327053819 -0.45339594279947892 0 0.1098195278817139 -0.44525714992232007 0 0.10432157647542779 -0.45782238291426242 0 0.087525198947879981 -0.43851655233673448 0 0.08581435332074204 -0.45845173334386408 0 0.087525198947879981 -0.43851655233673448 0 0.08581435332074204 -0.45845173334386408 0 0.07085046614274193 -0.44770930362294631 0 0.078491805090833963 -0.46997931948817939 0 0.094644050642035266 -0.46457929243064638 0 0.08581435332074204 -0.45845173334386408 0 0.078491805090833963 -0.46997931948817939 0 0.08581435332074204 -0.45845173334386408 0 0.068163064386583011 -0.46207623335530251 0 0.08581435332074204 -0.45845173334386408 0 0.068163064386583011 -0.46207623335530251 0 0.07085046614274193 -0.44770930362294631 0 0.068163064386583011 -0.46207623335530251 0 0.07085046614274193 -0.44770930362294631 0 0.057646134350172032 -0.45424665235146849 0 0.07085046614274193 -0.44770930362294631 0 0.071215740743283074 -0.43574656641568588 0 0.054738305107791499 -0.43721808393462291 0 0.087525198947879981 -0.43851655233673448 0 0.07085046614274193 -0.44770930362294631 0 0.071215740743283074 -0.43574656641568588 0 0.087525198947879981 -0.43851655233673448 0 0.071215740743283074 -0.43574656641568588 0 0.070728821420333071 -0.41921072175920582 0 0.071215740743283074 -0.43574656641568588 0 0.070728821420333071 -0.41921072175920582 0 0.054738305107791499 -0.43721808393462291 0 0.070728821420333071 -0.41921072175920582 0 0.054738305107791499 -0.43721808393462291 0 0.069450325871987573 -0.4108656334803118 0 0.070728821420333071 -0.41921072175920582 0 0.052234008351061567 -0.39795270186218951 0 0.070728821420333071 -0.41921072175920582 0 0.086620896756693766 -0.40131421668662021 0 0.075277760725011911 -0.40529565006860307 0 0.070728821420333071 -0.41921072175920582 0 0.057669359148548302 -0.42107014613741778 0 0.069450325871987573 -0.4108656334803118 0 0.070728821420333071 -0.41921072175920582 0 0.075277760725011911 -0.40529565006860307 0 0.070728821420333071 -0.41921072175920582 0 0.086620896756693766 -0.40131421668662021 0 0.070728821420333071 -0.41921072175920582 0 0.083666709441198667 -0.41137373001474209 0 0.086620896756693766 -0.40131421668662021 0 0.070728821420333071 -0.41921072175920582 0 0.093434314120205808 -0.41523741405750569 0 0.08353445832726554 -0.42511400698564161 0 0.070728821420333071 -0.41921072175920582 0 0.083666709441198667 -0.41137373001474209 0 0.093434314120205808 -0.41523741405750569 0 0.070728821420333071 -0.41921072175920582 0 0.093434314120205808 -0.41523741405750569 0 0.093434314120205808 -0.41523741405750569 0 0.090032948821177211 -0.40193314797080598 0 0.087597262047598309 -0.40799938922151507 0 0.093434314120205808 -0.41523741405750569 0 0.090032948821177211 -0.40193314797080598 0 0.083666709441198667 -0.41137373001474209 0 0.087597262047598309 -0.40799938922151507 0 0.093434314120205808 -0.41523741405750569 0 0.083666709441198667 -0.41137373001474209 0 0.087597262047598309 -0.40799938922151507 0 0.086620896756693766 -0.40131421668662021 0 0.087525198947879981 -0.43851655233673448 0 0.070728821420333071 -0.41921072175920582 0 0.093434314120205808 -0.41523741405750569 0 0.08353445832726554 -0.42511400698564161 0 0.09887794529781721 -0.43652989848588403 0 0.087525198947879981 -0.43851655233673448 0 0.070728821420333071 -0.41921072175920582 0 0.08353445832726554 -0.42511400698564161 0 0.087525198947879981 -0.43851655233673448 0 0.08353445832726554 -0.42511400698564161 0 0.09887794529781721 -0.43652989848588403 0 0.09887794529781721 -0.43652989848588403 0 0.11624100461808171 -0.43589235776528318 0 0.1111435166129305 -0.4250045938377161 0 0.093434314120205808 -0.41523741405750569 0 0.09887794529781721 -0.43652989848588403 0 0.093434314120205808 -0.41523741405750569 0 0.09887794529781721 -0.43652989848588403 0 0.1111435166129305 -0.4250045938377161 0 0.12570813374346559 -0.42973461951938158 0 0.1111435166129305 -0.4250045938377161 0 0.12321136919599281 -0.42001608402221963 0 0.12570813374346559 -0.42973461951938158 0 0.11624100461808171 -0.43589235776528318 0 0.1111435166129305 -0.4250045938377161 0 0.12570813374346559 -0.42973461951938158 0 0.12961974084746411 -0.44057309606575418 0 0.11624100461808171 -0.43589235776528318 0 0.1318712486619554 -0.41573993249752988 0 0.1181328258232151 -0.41120945423900979 0 0.12321136919599281 -0.42001608402221963 0 0.1111435166129305 -0.4250045938377161 0 0.1181328258232151 -0.41120945423900979 0 0.12321136919599281 -0.42001608402221963 0 0.093434314120205808 -0.41523741405750569 0 0.1181328258232151 -0.41120945423900979 0 0.093434314120205808 -0.41523741405750569 0 0.1181328258232151 -0.41120945423900979 0 0.10131032249495001 -0.40548475720792998 0 0.093434314120205808 -0.41523741405750569 0 0.1111435166129305 -0.4250045938377161 0 0.1181328258232151 -0.41120945423900979 0 0.093434314120205808 -0.41523741405750569 0 0.10131032249495001 -0.40548475720792998 0 0.090032948821177211 -0.40193314797080598 0 0.098943123931416244 -0.39598750207082611 0 0.1022322164342373 -0.38373387831760952 0 0.086620896756693766 -0.40131421668662021 0 0.10131032249495001 -0.40548475720792998 0 0.098943123931416244 -0.39598750207082611 0 0.090032948821177211 -0.40193314797080598 0 0.10909398746473981 -0.40187956658798502 0 0.1022322164342373 -0.38373387831760952 0 0.098943123931416244 -0.39598750207082611 0 0.10909398746473981 -0.40187956658798502 0 0.1022322164342373 -0.38373387831760952 0 0.1022322164342373 -0.38373387831760952 0 0.086620896756693766 -0.40131421668662021 0 0.10131032249495001 -0.40548475720792998 0 0.098943123931416244 -0.39598750207082611 0 0.10909398746473981 -0.40187956658798502 0 0.10909398746473981 -0.40187956658798502 0 0.120122305916046 -0.39343520813558941 0 0.1022322164342373 -0.38373387831760952 0 0.1181328258232151 -0.41120945423900979 0 0.10131032249495001 -0.40548475720792998 0 0.10909398746473981 -0.40187956658798502 0 0.1181328258232151 -0.41120945423900979 0 0.10909398746473981 -0.40187956658798502 0 0.1191704382380295 -0.40178565599806482 0 0.10909398746473981 -0.40187956658798502 0 0.120122305916046 -0.39343520813558941 0 0.1191704382380295 -0.40178565599806482 0 0.12933263374811721 -0.40061839502967528 0 0.1181328258232151 -0.41120945423900979 0 0.1191704382380295 -0.40178565599806482 0 0.12933263374811721 -0.40061839502967528 0 0.120122305916046 -0.39343520813558941 0 0.1191704382380295 -0.40178565599806482 0 0.12599062728280991 -0.38057110935496141 0 0.120122305916046 -0.39343520813558941 0 0.1022322164342373 -0.38373387831760952 0 0.1022322164342373 -0.38373387831760952 0 0.11723425019122601 -0.36683967365594161 0 0.12599062728280991 -0.38057110935496141 0 0.1022322164342373 -0.38373387831760952 0 0.11723425019122601 -0.36683967365594161 0 0.1022322164342373 -0.38373387831760952 0 0.085240370224008655 -0.38785291623133339 0 0.085405054053840745 -0.37362112812438991 0 0.085240370224008655 -0.38785291623133339 0 0.074105611659338544 -0.38701695558500909 0 0.085405054053840745 -0.37362112812438991 0 0.085240370224008655 -0.38785291623133339 0 0.078775491834421382 -0.39607359653981228 0 0.074105611659338544 -0.38701695558500909 0 0.1022322164342373 -0.38373387831760952 0 0.085240370224008655 -0.38785291623133339 0 0.086620896756693766 -0.40131421668662021 0 0.098943123931416244 -0.39598750207082611 0 0.090032948821177211 -0.40193314797080598 0 0.086620896756693766 -0.40131421668662021 0 0.087597262047598309 -0.40799938922151507 0 0.090032948821177211 -0.40193314797080598 0 0.086620896756693766 -0.40131421668662021 0 0.086620896756693766 -0.40131421668662021 0 0.078775491834421382 -0.39607359653981228 0 0.075277760725011911 -0.40529565006860307 0 0.085240370224008655 -0.38785291623133339 0 0.086620896756693766 -0.40131421668662021 0 0.078775491834421382 -0.39607359653981228 0 0.069450325871987573 -0.4108656334803118 0 0.070532512082806392 -0.39933024858063942 0 0.052234008351061567 -0.39795270186218951 0 0.070532512082806392 -0.39933024858063942 0 0.074105611659338544 -0.38701695558500909 0 0.052234008351061567 -0.39795270186218951 0 0.078775491834421382 -0.39607359653981228 0 0.070532512082806392 -0.39933024858063942 0 0.074105611659338544 -0.38701695558500909 0 0.069450325871987573 -0.4108656334803118 0 0.075277760725011911 -0.40529565006860307 0 0.070532512082806392 -0.39933024858063942 0 0.078775491834421382 -0.39607359653981228 0 0.075277760725011911 -0.40529565006860307 0 0.070532512082806392 -0.39933024858063942 0 0.074105611659338544 -0.38701695558500909 0 0.052234008351061567 -0.39795270186218951 0 0.063437686561578346 -0.37288323242433341 0 0.052234008351061567 -0.39795270186218951 0 0.020757568517849909 -0.39283471496839201 0 0.029897682088978118 -0.41096667129403253 0 0.052234008351061567 -0.39795270186218951 0 0.033945200452482893 -0.37693146521900001 0 0.020757568517849909 -0.39283471496839201 0 0.048793750419293853 -0.37565268273446778 0 0.052234008351061567 -0.39795270186218951 0 0.063437686561578346 -0.37288323242433341 0 0.048793750419293853 -0.37565268273446778 0 0.052234008351061567 -0.39795270186218951 0 0.033945200452482893 -0.37693146521900001 0 0.052234008351061567 -0.39795270186218951 0 0.033945200452482893 -0.37693146521900001 0 0.033945200452482893 -0.37693146521900001 0 0.020757568517849909 -0.39283471496839201 0 0.013658307244791791 -0.37275130771612131 0 0.0031839916891533652 -0.3828139800537087 0 0.020757568517849909 -0.39283471496839201 0 0.013658307244791791 -0.37275130771612131 0 -0.0050094893333455454 -0.37543182389169721 0 0.0031839916891533652 -0.3828139800537087 0 0.003597586426798294 -0.37204525863827242 0 0.0031839916891533652 -0.3828139800537087 0 0.003597586426798294 -0.37204525863827242 0 0.013658307244791791 -0.37275130771612131 0 0.010116968095337501 -0.39825566022042758 0 0.020757568517849909 -0.39283471496839201 0 0.01292384377616391 -0.41192766207270581 0 0.0031839916891533652 -0.3828139800537087 0 0.010116968095337501 -0.39825566022042758 0 0.020757568517849909 -0.39283471496839201 0 0.001202580214239484 -0.39360862266658431 0 0.010116968095337501 -0.39825566022042758 0 0.0031083600501382591 -0.40643032647008359 0 0.0031839916891533652 -0.3828139800537087 0 0.001202580214239484 -0.39360862266658431 0 0.010116968095337501 -0.39825566022042758 0 0.010116968095337501 -0.39825566022042758 0 0.01292384377616391 -0.41192766207270581 0 0.0031083600501382591 -0.40643032647008359 0 0.020757568517849909 -0.39283471496839201 0 0.01292384377616391 -0.41192766207270581 0 0.020757568517849909 -0.39283471496839201 0 0.029897682088978118 -0.41096667129403253 0 0.01292384377616391 -0.41192766207270581 0 0.029897682088978118 -0.41096667129403253 0 0.020404250330041909 -0.41699563921922173 0 0.01292384377616391 -0.41192766207270581 0 0.029897682088978118 -0.41096667129403253 0 0.020404250330041909 -0.41699563921922173 0 0.024106114826985221 -0.42251621891012942 0 0.029897682088978118 -0.41096667129403253 0 0.024106114826985221 -0.42251621891012942 0 0.033092205995731282 -0.42630174931788578 0 0.020404250330041909 -0.41699563921922173 0 0.01292384377616391 -0.41192766207270581 0 0.014689360628040399 -0.4225720046000192 0 0.020404250330041909 -0.41699563921922173 0 0.014689360628040399 -0.4225720046000192 0 0.024106114826985221 -0.42251621891012942 0 0.01292384377616391 -0.41192766207270581 0 0.0050901190344784866 -0.43102060917701968 0 0.014689360628040399 -0.4225720046000192 0 0.01292384377616391 -0.41192766207270581 0 0.0041951508471665044 -0.41719608301909761 0 0.0050901190344784866 -0.43102060917701968 0 0.01292384377616391 -0.41192766207270581 0 0.0050901190344784866 -0.43102060917701968 0 -0.0043417194721140882 -0.41940573435658168 0 0.0041951508471665044 -0.41719608301909761 0 0.0031083600501382591 -0.40643032647008359 0 0.01292384377616391 -0.41192766207270581 0 0.0041951508471665044 -0.41719608301909761 0 0.0031083600501382591 -0.40643032647008359 0 0.0050901190344784866 -0.43102060917701968 0 0.0084118101604928469 -0.43134762068781762 0 -0.0043417194721140882 -0.41940573435658168 0 0.0041951508471665044 -0.41719608301909761 0 0.0050901190344784866 -0.43102060917701968 0 0.0050901190344784866 -0.43102060917701968 0 0.014689360628040399 -0.4225720046000192 0 0.0084118101604928469 -0.43134762068781762 0 0.014689360628040399 -0.4225720046000192 0 0.01456365484641209 -0.42938106488566558 0 0.0084118101604928469 -0.43134762068781762 0 0.013926842234830501 -0.43300387031209181 0 0.0084118101604928469 -0.43134762068781762 0 0.01166861330515487 -0.43961630934359303 0 0.01456365484641209 -0.42938106488566558 0 0.013926842234830501 -0.43300387031209181 0 0.0084118101604928469 -0.43134762068781762 0 0.0050901190344784866 -0.43102060917701968 0 0.0084118101604928469 -0.43134762068781762 0 0.01166861330515487 -0.43961630934359303 0 0.013926842234830501 -0.43300387031209181 0 0.021063290627262209 -0.43167048633129101 0 0.01166861330515487 -0.43961630934359303 0 0.01456365484641209 -0.42938106488566558 0 0.013926842234830501 -0.43300387031209181 0 0.021063290627262209 -0.43167048633129101 0 0.014689360628040399 -0.4225720046000192 0 0.021063290627262209 -0.43167048633129101 0 0.024106114826985221 -0.42251621891012942 0 0.014689360628040399 -0.4225720046000192 0 0.01456365484641209 -0.42938106488566558 0 0.021063290627262209 -0.43167048633129101 0 0.021063290627262209 -0.43167048633129101 0 0.024106114826985221 -0.42251621891012942 0 0.033092205995731282 -0.42630174931788578 0 0.021063290627262209 -0.43167048633129101 0 0.029215141957677781 -0.43529904359437799 0 0.033092205995731282 -0.42630174931788578 0 0.021063290627262209 -0.43167048633129101 0 0.029215141957677781 -0.43529904359437799 0 0.025032164546118951 -0.44401567061370267 0 0.045068159509479747 -0.42889563871652581 0 0.054738305107791499 -0.43721808393462291 0 0.037672906661598692 -0.43920826811463248 0 0.045068159509479747 -0.42889563871652581 0 0.033092205995731282 -0.42630174931788578 0 0.037672906661598692 -0.43920826811463248 0 0.029215141957677781 -0.43529904359437799 0 0.033092205995731282 -0.42630174931788578 0 0.037672906661598692 -0.43920826811463248 0 0.045068159509479747 -0.42889563871652581 0 0.033092205995731282 -0.42630174931788578 0 0.043572512580322402 -0.41708794455018078 0 0.052234008351061567 -0.39795270186218951 0 0.029897682088978118 -0.41096667129403253 0 0.043572512580322402 -0.41708794455018078 0 0.029897682088978118 -0.41096667129403253 0 0.033092205995731282 -0.42630174931788578 0 0.043572512580322402 -0.41708794455018078 0 0.052234008351061567 -0.39795270186218951 0 0.043572512580322402 -0.41708794455018078 0 0.057669359148548302 -0.42107014613741778 0 0.070728821420333071 -0.41921072175920582 0 0.052234008351061567 -0.39795270186218951 0 0.057669359148548302 -0.42107014613741778 0 0.070728821420333071 -0.41921072175920582 0 0.052234008351061567 -0.39795270186218951 0 0.045068159509479747 -0.42889563871652581 0 0.057669359148548302 -0.42107014613741778 0 0.054738305107791499 -0.43721808393462291 0 0.070728821420333071 -0.41921072175920582 0 0.057669359148548302 -0.42107014613741778 0 0.054738305107791499 -0.43721808393462291 0 0.045068159509479747 -0.42889563871652581 0 0.043572512580322402 -0.41708794455018078 0 0.057669359148548302 -0.42107014613741778 0 0.07085046614274193 -0.44770930362294631 0 0.054738305107791499 -0.43721808393462291 0 0.057646134350172032 -0.45424665235146849 0 0.054738305107791499 -0.43721808393462291 0 0.057646134350172032 -0.45424665235146849 0 0.038747788795246867 -0.45522544611003729 0 0.063646675438631034 -0.47448029456242752 0 0.068163064386583011 -0.46207623335530251 0 0.051457764192532042 -0.46743386496308559 0 0.051457764192532042 -0.46743386496308559 0 0.057646134350172032 -0.45424665235146849 0 0.038747788795246867 -0.45522544611003729 0 0.068163064386583011 -0.46207623335530251 0 0.051457764192532042 -0.46743386496308559 0 0.057646134350172032 -0.45424665235146849 0 0.051457764192532042 -0.46743386496308559 0 0.038747788795246867 -0.45522544611003729 0 0.0334352927869591 -0.46930462340826962 0 0.038747788795246867 -0.45522544611003729 0 0.025433775216982191 -0.45694256434680208 0 0.0334352927869591 -0.46930462340826962 0 0.038747788795246867 -0.45522544611003729 0 0.037672906661598692 -0.43920826811463248 0 0.025032164546118951 -0.44401567061370267 0 0.054738305107791499 -0.43721808393462291 0 0.038747788795246867 -0.45522544611003729 0 0.054738305107791499 -0.43721808393462291 0 0.038747788795246867 -0.45522544611003729 0 0.037672906661598692 -0.43920826811463248 0 0.029215141957677781 -0.43529904359437799 0 0.037672906661598692 -0.43920826811463248 0 0.025032164546118951 -0.44401567061370267 0 0.038747788795246867 -0.45522544611003729 0 0.025032164546118951 -0.44401567061370267 0 0.025433775216982191 -0.45694256434680208 0 0.025032164546118951 -0.44401567061370267 0 0.014673885087863721 -0.45193566913043609 0 0.025433775216982191 -0.45694256434680208 0 0.025032164546118951 -0.44401567061370267 0 0.01166861330515487 -0.43961630934359303 0 0.014673885087863721 -0.45193566913043609 0 0.021063290627262209 -0.43167048633129101 0 0.025032164546118951 -0.44401567061370267 0 0.01166861330515487 -0.43961630934359303 0 -0.004343828094517492 -0.45401373945134632 0 0.0050901190344784866 -0.43102060917701968 0 0.01166861330515487 -0.43961630934359303 0 -0.004343828094517492 -0.45401373945134632 0 0.0050901190344784866 -0.43102060917701968 0 -0.004343828094517492 -0.45401373945134632 0 0.01166861330515487 -0.43961630934359303 0 0.014673885087863721 -0.45193566913043609 0 -0.004343828094517492 -0.45401373945134632 0 0.014673885087863721 -0.45193566913043609 0 0.01587765606243783 -0.46594871132190768 0 -0.004343828094517492 -0.45401373945134632 0 0.01587765606243783 -0.46594871132190768 0 0.0042708629438973321 -0.477985506460534 0 0.01587765606243783 -0.46594871132190768 0 0.025433775216982191 -0.45694256434680208 0 0.0334352927869591 -0.46930462340826962 0 0.014673885087863721 -0.45193566913043609 0 0.01587765606243783 -0.46594871132190768 0 0.025433775216982191 -0.45694256434680208 0 0.01587765606243783 -0.46594871132190768 0 0.021390154532516348 -0.48378558620660361 0 0.0334352927869591 -0.46930462340826962 0 0.01587765606243783 -0.46594871132190768 0 0.021390154532516348 -0.48378558620660361 0 0.0042708629438973321 -0.477985506460534 0 0.021390154532516348 -0.48378558620660361 0 0.0042708629438973321 -0.477985506460534 0 0.002743633780377341 -0.5 0 0.021390154532516348 -0.48378558620660361 0 0.002743633780377341 -0.5 0 0.028698989913262921 -0.5 0 0.021390154532516348 -0.48378558620660361 0 0.028698989913262921 -0.5 0 0.047307140399866998 -0.48568848103305162 0 0.028698989913262921 -0.5 0 0.054654346046148702 -0.50000000000000178 0 0.047307140399866998 -0.48568848103305162 0 0.021390154532516348 -0.48378558620660361 0 0.047307140399866998 -0.48568848103305162 0 0.021390154532516348 -0.48378558620660361 0 0.0334352927869591 -0.46930462340826962 0 0.047307140399866998 -0.48568848103305162 0 0.051457764192532042 -0.46743386496308559 0 0.0334352927869591 -0.46930462340826962 0 0.047307140399866998 -0.48568848103305162 0 0.063646675438631034 -0.47448029456242752 0 0.051457764192532042 -0.46743386496308559 0 0.047307140399866998 -0.48568848103305162 0 0.07322412626721761 -0.48759137585950008 0 0.063646675438631034 -0.47448029456242752 0 0.047307140399866998 -0.48568848103305162 0 0.07322412626721761 -0.48759137585950008 0 0.054654346046148702 -0.50000000000000178 0 0.047307140399866998 -0.48568848103305162 0 0.07322412626721761 -0.48759137585950008 0 0.047307140399866998 -0.48568848103305162 0 0.082167724982066315 -0.29101115547544781 0 0.083101473193182063 -0.27624005106402771 0 0.097316593954173719 -0.28837266541599038 0 0.082167724982066315 -0.29101115547544781 0 0.090864993589652235 -0.29985229679016501 0 0.097316593954173719 -0.28837266541599038 0 0.090864993589652235 -0.29985229679016501 0 0.088639563547441694 -0.31175950522103829 0 0.074301677724487869 -0.30236331844772862 0 0.082167724982066315 -0.29101115547544781 0 0.090864993589652235 -0.29985229679016501 0 0.074301677724487869 -0.30236331844772862 0 0.088639563547441694 -0.31175950522103829 0 0.074301677724487869 -0.30236331844772862 0 0.081490125786857978 -0.31908720403813562 0 0.090864993589652235 -0.29985229679016501 0 0.088639563547441694 -0.31175950522103829 0 0.1002817545530065 -0.3082172840848435 0 0.074301677724487869 -0.30236331844772862 0 0.065500396858221621 -0.30739424628788459 0 0.069256196191781541 -0.31646064782885358 0 0.065500396858221621 -0.30739424628788459 0 0.069256196191781541 -0.31646064782885358 0 0.058080372133334439 -0.31243914555326752 0 0.074301677724487869 -0.30236331844772862 0 0.065500396858221621 -0.30739424628788459 0 0.060129318356000522 -0.29987766841755431 0 0.074301677724487869 -0.30236331844772862 0 0.065253886448835716 -0.28822744565932717 0 0.060129318356000522 -0.29987766841755431 0 0.082167724982066315 -0.29101115547544781 0 0.074301677724487869 -0.30236331844772862 0 0.065253886448835716 -0.28822744565932717 0 0.082167724982066315 -0.29101115547544781 0 0.065253886448835716 -0.28822744565932717 0 0.083101473193182063 -0.27624005106402771 0 0.065253886448835716 -0.28822744565932717 0 0.083101473193182063 -0.27624005106402771 0 0.06564010599939589 -0.2667847321432103 0 0.083828624658512554 -0.25882774161549937 0 0.083101473193182063 -0.27624005106402771 0 0.065253886448835716 -0.28822744565932717 0 0.06564010599939589 -0.2667847321432103 0 0.083101473193182063 -0.27624005106402771 0 0.06564010599939589 -0.2667847321432103 0 0.083828624658512554 -0.25882774161549937 0 0.067957362126402951 -0.24804264243868079 0 0.083828624658512554 -0.25882774161549937 0 0.09746678585382465 -0.25363331107315801 0 0.087783699246396174 -0.24189017989588529 0 0.083828624658512554 -0.25882774161549937 0 0.083101473193182063 -0.27624005106402771 0 0.1010223215318736 -0.26637553307803458 0 0.083101473193182063 -0.27624005106402771 0 0.1010223215318736 -0.26637553307803458 0 0.10641139022678429 -0.27855978456287689 0 0.083101473193182063 -0.27624005106402771 0 0.10641139022678429 -0.27855978456287689 0 0.097316593954173719 -0.28837266541599038 0 0.1010223215318736 -0.26637553307803458 0 0.10641139022678429 -0.27855978456287689 0 0.11861801279902939 -0.2710219053847534 0 0.083828624658512554 -0.25882774161549937 0 0.1010223215318736 -0.26637553307803458 0 0.09746678585382465 -0.25363331107315801 0 0.1010223215318736 -0.26637553307803458 0 0.09746678585382465 -0.25363331107315801 0 0.1140821911866636 -0.25921302570794508 0 0.09746678585382465 -0.25363331107315801 0 0.1140821911866636 -0.25921302570794508 0 0.109735383904699 -0.24624287511435189 0 0.127473526956523 -0.25536252490351707 0 0.1140821911866636 -0.25921302570794508 0 0.109735383904699 -0.24624287511435189 0 0.1010223215318736 -0.26637553307803458 0 0.1140821911866636 -0.25921302570794508 0 0.11861801279902939 -0.2710219053847534 0 0.127473526956523 -0.25536252490351707 0 0.1140821911866636 -0.25921302570794508 0 0.11861801279902939 -0.2710219053847534 0 0.10641139022678429 -0.27855978456287689 0 0.11861801279902939 -0.2710219053847534 0 0.1184946949964554 -0.28629122716633132 0 0.1339883042226577 -0.28096992140485089 0 0.11861801279902939 -0.2710219053847534 0 0.1184946949964554 -0.28629122716633132 0 0.1184946949964554 -0.28629122716633132 0 0.1037275957800813 -0.29835109672331273 0 0.1148577082674538 -0.30239269194700807 0 0.1184946949964554 -0.28629122716633132 0 0.097316593954173719 -0.28837266541599038 0 0.1037275957800813 -0.29835109672331273 0 0.10641139022678429 -0.27855978456287689 0 0.1184946949964554 -0.28629122716633132 0 0.097316593954173719 -0.28837266541599038 0 0.090864993589652235 -0.29985229679016501 0 0.097316593954173719 -0.28837266541599038 0 0.1037275957800813 -0.29835109672331273 0 0.1002817545530065 -0.3082172840848435 0 0.1148577082674538 -0.30239269194700807 0 0.1091369594407926 -0.31861861617178361 0 0.088639563547441694 -0.31175950522103829 0 0.1002817545530065 -0.3082172840848435 0 0.096825633320896748 -0.31738333928343071 0 0.090864993589652235 -0.29985229679016501 0 0.1002817545530065 -0.3082172840848435 0 0.1037275957800813 -0.29835109672331273 0 0.1002817545530065 -0.3082172840848435 0 0.1037275957800813 -0.29835109672331273 0 0.1148577082674538 -0.30239269194700807 0 0.1148577082674538 -0.30239269194700807 0 0.12386135129487701 -0.3143432727957402 0 0.1091369594407926 -0.31861861617178361 0 0.14050308148879351 -0.30657731790618431 0 0.1184946949964554 -0.28629122716633132 0 0.1148577082674538 -0.30239269194700807 0 0.12386135129487701 -0.3143432727957402 0 0.1196631584862892 -0.32523303504599399 0 0.1091369594407926 -0.31861861617178361 0 0.1196631584862892 -0.32523303504599399 0 0.11108164604388469 -0.33601103078446798 0 0.1091369594407926 -0.31861861617178361 0 0.1286883276397652 -0.3326772335246268 0 0.11108164604388469 -0.33601103078446798 0 0.1191047906302566 -0.34688682220090328 0 0.1286883276397652 -0.3326772335246268 0 0.11108164604388469 -0.33601103078446798 0 0.1286883276397652 -0.3326772335246268 0 0.1196631584862892 -0.32523303504599399 0 0.11108164604388469 -0.33601103078446798 0 0.11108164604388469 -0.33601103078446798 0 0.097784649545634053 -0.32781233992561282 0 0.091739176474441866 -0.34000782801919488 0 0.11108164604388469 -0.33601103078446798 0 0.10628344532819289 -0.34896070404520668 0 0.091739176474441866 -0.34000782801919488 0 0.11108164604388469 -0.33601103078446798 0 0.097784649545634053 -0.32781233992561282 0 0.1091369594407926 -0.31861861617178361 0 0.097784649545634053 -0.32781233992561282 0 0.096825633320896748 -0.31738333928343071 0 0.1091369594407926 -0.31861861617178361 0 0.097784649545634053 -0.32781233992561282 0 0.096825633320896748 -0.31738333928343071 0 0.089079610370597112 -0.32263431234309897 0 0.1002817545530065 -0.3082172840848435 0 0.096825633320896748 -0.31738333928343071 0 0.1091369594407926 -0.31861861617178361 0 0.1322362839482141 -0.34994546899427309 0 0.11723425019122601 -0.36683967365594161 0 0.1322362839482141 -0.34994546899427309 0 0.11723425019122601 -0.36683967365594161 0 0.1191047906302566 -0.34688682220090328 0 0.11723425019122601 -0.36683967365594161 0 0.1191047906302566 -0.34688682220090328 0 0.10628344532819289 -0.34896070404520668 0 0.11108164604388469 -0.33601103078446798 0 0.1191047906302566 -0.34688682220090328 0 0.10628344532819289 -0.34896070404520668 0 0.10628344532819289 -0.34896070404520668 0 0.091712835678281063 -0.35591578250146672 0 0.091739176474441866 -0.34000782801919488 0 0.11723425019122601 -0.36683967365594161 0 0.10628344532819289 -0.34896070404520668 0 0.091712835678281063 -0.35591578250146672 0 0.1022322164342373 -0.38373387831760952 0 0.091712835678281063 -0.35591578250146672 0 0.1022322164342373 -0.38373387831760952 0 0.11723425019122601 -0.36683967365594161 0 0.091712835678281063 -0.35591578250146672 0 0.085405054053840745 -0.37362112812438991 0 0.091712835678281063 -0.35591578250146672 0 0.074170967014388314 -0.35879907653924897 0 0.1022322164342373 -0.38373387831760952 0 0.085405054053840745 -0.37362112812438991 0 0.091712835678281063 -0.35591578250146672 0 0.08066776558068231 -0.34421098073280521 0 0.091712835678281063 -0.35591578250146672 0 0.074170967014388314 -0.35879907653924897 0 0.074170967014388314 -0.35879907653924897 0 0.063487899297908268 -0.35237355294397998 0 0.067244727978403196 -0.34224985707389 0 0.074170967014388314 -0.35879907653924897 0 0.074236322369438099 -0.3305811974934888 0 0.067244727978403196 -0.34224985707389 0 0.074170967014388314 -0.35879907653924897 0 0.074236322369438099 -0.3305811974934888 0 0.08066776558068231 -0.34421098073280521 0 0.074170967014388314 -0.35879907653924897 0 0.074236322369438099 -0.3305811974934888 0 0.063487899297908268 -0.35237355294397998 0 0.067244727978403196 -0.34224985707389 0 0.06016661969910482 -0.33927320109795978 0 0.074105611659338544 -0.38701695558500909 0 0.085405054053840745 -0.37362112812438991 0 0.074170967014388314 -0.35879907653924897 0 0.074105611659338544 -0.38701695558500909 0 0.074170967014388314 -0.35879907653924897 0 0.074105611659338544 -0.38701695558500909 0 0.074170967014388314 -0.35879907653924897 0 0.063437686561578346 -0.37288323242433341 0 0.074170967014388314 -0.35879907653924897 0 0.063487899297908268 -0.35237355294397998 0 0.063437686561578346 -0.37288323242433341 0 0.081193454922325103 -0.32809768668532352 0 0.081490125786857978 -0.31908720403813562 0 0.074236322369438099 -0.3305811974934888 0 0.081193454922325103 -0.32809768668532352 0 0.081490125786857978 -0.31908720403813562 0 0.089079610370597112 -0.32263431234309897 0 0.088639563547441694 -0.31175950522103829 0 0.096825633320896748 -0.31738333928343071 0 0.089079610370597112 -0.32263431234309897 0 0.088639563547441694 -0.31175950522103829 0 0.081490125786857978 -0.31908720403813562 0 0.089079610370597112 -0.32263431234309897 0 0.081193454922325103 -0.32809768668532352 0 0.089079610370597112 -0.32263431234309897 0 0.08994922282824952 -0.32963804174330752 0 0.097784649545634053 -0.32781233992561282 0 0.089079610370597112 -0.32263431234309897 0 0.08994922282824952 -0.32963804174330752 0 0.08066776558068231 -0.34421098073280521 0 0.081193454922325103 -0.32809768668532352 0 0.074236322369438099 -0.3305811974934888 0 0.097784649545634053 -0.32781233992561282 0 0.08994922282824952 -0.32963804174330752 0 0.091739176474441866 -0.34000782801919488 0 0.081193454922325103 -0.32809768668532352 0 0.08994922282824952 -0.32963804174330752 0 0.091739176474441866 -0.34000782801919488 0 0.08066776558068231 -0.34421098073280521 0 0.091712835678281063 -0.35591578250146672 0 0.081193454922325103 -0.32809768668532352 0 0.091712835678281063 -0.35591578250146672 0 0.081193454922325103 -0.32809768668532352 0 0.091739176474441866 -0.34000782801919488 0 0.091712835678281063 -0.35591578250146672 0 0.081193454922325103 -0.32809768668532352 0 0.067244727978403196 -0.34224985707389 0 0.064161831511176479 -0.33022225729477228 0 0.06016661969910482 -0.33927320109795978 0 0.074236322369438099 -0.3305811974934888 0 0.064161831511176479 -0.33022225729477228 0 0.067422519493378158 -0.32406272531624442 0 0.074236322369438099 -0.3305811974934888 0 0.067244727978403196 -0.34224985707389 0 0.064161831511176479 -0.33022225729477228 0 0.074301677724487869 -0.30236331844772862 0 0.074236322369438099 -0.3305811974934888 0 0.064161831511176479 -0.33022225729477228 0 0.067422519493378158 -0.32406272531624442 0 0.062305531085846258 -0.31963514699151518 0 0.074301677724487869 -0.30236331844772862 0 0.074236322369438099 -0.3305811974934888 0 0.069256196191781541 -0.31646064782885358 0 0.074236322369438099 -0.3305811974934888 0 0.067422519493378158 -0.32406272531624442 0 0.069256196191781541 -0.31646064782885358 0 0.074301677724487869 -0.30236331844772862 0 0.081490125786857978 -0.31908720403813562 0 0.074236322369438099 -0.3305811974934888 0 0.069256196191781541 -0.31646064782885358 0 0.062305531085846258 -0.31963514699151518 0 0.058080372133334439 -0.31243914555326752 0 0.067422519493378158 -0.32406272531624442 0 0.069256196191781541 -0.31646064782885358 0 0.062305531085846258 -0.31963514699151518 0 0.062305531085846258 -0.31963514699151518 0 0.056440099748201217 -0.32420269223105502 0 0.058080372133334439 -0.31243914555326752 0 0.049839889670750717 -0.31652660783833042 0 0.056440099748201217 -0.32420269223105502 0 0.058080372133334439 -0.31243914555326752 0 0.048994723993661352 -0.32491107625304178 0 0.056440099748201217 -0.32420269223105502 0 0.051972281353275772 -0.33349910069517752 0 0.049839889670750717 -0.31652660783833042 0 0.048994723993661352 -0.32491107625304178 0 0.042043131515857209 -0.32261432773946641 0 0.049839889670750717 -0.31652660783833042 0 0.048994723993661352 -0.32491107625304178 0 0.056440099748201217 -0.32420269223105502 0 0.064161831511176479 -0.33022225729477228 0 0.062305531085846258 -0.31963514699151518 0 0.056440099748201217 -0.32420269223105502 0 0.056440099748201217 -0.32420269223105502 0 0.058185208077939581 -0.33179931282974112 0 0.051972281353275772 -0.33349910069517752 0 0.064161831511176479 -0.33022225729477228 0 0.056440099748201217 -0.32420269223105502 0 0.058185208077939581 -0.33179931282974112 0 0.064161831511176479 -0.33022225729477228 0 0.058185208077939581 -0.33179931282974112 0 0.06016661969910482 -0.33927320109795978 0 0.058185208077939581 -0.33179931282974112 0 0.06016661969910482 -0.33927320109795978 0 0.051972281353275772 -0.33349910069517752 0 0.06016661969910482 -0.33927320109795978 0 0.051972281353275772 -0.33349910069517752 0 0.051588823621612663 -0.3473207097298196 0 0.051972281353275772 -0.33349910069517752 0 0.043318552633971857 -0.33875827635216138 0 0.051588823621612663 -0.3473207097298196 0 0.048994723993661352 -0.32491107625304178 0 0.051972281353275772 -0.33349910069517752 0 0.044336091507509973 -0.32997113394716748 0 0.044336091507509973 -0.32997113394716748 0 0.043318552633971857 -0.33875827635216138 0 0.035180704954427718 -0.3312021292889844 0 0.051972281353275772 -0.33349910069517752 0 0.044336091507509973 -0.32997113394716748 0 0.043318552633971857 -0.33875827635216138 0 0.043318552633971857 -0.33875827635216138 0 0.033865116610911211 -0.34274660822663838 0 0.042260740599639163 -0.34827733525668991 0 0.043318552633971857 -0.33875827635216138 0 0.033865116610911211 -0.34274660822663838 0 0.035180704954427718 -0.3312021292889844 0 0.033865116610911211 -0.34274660822663838 0 0.035180704954427718 -0.3312021292889844 0 0.025457772995489691 -0.33669021930000709 0 0.035180704954427718 -0.3312021292889844 0 0.032067905319242293 -0.32063391831071603 0 0.042043131515857209 -0.32261432773946641 0 0.032067905319242293 -0.32063391831071603 0 0.041466845054747098 -0.31495234202666961 0 0.03368970444649555 -0.30942763984579141 0 0.032067905319242293 -0.32063391831071603 0 0.041466845054747098 -0.31495234202666961 0 0.042043131515857209 -0.32261432773946641 0 0.049839889670750717 -0.31652660783833042 0 0.041466845054747098 -0.31495234202666961 0 0.047180371200464657 -0.30772093576550341 0 0.049839889670750717 -0.31652660783833042 0 0.041466845054747098 -0.31495234202666961 0 0.042043131515857209 -0.32261432773946641 0 0.044336091507509973 -0.32997113394716748 0 0.035180704954427718 -0.3312021292889844 0 0.042043131515857209 -0.32261432773946641 0 0.048994723993661352 -0.32491107625304178 0 0.044336091507509973 -0.32997113394716748 0 0.042043131515857209 -0.32261432773946641 0 0.063487899297908268 -0.35237355294397998 0 0.063437686561578346 -0.37288323242433341 0 0.048751721726647768 -0.35942434170608689 0 0.048793750419293853 -0.37565268273446778 0 0.063437686561578346 -0.37288323242433341 0 0.048751721726647768 -0.35942434170608689 0 0.063487899297908268 -0.35237355294397998 0 0.048751721726647768 -0.35942434170608689 0 0.051588823621612663 -0.3473207097298196 0 0.048751721726647768 -0.35942434170608689 0 0.051588823621612663 -0.3473207097298196 0 0.042260740599639163 -0.34827733525668991 0 0.063487899297908268 -0.35237355294397998 0 0.06016661969910482 -0.33927320109795978 0 0.051588823621612663 -0.3473207097298196 0 0.043318552633971857 -0.33875827635216138 0 0.051588823621612663 -0.3473207097298196 0 0.042260740599639163 -0.34827733525668991 0 0.033865116610911211 -0.34274660822663838 0 0.042260740599639163 -0.34827733525668991 0 0.033779488405052308 -0.35313674026874309 0 0.048751721726647768 -0.35942434170608689 0 0.042260740599639163 -0.34827733525668991 0 0.033779488405052308 -0.35313674026874309 0 0.048751721726647768 -0.35942434170608689 0 0.033779488405052308 -0.35313674026874309 0 0.036185310711476203 -0.36421109170082172 0 0.048793750419293853 -0.37565268273446778 0 0.048751721726647768 -0.35942434170608689 0 0.036185310711476203 -0.36421109170082172 0 0.048793750419293853 -0.37565268273446778 0 0.033945200452482893 -0.37693146521900001 0 0.036185310711476203 -0.36421109170082172 0 0.033945200452482893 -0.37693146521900001 0 0.015656392553904209 -0.35591022857581051 0 0.013658307244791791 -0.37275130771612131 0 0.033945200452482893 -0.37693146521900001 0 0.036185310711476203 -0.36421109170082172 0 0.015656392553904209 -0.35591022857581051 0 0.033945200452482893 -0.37693146521900001 0 0.015656392553904209 -0.35591022857581051 0 0.033779488405052308 -0.35313674026874309 0 0.015656392553904209 -0.35591022857581051 0 0.02402178288657645 -0.34632512504150592 0 0.015656392553904209 -0.35591022857581051 0 0.02402178288657645 -0.34632512504150592 0 0.01643582860441423 -0.33363717362736772 0 0.033779488405052308 -0.35313674026874309 0 0.036185310711476203 -0.36421109170082172 0 0.015656392553904209 -0.35591022857581051 0 0.033865116610911211 -0.34274660822663838 0 0.033779488405052308 -0.35313674026874309 0 0.02402178288657645 -0.34632512504150592 0 -0.0033282650061358548 -0.34830785935861719 0 0.015656392553904209 -0.35591022857581051 0 0.0053989168704140986 -0.35852483083951292 0 -0.0026324153446744621 -0.33488899193262089 0 -0.0033282650061358548 -0.34830785935861719 0 0.015656392553904209 -0.35591022857581051 0 -0.0026324153446744621 -0.33488899193262089 0 0.015656392553904209 -0.35591022857581051 0 -0.0050094893333455454 -0.37543182389169721 0 0.0053989168704140986 -0.35852483083951292 0 0.003597586426798294 -0.37204525863827242 0 0.015656392553904209 -0.35591022857581051 0 0.0053989168704140986 -0.35852483083951292 0 0.013658307244791791 -0.37275130771612131 0 0.0053989168704140986 -0.35852483083951292 0 0.003597586426798294 -0.37204525863827242 0 0.013658307244791791 -0.37275130771612131 0 0.019973109188501599 -0.31864043943695602 0 0.02582306421241511 -0.32816077599280619 0 0.01643582860441423 -0.33363717362736772 0 0.019973109188501599 -0.31864043943695602 0 0.0073378752671417373 -0.31461425796533637 0 0.020529224160928759 -0.30433328982967017 0 0.032067905319242293 -0.32063391831071603 0 0.019973109188501599 -0.31864043943695602 0 0.03368970444649555 -0.30942763984579141 0 0.019973109188501599 -0.31864043943695602 0 0.03368970444649555 -0.30942763984579141 0 0.035180704954427718 -0.3312021292889844 0 0.032067905319242293 -0.32063391831071603 0 0.02582306421241511 -0.32816077599280619 0 0.032067905319242293 -0.32063391831071603 0 0.019973109188501599 -0.31864043943695602 0 0.02582306421241511 -0.32816077599280619 0 0.035180704954427718 -0.3312021292889844 0 0.02582306421241511 -0.32816077599280619 0 0.025457772995489691 -0.33669021930000709 0 0.033865116610911211 -0.34274660822663838 0 0.02402178288657645 -0.34632512504150592 0 0.025457772995489691 -0.33669021930000709 0 0.02402178288657645 -0.34632512504150592 0 0.025457772995489691 -0.33669021930000709 0 0.01643582860441423 -0.33363717362736772 0 0.02582306421241511 -0.32816077599280619 0 0.025457772995489691 -0.33669021930000709 0 0.01643582860441423 -0.33363717362736772 0 -0.0026324153446744621 -0.33488899193262089 0 0.015656392553904209 -0.35591022857581051 0 0.01643582860441423 -0.33363717362736772 0 -0.0026324153446744621 -0.33488899193262089 0 0.01643582860441423 -0.33363717362736772 0 0.0073378752671417373 -0.31461425796533637 0 0.019973109188501599 -0.31864043943695602 0 0.01643582860441423 -0.33363717362736772 0 0.0073378752671417373 -0.31461425796533637 0 -0.001844919636969205 -0.30056216117952528 0 0.0073378752671417373 -0.31461425796533637 0 0.010391002930072399 -0.29938130918615669 0 -0.001844919636969205 -0.30056216117952528 0 0.010391002930072399 -0.29938130918615669 0 0.0072800652247619066 -0.29097928356301223 0 0.0073378752671417373 -0.31461425796533637 0 0.010391002930072399 -0.29938130918615669 0 0.020529224160928759 -0.30433328982967017 0 -0.00099987093679730155 -0.2886206222808092 0 0.0065431382335853321 -0.28300197442120489 0 0.0072800652247619066 -0.29097928356301223 0 -0.00099987093679730155 -0.2886206222808092 0 0.0065431382335853321 -0.28300197442120489 0 0.0030807261057536478 -0.2751904604808319 0 -0.001844919636969205 -0.30056216117952528 0 -0.00099987093679730155 -0.2886206222808092 0 0.0072800652247619066 -0.29097928356301223 0 0.010391002930072399 -0.29938130918615669 0 0.0072800652247619066 -0.29097928356301223 0 0.017954615778697908 -0.29236092301187139 0 0.0072800652247619066 -0.29097928356301223 0 0.01394276507515666 -0.28289556241673058 0 0.017954615778697908 -0.29236092301187139 0 0.0065431382335853321 -0.28300197442120489 0 0.0072800652247619066 -0.29097928356301223 0 0.01394276507515666 -0.28289556241673058 0 0.0065431382335853321 -0.28300197442120489 0 0.01394276507515666 -0.28289556241673058 0 0.01003482763268071 -0.27845172111130467 0 0.01394276507515666 -0.28289556241673058 0 0.017954615778697908 -0.29236092301187139 0 0.025439921250886139 -0.28223412027129502 0 0.017954615778697908 -0.29236092301187139 0 0.031105691070037599 -0.29473649410362418 0 0.025439921250886139 -0.28223412027129502 0 0.031105691070037599 -0.29473649410362418 0 0.025439921250886139 -0.28223412027129502 0 0.036827502706085959 -0.28451931608226683 0 0.017954615778697908 -0.29236092301187139 0 0.031105691070037599 -0.29473649410362418 0 0.020529224160928759 -0.30433328982967017 0 0.010391002930072399 -0.29938130918615669 0 0.017954615778697908 -0.29236092301187139 0 0.020529224160928759 -0.30433328982967017 0 0.031105691070037599 -0.29473649410362418 0 0.020529224160928759 -0.30433328982967017 0 0.03368970444649555 -0.30942763984579141 0 0.019973109188501599 -0.31864043943695602 0 0.020529224160928759 -0.30433328982967017 0 0.03368970444649555 -0.30942763984579141 0 0.031105691070037599 -0.29473649410362418 0 0.03368970444649555 -0.30942763984579141 0 0.047406299704489528 -0.30021484025462702 0 0.03368970444649555 -0.30942763984579141 0 0.047180371200464657 -0.30772093576550341 0 0.047406299704489528 -0.30021484025462702 0 0.041466845054747098 -0.31495234202666961 0 0.03368970444649555 -0.30942763984579141 0 0.047180371200464657 -0.30772093576550341 0 0.03368970444649555 -0.30942763984579141 0 0.047406299704489528 -0.30021484025462702 0 0.036827502706085959 -0.28451931608226683 0 0.047406299704489528 -0.30021484025462702 0 0.04812536704970162 -0.2763250340736752 0 0.031105691070037599 -0.29473649410362418 0 0.036827502706085959 -0.28451931608226683 0 0.047406299704489528 -0.30021484025462702 0 0.047406299704489528 -0.30021484025462702 0 0.04812536704970162 -0.2763250340736752 0 0.065253886448835716 -0.28822744565932717 0 0.060129318356000522 -0.29987766841755431 0 0.047406299704489528 -0.30021484025462702 0 0.065253886448835716 -0.28822744565932717 0 0.047406299704489528 -0.30021484025462702 0 0.04812536704970162 -0.2763250340736752 0 0.065253886448835716 -0.28822744565932717 0 0.047406299704489528 -0.30021484025462702 0 0.065500396858221621 -0.30739424628788459 0 0.060129318356000522 -0.29987766841755431 0 0.055799205457206777 -0.30553354665521559 0 0.065500396858221621 -0.30739424628788459 0 0.058080372133334439 -0.31243914555326752 0 0.055799205457206777 -0.30553354665521559 0 0.049839889670750717 -0.31652660783833042 0 0.058080372133334439 -0.31243914555326752 0 0.047180371200464657 -0.30772093576550341 0 0.058080372133334439 -0.31243914555326752 0 0.055799205457206777 -0.30553354665521559 0 0.047180371200464657 -0.30772093576550341 0 0.047180371200464657 -0.30772093576550341 0 0.047406299704489528 -0.30021484025462702 0 0.055799205457206777 -0.30553354665521559 0 0.047180371200464657 -0.30772093576550341 0 0.047406299704489528 -0.30021484025462702 0 0.060129318356000522 -0.29987766841755431 0 0.055799205457206777 -0.30553354665521559 0 0.047406299704489528 -0.30021484025462702 0 0.06564010599939589 -0.2667847321432103 0 0.048844434394913469 -0.25243522789272338 0 0.04812536704970162 -0.2763250340736752 0 0.048844434394913469 -0.25243522789272338 0 0.04812536704970162 -0.2763250340736752 0 0.06564010599939589 -0.2667847321432103 0 0.048844434394913469 -0.25243522789272338 0 0.067957362126402951 -0.24804264243868079 0 0.065253886448835716 -0.28822744565932717 0 0.06564010599939589 -0.2667847321432103 0 0.04812536704970162 -0.2763250340736752 0 0.036827502706085959 -0.28451931608226683 0 0.04812536704970162 -0.2763250340736752 0 0.032060234455314911 -0.26908609170811287 0 0.04812536704970162 -0.2763250340736752 0 0.032060234455314911 -0.26908609170811287 0 0.041223528450761687 -0.26303171876518749 0 0.025439921250886139 -0.28223412027129502 0 0.036827502706085959 -0.28451931608226683 0 0.032060234455314911 -0.26908609170811287 0 0.032060234455314911 -0.26908609170811287 0 0.041223528450761687 -0.26303171876518749 0 0.035864077903116728 -0.25428052138623869 0 0.048844434394913469 -0.25243522789272338 0 0.04812536704970162 -0.2763250340736752 0 0.041223528450761687 -0.26303171876518749 0 0.048844434394913469 -0.25243522789272338 0 0.041223528450761687 -0.26303171876518749 0 0.035864077903116728 -0.25428052138623869 0 0.032060234455314911 -0.26908609170811287 0 0.035864077903116728 -0.25428052138623869 0 0.02108294135426848 -0.25645710567717278 0 0.032060234455314911 -0.26908609170811287 0 0.02108294135426848 -0.25645710567717278 0 0.01657268111622719 -0.27271888712645109 0 0.025439921250886139 -0.28223412027129502 0 0.032060234455314911 -0.26908609170811287 0 0.01657268111622719 -0.27271888712645109 0 0.01394276507515666 -0.28289556241673058 0 0.025439921250886139 -0.28223412027129502 0 0.01657268111622719 -0.27271888712645109 0 -0.003490582175888074 -0.27322543761972468 0 0.0030807261057536478 -0.2751904604808319 0 0.0079403247909845855 -0.25252705995495828 0 0.02108294135426848 -0.25645710567717278 0 0.0030807261057536478 -0.2751904604808319 0 0.02108294135426848 -0.25645710567717278 0 0.01657268111622719 -0.27271888712645109 0 0.0030807261057536478 -0.2751904604808319 0 0.01394276507515666 -0.28289556241673058 0 0.01657268111622719 -0.27271888712645109 0 0.01003482763268071 -0.27845172111130467 0 0.01657268111622719 -0.27271888712645109 0 0.01003482763268071 -0.27845172111130467 0 0.0030807261057536478 -0.2751904604808319 0 0.0065431382335853321 -0.28300197442120489 0 0.01003482763268071 -0.27845172111130467 0 0.0030807261057536478 -0.2751904604808319 0 0.02108294135426848 -0.25645710567717278 0 0.0030807261057536478 -0.2751904604808319 0 0.0079403247909845855 -0.25252705995495828 0 -0.003490582175888074 -0.27322543761972468 0 0.0079403247909845855 -0.25252705995495828 0 -0.003490582175888074 -0.27322543761972468 0 -0.0039288027152376082 -0.26392206421746622 0 0.0079403247909845855 -0.25252705995495828 0 0.02108294135426848 -0.25645710567717278 0 0.0079403247909845855 -0.25252705995495828 0 0.017274420370164328 -0.24525293989917671 0 -0.00065951357560741657 -0.25674103864514758 0 0.0079403247909845855 -0.25252705995495828 0 0.001002636242770817 -0.2476214239520933 0 -0.0039288027152376082 -0.26392206421746622 0 -0.00065951357560741657 -0.25674103864514758 0 0.0079403247909845855 -0.25252705995495828 0 0.001002636242770817 -0.2476214239520933 0 0.0065536726114704532 -0.23621192714947781 0 0.016851431907141709 -0.2325437946934773 0 0.0079403247909845855 -0.25252705995495828 0 0.016851431907141709 -0.2325437946934773 0 0.01937123175785424 -0.23182868229018999 0 0.001002636242770817 -0.2476214239520933 0 0.016851431907141709 -0.2325437946934773 0 0.0079403247909845855 -0.25252705995495828 0 0.001002636242770817 -0.2476214239520933 0 0.016851431907141709 -0.2325437946934773 0 0.0079403247909845855 -0.25252705995495828 0 0.01937123175785424 -0.23182868229018999 0 0.017274420370164328 -0.24525293989917671 0 0.0079403247909845855 -0.25252705995495828 0 0.01937123175785424 -0.23182868229018999 0 0.001002636242770817 -0.2476214239520933 0 0.0065536726114704532 -0.23621192714947781 0 6.6675371447742771e-05 -0.2376071143510857 0 0.0065536726114704532 -0.23621192714947781 0 6.6675371447742771e-05 -0.2376071143510857 0 0.0034097270499151649 -0.23211242673024021 0 0.01126349432962903 -0.23048536526745719 0 0.01937123175785424 -0.23182868229018999 0 0.0035438792396675911 -0.215861152866546 0 0.01531941124210218 -0.22001696457433359 0 0.01937123175785424 -0.23182868229018999 0 0.0035438792396675911 -0.215861152866546 0 0.01937123175785424 -0.23182868229018999 0 0.0035438792396675911 -0.215861152866546 0 0.0065536726114704532 -0.23621192714947781 0 0.0034097270499151649 -0.23211242673024021 0 0.01126349432962903 -0.23048536526745719 0 0.0034097270499151649 -0.23211242673024021 0 0.0037958381253691388 -0.226356213423825 0 0.01126349432962903 -0.23048536526745719 0 -0.0049798415012361477 -0.2285224919532845 0 0.0034097270499151649 -0.23211242673024021 0 0.0037958381253691388 -0.226356213423825 0 0.0037958381253691388 -0.226356213423825 0 0.01126349432962903 -0.23048536526745719 0 0.0035438792396675911 -0.215861152866546 0 -0.001800744778070993 -0.2222387047670854 0 0.0037958381253691388 -0.226356213423825 0 0.0035438792396675911 -0.215861152866546 0 0.0065536726114704532 -0.23621192714947781 0 0.01126349432962903 -0.23048536526745719 0 0.016851431907141709 -0.2325437946934773 0 0.01126349432962903 -0.23048536526745719 0 0.016851431907141709 -0.2325437946934773 0 0.01937123175785424 -0.23182868229018999 0 0.01937123175785424 -0.23182868229018999 0 0.021867223458092468 -0.23434678004968301 0 0.027191305381494949 -0.22657334882946201 0 0.01937123175785424 -0.23182868229018999 0 0.021867223458092468 -0.23434678004968301 0 0.01937123175785424 -0.23182868229018999 0 0.027474540446553401 -0.21715571328966049 0 0.01531941124210218 -0.22001696457433359 0 0.01937123175785424 -0.23182868229018999 0 0.027474540446553401 -0.21715571328966049 0 0.01937123175785424 -0.23182868229018999 0 0.027191305381494949 -0.22657334882946201 0 0.027474540446553401 -0.21715571328966049 0 0.021867223458092468 -0.23434678004968301 0 0.027191305381494949 -0.22657334882946201 0 0.028529499978006939 -0.2352850947824533 0 0.02108294135426848 -0.25645710567717278 0 0.025074797672510991 -0.2418128173539344 0 0.039085156602783208 -0.23772375087351391 0 0.028529499978006939 -0.2352850947824533 0 0.025074797672510991 -0.2418128173539344 0 0.039085156602783208 -0.23772375087351391 0 0.02108294135426848 -0.25645710567717278 0 0.039085156602783208 -0.23772375087351391 0 0.021867223458092468 -0.23434678004968301 0 0.028529499978006939 -0.2352850947824533 0 0.025074797672510991 -0.2418128173539344 0 0.02108294135426848 -0.25645710567717278 0 0.025074797672510991 -0.2418128173539344 0 0.017274420370164328 -0.24525293989917671 0 0.01937123175785424 -0.23182868229018999 0 0.017274420370164328 -0.24525293989917671 0 0.020769428498639601 -0.23884175949471259 0 0.01937123175785424 -0.23182868229018999 0 0.021867223458092468 -0.23434678004968301 0 0.020769428498639601 -0.23884175949471259 0 0.025074797672510991 -0.2418128173539344 0 0.017274420370164328 -0.24525293989917671 0 0.020769428498639601 -0.23884175949471259 0 0.021867223458092468 -0.23434678004968301 0 0.025074797672510991 -0.2418128173539344 0 0.020769428498639601 -0.23884175949471259 0 0.01027935623694101 -0.19838490123315669 0 0.0051413943394210959 -0.20564009610296011 0 0.022021906669232681 -0.20031641087494129 0 0.0095402670004717735 -0.19016370470472219 0 0.0053200948053638286 -0.19720987933881801 0 0.01027935623694101 -0.19838490123315669 0 -0.0026331348495214381 -0.17964338822667961 0 -0.00223065776861801 -0.1943155930565372 0 0.0095402670004717735 -0.19016370470472219 0 -0.00223065776861801 -0.1943155930565372 0 0.0095402670004717735 -0.19016370470472219 0 0.0053200948053638286 -0.19720987933881801 0 -0.00223065776861801 -0.1943155930565372 0 0.0053200948053638286 -0.19720987933881801 0 0.0051413943394210959 -0.20564009610296011 0 0.0053200948053638286 -0.19720987933881801 0 0.01027935623694101 -0.19838490123315669 0 0.0051413943394210959 -0.20564009610296011 0 0.0095402670004717735 -0.19016370470472219 0 0.01027935623694101 -0.19838490123315669 0 0.022021906669232681 -0.20031641087494129 0 0.01531941124210218 -0.22001696457433359 0 0.0051413943394210959 -0.20564009610296011 0 0.0035438792396675911 -0.215861152866546 0 0.0051413943394210959 -0.20564009610296011 0 0.027474540446553401 -0.21715571328966049 0 0.0051413943394210959 -0.20564009610296011 0 0.027474540446553401 -0.21715571328966049 0 0.022021906669232681 -0.20031641087494129 0 0.01531941124210218 -0.22001696457433359 0 0.0051413943394210959 -0.20564009610296011 0 0.027474540446553401 -0.21715571328966049 0 0.027474540446553401 -0.21715571328966049 0 0.022021906669232681 -0.20031641087494129 0 0.03917833320244464 -0.19596321095598021 0 0.0095402670004717735 -0.19016370470472219 0 0.028033159347308542 -0.18802314465371939 0 0.022021906669232681 -0.20031641087494129 0 0.028033159347308542 -0.18802314465371939 0 0.022021906669232681 -0.20031641087494129 0 0.03917833320244464 -0.19596321095598021 0 0.03917833320244464 -0.19596321095598021 0 0.050099823666839398 -0.21072702547237701 0 0.050636145593553492 -0.19290862923298241 0 0.027474540446553401 -0.21715571328966049 0 0.03917833320244464 -0.19596321095598021 0 0.027474540446553401 -0.21715571328966049 0 0.03917833320244464 -0.19596321095598021 0 0.050099823666839398 -0.21072702547237701 0 0.050099823666839398 -0.21072702547237701 0 0.057676607221870818 -0.20258184534578191 0 0.057809621607642199 -0.21958443181483389 0 0.057676607221870818 -0.20258184534578191 0 0.057809621607642199 -0.21958443181483389 0 0.06900143089836358 -0.21672681688647269 0 0.03917833320244464 -0.19596321095598021 0 0.050636145593553492 -0.19290862923298241 0 0.050882125958333593 -0.17477070862229849 0 0.050099823666839398 -0.21072702547237701 0 0.050636145593553492 -0.19290862923298241 0 0.050099823666839398 -0.21072702547237701 0 0.050636145593553492 -0.19290862923298241 0 0.057676607221870818 -0.20258184534578191 0 0.050636145593553492 -0.19290862923298241 0 0.057676607221870818 -0.20258184534578191 0 0.062551381044271825 -0.18691251050533289 0 0.035864077903116728 -0.25428052138623869 0 0.02108294135426848 -0.25645710567717278 0 0.039085156602783208 -0.23772375087351391 0 0.048844434394913469 -0.25243522789272338 0 0.035864077903116728 -0.25428052138623869 0 0.039085156602783208 -0.23772375087351391 0 0.048844434394913469 -0.25243522789272338 0 0.039085156602783208 -0.23772375087351391 0 0.04956350174012665 -0.2285454217117717 0 0.027474540446553401 -0.21715571328966049 0 0.050099823666839398 -0.21072702547237701 0 0.04956350174012665 -0.2285454217117717 0 0.027191305381494949 -0.22657334882946201 0 0.039085156602783208 -0.23772375087351391 0 0.04956350174012665 -0.2285454217117717 0 0.027474540446553401 -0.21715571328966049 0 0.04956350174012665 -0.2285454217117717 0 0.027191305381494949 -0.22657334882946201 0 0.027474540446553401 -0.21715571328966049 0 0.04956350174012665 -0.2285454217117717 0 0.027191305381494949 -0.22657334882946201 0 0.028529499978006939 -0.2352850947824533 0 0.039085156602783208 -0.23772375087351391 0 0.04956350174012665 -0.2285454217117717 0 0.056503473409723941 -0.23212387217505381 0 0.057470629493748447 -0.23977290028136761 0 0.050099823666839398 -0.21072702547237701 0 0.04956350174012665 -0.2285454217117717 0 0.057809621607642199 -0.21958443181483389 0 0.04956350174012665 -0.2285454217117717 0 0.057809621607642199 -0.21958443181483389 0 0.056503473409723941 -0.23212387217505381 0 0.050099823666839398 -0.21072702547237701 0 0.04956350174012665 -0.2285454217117717 0 0.04956350174012665 -0.2285454217117717 0 0.056503473409723941 -0.23212387217505381 0 0.057809621607642199 -0.21958443181483389 0 0.056503473409723941 -0.23212387217505381 0 0.064216433848061735 -0.22780851379513309 0 0.056503473409723941 -0.23212387217505381 0 0.064484375797575197 -0.23771733718860791 0 0.064216433848061735 -0.22780851379513309 0 0.048844434394913469 -0.25243522789272338 0 0.057470629493748447 -0.23977290028136761 0 0.067957362126402951 -0.24804264243868079 0 0.056503473409723941 -0.23212387217505381 0 0.057470629493748447 -0.23977290028136761 0 0.064484375797575197 -0.23771733718860791 0 0.048844434394913469 -0.25243522789272338 0 0.04956350174012665 -0.2285454217117717 0 0.057470629493748447 -0.23977290028136761 0 0.048844434394913469 -0.25243522789272338 0 0.04956350174012665 -0.2285454217117717 0 0.067957362126402951 -0.24804264243868079 0 0.087783699246396174 -0.24189017989588529 0 0.07328326752700369 -0.23289011091069731 0 0.067957362126402951 -0.24804264243868079 0 0.064484375797575197 -0.23771733718860791 0 0.07328326752700369 -0.23289011091069731 0 0.057470629493748447 -0.23977290028136761 0 0.067957362126402951 -0.24804264243868079 0 0.064484375797575197 -0.23771733718860791 0 0.083828624658512554 -0.25882774161549937 0 0.067957362126402951 -0.24804264243868079 0 0.087783699246396174 -0.24189017989588529 0 0.087783699246396174 -0.24189017989588529 0 0.084585132020976367 -0.2259050266048799 0 0.1009176146999102 -0.22698319494701999 0 0.087783699246396174 -0.24189017989588529 0 0.084585132020976367 -0.2259050266048799 0 0.07328326752700369 -0.23289011091069731 0 0.084585132020976367 -0.2259050266048799 0 0.089646766211663273 -0.21165263165233569 0 0.1009176146999102 -0.22698319494701999 0 0.084585132020976367 -0.2259050266048799 0 0.07328326752700369 -0.23289011091069731 0 0.06900143089836358 -0.21672681688647269 0 0.07328326752700369 -0.23289011091069731 0 0.064216433848061735 -0.22780851379513309 0 0.06900143089836358 -0.21672681688647269 0 0.064484375797575197 -0.23771733718860791 0 0.07328326752700369 -0.23289011091069731 0 0.064216433848061735 -0.22780851379513309 0 0.057809621607642199 -0.21958443181483389 0 0.064216433848061735 -0.22780851379513309 0 0.06900143089836358 -0.21672681688647269 0 0.057676607221870818 -0.20258184534578191 0 0.06900143089836358 -0.21672681688647269 0 0.068377980036355812 -0.19828094383446401 0 0.06900143089836358 -0.21672681688647269 0 0.068377980036355812 -0.19828094383446401 0 0.08156118575268613 -0.1986122842886982 0 0.068377980036355812 -0.19828094383446401 0 0.078422347190701819 -0.18449456791172419 0 0.062551381044271825 -0.18691251050533289 0 0.057676607221870818 -0.20258184534578191 0 0.068377980036355812 -0.19828094383446401 0 0.062551381044271825 -0.18691251050533289 0 0.068377980036355812 -0.19828094383446401 0 0.08156118575268613 -0.1986122842886982 0 0.078422347190701819 -0.18449456791172419 0 0.08156118575268613 -0.1986122842886982 0 0.094830174963023331 -0.1925845500252184 0 0.078422347190701819 -0.18449456791172419 0 0.08156118575268613 -0.1986122842886982 0 0.089646766211663273 -0.21165263165233569 0 0.094830174963023331 -0.1925845500252184 0 0.06900143089836358 -0.21672681688647269 0 0.08156118575268613 -0.1986122842886982 0 0.089646766211663273 -0.21165263165233569 0 0.084585132020976367 -0.2259050266048799 0 0.06900143089836358 -0.21672681688647269 0 0.089646766211663273 -0.21165263165233569 0 0.089646766211663273 -0.21165263165233569 0 0.1116495163645654 -0.2067622286464898 0 0.1009176146999102 -0.22698319494701999 0 0.089646766211663273 -0.21165263165233569 0 0.094830174963023331 -0.1925845500252184 0 0.1116495163645654 -0.2067622286464898 0 0.094830174963023331 -0.1925845500252184 0 0.1116495163645654 -0.2067622286464898 0 0.11220757557585991 -0.18666309338535619 0 0.1116495163645654 -0.2067622286464898 0 0.11220757557585991 -0.18666309338535619 0 0.12897484595150169 -0.18859277311066189 0 0.1116495163645654 -0.2067622286464898 0 0.13409172507483441 -0.20902108578633311 0 0.12897484595150169 -0.18859277311066189 0 0.1116495163645654 -0.2067622286464898 0 0.12095874969038831 -0.22975512840218351 0 0.13409172507483441 -0.20902108578633311 0 0.12095874969038831 -0.22975512840218351 0 0.109735383904699 -0.24624287511435189 0 0.1009176146999102 -0.22698319494701999 0 0.1116495163645654 -0.2067622286464898 0 0.12095874969038831 -0.22975512840218351 0 0.1009176146999102 -0.22698319494701999 0 0.127473526956523 -0.25536252490351707 0 0.12095874969038831 -0.22975512840218351 0 0.109735383904699 -0.24624287511435189 0 0.127473526956523 -0.25536252490351707 0 0.12095874969038831 -0.22975512840218351 0 0.087783699246396174 -0.24189017989588529 0 0.109735383904699 -0.24624287511435189 0 0.1009176146999102 -0.22698319494701999 0 0.09746678585382465 -0.25363331107315801 0 0.087783699246396174 -0.24189017989588529 0 0.109735383904699 -0.24624287511435189 0 0.1129717155978906 -0.1423196020060043 0 0.096260766853318774 -0.16561043101788669 0 0.084638345505144874 -0.14275714066573639 0 0.1129717155978906 -0.1423196020060043 0 0.084638345505144874 -0.14275714066573639 0 0.1006933775434341 -0.1191553603925163 0 0.1129717155978906 -0.1423196020060043 0 0.1196821441677593 -0.11386581421321761 0 0.1129717155978906 -0.1423196020060043 0 0.1196821441677593 -0.11386581421321761 0 0.1313535122320228 -0.128284521826111 0 0.1129717155978906 -0.1423196020060043 0 0.1006933775434341 -0.1191553603925163 0 0.1196821441677593 -0.11386581421321761 0 0.1129717155978906 -0.1423196020060043 0 0.1151534931031888 -0.16878666903563039 0 0.1359549192469828 -0.16511635488435919 0 0.1151534931031888 -0.16878666903563039 0 0.11220757557585991 -0.18666309338535619 0 0.12897484595150169 -0.18859277311066189 0 0.1151534931031888 -0.16878666903563039 0 0.11220757557585991 -0.18666309338535619 0 0.096260766853318774 -0.16561043101788669 0 0.094830174963023331 -0.1925845500252184 0 0.11220757557585991 -0.18666309338535619 0 0.096260766853318774 -0.16561043101788669 0 0.1129717155978906 -0.1423196020060043 0 0.1151534931031888 -0.16878666903563039 0 0.096260766853318774 -0.16561043101788669 0 0.096260766853318774 -0.16561043101788669 0 0.072556814210998882 -0.1680205941685993 0 0.084638345505144874 -0.14275714066573639 0 0.096260766853318774 -0.16561043101788669 0 0.078422347190701819 -0.18449456791172419 0 0.072556814210998882 -0.1680205941685993 0 0.094830174963023331 -0.1925845500252184 0 0.096260766853318774 -0.16561043101788669 0 0.078422347190701819 -0.18449456791172419 0 0.078422347190701819 -0.18449456791172419 0 0.062551381044271825 -0.18691251050533289 0 0.072556814210998882 -0.1680205941685993 0 0.072556814210998882 -0.1680205941685993 0 0.062585918714222505 -0.1535782062886169 0 0.084638345505144874 -0.14275714066573639 0 0.062585918714222505 -0.1535782062886169 0 0.084638345505144874 -0.14275714066573639 0 0.064160303370245711 -0.13150710523555331 0 0.084638345505144874 -0.14275714066573639 0 0.064160303370245711 -0.13150710523555331 0 0.078267406439151366 -0.11247499179500969 0 0.064160303370245711 -0.13150710523555331 0 0.049202231741524487 -0.141531812901108 0 0.050860896171637159 -0.1138227065489916 0 0.062585918714222505 -0.1535782062886169 0 0.064160303370245711 -0.13150710523555331 0 0.049202231741524487 -0.141531812901108 0 0.062585918714222505 -0.1535782062886169 0 0.049202231741524487 -0.141531812901108 0 0.039388385046400992 -0.15443329670341641 0 0.049202231741524487 -0.141531812901108 0 0.039388385046400992 -0.15443329670341641 0 0.031136096489252332 -0.1343939620691616 0 0.049202231741524487 -0.141531812901108 0 0.031136096489252332 -0.1343939620691616 0 0.050860896171637159 -0.1138227065489916 0 0.062551381044271825 -0.18691251050533289 0 0.072556814210998882 -0.1680205941685993 0 0.050882125958333593 -0.17477070862229849 0 0.050636145593553492 -0.19290862923298241 0 0.062551381044271825 -0.18691251050533289 0 0.050882125958333593 -0.17477070862229849 0 0.062585918714222505 -0.1535782062886169 0 0.039388385046400992 -0.15443329670341641 0 0.050882125958333593 -0.17477070862229849 0 0.072556814210998882 -0.1680205941685993 0 0.062585918714222505 -0.1535782062886169 0 0.050882125958333593 -0.17477070862229849 0 0.062585918714222505 -0.1535782062886169 0 0.050882125958333593 -0.17477070862229849 0 0.039388385046400992 -0.15443329670341641 0 0.050882125958333593 -0.17477070862229849 0 0.022844556097661669 -0.175360682434101 0 0.028033159347308542 -0.18802314465371939 0 0.050882125958333593 -0.17477070862229849 0 0.022844556097661669 -0.175360682434101 0 0.028033159347308542 -0.18802314465371939 0 0.03917833320244464 -0.19596321095598021 0 0.050882125958333593 -0.17477070862229849 0 0.03917833320244464 -0.19596321095598021 0 0.050882125958333593 -0.17477070862229849 0 0.0095402670004717735 -0.19016370470472219 0 0.028033159347308542 -0.18802314465371939 0 0.022844556097661669 -0.175360682434101 0 0.022844556097661669 -0.175360682434101 0 0.0079046543420133591 -0.16440801616877129 0 0.01888739033233983 -0.15000370884643979 0 0.039388385046400992 -0.15443329670341641 0 0.022844556097661669 -0.175360682434101 0 0.01888739033233983 -0.15000370884643979 0 -0.0026331348495214381 -0.17964338822667961 0 0.022844556097661669 -0.175360682434101 0 0.0079046543420133591 -0.16440801616877129 0 -0.0026331348495214381 -0.17964338822667961 0 0.022844556097661669 -0.175360682434101 0 -0.0026331348495214381 -0.17964338822667961 0 0.0095402670004717735 -0.19016370470472219 0 0.022844556097661669 -0.175360682434101 0 0.031136096489252332 -0.1343939620691616 0 0.01888739033233983 -0.15000370884643979 0 0.01021660786188318 -0.13215754224063789 0 0.031136096489252332 -0.1343939620691616 0 0.01021660786188318 -0.13215754224063789 0 0.020884102297752768 -0.1163927859187712 0 0.039388385046400992 -0.15443329670341641 0 0.031136096489252332 -0.1343939620691616 0 0.01888739033233983 -0.15000370884643979 0 0.0079046543420133591 -0.16440801616877129 0 0.01888739033233983 -0.15000370884643979 0 0.000430259749712468 -0.14745823775527289 0 0.01888739033233983 -0.15000370884643979 0 0.000430259749712468 -0.14745823775527289 0 0.01021660786188318 -0.13215754224063789 0 -0.0011764143374023801 -0.11412863934658821 0 -0.0088617873603559459 -0.13056791950759369 0 0.01021660786188318 -0.13215754224063789 0 -0.0088617873603559459 -0.13056791950759369 0 0.000430259749712468 -0.14745823775527289 0 0.01021660786188318 -0.13215754224063789 0 -0.0011764143374023801 -0.11412863934658821 0 0.01021660786188318 -0.13215754224063789 0 0.020884102297752768 -0.1163927859187712 0 0.020884102297752768 -0.1163927859187712 0 0.030155988065605679 -0.097672625088569567 0 0.0031724344944426231 -0.090933699647850266 0 -0.0011764143374023801 -0.11412863934658821 0 0.020884102297752768 -0.1163927859187712 0 0.0031724344944426231 -0.090933699647850266 0 0.030155988065605679 -0.097672625088569567 0 0.0031724344944426231 -0.090933699647850266 0 0.013100394177594579 -0.068504286831183855 0 -0.012525151283420429 -0.061144111193753362 0 0.013100394177594579 -0.068504286831183855 0 -0.0036820921910391412 -0.074779930311672529 0 0.0031724344944426231 -0.090933699647850266 0 0.013100394177594579 -0.068504286831183855 0 0.013100394177594579 -0.068504286831183855 0 0.042134780877029557 -0.076623827794744956 0 0.028046071804580502 -0.049708906962831922 0 0.030155988065605679 -0.097672625088569567 0 0.013100394177594579 -0.068504286831183855 0 0.042134780877029557 -0.076623827794744956 0 0.030155988065605679 -0.097672625088569567 0 0.042134780877029557 -0.076623827794744956 0 0.030155988065605679 -0.097672625088569567 0 0.042134780877029557 -0.076623827794744956 0 0.047547969173039627 -0.094049250660829475 0 0.042134780877029557 -0.076623827794744956 0 0.06704021157788613 -0.088077843211011753 0 0.067014190281348085 -0.069266270250487566 0 0.042134780877029557 -0.076623827794744956 0 0.054113573688453452 -0.055575030500920358 0 0.067014190281348085 -0.069266270250487566 0 0.042134780877029557 -0.076623827794744956 0 0.054113573688453452 -0.055575030500920358 0 0.042134780877029557 -0.076623827794744956 0 0.047547969173039627 -0.094049250660829475 0 0.06704021157788613 -0.088077843211011753 0 0.047547969173039627 -0.094049250660829475 0 0.050860896171637159 -0.1138227065489916 0 0.06704021157788613 -0.088077843211011753 0 0.031136096489252332 -0.1343939620691616 0 0.020884102297752768 -0.1163927859187712 0 0.050860896171637159 -0.1138227065489916 0 0.020884102297752768 -0.1163927859187712 0 0.030155988065605679 -0.097672625088569567 0 0.050860896171637159 -0.1138227065489916 0 0.030155988065605679 -0.097672625088569567 0 0.047547969173039627 -0.094049250660829475 0 0.050860896171637159 -0.1138227065489916 0 0.015406173142220409 0.0064609396898271127 0 0.01225169051082995 -0.014050232456615731 0 0.031763877584191129 -0.0062805157547672387 0 0.01225169051082995 -0.014050232456615731 0 0.027686034503715699 -0.02442531326061299 0 0.031763877584191129 -0.0062805157547672387 0 -0.001002805299617866 -0.025814161131358621 0 -0.01107981885403149 0.0016360662863579461 0 0.01225169051082995 -0.014050232456615731 0 -0.01107981885403149 0.0016360662863579461 0 0.015406173142220409 0.0064609396898271127 0 0.01225169051082995 -0.014050232456615731 0 -0.001002805299617866 -0.025814161131358621 0 0.01225169051082995 -0.014050232456615731 0 0.010841108080387921 -0.03507857945440717 0 0.01225169051082995 -0.014050232456615731 0 0.027686034503715699 -0.02442531326061299 0 0.010841108080387921 -0.03507857945440717 0 0.027686034503715699 -0.02442531326061299 0 0.010841108080387921 -0.03507857945440717 0 0.028046071804580502 -0.049708906962831922 0 -0.0074553692504295398 -0.03968401933578676 0 0.010841108080387921 -0.03507857945440717 0 0.002943294537338474 -0.053853420149441403 0 0.010841108080387921 -0.03507857945440717 0 0.002943294537338474 -0.053853420149441403 0 0.028046071804580502 -0.049708906962831922 0 -0.001002805299617866 -0.025814161131358621 0 -0.0074553692504295398 -0.03968401933578676 0 0.010841108080387921 -0.03507857945440717 0 0.013100394177594579 -0.068504286831183855 0 0.002943294537338474 -0.053853420149441403 0 0.028046071804580502 -0.049708906962831922 0 -0.012525151283420429 -0.061144111193753362 0 0.013100394177594579 -0.068504286831183855 0 0.002943294537338474 -0.053853420149441403 0 0.042134780877029557 -0.076623827794744956 0 0.028046071804580502 -0.049708906962831922 0 0.054113573688453452 -0.055575030500920358 0 0.054113573688453452 -0.055575030500920358 0 0.047617736880370951 -0.033127859168209838 0 0.066092366499877306 -0.034526233207095781 0 0.054113573688453452 -0.055575030500920358 0 0.066092366499877306 -0.034526233207095781 0 0.028046071804580502 -0.049708906962831922 0 0.054113573688453452 -0.055575030500920358 0 0.047617736880370951 -0.033127859168209838 0 0.027686034503715699 -0.02442531326061299 0 0.028046071804580502 -0.049708906962831922 0 0.047617736880370951 -0.033127859168209838 0 0.027686034503715699 -0.02442531326061299 0 0.047617736880370951 -0.033127859168209838 0 0.047610485796271002 -0.0143534172142088 0 0.047617736880370951 -0.033127859168209838 0 0.047610485796271002 -0.0143534172142088 0 0.063233544220471422 -0.018966345980970831 0 0.047617736880370951 -0.033127859168209838 0 0.063233544220471422 -0.018966345980970831 0 0.066092366499877306 -0.034526233207095781 0 0.053944165240844943 0.0024058838617552502 0 0.070763749078664451 0.00153649197816739 0 0.062610883133334433 -0.0076012471794317414 0 0.053944165240844943 0.0024058838617552502 0 0.047610485796271002 -0.0143534172142088 0 0.062610883133334433 -0.0076012471794317414 0 0.047610485796271002 -0.0143534172142088 0 0.062610883133334433 -0.0076012471794317414 0 0.063233544220471422 -0.018966345980970831 0 0.027686034503715699 -0.02442531326061299 0 0.047610485796271002 -0.0143534172142088 0 0.031763877584191129 -0.0062805157547672387 0 0.053944165240844943 0.0024058838617552502 0 0.047610485796271002 -0.0143534172142088 0 0.031763877584191129 -0.0062805157547672387 0 0.091196029608631157 0.0095852164545678527 0 0.075497164155096025 -0.0089720185191537044 0 0.078071159311302887 -0.013477435913272129 0 0.091196029608631157 0.0095852164545678527 0 0.078071159311302887 -0.013477435913272129 0 0.091196029608631157 0.0095852164545678527 0 0.091012663953385031 -0.0083648757104847933 0 0.078071159311302887 -0.013477435913272129 0 0.091012663953385031 -0.0083648757104847933 0 0.078071159311302887 -0.013477435913272129 0 0.090700449119389362 -0.018959546043663681 0 0.091012663953385031 -0.0083648757104847933 0 0.090700449119389362 -0.018959546043663681 0 0.098555795319010167 -0.01472959400100823 0 0.070763749078664451 0.00153649197816739 0 0.062610883133334433 -0.0076012471794317414 0 0.075497164155096025 -0.0089720185191537044 0 0.062610883133334433 -0.0076012471794317414 0 0.075497164155096025 -0.0089720185191537044 0 0.063233544220471422 -0.018966345980970831 0 0.075497164155096025 -0.0089720185191537044 0 0.078071159311302887 -0.013477435913272129 0 0.063233544220471422 -0.018966345980970831 0 0.075497164155096025 -0.0089720185191537044 0 0.078071159311302887 -0.013477435913272129 0 0.078071159311302887 -0.013477435913272129 0 0.089235179426694303 -0.033018486833611471 0 0.066092366499877306 -0.034526233207095781 0 0.078071159311302887 -0.013477435913272129 0 0.066092366499877306 -0.034526233207095781 0 0.078071159311302887 -0.013477435913272129 0 0.063233544220471422 -0.018966345980970831 0 0.066092366499877306 -0.034526233207095781 0 0.078071159311302887 -0.013477435913272129 0 0.089235179426694303 -0.033018486833611471 0 0.078071159311302887 -0.013477435913272129 0 0.090700449119389362 -0.018959546043663681 0 0.089235179426694303 -0.033018486833611471 0 0.090700449119389362 -0.018959546043663681 0 0.089235179426694303 -0.033018486833611471 0 0.098338471886810996 -0.024579268011257319 0 0.089235179426694303 -0.033018486833611471 0 0.077795543940996192 -0.052987028145079933 0 0.1003991995420845 -0.052559537753951453 0 0.089235179426694303 -0.033018486833611471 0 0.066092366499877306 -0.034526233207095781 0 0.077795543940996192 -0.052987028145079933 0 0.054113573688453452 -0.055575030500920358 0 0.077795543940996192 -0.052987028145079933 0 0.067014190281348085 -0.069266270250487566 0 0.054113573688453452 -0.055575030500920358 0 0.066092366499877306 -0.034526233207095781 0 0.077795543940996192 -0.052987028145079933 0 0.077795543940996192 -0.052987028145079933 0 0.1003991995420845 -0.052559537753951453 0 0.089918754207519519 -0.072976610324412966 0 0.1003991995420845 -0.052559537753951453 0 0.11813333829344939 -0.059771444279471127 0 0.1117989057073769 -0.072513124038320942 0 0.1003991995420845 -0.052559537753951453 0 0.11813333829344939 -0.059771444279471127 0 0.1204730606486351 -0.044422160425628299 0 0.11813333829344939 -0.059771444279471127 0 0.1223569545114878 -0.068663708341466831 0 0.1331030013074968 -0.05695823862764432 0 0.11813333829344939 -0.059771444279471127 0 0.1204730606486351 -0.044422160425628299 0 0.1331030013074968 -0.05695823862764432 0 0.1003991995420845 -0.052559537753951453 0 0.1204730606486351 -0.044422160425628299 0 0.10986423576559751 -0.034120595009772908 0 0.1204730606486351 -0.044422160425628299 0 0.10986423576559751 -0.034120595009772908 0 0.12343842524433429 -0.02929213569333269 0 0.1003991995420845 -0.052559537753951453 0 0.10986423576559751 -0.034120595009772908 0 0.089235179426694303 -0.033018486833611471 0 0.1003991995420845 -0.052559537753951453 0 0.089235179426694303 -0.033018486833611471 0 0.1003991995420845 -0.052559537753951453 0 0.10986423576559751 -0.034120595009772908 0 0.089235179426694303 -0.033018486833611471 0 0.10986423576559751 -0.034120595009772908 0 0.098338471886810996 -0.024579268011257319 0 0.090700449119389362 -0.018959546043663681 0 0.098338471886810996 -0.024579268011257319 0 0.098555795319010167 -0.01472959400100823 0 0.098338471886810996 -0.024579268011257319 0 0.1067587484038767 -0.020811978670861389 0 0.098555795319010167 -0.01472959400100823 0 0.10986423576559751 -0.034120595009772908 0 0.098338471886810996 -0.024579268011257319 0 0.1067587484038767 -0.020811978670861389 0 0.10986423576559751 -0.034120595009772908 0 0.1193292719891109 -0.015681652265594689 0 0.10986423576559751 -0.034120595009772908 0 0.12343842524433429 -0.02929213569333269 0 0.1193292719891109 -0.015681652265594689 0 0.10986423576559751 -0.034120595009772908 0 0.1067587484038767 -0.020811978670861389 0 0.1193292719891109 -0.015681652265594689 0 0.1067587484038767 -0.020811978670861389 0 0.1193292719891109 -0.015681652265594689 0 0.1072532855503662 -0.011255480972118729 0 0.109810942898761 0.00085303163549272656 0 0.1193292719891109 -0.015681652265594689 0 0.1072532855503662 -0.011255480972118729 0 0.12879430821262439 0.0027572904785835642 0 0.1193292719891109 -0.015681652265594689 0 0.109810942898761 0.00085303163549272656 0 0.12879430821262439 0.0027572904785835642 0 0.1193292719891109 -0.015681652265594689 0 0.109810942898761 0.00085303163549272656 0 0.1072532855503662 -0.011255480972118729 0 0.099116565494595854 -0.0045790823182699008 0 0.091196029608631157 0.0095852164545678527 0 0.091012663953385031 -0.0083648757104847933 0 0.099116565494595854 -0.0045790823182699008 0 0.1067587484038767 -0.020811978670861389 0 0.1072532855503662 -0.011255480972118729 0 0.098555795319010167 -0.01472959400100823 0 0.1072532855503662 -0.011255480972118729 0 0.098555795319010167 -0.01472959400100823 0 0.099116565494595854 -0.0045790823182699008 0 0.091012663953385031 -0.0083648757104847933 0 0.098555795319010167 -0.01472959400100823 0 0.099116565494595854 -0.0045790823182699008 0 0.078267406439151366 -0.11247499179500969 0 0.084332304000698063 -0.089394318496475556 0 0.09634301830844072 -0.10256239991684089 0 0.084638345505144874 -0.14275714066573639 0 0.078267406439151366 -0.11247499179500969 0 0.1006933775434341 -0.1191553603925163 0 0.078267406439151366 -0.11247499179500969 0 0.09634301830844072 -0.10256239991684089 0 0.1006933775434341 -0.1191553603925163 0 0.064160303370245711 -0.13150710523555331 0 0.050860896171637159 -0.1138227065489916 0 0.078267406439151366 -0.11247499179500969 0 0.050860896171637159 -0.1138227065489916 0 0.078267406439151366 -0.11247499179500969 0 0.06704021157788613 -0.088077843211011753 0 0.078267406439151366 -0.11247499179500969 0 0.06704021157788613 -0.088077843211011753 0 0.084332304000698063 -0.089394318496475556 0 0.06704021157788613 -0.088077843211011753 0 0.067014190281348085 -0.069266270250487566 0 0.084332304000698063 -0.089394318496475556 0 0.067014190281348085 -0.069266270250487566 0 0.089918754207519519 -0.072976610324412966 0 0.084332304000698063 -0.089394318496475556 0 0.077795543940996192 -0.052987028145079933 0 0.067014190281348085 -0.069266270250487566 0 0.089918754207519519 -0.072976610324412966 0 0.089918754207519519 -0.072976610324412966 0 0.084332304000698063 -0.089394318496475556 0 0.10455844811416851 -0.088232851584134186 0 0.084332304000698063 -0.089394318496475556 0 0.10455844811416851 -0.088232851584134186 0 0.09634301830844072 -0.10256239991684089 0 0.089918754207519519 -0.072976610324412966 0 0.10455844811416851 -0.088232851584134186 0 0.1117989057073769 -0.072513124038320942 0 0.1003991995420845 -0.052559537753951453 0 0.1117989057073769 -0.072513124038320942 0 0.1003991995420845 -0.052559537753951453 0 0.089918754207519519 -0.072976610324412966 0 0.1117989057073769 -0.072513124038320942 0 0.1003991995420845 -0.052559537753951453 0 0.089918754207519519 -0.072976610324412966 0 0.1117989057073769 -0.072513124038320942 0 0.1223569545114878 -0.068663708341466831 0 0.12639257273762811 -0.085412026420430984 0 0.11813333829344939 -0.059771444279471127 0 0.1117989057073769 -0.072513124038320942 0 0.1223569545114878 -0.068663708341466831 0 0.1117989057073769 -0.072513124038320942 0 0.12319861187266901 -0.092466710322690646 0 0.12639257273762811 -0.085412026420430984 0 0.10455844811416851 -0.088232851584134186 0 0.1117989057073769 -0.072513124038320942 0 0.12319861187266901 -0.092466710322690646 0 0.1117989057073769 -0.072513124038320942 0 0.12319861187266901 -0.092466710322690646 0 0.12319861187266901 -0.092466710322690646 0 0.1196821441677593 -0.11386581421321761 0 0.12639257273762811 -0.085412026420430984 0 0.10455844811416851 -0.088232851584134186 0 0.12319861187266901 -0.092466710322690646 0 0.1098558386415583 -0.10259822342085401 0 0.1196821441677593 -0.11386581421321761 0 0.12639257273762811 -0.085412026420430984 0 0.12319861187266901 -0.092466710322690646 0 0.1098558386415583 -0.10259822342085401 0 0.1196821441677593 -0.11386581421321761 0 0.1098558386415583 -0.10259822342085401 0 0.09634301830844072 -0.10256239991684089 0 0.1006933775434341 -0.1191553603925163 0 0.10455844811416851 -0.088232851584134186 0 0.1098558386415583 -0.10259822342085401 0 0.09634301830844072 -0.10256239991684089 0 0.1098558386415583 -0.10259822342085401 0 0.1006933775434341 -0.1191553603925163 0 0.1196821441677593 -0.11386581421321761 0 0.1196821441677593 -0.11386581421321761 0 0.13615948883974721 -0.1136044421935474 0 0.1313535122320228 -0.128284521826111 0 0.1196821441677593 -0.11386581421321761 0 0.13615948883974721 -0.1136044421935474 0 0.13727479338494419 -0.10487508138129339 0 0.13615948883974721 -0.1136044421935474 0 0.14027787881670811 -0.1230403186481014 0 0.1313535122320228 -0.128284521826111 0 0.14027787881670811 -0.1230403186481014 0 0.14879229423263299 -0.1197550289057458 0 0.14480621996242921 -0.1305172816670013 0 0.13615948883974721 -0.1136044421935474 0 0.14027787881670811 -0.1230403186481014 0 0.14879229423263299 -0.1197550289057458 0 0.13615948883974721 -0.1136044421935474 0 0.14644994460179661 -0.1093926606465002 0 0.14879229423263299 -0.1197550289057458 0 0.156098827099767 -0.112015987347672 0 0.14879229423263299 -0.1197550289057458 0 0.15667045128998111 -0.1195730561907411 0 0.14644994460179661 -0.1093926606465002 0 0.156098827099767 -0.112015987347672 0 0.14879229423263299 -0.1197550289057458 0 0.14879229423263299 -0.1197550289057458 0 0.15667045128998111 -0.1195730561907411 0 0.15662356040999309 -0.12814013835356411 0 0.15324101678789179 -0.10467561173324789 0 0.1433323635284546 -0.098514856424764458 0 0.1653027400692208 -0.10484956080329071 0 0.1433323635284546 -0.098514856424764458 0 0.1653027400692208 -0.10484956080329071 0 0.1539960435825472 -0.098294266973914537 0 0.1433323635284546 -0.098514856424764458 0 0.1653027400692208 -0.10484956080329071 0 0.14949813696907649 -0.095168205844284037 0 0.1539960435825472 -0.098294266973914537 0 0.1433323635284546 -0.098514856424764458 0 0.1539960435825472 -0.098294266973914537 0 0.1538756170118189 -0.091987015561311253 0 0.1594901737720775 -0.094562432777546432 0 0.14949813696907649 -0.095168205844284037 0 0.1539960435825472 -0.098294266973914537 0 0.1538756170118189 -0.091987015561311253 0 0.14644994460179661 -0.1093926606465002 0 0.156098827099767 -0.112015987347672 0 0.15324101678789179 -0.10467561173324789 0 0.14644994460179661 -0.1093926606465002 0 0.15324101678789179 -0.10467561173324789 0 0.1450745295757718 -0.10436455254645149 0 0.15324101678789179 -0.10467561173324789 0 0.1450745295757718 -0.10436455254645149 0 0.1433323635284546 -0.098514856424764458 0 0.14644994460179661 -0.1093926606465002 0 0.1450745295757718 -0.10436455254645149 0 0.13727479338494419 -0.10487508138129339 0 0.1450745295757718 -0.10436455254645149 0 0.1433323635284546 -0.098514856424764458 0 0.13727479338494419 -0.10487508138129339 0 0.1433323635284546 -0.098514856424764458 0 0.1387834704247817 -0.091024497849055558 0 0.1467885237534855 -0.091876684417145887 0 0.14949813696907649 -0.095168205844284037 0 0.1433323635284546 -0.098514856424764458 0 0.1467885237534855 -0.091876684417145887 0 0.1196821441677593 -0.11386581421321761 0 0.13727479338494419 -0.10487508138129339 0 0.13229424386969291 -0.097012843408088537 0 0.1433323635284546 -0.098514856424764458 0 0.13727479338494419 -0.10487508138129339 0 0.13229424386969291 -0.097012843408088537 0 0.1433323635284546 -0.098514856424764458 0 0.13229424386969291 -0.097012843408088537 0 0.1387834704247817 -0.091024497849055558 0 0.1196821441677593 -0.11386581421321761 0 0.13229424386969291 -0.097012843408088537 0 0.12639257273762811 -0.085412026420430984 0 0.13615948883974721 -0.1136044421935474 0 0.14644994460179661 -0.1093926606465002 0 0.13727479338494419 -0.10487508138129339 0 0.13229424386969291 -0.097012843408088537 0 0.13270909115061011 -0.076985757866917096 0 0.13229424386969291 -0.097012843408088537 0 0.1387834704247817 -0.091024497849055558 0 0.13270909115061011 -0.076985757866917096 0 0.13229424386969291 -0.097012843408088537 0 0.12639257273762811 -0.085412026420430984 0 0.13270909115061011 -0.076985757866917096 0 0.14022637623060161 -0.083602921174081982 0 0.1387834704247817 -0.091024497849055558 0 0.13270909115061011 -0.076985757866917096 0 0.14022637623060161 -0.083602921174081982 0 0.13270909115061011 -0.076985757866917096 0 0.13952253300939951 -0.077096241126451706 0 0.13270909115061011 -0.076985757866917096 0 0.13790873078475069 -0.069498554252934025 0 0.1331030013074968 -0.05695823862764432 0 0.12639257273762811 -0.085412026420430984 0 0.1331030013074968 -0.05695823862764432 0 0.1223569545114878 -0.068663708341466831 0 0.12639257273762811 -0.085412026420430984 0 0.1331030013074968 -0.05695823862764432 0 0.12639257273762811 -0.085412026420430984 0 0.13270909115061011 -0.076985757866917096 0 0.1331030013074968 -0.05695823862764432 0 0.13270909115061011 -0.076985757866917096 0 0.1331030013074968 -0.05695823862764432 0 0.13270909115061011 -0.076985757866917096 0 0.13952253300939951 -0.077096241126451706 0 0.13790873078475069 -0.069498554252934025 0 0.13952253300939951 -0.077096241126451706 0 0.13790873078475069 -0.069498554252934025 0 0.14417963171963111 -0.07417229915706719 0 0.13790873078475069 -0.069498554252934025 0 0.14109634230130461 -0.064650887826335324 0 0.13885279006583581 -0.059688627454993343 0 0.1479173143139749 -0.062968791684782921 0 0.1467885237534855 -0.091876684417145887 0 0.1479173143139749 -0.062968791684782921 0 0.14417963171963111 -0.07417229915706719 0 0.1440595017909376 -0.07964647724817002 0 0.1479173143139749 -0.062968791684782921 0 0.15375777065975771 -0.082461275169485482 0 0.16056552343519651 -0.077558596974904859 0 0.1479173143139749 -0.062968791684782921 0 0.14299833150093669 -0.067046190474679898 0 0.14417963171963111 -0.07417229915706719 0 0.1479173143139749 -0.062968791684782921 0 0.14299833150093669 -0.067046190474679898 0 0.1446255168536954 -0.062370179122734029 0 0.1479173143139749 -0.062968791684782921 0 0.1446255168536954 -0.062370179122734029 0 0.14109634230130461 -0.064650887826335324 0 0.14299833150093669 -0.067046190474679898 0 0.1446255168536954 -0.062370179122734029 0 0.13790873078475069 -0.069498554252934025 0 0.14299833150093669 -0.067046190474679898 0 0.14417963171963111 -0.07417229915706719 0 0.13790873078475069 -0.069498554252934025 0 0.14109634230130461 -0.064650887826335324 0 0.14299833150093669 -0.067046190474679898 0 0.13952253300939951 -0.077096241126451706 0 0.14417963171963111 -0.07417229915706719 0 0.1440595017909376 -0.07964647724817002 0 0.1479173143139749 -0.062968791684782921 0 0.1467885237534855 -0.091876684417145887 0 0.15375777065975771 -0.082461275169485482 0 0.1479173143139749 -0.062968791684782921 0 0.1467885237534855 -0.091876684417145887 0 0.1440595017909376 -0.07964647724817002 0 0.14022637623060161 -0.083602921174081982 0 0.1387834704247817 -0.091024497849055558 0 0.1467885237534855 -0.091876684417145887 0 0.14022637623060161 -0.083602921174081982 0 0.1467885237534855 -0.091876684417145887 0 0.1440595017909376 -0.07964647724817002 0 0.14022637623060161 -0.083602921174081982 0 0.13952253300939951 -0.077096241126451706 0 0.1440595017909376 -0.07964647724817002 0 0.15375777065975771 -0.082461275169485482 0 0.1538756170118189 -0.091987015561311253 0 0.16058485092996991 -0.087669875667203537 0 0.1467885237534855 -0.091876684417145887 0 0.15375777065975771 -0.082461275169485482 0 0.1538756170118189 -0.091987015561311253 0 0.14949813696907649 -0.095168205844284037 0 0.1467885237534855 -0.091876684417145887 0 0.1538756170118189 -0.091987015561311253 0 0.1538756170118189 -0.091987015561311253 0 0.16058485092996991 -0.087669875667203537 0 0.1594901737720775 -0.094562432777546432 0 0.16058485092996991 -0.087669875667203537 0 0.1594901737720775 -0.094562432777546432 0 0.1666263207515275 -0.093798420564244367 0 0.15375777065975771 -0.082461275169485482 0 0.16058485092996991 -0.087669875667203537 0 0.16056552343519651 -0.077558596974904859 0 0.16058485092996991 -0.087669875667203537 0 0.16056552343519651 -0.077558596974904859 0 0.1723859723099696 -0.085283702299829303 0 0.16058485092996991 -0.087669875667203537 0 0.1723859723099696 -0.085283702299829303 0 0.1666263207515275 -0.093798420564244367 0 0.1723859723099696 -0.085283702299829303 0 0.17436228447179539 -0.098120177271555531 0 0.1666263207515275 -0.093798420564244367 0 0.1479173143139749 -0.062968791684782921 0 0.17271982607950789 -0.067479122375648487 0 0.1479173143139749 -0.062968791684782921 0 0.16056552343519651 -0.077558596974904859 0 0.17271982607950789 -0.067479122375648487 0 0.16056552343519651 -0.077558596974904859 0 0.17271982607950789 -0.067479122375648487 0 0.1723859723099696 -0.085283702299829303 0 0.17271982607950789 -0.067479122375648487 0 0.19752233784504081 -0.071989453066514109 0 0.17271982607950789 -0.067479122375648487 0 0.1860776241787028 -0.080697809242525592 0 0.19752233784504081 -0.071989453066514109 0 0.17271982607950789 -0.067479122375648487 0 0.1723859723099696 -0.085283702299829303 0 0.1860776241787028 -0.080697809242525592 0 0.1723859723099696 -0.085283702299829303 0 0.18598819426480689 -0.093595509731465215 0 0.17436228447179539 -0.098120177271555531 0 0.1723859723099696 -0.085283702299829303 0 0.1860776241787028 -0.080697809242525592 0 0.18598819426480689 -0.093595509731465215 0 0.1653027400692208 -0.10484956080329071 0 0.19200799711795569 -0.1125494701991253 0 0.17436228447179539 -0.098120177271555531 0 0.1653027400692208 -0.10484956080329071 0 0.19200799711795569 -0.1125494701991253 0 0.18598819426480689 -0.093595509731465215 0 0.17436228447179539 -0.098120177271555531 0 0.19200799711795569 -0.1125494701991253 0 0.1653027400692208 -0.10484956080329071 0 0.19200799711795569 -0.1125494701991253 0 0.17816512380327951 -0.13089032995216299 0 0.16415733588645659 -0.1162837450339682 0 0.1653027400692208 -0.10484956080329071 0 0.17816512380327951 -0.13089032995216299 0 0.1653027400692208 -0.10484956080329071 0 0.17816512380327951 -0.13089032995216299 0 0.16415733588645659 -0.1162837450339682 0 0.16518416572978589 -0.1265037941779372 0 0.17816512380327951 -0.13089032995216299 0 0.16415733588645659 -0.1162837450339682 0 0.16183880861949429 -0.1218913522757023 0 0.16518416572978589 -0.1265037941779372 0 0.16183880861949429 -0.1218913522757023 0 0.15667045128998111 -0.1195730561907411 0 0.15662356040999309 -0.12814013835356411 0 0.16415733588645659 -0.1162837450339682 0 0.16183880861949429 -0.1218913522757023 0 0.15667045128998111 -0.1195730561907411 0 0.156098827099767 -0.112015987347672 0 0.16415733588645659 -0.1162837450339682 0 0.15667045128998111 -0.1195730561907411 0 0.16415733588645659 -0.1162837450339682 0 0.16002153397139429 -0.108985903974736 0 0.1653027400692208 -0.10484956080329071 0 0.156098827099767 -0.112015987347672 0 0.16415733588645659 -0.1162837450339682 0 0.16002153397139429 -0.108985903974736 0 0.15324101678789179 -0.10467561173324789 0 0.16002153397139429 -0.108985903974736 0 0.1653027400692208 -0.10484956080329071 0 0.156098827099767 -0.112015987347672 0 0.15324101678789179 -0.10467561173324789 0 0.16002153397139429 -0.108985903974736 0 0.1539960435825472 -0.098294266973914537 0 0.1594901737720775 -0.094562432777546432 0 0.1633110127301817 -0.1008171735789795 0 0.1539960435825472 -0.098294266973914537 0 0.1633110127301817 -0.1008171735789795 0 0.1653027400692208 -0.10484956080329071 0 0.1594901737720775 -0.094562432777546432 0 0.1633110127301817 -0.1008171735789795 0 0.1666263207515275 -0.093798420564244367 0 0.1633110127301817 -0.1008171735789795 0 0.1674005895056814 -0.099396333054517533 0 0.1666263207515275 -0.093798420564244367 0 0.17436228447179539 -0.098120177271555531 0 0.1674005895056814 -0.099396333054517533 0 0.1653027400692208 -0.10484956080329071 0 0.17436228447179539 -0.098120177271555531 0 0.1674005895056814 -0.099396333054517533 0 0.1666263207515275 -0.093798420564244367 0 0.1633110127301817 -0.1008171735789795 0 0.1674005895056814 -0.099396333054517533 0 0.1653027400692208 -0.10484956080329071 0 0.1633110127301817 -0.1008171735789795 0 0.1653027400692208 -0.10484956080329071 0 0.1503945054321543 0.00047112146520590192 0 0.14956877505942881 -0.020675516251457068 0 0.16247786613315851 -0.01485640745221347 0 0.1503945054321543 0.00047112146520590192 0 0.14956877505942881 -0.020675516251457068 0 0.1503945054321543 0.00047112146520590192 0 0.1437689360485537 -0.0074824166427583929 0 0.14956877505942881 -0.020675516251457068 0 0.1437689360485537 -0.0074824166427583929 0 0.1339757257350431 -0.015837956401863178 0 0.14956877505942881 -0.020675516251457068 0 0.14727149059413749 0.0010579537616636049 0 0.1503945054321543 0.00047112146520590192 0 0.1437689360485537 -0.0074824166427583929 0 0.14727149059413749 0.0010579537616636049 0 0.1437689360485537 -0.0074824166427583929 0 0.13807058767544719 -0.002590351377979395 0 0.12879430821262439 0.0027572904785835642 0 0.1193292719891109 -0.015681652265594689 0 0.1339757257350431 -0.015837956401863178 0 0.12879430821262439 0.0027572904785835642 0 0.13807058767544719 -0.002590351377979395 0 0.1339757257350431 -0.015837956401863178 0 0.1437689360485537 -0.0074824166427583929 0 0.13807058767544719 -0.002590351377979395 0 0.1339757257350431 -0.015837956401863178 0 0.1339757257350431 -0.015837956401863178 0 0.13354983208328519 -0.036398314363804411 0 0.12343842524433429 -0.02929213569333269 0 0.1339757257350431 -0.015837956401863178 0 0.13354983208328519 -0.036398314363804411 0 0.1339757257350431 -0.015837956401863178 0 0.14956877505942881 -0.020675516251457068 0 0.13354983208328519 -0.036398314363804411 0 0.12343842524433429 -0.02929213569333269 0 0.1193292719891109 -0.015681652265594689 0 0.1339757257350431 -0.015837956401863178 0 0.14956877505942881 -0.020675516251457068 0 0.14874304468670169 -0.04182215396811996 0 0.16063596261474281 -0.03088981886548715 0 0.14956877505942881 -0.020675516251457068 0 0.14874304468670169 -0.04182215396811996 0 0.14956877505942881 -0.020675516251457068 0 0.14874304468670169 -0.04182215396811996 0 0.13354983208328519 -0.036398314363804411 0 0.14874304468670169 -0.04182215396811996 0 0.13354983208328519 -0.036398314363804411 0 0.14218305175941401 -0.05206304986447137 0 0.13354983208328519 -0.036398314363804411 0 0.1331030013074968 -0.05695823862764432 0 0.1204730606486351 -0.044422160425628299 0 0.13354983208328519 -0.036398314363804411 0 0.1331030013074968 -0.05695823862764432 0 0.1204730606486351 -0.044422160425628299 0 0.12343842524433429 -0.02929213569333269 0 0.13354983208328519 -0.036398314363804411 0 0.13354983208328519 -0.036398314363804411 0 0.1331030013074968 -0.05695823862764432 0 0.14218305175941401 -0.05206304986447137 0 0.13790873078475069 -0.069498554252934025 0 0.1331030013074968 -0.05695823862764432 0 0.13885279006583581 -0.059688627454993343 0 0.1331030013074968 -0.05695823862764432 0 0.13885279006583581 -0.059688627454993343 0 0.14218305175941401 -0.05206304986447137 0 0.1479173143139749 -0.062968791684782921 0 0.14874304468670169 -0.04182215396811996 0 0.13885279006583581 -0.059688627454993343 0 0.1446255168536954 -0.062370179122734029 0 0.14218305175941401 -0.05206304986447137 0 0.1479173143139749 -0.062968791684782921 0 0.14874304468670169 -0.04182215396811996 0 0.14218305175941401 -0.05206304986447137 0 0.1479173143139749 -0.062968791684782921 0 0.1446255168536954 -0.062370179122734029 0 0.14218305175941401 -0.05206304986447137 0 0.1479173143139749 -0.062968791684782921 0 0.14874304468670169 -0.04182215396811996 0 0.16671524154628789 -0.046599649712727717 0 0.14109634230130461 -0.064650887826335324 0 0.13885279006583581 -0.059688627454993343 0 0.1446255168536954 -0.062370179122734029 0 0.1479173143139749 -0.062968791684782921 0 0.17271982607950789 -0.067479122375648487 0 0.16671524154628789 -0.046599649712727717 0 0.17271982607950789 -0.067479122375648487 0 0.18863156274770301 -0.047880563404649537 0 0.19752233784504081 -0.071989453066514109 0 0.17271982607950789 -0.067479122375648487 0 0.16671524154628789 -0.046599649712727717 0 0.18863156274770301 -0.047880563404649537 0 0.16671524154628789 -0.046599649712727717 0 0.17899214341346389 -0.026749919035614751 0 0.18863156274770301 -0.047880563404649537 0 0.14874304468670169 -0.04182215396811996 0 0.16671524154628789 -0.046599649712727717 0 0.16063596261474281 -0.03088981886548715 0 0.16671524154628789 -0.046599649712727717 0 0.16063596261474281 -0.03088981886548715 0 0.17899214341346389 -0.026749919035614751 0 0.14956877505942881 -0.020675516251457068 0 0.16063596261474281 -0.03088981886548715 0 0.16247786613315851 -0.01485640745221347 0 0.16063596261474281 -0.03088981886548715 0 0.17899214341346389 -0.026749919035614751 0 0.16247786613315851 -0.01485640745221347 0 0.17899214341346389 -0.026749919035614751 0 0.1756498173601061 -0.0042744956596407558 0 0.16247786613315851 -0.01485640745221347 0 0.17899214341346389 -0.026749919035614751 0 0.1756498173601061 -0.0042744956596407558 0 0.20090512928805779 -0.0090201127844871404 0 0.1816648446934781 0.01096575827495024 0 0.1756498173601061 -0.0042744956596407558 0 0.20090512928805779 -0.0090201127844871404 0 0.1503945054321543 0.00047112146520590192 0 0.1756498173601061 -0.0042744956596407558 0 0.16247786613315851 -0.01485640745221347 0 0.1503945054321543 0.00047112146520590192 0 0.1756498173601061 -0.0042744956596407558 0 0.22489898562157759 0.013333890121236831 0 0.20090512928805779 -0.0090201127844871404 0 0.22616044121600959 -0.01376572990933354 0 0.20090512928805779 -0.0090201127844871404 0 0.22616044121600959 -0.01376572990933354 0 0.1756498173601061 -0.0042744956596407558 0 0.20090512928805779 -0.0090201127844871404 0 0.17899214341346389 -0.026749919035614751 0 0.20090512928805779 -0.0090201127844871404 0 0.20200121921331329 -0.02840067049513469 0 0.20090512928805779 -0.0090201127844871404 0 0.20200121921331329 -0.02840067049513469 0 0.22616044121600959 -0.01376572990933354 0 0.20200121921331329 -0.02840067049513469 0 0.21531681940133229 -0.044587027341588453 0 0.22616044121600959 -0.01376572990933354 0 0.20200121921331329 -0.02840067049513469 0 0.21531681940133229 -0.044587027341588453 0 0.18863156274770301 -0.047880563404649537 0 0.17899214341346389 -0.026749919035614751 0 0.20200121921331329 -0.02840067049513469 0 0.18863156274770301 -0.047880563404649537 0 0.21531681940133229 -0.044587027341588453 0 0.18863156274770301 -0.047880563404649537 0 0.19752233784504081 -0.071989453066514109 0 0.21531681940133229 -0.044587027341588453 0 0.23975376712630381 -0.057066258051083833 0 0.2223248496105738 -0.07649978375737973 0 0.26132800399236278 -0.045056464510215673 0 0.23975376712630381 -0.057066258051083833 0 0.2380567425234171 -0.036497849958806748 0 0.21531681940133229 -0.044587027341588453 0 0.2380567425234171 -0.036497849958806748 0 0.22616044121600959 -0.01376572990933354 0 0.21531681940133229 -0.044587027341588453 0 0.23975376712630381 -0.057066258051083833 0 0.2380567425234171 -0.036497849958806748 0 0.25561305250790239 -0.022646727376996412 0 0.2380567425234171 -0.036497849958806748 0 0.22616044121600959 -0.01376572990933354 0 0.25086621734364162 0.0024580881529454729 0 0.25561305250790239 -0.022646727376996412 0 0.22616044121600959 -0.01376572990933354 0 0.2187132541666906 -0.1202493795949604 0 0.19200799711795569 -0.1125494701991253 0 0.20485482461056531 -0.09348188994908771 0 0.2187132541666906 -0.1202493795949604 0 0.20485482461056531 -0.09348188994908771 0 0.23170307405995419 -0.09974831845645063 0 0.2187132541666906 -0.1202493795949604 0 0.19200799711795569 -0.1125494701991253 0 0.2187132541666906 -0.1202493795949604 0 0.19200799711795569 -0.1125494701991253 0 0.20218712585764179 -0.13537363103836941 0 0.18598819426480689 -0.093595509731465215 0 0.19200799711795569 -0.1125494701991253 0 0.20485482461056531 -0.09348188994908771 0 0.1860776241787028 -0.080697809242525592 0 0.19752233784504081 -0.071989453066514109 0 0.20485482461056531 -0.09348188994908771 0 0.1860776241787028 -0.080697809242525592 0 0.18598819426480689 -0.093595509731465215 0 0.20485482461056531 -0.09348188994908771 0 0.21531681940133229 -0.044587027341588453 0 0.19752233784504081 -0.071989453066514109 0 0.2223248496105738 -0.07649978375737973 0 0.19752233784504081 -0.071989453066514109 0 0.2223248496105738 -0.07649978375737973 0 0.19752233784504081 -0.071989453066514109 0 0.20485482461056531 -0.09348188994908771 0 0.2223248496105738 -0.07649978375737973 0 0.20485482461056531 -0.09348188994908771 0 0.2223248496105738 -0.07649978375737973 0 0.23170307405995419 -0.09974831845645063 0 0.2223248496105738 -0.07649978375737973 0 0.24712736137610669 -0.081010114448245338 0 0.23170307405995419 -0.09974831845645063 0 0.23975376712630381 -0.057066258051083833 0 0.2223248496105738 -0.07649978375737973 0 0.24712736137610669 -0.081010114448245338 0 0.25385718178354683 -0.098270239605644127 0 0.24712736137610669 -0.081010114448245338 0 0.23170307405995419 -0.09974831845645063 0 0.2223248496105738 -0.07649978375737973 0 0.24712736137610669 -0.081010114448245338 0 0.25034047180974922 -0.1152942611355 0 0.2187132541666906 -0.1202493795949604 0 0.23170307405995419 -0.09974831845645063 0 0.25385718178354683 -0.098270239605644127 0 0.25034047180974922 -0.1152942611355 0 0.23170307405995419 -0.09974831845645063 0 0.25034047180974922 -0.1152942611355 0 0.2187132541666906 -0.1202493795949604 0 0.23905699070429959 -0.1358943316959024 0 0.25034047180974922 -0.1152942611355 0 0.25754178294737229 -0.13071600479872139 0 0.23905699070429959 -0.1358943316959024 0 0.25677414547938748 -0.14665413897169841 0 0.23905699070429959 -0.1358943316959024 0 0.2444436461762462 -0.1548086980679525 0 0.23905699070429959 -0.1358943316959024 0 0.2444436461762462 -0.1548086980679525 0 0.2296872795790138 -0.15445195283362601 0 0.23905699070429959 -0.1358943316959024 0 0.2296872795790138 -0.15445195283362601 0 0.22003853811424259 -0.13952537342824931 0 0.2296872795790138 -0.15445195283362601 0 0.21054804026356741 -0.1516575719783885 0 0.2175304188186947 -0.1623325971646104 0 0.2296872795790138 -0.15445195283362601 0 0.22003853811424259 -0.13952537342824931 0 0.21054804026356741 -0.1516575719783885 0 0.2187132541666906 -0.1202493795949604 0 0.23905699070429959 -0.1358943316959024 0 0.22003853811424259 -0.13952537342824931 0 0.2187132541666906 -0.1202493795949604 0 0.22003853811424259 -0.13952537342824931 0 0.20218712585764179 -0.13537363103836941 0 0.22003853811424259 -0.13952537342824931 0 0.21054804026356741 -0.1516575719783885 0 0.20218712585764179 -0.13537363103836941 0 0.21054804026356741 -0.1516575719783885 0 0.20218712585764179 -0.13537363103836941 0 0.19102750753733719 -0.15693109910103581 0 0.20218712585764179 -0.13537363103836941 0 0.19102750753733719 -0.15693109910103581 0 0.17816512380327951 -0.13089032995216299 0 0.19200799711795569 -0.1125494701991253 0 0.20218712585764179 -0.13537363103836941 0 0.17816512380327951 -0.13089032995216299 0 0.20140157507369411 -0.1779341031658031 0 0.19107770863046991 -0.18788130374570641 0 0.1837678494475736 -0.17354455973522551 0 0.20140157507369411 -0.1779341031658031 0 0.2027066552549863 -0.1893474832146323 0 0.19107770863046991 -0.18788130374570641 0 0.20140157507369411 -0.1779341031658031 0 0.19102750753733719 -0.15693109910103581 0 0.20884302665824631 -0.17180587748616741 0 0.20140157507369411 -0.1779341031658031 0 0.19102750753733719 -0.15693109910103581 0 0.1837678494475736 -0.17354455973522551 0 0.21054804026356741 -0.1516575719783885 0 0.19102750753733719 -0.15693109910103581 0 0.20698724831946139 -0.16068178643255049 0 0.19102750753733719 -0.15693109910103581 0 0.20884302665824631 -0.17180587748616741 0 0.20698724831946139 -0.16068178643255049 0 0.20140157507369411 -0.1779341031658031 0 0.19102750753733719 -0.15693109910103581 0 0.19102750753733719 -0.15693109910103581 0 0.20884302665824631 -0.17180587748616741 0 0.21054804026356741 -0.1516575719783885 0 0.20698724831946139 -0.16068178643255049 0 0.2175304188186947 -0.1623325971646104 0 0.20884302665824631 -0.17180587748616741 0 0.20698724831946139 -0.16068178643255049 0 0.2175304188186947 -0.1623325971646104 0 0.20884302665824631 -0.17180587748616741 0 0.2175304188186947 -0.1623325971646104 0 0.22260267881067819 -0.17044816048281861 0 0.20884302665824631 -0.17180587748616741 0 0.22665854577915559 -0.18668065587129851 0 0.20884302665824631 -0.17180587748616741 0 0.21320624866248669 -0.18468625840823369 0 0.22665854577915559 -0.18668065587129851 0 0.20140157507369411 -0.1779341031658031 0 0.20884302665824631 -0.17180587748616741 0 0.20653937641235329 -0.1809434305687091 0 0.20884302665824631 -0.17180587748616741 0 0.20653937641235329 -0.1809434305687091 0 0.21320624866248669 -0.18468625840823369 0 0.20653937641235329 -0.1809434305687091 0 0.21320624866248669 -0.18468625840823369 0 0.2027066552549863 -0.1893474832146323 0 0.20140157507369411 -0.1779341031658031 0 0.20653937641235329 -0.1809434305687091 0 0.2027066552549863 -0.1893474832146323 0 0.20884302665824631 -0.17180587748616741 0 0.22497744514600521 -0.17715023891075141 0 0.22665854577915559 -0.18668065587129851 0 0.20884302665824631 -0.17180587748616741 0 0.22497744514600521 -0.17715023891075141 0 0.22260267881067819 -0.17044816048281861 0 0.22497744514600521 -0.17715023891075141 0 0.23244747155841761 -0.1739865030190208 0 0.22260267881067819 -0.17044816048281861 0 0.22497744514600521 -0.17715023891075141 0 0.23244747155841761 -0.1739865030190208 0 0.23380656075062531 -0.1821705884877412 0 0.23380656075062531 -0.1821705884877412 0 0.22665854577915559 -0.18668065587129851 0 0.23082034178519301 -0.19015547986344619 0 0.22497744514600521 -0.17715023891075141 0 0.23380656075062531 -0.1821705884877412 0 0.22665854577915559 -0.18668065587129851 0 0.23380656075062531 -0.1821705884877412 0 0.22665854577915559 -0.18668065587129851 0 0.2296872795790138 -0.15445195283362601 0 0.2175304188186947 -0.1623325971646104 0 0.22764452403413091 -0.16457574418434409 0 0.2175304188186947 -0.1623325971646104 0 0.22260267881067819 -0.17044816048281861 0 0.22764452403413091 -0.16457574418434409 0 0.23244747155841761 -0.1739865030190208 0 0.22764452403413091 -0.16457574418434409 0 0.23818021548090651 -0.16682939412116859 0 0.23244747155841761 -0.1739865030190208 0 0.22260267881067819 -0.17044816048281861 0 0.22764452403413091 -0.16457574418434409 0 0.2296872795790138 -0.15445195283362601 0 0.22764452403413091 -0.16457574418434409 0 0.23818021548090651 -0.16682939412116859 0 0.2568410011366673 -0.16782553471673339 0 0.23818021548090651 -0.16682939412116859 0 0.24458333138207591 -0.1793105664267399 0 0.2568410011366673 -0.16782553471673339 0 0.2444436461762462 -0.1548086980679525 0 0.23818021548090651 -0.16682939412116859 0 0.2444436461762462 -0.1548086980679525 0 0.2296872795790138 -0.15445195283362601 0 0.23818021548090651 -0.16682939412116859 0 0.23380656075062531 -0.1821705884877412 0 0.24458333138207591 -0.1793105664267399 0 0.24034131690518659 -0.18925383220674469 0 0.23380656075062531 -0.1821705884877412 0 0.24034131690518659 -0.18925383220674469 0 0.23082034178519301 -0.19015547986344619 0 0.23244747155841761 -0.1739865030190208 0 0.23380656075062531 -0.1821705884877412 0 0.24458333138207591 -0.1793105664267399 0 0.23244747155841761 -0.1739865030190208 0 0.23818021548090651 -0.16682939412116859 0 0.24458333138207591 -0.1793105664267399 0 0.24458333138207591 -0.1793105664267399 0 0.2483962521489555 -0.1935428095221525 0 0.24034131690518659 -0.18925383220674469 0 0.25690785679394712 -0.18899693046176849 0 0.24458333138207591 -0.1793105664267399 0 0.2483962521489555 -0.1935428095221525 0 0.2569747124512281 -0.21016832620680351 0 0.2483962521489555 -0.1935428095221525 0 0.2431740432123399 -0.19998439230870599 0 0.2483962521489555 -0.1935428095221525 0 0.24034131690518659 -0.18925383220674469 0 0.2431740432123399 -0.19998439230870599 0 0.24034131690518659 -0.18925383220674469 0 0.23539684827424601 -0.19536164596024791 0 0.2431740432123399 -0.19998439230870599 0 0.24034131690518659 -0.18925383220674469 0 0.23539684827424601 -0.19536164596024791 0 0.23082034178519301 -0.19015547986344619 0 0.23444940291833899 -0.20250213478789231 0 0.2431740432123399 -0.19998439230870599 0 0.239191165426027 -0.20555151614544639 0 0.23444940291833899 -0.20250213478789231 0 0.23539684827424601 -0.19536164596024791 0 0.2431740432123399 -0.19998439230870599 0 0.2569747124512281 -0.21016832620680351 0 0.2431740432123399 -0.19998439230870599 0 0.24342862626240189 -0.20932676298128849 0 0.2569747124512281 -0.21016832620680351 0 0.24342862626240189 -0.20932676298128849 0 0.24237410995183159 -0.21818838657027259 0 0.24342862626240189 -0.20932676298128849 0 0.24237410995183159 -0.21818838657027259 0 0.23441395291482089 -0.2117265455558765 0 0.24237410995183159 -0.21818838657027259 0 0.23441395291482089 -0.2117265455558765 0 0.2322108395480838 -0.22485824711670521 0 0.23444940291833899 -0.20250213478789231 0 0.23441395291482089 -0.2117265455558765 0 0.239191165426027 -0.20555151614544639 0 0.2431740432123399 -0.19998439230870599 0 0.24342862626240189 -0.20932676298128849 0 0.239191165426027 -0.20555151614544639 0 0.24342862626240189 -0.20932676298128849 0 0.23441395291482089 -0.2117265455558765 0 0.239191165426027 -0.20555151614544639 0 0.23444940291833899 -0.20250213478789231 0 0.23441395291482089 -0.2117265455558765 0 0.22645932189815471 -0.20677225135471861 0 0.23441395291482089 -0.2117265455558765 0 0.2202152602113891 -0.2151654164812713 0 0.22645932189815471 -0.20677225135471861 0 0.23441395291482089 -0.2117265455558765 0 0.2202152602113891 -0.2151654164812713 0 0.2322108395480838 -0.22485824711670521 0 0.2202152602113891 -0.2151654164812713 0 0.22645932189815471 -0.20677225135471861 0 0.2193285268743263 -0.1996895211809035 0 0.22645932189815471 -0.20677225135471861 0 0.2193285268743263 -0.1996895211809035 0 0.22725623716998211 -0.19687144154059391 0 0.22665854577915559 -0.18668065587129851 0 0.2193285268743263 -0.1996895211809035 0 0.22725623716998211 -0.19687144154059391 0 0.23539684827424601 -0.19536164596024791 0 0.23082034178519301 -0.19015547986344619 0 0.22725623716998211 -0.19687144154059391 0 0.22665854577915559 -0.18668065587129851 0 0.23082034178519301 -0.19015547986344619 0 0.22725623716998211 -0.19687144154059391 0 0.22665854577915559 -0.18668065587129851 0 0.23082034178519301 -0.19015547986344619 0 0.23444940291833899 -0.20250213478789231 0 0.23539684827424601 -0.19536164596024791 0 0.22725623716998211 -0.19687144154059391 0 0.23444940291833899 -0.20250213478789231 0 0.22645932189815471 -0.20677225135471861 0 0.22725623716998211 -0.19687144154059391 0 0.23189612628148359 -0.25216275566727953 0 0.24443541936635649 -0.23116554093704181 0 0.25185667136151929 -0.24251713028608249 0 0.23189612628148359 -0.25216275566727953 0 0.24443541936635649 -0.23116554093704181 0 0.23189612628148359 -0.25216275566727953 0 0.24443541936635649 -0.23116554093704181 0 0.22855849860610911 -0.2376982740697873 0 0.2569747124512281 -0.21016832620680351 0 0.24237410995183159 -0.21818838657027259 0 0.24443541936635649 -0.23116554093704181 0 0.24443541936635649 -0.23116554093704181 0 0.2322108395480838 -0.22485824711670521 0 0.22855849860610911 -0.2376982740697873 0 0.24237410995183159 -0.21818838657027259 0 0.24443541936635649 -0.23116554093704181 0 0.2322108395480838 -0.22485824711670521 0 0.2202152602113891 -0.2151654164812713 0 0.2322108395480838 -0.22485824711670521 0 0.21865917490379161 -0.2310948966338931 0 0.2322108395480838 -0.22485824711670521 0 0.22855849860610911 -0.2376982740697873 0 0.21865917490379161 -0.2310948966338931 0 0.22855849860610911 -0.2376982740697873 0 0.21559093293083001 -0.249209929994017 0 0.21865917490379161 -0.2310948966338931 0 0.23189612628148359 -0.25216275566727953 0 0.22855849860610911 -0.2376982740697873 0 0.21559093293083001 -0.249209929994017 0 0.21559093293083001 -0.249209929994017 0 0.2066704286358495 -0.23686283872877761 0 0.21865917490379161 -0.2310948966338931 0 0.21559093293083001 -0.249209929994017 0 0.2066704286358495 -0.23686283872877761 0 0.19850411860872419 -0.24812436988014369 0 0.2202152602113891 -0.2151654164812713 0 0.21865917490379161 -0.2310948966338931 0 0.20755316836812379 -0.22570279101135271 0 0.2066704286358495 -0.23686283872877761 0 0.20755316836812379 -0.22570279101135271 0 0.195470315111055 -0.23005794565971699 0 0.2066704286358495 -0.23686283872877761 0 0.21865917490379161 -0.2310948966338931 0 0.20755316836812379 -0.22570279101135271 0 0.20755316836812379 -0.22570279101135271 0 0.195470315111055 -0.23005794565971699 0 0.19796344635017221 -0.215270727320722 0 0.1875821811199978 -0.223677360428709 0 0.195470315111055 -0.23005794565971699 0 0.19796344635017221 -0.215270727320722 0 0.1875821811199978 -0.223677360428709 0 0.195470315111055 -0.23005794565971699 0 0.18582476132405801 -0.23498048893064491 0 0.2066704286358495 -0.23686283872877761 0 0.195470315111055 -0.23005794565971699 0 0.19850411860872419 -0.24812436988014369 0 0.195470315111055 -0.23005794565971699 0 0.19850411860872419 -0.24812436988014369 0 0.18582476132405801 -0.23498048893064491 0 0.21320624866248669 -0.18468625840823369 0 0.22665854577915559 -0.18668065587129851 0 0.20443126318260549 -0.20070504483298149 0 0.22665854577915559 -0.18668065587129851 0 0.2193285268743263 -0.1996895211809035 0 0.20443126318260549 -0.20070504483298149 0 0.21320624866248669 -0.18468625840823369 0 0.20443126318260549 -0.20070504483298149 0 0.2027066552549863 -0.1893474832146323 0 0.22665854577915559 -0.18668065587129851 0 0.20443126318260549 -0.20070504483298149 0 0.2202152602113891 -0.2151654164812713 0 0.20443126318260549 -0.20070504483298149 0 0.19796344635017221 -0.215270727320722 0 0.2202152602113891 -0.2151654164812713 0 0.2193285268743263 -0.1996895211809035 0 0.20443126318260549 -0.20070504483298149 0 0.2202152602113891 -0.2151654164812713 0 0.20755316836812379 -0.22570279101135271 0 0.19796344635017221 -0.215270727320722 0 0.20443126318260549 -0.20070504483298149 0 0.19796344635017221 -0.215270727320722 0 0.18220398058605511 -0.21472943379466411 0 0.1875821811199978 -0.223677360428709 0 0.19796344635017221 -0.215270727320722 0 0.18220398058605511 -0.21472943379466411 0 0.20443126318260549 -0.20070504483298149 0 0.18303122218397011 -0.19914909199563249 0 0.18220398058605511 -0.21472943379466411 0 0.20443126318260549 -0.20070504483298149 0 0.18220398058605511 -0.21472943379466411 0 0.20443126318260549 -0.20070504483298149 0 0.19107770863046991 -0.18788130374570641 0 0.18303122218397011 -0.19914909199563249 0 0.20443126318260549 -0.20070504483298149 0 0.2027066552549863 -0.1893474832146323 0 0.19107770863046991 -0.18788130374570641 0 0.19107770863046991 -0.18788130374570641 0 0.18303122218397011 -0.19914909199563249 0 0.1758426090089982 -0.18669335881702279 0 0.18303122218397011 -0.19914909199563249 0 0.17131565987642519 -0.1972112472705525 0 0.1758426090089982 -0.18669335881702279 0 0.18303122218397011 -0.19914909199563249 0 0.17285979515080749 -0.2067535551776496 0 0.17131565987642519 -0.1972112472705525 0 0.18220398058605511 -0.21472943379466411 0 0.17285979515080749 -0.2067535551776496 0 0.1657576965081155 -0.21400238808708599 0 0.18303122218397011 -0.19914909199563249 0 0.18220398058605511 -0.21472943379466411 0 0.17285979515080749 -0.2067535551776496 0 0.17285979515080749 -0.2067535551776496 0 0.1657576965081155 -0.21400238808708599 0 0.16169810757135361 -0.20494852042601649 0 0.1657576965081155 -0.21400238808708599 0 0.16169810757135361 -0.20494852042601649 0 0.15204990124285669 -0.21482660828075339 0 0.16169810757135361 -0.20494852042601649 0 0.16055948421488939 -0.18813407974069399 0 0.1471744078336141 -0.19840891372270611 0 0.16169810757135361 -0.20494852042601649 0 0.16055948421488939 -0.18813407974069399 0 0.17131565987642519 -0.1972112472705525 0 0.16055948421488939 -0.18813407974069399 0 0.17131565987642519 -0.1972112472705525 0 0.1758426090089982 -0.18669335881702279 0 0.17285979515080749 -0.2067535551776496 0 0.16169810757135361 -0.20494852042601649 0 0.17131565987642519 -0.1972112472705525 0 0.17229173267516701 -0.24960307528722739 0 0.18582476132405801 -0.23498048893064491 0 0.17644840222864869 -0.22334820643779671 0 0.17229173267516701 -0.24960307528722739 0 0.17644840222864869 -0.22334820643779671 0 0.19850411860872419 -0.24812436988014369 0 0.17229173267516701 -0.24960307528722739 0 0.18582476132405801 -0.23498048893064491 0 0.18220398058605511 -0.21472943379466411 0 0.17644840222864869 -0.22334820643779671 0 0.15997669798950481 -0.22875382275634679 0 0.1875821811199978 -0.223677360428709 0 0.18582476132405801 -0.23498048893064491 0 0.17644840222864869 -0.22334820643779671 0 0.1875821811199978 -0.223677360428709 0 0.18220398058605511 -0.21472943379466411 0 0.17644840222864869 -0.22334820643779671 0 0.17229173267516701 -0.24960307528722739 0 0.17644840222864869 -0.22334820643779671 0 0.15997669798950481 -0.22875382275634679 0 0.18220398058605511 -0.21472943379466411 0 0.1657576965081155 -0.21400238808708599 0 0.15997669798950481 -0.22875382275634679 0 0.18220398058605511 -0.21472943379466411 0 0.15997669798950481 -0.22875382275634679 0 0.1657576965081155 -0.21400238808708599 0 0.15997669798950481 -0.22875382275634679 0 0.15204990124285669 -0.21482660828075339 0 0.17229173267516701 -0.24960307528722739 0 0.15997669798950481 -0.22875382275634679 0 0.15442881530101629 -0.2478343658160625 0 0.15997669798950481 -0.22875382275634679 0 0.15442881530101629 -0.2478343658160625 0 0.13774941539295449 -0.24277821171802949 0 0.15997669798950481 -0.22875382275634679 0 0.13774941539295449 -0.24277821171802949 0 0.14252071954862611 -0.25372535972677868 0 0.15442881530101629 -0.2478343658160625 0 0.13774941539295449 -0.24277821171802949 0 0.15997669798950481 -0.22875382275634679 0 0.1412683996558092 -0.22506053779445659 0 0.13774941539295449 -0.24277821171802949 0 0.15997669798950481 -0.22875382275634679 0 0.1412683996558092 -0.22506053779445659 0 0.15204990124285669 -0.21482660828075339 0 0.12095874969038831 -0.22975512840218351 0 0.1412683996558092 -0.22506053779445659 0 0.13774941539295449 -0.24277821171802949 0 0.12095874969038831 -0.22975512840218351 0 0.1412683996558092 -0.22506053779445659 0 0.13409172507483441 -0.20902108578633311 0 0.127473526956523 -0.25536252490351707 0 0.12095874969038831 -0.22975512840218351 0 0.13774941539295449 -0.24277821171802949 0 0.16055948421488939 -0.18813407974069399 0 0.1471744078336141 -0.19840891372270611 0 0.14459778333931281 -0.18279876509397491 0 0.1471744078336141 -0.19840891372270611 0 0.15204990124285669 -0.21482660828075339 0 0.13409172507483441 -0.20902108578633311 0 0.16169810757135361 -0.20494852042601649 0 0.1471744078336141 -0.19840891372270611 0 0.15204990124285669 -0.21482660828075339 0 0.1412683996558092 -0.22506053779445659 0 0.15204990124285669 -0.21482660828075339 0 0.13409172507483441 -0.20902108578633311 0 0.1471744078336141 -0.19840891372270611 0 0.13409172507483441 -0.20902108578633311 0 0.12897484595150169 -0.18859277311066189 0 0.1471744078336141 -0.19840891372270611 0 0.12897484595150169 -0.18859277311066189 0 0.14459778333931281 -0.18279876509397491 0 0.12897484595150169 -0.18859277311066189 0 0.14459778333931281 -0.18279876509397491 0 0.1359549192469828 -0.16511635488435919 0 0.1151534931031888 -0.16878666903563039 0 0.12897484595150169 -0.18859277311066189 0 0.1359549192469828 -0.16511635488435919 0 0.16055948421488939 -0.18813407974069399 0 0.15416841254242039 -0.17245883673390799 0 0.14459778333931281 -0.18279876509397491 0 0.15416841254242039 -0.17245883673390799 0 0.14459778333931281 -0.18279876509397491 0 0.1359549192469828 -0.16511635488435919 0 0.15416841254242039 -0.17245883673390799 0 0.1359549192469828 -0.16511635488435919 0 0.15655521579068771 -0.15693582591037361 0 0.1129717155978906 -0.1423196020060043 0 0.1359549192469828 -0.16511635488435919 0 0.1387820160062482 -0.1439171181043338 0 0.1387820160062482 -0.1439171181043338 0 0.1313535122320228 -0.128284521826111 0 0.14480621996242921 -0.1305172816670013 0 0.1129717155978906 -0.1423196020060043 0 0.1387820160062482 -0.1439171181043338 0 0.1313535122320228 -0.128284521826111 0 0.14027787881670811 -0.1230403186481014 0 0.1313535122320228 -0.128284521826111 0 0.14480621996242921 -0.1305172816670013 0 0.1387820160062482 -0.1439171181043338 0 0.14480621996242921 -0.1305172816670013 0 0.15482805341574651 -0.14043490399202871 0 0.14480621996242921 -0.1305172816670013 0 0.15482805341574651 -0.14043490399202871 0 0.15662356040999309 -0.12814013835356411 0 0.14879229423263299 -0.1197550289057458 0 0.14480621996242921 -0.1305172816670013 0 0.15662356040999309 -0.12814013835356411 0 0.1387820160062482 -0.1439171181043338 0 0.15482805341574651 -0.14043490399202871 0 0.15655521579068771 -0.15693582591037361 0 0.1359549192469828 -0.16511635488435919 0 0.1387820160062482 -0.1439171181043338 0 0.15655521579068771 -0.15693582591037361 0 0.1658405788046747 -0.14790536564014051 0 0.17369505863144799 -0.15928608952988149 0 0.15655521579068771 -0.15693582591037361 0 0.15482805341574651 -0.14043490399202871 0 0.1658405788046747 -0.14790536564014051 0 0.15655521579068771 -0.15693582591037361 0 0.15482805341574651 -0.14043490399202871 0 0.1658405788046747 -0.14790536564014051 0 0.16513599992970601 -0.1353134052742884 0 0.16513599992970601 -0.1353134052742884 0 0.1780817537335212 -0.14612225218766259 0 0.1658405788046747 -0.14790536564014051 0 0.16513599992970601 -0.1353134052742884 0 0.1780817537335212 -0.14612225218766259 0 0.15662356040999309 -0.12814013835356411 0 0.16513599992970601 -0.1353134052742884 0 0.16518416572978589 -0.1265037941779372 0 0.16183880861949429 -0.1218913522757023 0 0.15662356040999309 -0.12814013835356411 0 0.16518416572978589 -0.1265037941779372 0 0.15482805341574651 -0.14043490399202871 0 0.15662356040999309 -0.12814013835356411 0 0.16513599992970601 -0.1353134052742884 0 0.16513599992970601 -0.1353134052742884 0 0.16518416572978589 -0.1265037941779372 0 0.17816512380327951 -0.13089032995216299 0 0.16513599992970601 -0.1353134052742884 0 0.17816512380327951 -0.13089032995216299 0 0.1780817537335212 -0.14612225218766259 0 0.19102750753733719 -0.15693109910103581 0 0.17816512380327951 -0.13089032995216299 0 0.1780817537335212 -0.14612225218766259 0 0.19102750753733719 -0.15693109910103581 0 0.17816512380327951 -0.13089032995216299 0 0.19102750753733719 -0.15693109910103581 0 0.1780817537335212 -0.14612225218766259 0 0.17369505863144799 -0.15928608952988149 0 0.1658405788046747 -0.14790536564014051 0 0.1780817537335212 -0.14612225218766259 0 0.17369505863144799 -0.15928608952988149 0 0.19102750753733719 -0.15693109910103581 0 0.1780817537335212 -0.14612225218766259 0 0.19102750753733719 -0.15693109910103581 0 0.17369505863144799 -0.15928608952988149 0 0.1837678494475736 -0.17354455973522551 0 0.17369505863144799 -0.15928608952988149 0 0.1837678494475736 -0.17354455973522551 0 0.16785231662418951 -0.1734126343231274 0 0.1837678494475736 -0.17354455973522551 0 0.1758426090089982 -0.18669335881702279 0 0.16785231662418951 -0.1734126343231274 0 0.19107770863046991 -0.18788130374570641 0 0.1837678494475736 -0.17354455973522551 0 0.1758426090089982 -0.18669335881702279 0 0.16055948421488939 -0.18813407974069399 0 0.15416841254242039 -0.17245883673390799 0 0.16785231662418951 -0.1734126343231274 0 0.16055948421488939 -0.18813407974069399 0 0.1758426090089982 -0.18669335881702279 0 0.16785231662418951 -0.1734126343231274 0 0.15416841254242039 -0.17245883673390799 0 0.16785231662418951 -0.1734126343231274 0 0.15655521579068771 -0.15693582591037361 0 0.17369505863144799 -0.15928608952988149 0 0.16785231662418951 -0.1734126343231274 0 0.15655521579068771 -0.15693582591037361 0 
</DataArray>
</Points>
<Cells>
<DataArray type="UInt32" Name="connectivity" format="ascii">
0 1 2 3 4 5 6 7 8 9 10 11 12 13 14 15 16 17 18 19 20 21 22 23 24 25 26 27 28 29 30 31 32 33 34 35 36 37 38 39 40 41 42 43 44 45 46 47 48 49 50 51 52 53 54 55 56 57 58 59 60 61 62 63 64 65 66 67 68 69 70 71 72 73 74 75 76 77 78 79 80 81 82 83 84 85 86 87 88 89 90 91 92 93 94 95 96 97 98 99 100 101 102 103 104 105 106 107 108 109 110 111 112 113 114 115 116 117 118 119 120 121 122 123 124 125 126 127 128 129 130 131 132 133 134 135 136 137 138 139 140 141 142 143 144 145 146 147 148 149 150 151 152 153 154 155 156 157 158 159 160 161 162 163 164 165 166 167 168 169 170 171 172 173 174 175 176 177 178 179 180 181 182 183 184 185 186 187 188 189 190 191 192 193 194 195 196 197 198 199 200 201 202 203 204 205 206 207 208 209 210 211 212 213 214 215 216 217 218 219 220 221 222 223 224 225 226 227 228 229 230 231 232 233 234 235 236 237 238 239 240 241 242 243 244 245 246 247 248 249 250 251 252 253 254 255 256 257 258 259 260 261 262 263 264 265 266 267 268 269 270 271 272 273 274 275 276 277 278 279 280 281 282 283 284 285 286 287 288 289 290 291 292 293 294 295 296 297 298 299 300 301 302 303 304 305 306 307 308 309 310 311 312 313 314 315 316 317 318 319 320 321 322 323 324 325 326 327 328 329 330 331 332 333 334 335 336 337 338 339 340 341 342 343 344 345 346 347 348 349 350 351 352 353 354 355 356 357 358 359 360 361 362 363 364 365 366 367 368 369 370 371 372 373 374 375 376 377 378 379 380 381 382 383 384 385 386 387 388 389 390 391 392 393 394 395 396 397 398 399 400 401 402 403 404 405 406 407 408 409 410 411 412 413 414 415 416 417 418 419 420 421 422 423 424 425 426 427 428 429 430 431 432 433 434 435 436 437 438 439 440 441 442 443 444 445 446 447 448 449 450 451 452 453 454 455 456 457 458 459 460 461 462 463 464 465 466 467 468 469 470 471 472 473 474 475 476 477 478 479 480 481 482 483 484 485 486 487 488 489 490 491 492 493 494 495 496 497 498 499 500 501 502 503 504 505 506 507 508 509 510 511 512 513 514 515 516 517 518 519 520 521 522 523 524 525 526 527 528 529 530 531 532 533 534 535 536 537 538 539 540 541 542 543 544 545 546 547 548 549 550 551 552 553 554 555 556 557 558 559 560 561 562 563 564 565 566 567 568 569 570 571 572 573 574 575 576 577 578 579 580 581 582 583 584 585 586 587 588 589 590 591 592 593 594 595 596 597 598 599 600 601 602 603 604 605 606 607 608 609 610 611 612 613 614 615 616 617 618 619 620 621 622 623 624 625 626 627 628 629 630 631 632 633 634 635 636 637 638 639 640 641 642 643 644 645 646 647 648 649 650 651 652 653 654 655 656 657 658 659 660 661 662 663 664 665 666 667 668 669 670 671 672 673 674 675 676 677 678 679 680 681 682 683 684 685 686 687 688 689 690 691 692 693 694 695 696 697 698 699 700 701 702 703 704 705 706 707 708 709 710 711 712 713 714 715 716 717 718 719 720 721 722 723 724 725 726 727 728 729 730 731 732 733 734 735 736 737 738 739 740 741 742 743 744 745 746 747 748 749 750 751 752 753 754 755 756 757 758 759 760 761 762 763 764 765 766 767 768 769 770 771 772 773 774 775 776 777 778 779 780 781 782 783 784 785 786 787 788 789 790 791 792 793 794 795 796 797 798 799 800 801 802 803 804 805 806 807 808 809 810 811 812 813 814 815 816 817 818 819 820 821 822 823 824 825 826 827 828 829 830 831 832 833 834 835 836 837 838 839 840 841 842 843 844 845 846 847 848 849 850 851 852 853 854 855 856 857 858 859 860 861 862 863 864 865 866 867 868 869 870 871 872 873 874 875 876 877 878 879 880 881 882 883 884 885 886 887 888 889 890 891 892 893 894 895 896 897 898 899 900 901 902 903 904 905 906 907 908 909 910 911 912 913 914 915 916 917 918 919 920 921 922 923 924 925 926 927 928 929 930 931 932 933 934 935 936 937 938 939 940 941 942 943 944 945 946 947 948 949 950 951 952 953 954 955 956 957 958 959 960 961 962 963 964 965 966 967 968 969 970 971 972 973 974 975 976 977 978 979 980 981 982 983 984 985 986 987 988 989 990 991 992 993 994 995 996 997 998 999 1000 1001 1002 1003 1004 1005 1006 1007 1008 1009 1010 1011 1012 1013 1014 1015 1016 1017 1018 1019 1020 1021 1022 1023 1024 1025 1026 1027 1028 1029 1030 1031 1032 1033 1034 1035 1036 1037 1038 1039 1040 1041 1042 1043 1044 1045 1046 1047 1048 1049 1050 1051 1052 1053 1054 1055 1056 1057 1058 1059 1060 1061 1062 1063 1064 1065 1066 1067 1068 1069 1070 1071 1072 1073 1074 1075 1076 1077 1078 1079 1080 1081 1082 1083 1084 1085 1086 1087 1088 1089 1090 1091 1092 1093 1094 1095 1096 1097 1098 1099 1100 1101 1102 1103 1104 1105 1106 1107 1108 1109 1110 1111 1112 1113 1114 1115 1116 1117 1118 1119 1120 1121 1122 1123 1124 1125 1126 1127 1128 1129 1130 1131 1132 1133 1134 1135 1136 1137 1138 1139 1140 1141 1142 1143 1144 1145 1146 1147 1148 1149 1150 1151 1152 1153 1154 1155 1156 1157 1158 1159 1160 1161 1162 1163 1164 1165 1166 1167 1168 1169 1170 1171 1172 1173 1174 1175 1176 1177 1178 1179 1180 1181 1182 1183 1184 1185 1186 1187 1188 1189 1190 1191 1192 1193 1194 1195 1196 1197 1198 1199 1200 1201 1202 1203 1204 1205 1206 1207 1208 1209 1210 1211 1212 1213 1214 1215 1216 1217 1218 1219 1220 1221 1222 1223 1224 1225 1226 1227 1228 1229 1230 1231 1232 1233 1234 1235 1236 1237 1238 1239 1240 1241 1242 1243 1244 1245 1246 1247 1248 1249 1250 1251 1252 1253 1254 1255 1256 1257 1258 1259 1260 1261 1262 1263 1264 1265 1266 1267 1268 1269 1270 1271 1272 1273 1274 1275 1276 1277 1278 1279 1280 1281 1282 1283 1284 1285 1286 1287 1288 1289 1290 1291 1292 1293 1294 1295 1296 1297 1298 1299 1300 1301 1302 1303 1304 1305 1306 1307 1308 1309 1310 1311 1312 1313 1314 1315 1316 1317 1318 1319 1320 1321 1322 1323 1324 1325 1326 1327 1328 1329 1330 1331 1332 1333 1334 1335 1336 1337 1338 1339 1340 1341 1342 1343 1344 1345 1346 1347 1348 1349 1350 1351 1352 1353 1354 1355 1356 1357 1358 1359 1360 1361 1362 1363 1364 1365 1366 1367 1368 1369 1370 1371 1372 1373 1374 1375 1376 1377 1378 1379 1380 1381 1382 1383 1384 1385 1386 1387 1388 1389 1390 1391 1392 1393 1394 1395 1396 1397 1398 1399 1400 1401 1402 1403 1404 1405 1406 1407 1408 1409 1410 1411 1412 1413 1414 1415 1416 1417 1418 1419 1420 1421 1422 1423 1424 1425 1426 1427 1428 1429 1430 1431 1432 1433 1434 1435 1436 1437 1438 1439 1440 1441 1442 1443 1444 1445 1446 1447 1448 1449 1450 1451 1452 1453 1454 1455 1456 1457 1458 1459 1460 1461 1462 1463 1464 1465 1466 1467 1468 1469 1470 1471 1472 1473 1474 1475 1476 1477 1478 1479 1480 1481 1482 1483 1484 1485 1486 1487 1488 1489 1490 1491 1492 1493 1494 1495 1496 1497 1498 1499 1500 1501 1502 1503 1504 1505 1506 1507 1508 1509 1510 1511 1512 1513 1514 1515 1516 1517 1518 1519 1520 1521 1522 1523 1524 1525 1526 1527 1528 1529 1530 1531 1532 1533 1534 1535 1536 1537 1538 1539 1540 1541 1542 1543 1544 1545 1546 1547 1548 1549 1550 1551 1552 1553 1554 1555 1556 1557 1558 1559 1560 1561 1562 1563 1564 1565 1566 1567 1568 1569 1570 1571 1572 1573 1574 1575 1576 1577 1578 1579 1580 1581 1582 1583 1584 1585 1586 1587 1588 1589 1590 1591 1592 1593 1594 1595 1596 1597 1598 1599 1600 1601 1602 1603 1604 1605 1606 1607 1608 1609 1610 1611 1612 1613 1614 1615 1616 1617 1618 1619 1620 1621 1622 1623 1624 1625 1626 1627 1628 1629 1630 1631 1632 1633 1634 1635 1636 1637 1638 1639 1640 1641 1642 1643 1644 1645 1646 1647 1648 1649 1650 1651 1652 1653 1654 1655 1656 1657 1658 1659 1660 1661 1662 1663 1664 1665 1666 1667 1668 1669 1670 1671 1672 1673 1674 1675 1676 1677 1678 1679 1680 1681 1682 1683 1684 1685 1686 1687 1688 1689 1690 1691 1692 1693 1694 1695 1696 1697 1698 1699 1700 1701 1702 1703 1704 1705 1706 1707 1708 1709 1710 1711 1712 1713 1714 1715 1716 1717 1718 1719 1720 1721 1722 1723 1724 1725 1726 1727 1728 1729 1730 1731 1732 1733 1734 1735 1736 1737 1738 1739 1740 1741 1742 1743 1744 1745 1746 1747 1748 1749 1750 1751 1752 1753 1754 1755 1756 1757 1758 1759 1760 1761 1762 1763 1764 1765 1766 1767 1768 1769 1770 1771 1772 1773 1774 1775 1776 1777 1778 1779 1780 1781 1782 1783 1784 1785 1786 1787 1788 1789 1790 1791 1792 1793 1794 1795 1796 1797 1798 1799 1800 1801 1802 1803 1804 1805 1806 1807 1808 1809 1810 1811 1812 1813 1814 1815 1816 1817 1818 1819 1820 1821 1822 1823 1824 1825 1826 1827 1828 1829 1830 1831 1832 1833 1834 1835 1836 1837 1838 1839 1840 1841 1842 1843 1844 1845 1846 1847 1848 1849 1850 1851 1852 1853 1854 1855 1856 1857 1858 1859 1860 1861 1862 1863 1864 1865 1866 1867 1868 1869 1870 1871 1872 1873 1874 1875 1876 1877 1878 1879 1880 1881 1882 1883 1884 1885 1886 1887 1888 1889 1890 1891 1892 1893 1894 1895 1896 1897 1898 1899 1900 1901 1902 1903 1904 1905 1906 1907 1908 1909 1910 1911 1912 1913 1914 1915 1916 1917 1918 1919 1920 1921 1922 1923 1924 1925 1926 1927 1928 1929 1930 1931 1932 1933 1934 1935 1936 1937 1938 1939 1940 1941 1942 1943 1944 1945 1946 1947 1948 1949 1950 1951 1952 1953 1954 1955 1956 1957 1958 1959 1960 1961 1962 1963 1964 1965 1966 1967 1968 1969 1970 1971 1972 1973 1974 1975 1976 1977 1978 1979 1980 1981 1982 1983 1984 1985 1986 1987 1988 1989 1990 1991 1992 1993 1994 1995 1996 1997 1998 1999 2000 2001 2002 2003 2004 2005 2006 2007 2008 2009 2010 2011 2012 2013 2014 2015 2016 2017 2018 2019 2020 2021 2022 2023 2024 2025 2026 2027 2028 2029 2030 2031 2032 2033 2034 2035 2036 2037 2038 2039 2040 2041 2042 2043 2044 2045 2046 2047 2048 2049 2050 2051 2052 2053 2054 2055 2056 2057 2058 2059 2060 2061 2062 2063 2064 2065 2066 2067 2068 2069 2070 2071 2072 2073 2074 2075 2076 2077 2078 2079 2080 2081 2082 2083 2084 2085 2086 2087 2088 2089 2090 2091 2092 2093 2094 2095 2096 2097 2098 2099 2100 2101 2102 2103 2104 2105 2106 2107 2108 2109 2110 2111 2112 2113 2114 2115 2116 2117 2118 2119 2120 2121 2122 2123 2124 2125 2126 2127 2128 2129 2130 2131 2132 2133 2134 2135 2136 2137 2138 2139 2140 2141 2142 2143 2144 2145 2146 2147 2148 2149 2150 2151 2152 2153 2154 2155 2156 2157 2158 2159 2160 2161 2162 2163 2164 2165 2166 2167 2168 2169 2170 2171 2172 2173 2174 2175 2176 2177 2178 2179 2180 2181 2182 2183 2184 2185 2186 2187 2188 2189 2190 2191 2192 2193 2194 2195 2196 2197 2198 2199 2200 2201 2202 2203 2204 2205 2206 2207 2208 2209 2210 2211 2212 2213 2214 2215 2216 2217 2218 2219 2220 2221 2222 2223 2224 2225 2226 2227 2228 2229 2230 2231 2232 2233 2234 2235 2236 2237 2238 2239 2240 2241 2242 2243 2244 2245 2246 2247 2248 2249 2250 2251 2252 2253 2254 2255 2256 2257 2258 2259 2260 2261 2262 2263 2264 2265 2266 2267 2268 2269 2270 2271 2272 2273 2274 2275 2276 2277 2278 2279 2280 2281 2282 2283 2284 2285 2286 2287 2288 2289 2290 2291 2292 2293 2294 2295 2296 2297 2298 2299 2300 2301 2302 2303 2304 2305 2306 2307 2308 2309 2310 2311 2312 2313 2314 2315 2316 2317 2318 2319 2320 2321 2322 2323 2324 2325 2326 2327 2328 2329 2330 2331 2332 2333 2334 2335 2336 2337 2338 2339 2340 2341 2342 2343 2344 2345 2346 2347 2348 2349 2350 2351 2352 2353 2354 2355 2356 2357 2358 2359 2360 2361 2362 2363 2364 2365 2366 2367 2368 2369 2370 2371 2372 2373 2374 2375 2376 2377 2378 2379 2380 2381 2382 2383 2384 2385 2386 2387 2388 2389 2390 2391 2392 2393 2394 2395 2396 2397 2398 2399 2400 2401 2402 2403 2404 2405 2406 2407 2408 2409 2410 2411 2412 2413 2414 2415 2416 2417 2418 2419 2420 2421 2422 2423 2424 2425 2426 2427 2428 2429 2430 2431 2432 2433 2434 2435 2436 2437 2438 2439 2440 2441 2442 2443 2444 2445 2446 2447 2448 2449 2450 2451 2452 2453 2454 2455 2456 2457 2458 2459 2460 2461 2462 2463 2464 2465 2466 2467 2468 2469 2470 2471 2472 2473 2474 2475 2476 2477 2478 2479 2480 2481 2482 2483 2484 2485 2486 2487 2488 2489 2490 2491 2492 2493 2494 2495 2496 2497 2498 2499 2500 2501 2502 2503 2504 2505 2506 2507 2508 2509 2510 2511 2512 2513 2514 2515 2516 2517 2518 2519 2520 2521 2522 2523 2524 2525 2526 2527 2528 2529 2530 2531 2532 2533 2534 2535 2536 2537 2538 2539 2540 2541 2542 2543 2544 2545 2546 2547 2548 2549 2550 2551 2552 2553 2554 2555 2556 2557 2558 2559 2560 2561 2562 2563 2564 2565 2566 2567 2568 2569 2570 2571 2572 2573 2574 2575 2576 2577 2578 2579 2580 2581 2582 2583 2584 2585 2586 2587 2588 2589 2590 2591 2592 2593 2594 2595 2596 2597 2598 2599 2600 2601 2602 2603 2604 2605 2606 2607 2608 2609 2610 2611 2612 2613 2614 2615 2616 2617 2618 2619 2620 2621 2622 2623 2624 2625 2626 2627 2628 2629 2630 2631 2632 2633 2634 2635 2636 2637 2638 2639 2640 2641 2642 2643 2644 2645 2646 2647 2648 2649 2650 2651 2652 2653 2654 2655 2656 2657 2658 2659 2660 2661 2662 2663 2664 2665 2666 2667 2668 2669 2670 2671 2672 2673 2674 2675 2676 2677 2678 2679 2680 2681 2682 2683 2684 2685 2686 2687 2688 2689 2690 2691 2692 2693 2694 2695 2696 2697 2698 2699 2700 2701 2702 2703 2704 2705 2706 2707 2708 2709 2710 2711 2712 2713 2714 2715 2716 2717 2718 2719 2720 2721 2722 2723 2724 2725 2726 2727 2728 2729 2730 2731 2732 2733 2734 2735 2736 2737 2738 2739 2740 2741 2742 2743 2744 2745 2746 2747 2748 2749 2750 2751 2752 2753 2754 2755 2756 2757 2758 2759 2760 2761 2762 2763 2764 2765 2766 2767 2768 2769 2770 2771 2772 2773 2774 2775 2776 2777 2778 2779 2780 2781 2782 2783 2784 2785 2786 2787 2788 2789 2790 2791 2792 2793 2794 2795 2796 2797 2798 2799 2800 2801 2802 2803 2804 2805 2806 2807 2808 2809 2810 2811 2812 2813 2814 2815 2816 2817 2818 2819 2820 2821 2822 2823 2824 2825 2826 2827 2828 2829 2830 2831 2832 2833 2834 2835 2836 2837 2838 2839 2840 2841 2842 2843 2844 2845 2846 2847 2848 2849 2850 2851 2852 2853 2854 2855 2856 2857 2858 2859 2860 2861 2862 2863 2864 2865 2866 2867 2868 2869 2870 2871 2872 2873 2874 2875 2876 2877 2878 2879 2880 2881 2882 2883 2884 2885 2886 2887 2888 2889 2890 2891 2892 2893 2894 2895 2896 2897 2898 2899 2900 2901 2902 2903 2904 2905 2906 2907 2908 2909 2910 2911 2912 2913 2914 2915 2916 2917 2918 2919 2920 2921 2922 2923 2924 2925 2926 2927 2928 2929 2930 2931 2932 2933 2934 2935 2936 2937 2938 2939 2940 2941 2942 2943 2944 2945 2946 2947 2948 2949 2950 2951 2952 2953 2954 2955 2956 2957 2958 2959 2960 2961 2962 2963 2964 2965 2966 2967 2968 2969 2970 2971 2972 2973 2974 2975 2976 2977 2978 2979 2980 2981 2982 2983 2984 2985 2986 2987 2988 2989 2990 2991 2992 2993 2994 2995 2996 2997 2998 2999 3000 3001 3002 3003 3004 3005 3006 3007 3008 3009 3010 3011 3012 3013 3014 3015 3016 3017 3018 3019 3020 3021 3022 3023 3024 3025 3026 3027 3028 3029 3030 3031 3032 3033 3034 3035 3036 3037 3038 3039 3040 3041 3042 3043 3044 3045 3046 3047 3048 3049 3050 3051 3052 3053 3054 3055 3056 3057 3058 3059 3060 3061 3062 3063 3064 3065 3066 3067 3068 3069 3070 3071 3072 3073 3074 3075 3076 3077 3078 3079 3080 3081 3082 3083 3084 3085 3086 3087 3088 3089 3090 3091 3092 3093 3094 3095 3096 3097 3098 3099 3100 3101 3102 3103 3104 3105 3106 3107 3108 3109 3110 3111 3112 3113 3114 3115 3116 3117 3118 3119 3120 3121 3122 3123 3124 3125 3126 3127 3128 3129 3130 3131 3132 3133 3134 3135 3136 3137 3138 3139 3140 3141 3142 3143 3144 3145 3146 3147 3148 3149 3150 3151 3152 3153 3154 3155 3156 3157 3158 3159 3160 3161 3162 3163 3164 3165 3166 3167 3168 3169 3170 3171 3172 3173 3174 3175 3176 3177 3178 3179 3180 3181 3182 3183 3184 3185 3186 3187 3188 3189 3190 3191 3192 3193 3194 3195 3196 3197 3198 3199 3200 3201 3202 3203 3204 3205 3206 3207 3208 3209 3210 3211 3212 3213 3214 3215 3216 3217 3218 3219 3220 3221 3222 3223 3224 3225 3226 3227 3228 3229 3230 3231 3232 3233 3234 3235 3236 3237 3238 3239 3240 3241 3242 3243 3244 3245 3246 3247 3248 3249 3250 3251 3252 3253 3254 3255 3256 3257 3258 3259 3260 3261 3262 3263 3264 3265 3266 3267 3268 3269 3270 3271 3272 3273 3274 3275 3276 3277 3278 3279 3280 3281 3282 3283 3284 3285 3286 3287 3288 3289 3290 3291 3292 3293 3294 3295 3296 3297 3298 3299 3300 3301 3302 3303 3304 3305 3306 3307 3308 3309 3310 3311 3312 3313 3314 3315 3316 3317 3318 3319 3320 3321 3322 3323 3324 3325 3326 3327 3328 3329 3330 3331 3332 3333 3334 3335 3336 3337 3338 3339 3340 3341 3342 3343 3344 3345 3346 3347 3348 3349 3350 3351 3352 3353 3354 3355 3356 3357 3358 3359 3360 3361 3362 3363 3364 3365 3366 3367 3368 3369 3370 3371 3372 3373 3374 3375 3376 3377 3378 3379 3380 3381 3382 3383 3384 3385 3386 3387 3388 3389 3390 3391 3392 3393 3394 3395 3396 3397 3398 3399 3400 3401 3402 3403 3404 3405 3406 3407 3408 3409 3410 3411 3412 3413 3414 3415 3416 3417 3418 3419 3420 3421 3422 3423 3424 3425 3426 3427 3428 3429 3430 3431 3432 3433 3434 3435 3436 3437 3438 3439 3440 3441 3442 3443 3444 3445 3446 3447 3448 3449 3450 3451 3452 3453 3454 3455 3456 3457 3458 3459 3460 3461 3462 3463 3464 3465 3466 3467 3468 3469 3470 3471 3472 3473 3474 3475 3476 3477 3478 3479 3480 3481 3482 3483 3484 3485 3486 3487 3488 3489 3490 3491 3492 3493 3494 3495 3496 3497 3498 3499 3500 3501 3502 3503 3504 3505 3506 3507 3508 3509 3510 3511 3512 3513 3514 3515 3516 3517 3518 3519 3520 3521 3522 3523 3524 3525 3526 3527 3528 3529 3530 3531 3532 3533 3534 3535 3536 3537 3538 3539 3540 3541 3542 3543 3544 3545 3546 3547 3548 3549 3550 3551 3552 3553 3554 3555 3556 3557 3558 3559 3560 3561 3562 3563 3564 3565 3566 3567 3568 3569 3570 3571 3572 3573 3574 3575 3576 3577 3578 3579 3580 3581 3582 3583 3584 3585 3586 3587 3588 3589 3590 3591 3592 3593 3594 3595 3596 3597 3598 3599 3600 3601 3602 3603 3604 3605 3606 3607 3608 3609 3610 3611 3612 3613 3614 3615 3616 3617 3618 3619 3620 3621 3622 3623 3624 3625 3626 3627 3628 3629 3630 3631 3632 3633 3634 3635 3636 3637 3638 3639 3640 3641 3642 3643 3644 3645 3646 3647 3648 3649 3650 3651 3652 3653 3654 3655 3656 3657 3658 3659 3660 3661 3662 3663 3664 3665 3666 3667 3668 3669 3670 3671 3672 3673 3674 3675 3676 3677 3678 3679 3680 3681 3682 3683 3684 3685 3686 3687 3688 3689 3690 3691 3692 3693 3694 3695 3696 3697 3698 3699 3700 3701 3702 3703 3704 3705 3706 3707 3708 3709 3710 3711 3712 3713 3714 3715 3716 3717 3718 3719 3720 3721 3722 3723 3724 3725 3726 3727 3728 3729 3730 3731 3732 3733 3734 3735 3736 3737 3738 3739 3740 3741 3742 3743 3744 3745 3746 3747 3748 3749 3750 3751 3752 3753 3754 3755 3756 3757 3758 3759 3760 3761 3762 3763 3764 3765 3766 3767 3768 3769 3770 3771 3772 3773 3774 3775 3776 3777 3778 3779 3780 3781 3782 3783 3784 3785 3786 3787 3788 3789 3790 3791 3792 3793 3794 3795 3796 3797 3798 3799 3800 3801 3802 3803 3804 3805 3806 3807 3808 3809 3810 3811 3812 3813 3814 3815 3816 3817 3818 3819 3820 3821 3822 3823 3824 3825 3826 3827 3828 3829 3830 3831 3832 3833 3834 3835 3836 3837 3838 3839 3840 3841 3842 3843 3844 3845 3846 3847 3848 3849 3850 3851 3852 3853 3854 3855 3856 3857 3858 3859 3860 3861 3862 3863 3864 3865 3866 3867 3868 3869 3870 3871 3872 3873 3874 3875 3876 3877 3878 3879 3880 3881 3882 3883 3884 3885 3886 3887 3888 3889 3890 3891 3892 3893 3894 3895 3896 3897 3898 3899 3900 3901 3902 3903 3904 3905 3906 3907 3908 3909 3910 3911 3912 3913 3914 3915 3916 3917 3918 3919 3920 3921 3922 3923 3924 3925 3926 3927 3928 3929 3930 3931 3932 3933 3934 3935 3936 3937 3938 3939 3940 3941 3942 3943 3944 3945 3946 3947 3948 3949 3950 3951 3952 3953 3954 3955 3956 3957 3958 3959 3960 3961 3962 3963 3964 3965 3966 3967 3968 3969 3970 3971 3972 3973 3974 3975 3976 3977 3978 3979 3980 3981 3982 3983 3984 3985 3986 3987 3988 3989 3990 3991 3992 3993 3994 3995 3996 3997 3998 3999 4000 4001 4002 4003 4004 4005 4006 4007 4008 4009 4010 4011 4012 4013 4014 4015 4016 4017 4018 4019 4020 4021 4022 4023 4024 4025 4026 4027 4028 4029 4030 4031 4032 4033 4034 4035 4036 4037 4038 4039 4040 4041 4042 4043 4044 4045 4046 4047 4048 4049 4050 4051 4052 4053 4054 4055 4056 4057 4058 4059 4060 4061 4062 4063 4064 4065 4066 4067 4068 4069 4070 4071 4072 4073 4074 4075 4076 4077 4078 4079 4080 4081 4082 4083 4084 4085 4086 4087 4088 4089 4090 4091 4092 4093 4094 4095 4096 4097 4098 4099 4100 4101 4102 4103 4104 4105 4106 4107 4108 4109 4110 4111 4112 4113 4114 4115 4116 4117 4118 4119 4120 4121 4122 4123 4124 4125 4126 4127 4128 4129 4130 4131 4132 4133 4134 4135 4136 4137 4138 4139 4140 4141 4142 4143 4144 4145 4146 4147 4148 4149 4150 4151 4152 4153 4154 4155 4156 4157 4158 4159 4160 4161 4162 4163 4164 4165 4166 4167 4168 4169 4170 4171 4172 4173 4174 4175 4176 4177 4178 4179 4180 4181 4182 4183 4184 4185 4186 4187 4188 4189 4190 4191 4192 4193 4194 4195 4196 4197 4198 4199 4200 4201 4202 4203 4204 4205 4206 4207 4208 4209 4210 4211 4212 4213 4214 4215 4216 4217 4218 4219 4220 4221 4222 4223 4224 4225 4226 4227 4228 4229 4230 4231 4232 4233 4234 4235 4236 4237 4238 4239 4240 4241 4242 4243 4244 4245 4246 4247 4248 4249 4250 4251 4252 4253 4254 4255 4256 4257 4258 4259 4260 4261 4262 4263 4264 4265 4266 4267 4268 4269 4270 4271 4272 4273 4274 4275 4276 4277 4278 4279 4280 4281 4282 4283 4284 4285 4286 4287 4288 4289 4290 4291 4292 4293 4294 4295 4296 4297 4298 4299 4300 4301 4302 4303 4304 4305 4306 4307 4308 4309 4310 4311 4312 4313 4314 4315 4316 4317 4318 4319 4320 4321 4322 4323 4324 4325 4326 4327 4328 4329 4330 4331 4332 4333 4334 4335 4336 4337 4338 4339 4340 4341 4342 4343 4344 4345 4346 4347 4348 4349 4350 4351 4352 4353 4354 4355 4356 4357 4358 4359 4360 4361 4362 4363 4364 4365 4366 4367 4368 4369 4370 4371 4372 4373 4374 4375 4376 4377 4378 4379 4380 4381 4382 4383 4384 4385 4386 4387 4388 4389 4390 4391 4392 4393 4394 4395 4396 4397 4398 4399 4400 4401 4402 4403 4404 4405 4406 4407 4408 4409 4410 4411 4412 4413 4414 4415 4416 4417 4418 4419 4420 4421 4422 4423 4424 4425 4426 4427 4428 4429 4430 4431 4432 4433 4434 4435 4436 4437 4438 4439 4440 4441 4442 4443 4444 4445 4446 4447 4448 4449 4450 4451 4452 4453 4454 4455 4456 4457 4458 4459 4460 4461 4462 4463 4464 4465 4466 4467 4468 4469 4470 4471 4472 4473 4474 4475 4476 4477 4478 4479 4480 4481 4482 4483 4484 4485 4486 4487 4488 4489 4490 4491 4492 4493 4494 4495 4496 4497 4498 4499 4500 4501 4502 4503 4504 4505 4506 4507 4508 4509 4510 4511 4512 4513 4514 4515 4516 4517 4518 4519 4520 4521 4522 4523 4524 4525 4526 4527 4528 4529 4530 4531 4532 4533 4534 4535 4536 4537 4538 4539 4540 4541 4542 4543 4544 4545 4546 4547 4548 4549 4550 4551 4552 4553 4554 4555 4556 4557 4558 4559 4560 4561 4562 4563 4564 4565 4566 4567 4568 4569 4570 4571 4572 4573 4574 4575 4576 4577 4578 4579 4580 4581 4582 4583 4584 4585 4586 4587 4588 4589 4590 4591 4592 4593 4594 4595 4596 4597 4598 4599 4600 4601 4602 4603 4604 4605 4606 4607 4608 4609 4610 4611 4612 4613 4614 4615 4616 4617 4618 4619 4620 4621 4622 4623 4624 4625 4626 4627 4628 4629 4630 4631 4632 4633 4634 4635 4636 4637 4638 4639 4640 4641 4642 4643 4644 4645 4646 4647 4648 4649 4650 4651 4652 4653 4654 4655 4656 4657 4658 4659 4660 4661 4662 4663 4664 4665 4666 4667 4668 4669 4670 4671 4672 4673 4674 4675 4676 4677 4678 4679 4680 4681 4682 4683 4684 4685 4686 4687 4688 4689 4690 4691 4692 4693 4694 4695 4696 4697 4698 4699 4700 4701 4702 4703 4704 4705 4706 4707 4708 4709 4710 4711 4712 4713 4714 4715 4716 4717 4718 4719 4720 4721 4722 4723 4724 4725 4726 4727 4728 4729 4730 4731 4732 4733 4734 4735 4736 4737 4738 4739 4740 4741 4742 4743 4744 4745 4746 4747 4748 4749 4750 4751 4752 4753 4754 4755 4756 4757 4758 4759 4760 4761 4762 4763 4764 4765 4766 4767 4768 4769 4770 4771 4772 4773 4774 4775 4776 4777 4778 4779 4780 4781 4782 4783 4784 4785 4786 4787 4788 4789 4790 4791 4792 4793 4794 4795 4796 4797 4798 4799 4800 4801 4802 4803 4804 4805 4806 4807 4808 4809 4810 4811 4812 4813 4814 4815 4816 4817 4818 4819 4820 4821 4822 4823 4824 4825 4826 4827 4828 4829 4830 4831 4832 4833 4834 4835 4836 4837 4838 4839 4840 4841 4842 4843 4844 4845 4846 4847 4848 4849 4850 4851 4852 4853 4854 4855 4856 4857 4858 4859 4860 4861 4862 4863 4864 4865 4866 4867 4868 4869 4870 4871 4872 4873 4874 4875 4876 4877 4878 4879 4880 4881 4882 4883 4884 4885 4886 4887 4888 4889 4890 4891 4892 4893 4894 4895 4896 4897 4898 4899 4900 4901 4902 4903 4904 4905 4906 4907 4908 4909 4910 4911 4912 4913 4914 4915 4916 4917 4918 4919 4920 4921 4922 4923 4924 4925 4926 4927 4928 4929 4930 4931 4932 4933 4934 4935 4936 4937 4938 4939 4940 4941 4942 4943 4944 4945 4946 4947 4948 4949 4950 4951 4952 4953 4954 4955 4956 4957 4958 4959 4960 4961 4962 4963 4964 4965 4966 4967 4968 4969 4970 4971 4972 4973 4974 4975 4976 4977 4978 4979 4980 4981 4982 4983 4984 4985 4986 4987 4988 4989 4990 4991 4992 4993 4994 4995 4996 4997 4998 4999 5000 5001 5002 5003 5004 5005 5006 5007 5008 5009 5010 5011 5012 5013 5014 5015 5016 5017 5018 5019 5020 5021 5022 5023 5024 5025 5026 5027 5028 5029 5030 5031 5032 5033 5034 5035 5036 5037 5038 5039 5040 5041 5042 5043 5044 5045 5046 5047 5048 5049 5050 5051 5052 5053 5054 5055 5056 5057 5058 5059 5060 5061 5062 5063 5064 5065 5066 5067 5068 5069 5070 5071 5072 5073 5074 5075 5076 5077 5078 5079 5080 5081 5082 5083 5084 5085 5086 5087 5088 5089 5090 5091 5092 5093 5094 5095 5096 5097 5098 5099 5100 5101 5102 5103 5104 5105 5106 5107 5108 5109 5110 5111 5112 5113 5114 5115 5116 5117 5118 5119 5120 5121 5122 5123 5124 5125 5126 5127 5128 5129 5130 5131 5132 5133 5134 5135 5136 5137 5138 5139 5140 5141 5142 5143 5144 5145 5146 5147 5148 5149 5150 5151 5152 5153 5154 5155 5156 5157 5158 5159 5160 5161 5162 5163 5164 5165 5166 5167 5168 5169 5170 5171 5172 5173 5174 5175 5176 5177 5178 5179 5180 5181 5182 5183 5184 5185 5186 5187 5188 5189 5190 5191 5192 5193 5194 5195 5196 5197 5198 5199 5200 5201 5202 5203 5204 5205 5206 5207 5208 5209 5210 5211 5212 5213 5214 5215 5216 5217 5218 5219 5220 5221 5222 5223 5224 5225 5226 5227 5228 5229 5230 5231 5232 5233 5234 5235 5236 5237 5238 5239 5240 5241 5242 5243 5244 5245 5246 5247 5248 5249 5250 5251 5252 5253 5254 5255 5256 5257 5258 5259 5260 5261 5262 5263 5264 5265 5266 5267 5268 5269 5270 5271 5272 5273 5274 5275 5276 5277 5278 5279 5280 5281 5282 5283 5284 5285 5286 5287 5288 5289 5290 5291 5292 5293 5294 5295 5296 5297 5298 5299 5300 5301 5302 5303 5304 5305 5306 5307 5308 5309 5310 5311 5312 5313 5314 5315 5316 5317 5318 5319 5320 5321 5322 5323 5324 5325 5326 5327 5328 5329 5330 5331 5332 5333 5334 5335 5336 5337 5338 5339 5340 5341 5342 5343 5344 5345 5346 5347 5348 5349 5350 5351 5352 5353 5354 5355 5356 5357 5358 5359 5360 5361 5362 5363 5364 5365 5366 5367 5368 5369 5370 5371 5372 5373 5374 5375 5376 5377 5378 5379 5380 5381 5382 5383 5384 5385 5386 5387 5388 5389 5390 5391 5392 5393 5394 5395 5396 5397 5398 5399 5400 5401 5402 5403 5404 5405 5406 5407 5408 5409 5410 5411 5412 5413 5414 5415 5416 5417 5418 5419 5420 5421 5422 5423 5424 5425 5426 5427 5428 5429 5430 5431 5432 5433 5434 5435 5436 5437 5438 5439 5440 5441 5442 5443 5444 5445 5446 5447 5448 5449 5450 5451 5452 5453 5454 5455 5456 5457 5458 5459 5460 5461 5462 5463 5464 5465 5466 5467 5468 5469 5470 5471 5472 5473 5474 5475 5476 5477 5478 5479 5480 5481 5482 5483 5484 5485 5486 5487 5488 5489 5490 5491 5492 5493 5494 5495 5496 5497 5498 5499 5500 5501 5502 5503 5504 5505 5506 5507 5508 5509 5510 5511 5512 5513 5514 5515 5516 5517 5518 5519 5520 5521 5522 5523 5524 5525 5526 5527 5528 5529 5530 5531 5532 5533 5534 5535 5536 5537 5538 5539 5540 5541 5542 5543 5544 5545 5546 5547 5548 5549 5550 5551 5552 5553 5554 5555 5556 5557 5558 5559 5560 5561 5562 5563 5564 5565 5566 5567 5568 5569 5570 5571 5572 5573 5574 5575 5576 5577 5578 5579 5580 5581 5582 5583 5584 5585 5586 5587 5588 5589 5590 5591 5592 5593 5594 5595 5596 5597 5598 5599 5600 5601 5602 5603 5604 5605 5606 5607 5608 5609 5610 5611 5612 5613 5614 5615 5616 5617 5618 5619 5620 5621 5622 5623 5624 5625 5626 5627 5628 5629 5630 5631 5632 5633 5634 5635 5636 5637 5638 5639 5640 5641 5642 5643 5644 5645 5646 5647 5648 5649 5650 5651 5652 5653 5654 5655 5656 5657 5658 5659 5660 5661 5662 5663 5664 5665 5666 5667 5668 5669 5670 5671 5672 5673 5674 5675 5676 5677 5678 5679 5680 5681 5682 5683 5684 5685 5686 5687 5688 5689 5690 5691 5692 5693 5694 5695 5696 5697 5698 5699 5700 5701 5702 5703 5704 5705 5706 5707 5708 5709 5710 5711 5712 5713 5714 5715 5716 5717 5718 5719 5720 5721 5722 5723 5724 5725 5726 5727 5728 5729 5730 5731 5732 5733 5734 5735 5736 5737 5738 5739 5740 5741 5742 5743 5744 5745 5746 5747 5748 5749 5750 5751 5752 5753 5754 5755 5756 5757 5758 5759 5760 5761 5762 5763 5764 5765 5766 5767 5768 5769 5770 5771 5772 5773 5774 5775 5776 5777 5778 5779 5780 5781 5782 5783 5784 5785 5786 5787 5788 5789 5790 5791 5792 5793 5794 5795 5796 5797 5798 5799 5800 5801 5802 5803 5804 5805 5806 5807 5808 5809 5810 5811 5812 5813 5814 5815 5816 5817 5818 5819 5820 5821 5822 5823 5824 5825 5826 5827 5828 5829 5830 5831 5832 5833 5834 5835 5836 5837 5838 5839 5840 5841 5842 5843 5844 5845 5846 5847 5848 5849 5850 5851 5852 5853 5854 5855 5856 5857 5858 5859 5860 5861 5862 5863 5864 5865 5866 5867 5868 5869 5870 5871 5872 5873 5874 5875 5876 5877 5878 5879 5880 5881 5882 5883 5884 5885 5886 5887 5888 5889 5890 5891 5892 5893 5894 5895 5896 5897 5898 5899 5900 5901 5902 5903 5904 5905 5906 5907 5908 5909 5910 5911 5912 5913 5914 5915 5916 5917 5918 5919 5920 5921 5922 5923 5924 5925 5926 5927 5928 5929 5930 5931 5932 5933 5934 5935 5936 5937 5938 5939 5940 5941 5942 5943 5944 5945 5946 5947 5948 5949 5950 5951 5952 5953 5954 5955 5956 5957 5958 5959 5960 5961 5962 5963 5964 5965 5966 5967 5968 5969 5970 5971 5972 5973 5974 5975 5976 5977 5978 5979 5980 5981 5982 5983 5984 5985 5986 5987 5988 5989 5990 5991 5992 5993 5994 5995 5996 5997 5998 5999 6000 6001 6002 6003 6004 6005 6006 6007 6008 6009 6010 6011 6012 6013 6014 6015 6016 6017 6018 6019 6020 6021 6022 6023 6024 6025 6026 6027 6028 6029 6030 6031 6032 6033 6034 6035 6036 6037 6038 6039 6040 6041 6042 6043 6044 6045 6046 6047 6048 6049 6050 6051 6052 6053 6054 6055 6056 6057 6058 6059 6060 6061 6062 6063 6064 6065 6066 6067 6068 6069 6070 6071 6072 6073 6074 6075 6076 6077 6078 6079 6080 6081 6082 6083 6084 6085 6086 6087 6088 6089 6090 6091 6092 6093 6094 6095 6096 6097 6098 6099 6100 6101 6102 6103 6104 6105 6106 6107 6108 6109 6110 6111 6112 6113 6114 6115 6116 6117 6118 6119 6120 6121 6122 6123 6124 6125 6126 6127 6128 6129 6130 6131 6132 6133 6134 6135 6136 6137 6138 6139 6140 6141 6142 6143 6144 6145 6146 6147 6148 6149 6150 6151 6152 6153 6154 6155 6156 6157 6158 6159 6160 6161 6162 6163 6164 6165 6166 6167 6168 6169 6170 6171 6172 6173 6174 6175 6176 6177 6178 6179 6180 6181 6182 6183 6184 6185 6186 6187 6188 6189 6190 6191 6192 6193 6194 6195 6196 6197 6198 6199 6200 6201 6202 6203 6204 6205 6206 6207 6208 6209 6210 6211 6212 6213 6214 6215 6216 6217 6218 6219 6220 6221 6222 6223 6224 6225 6226 6227 6228 6229 6230 6231 6232 6233 6234 6235 6236 6237 6238 6239 6240 6241 6242 6243 6244 6245 6246 6247 6248 6249 6250 6251 6252 6253 6254 6255 6256 6257 6258 6259 6260 6261 6262 6263 6264 6265 6266 6267 6268 6269 6270 6271 6272 6273 6274 6275 6276 6277 6278 6279 6280 6281 6282 6283 6284 6285 6286 6287 6288 6289 6290 6291 6292 6293 6294 6295 6296 6297 6298 6299 6300 6301 6302 6303 6304 6305 6306 6307 6308 6309 6310 6311 6312 6313 6314 6315 6316 6317 6318 6319 6320 6321 6322 6323 6324 6325 6326 6327 6328 6329 6330 6331 6332 6333 6334 6335 6336 6337 6338 6339 6340 6341 6342 6343 6344 6345 6346 6347 6348 6349 6350 6351 6352 6353 6354 6355 6356 6357 6358 6359 6360 6361 6362 6363 6364 6365 6366 6367 6368 6369 6370 6371 6372 6373 6374 6375 6376 6377 6378 6379 6380 6381 6382 6383 6384 6385 6386 6387 6388 6389 6390 6391 6392 6393 6394 6395 6396 6397 6398 6399 6400 6401 6402 6403 6404 6405 6406 6407 6408 6409 6410 6411 6412 6413 6414 6415 6416 6417 6418 6419 6420 6421 6422 6423 6424 6425 6426 6427 6428 6429 6430 6431 6432 6433 6434 6435 6436 6437 6438 6439 6440 6441 6442 6443 6444 6445 6446 6447 6448 6449 6450 6451 6452 6453 6454 6455 6456 6457 6458 6459 6460 6461 6462 6463 6464 6465 6466 6467 6468 6469 6470 6471 6472 6473 6474 6475 6476 6477 6478 6479 6480 6481 6482 6483 6484 6485 6486 6487 6488 6489 6490 6491 6492 6493 6494 6495 6496 6497 6498 6499 6500 6501 6502 6503 6504 6505 6506 6507 6508 6509 6510 6511 6512 6513 6514 6515 6516 6517 6518 6519 6520 6521 6522 6523 6524 6525 6526 6527 6528 6529 6530 6531 6532 6533 6534 6535 6536 6537 6538 6539 6540 6541 6542 6543 6544 6545 6546 6547 6548 6549 6550 6551 6552 6553 6554 6555 6556 6557 6558 6559 6560 6561 6562 6563 6564 6565 6566 6567 6568 6569 6570 6571 6572 6573 6574 6575 6576 6577 6578 6579 6580 6581 6582 6583 6584 6585 6586 6587 6588 6589 6590 6591 6592 6593 6594 6595 6596 6597 6598 6599 6600 6601 6602 6603 6604 6605 6606 6607 6608 6609 6610 6611 6612 6613 6614 6615 6616 6617 6618 6619 6620 6621 6622 6623 6624 6625 6626 6627 6628 6629 6630 6631 6632 6633 6634 6635 6636 6637 6638 6639 6640 6641 6642 6643 6644 6645 6646 6647 6648 6649 6650 6651 6652 6653 6654 6655 6656 6657 6658 6659 6660 6661 6662 6663 6664 6665 6666 6667 6668 6669 6670 6671 6672 6673 6674 6675 6676 6677 6678 6679 6680 6681 6682 6683 6684 6685 6686 6687 6688 6689 6690 6691 6692 6693 6694 6695 6696 6697 6698 6699 6700 6701 6702 6703 6704 6705 6706 6707 6708 6709 6710 6711 6712 6713 6714 6715 6716 6717 6718 6719 6720 6721 6722 6723 6724 6725 6726 6727 6728 6729 6730 6731 6732 6733 6734 6735 6736 6737 6738 6739 6740 6741 6742 6743 6744 6745 6746 6747 6748 6749 6750 6751 6752 6753 6754 6755 6756 6757 6758 6759 6760 6761 6762 6763 6764 6765 6766 6767 6768 6769 6770 6771 6772 6773 6774 6775 6776 6777 6778 6779 6780 6781 6782 6783 6784 6785 6786 6787 6788 6789 6790 6791 6792 6793 6794 6795 6796 6797 6798 6799 6800 6801 6802 6803 6804 6805 6806 6807 6808 6809 6810 6811 6812 6813 6814 6815 6816 6817 6818 6819 6820 6821 6822 6823 6824 6825 6826 6827 6828 6829 6830 6831 6832 6833 6834 6835 6836 6837 6838 6839 6840 6841 6842 6843 6844 6845 6846 6847 6848 6849 6850 6851 6852 6853 6854 6855 6856 6857 6858 6859 6860 6861 6862 6863 6864 6865 6866 6867 6868 6869 6870 6871 6872 6873 6874 6875 6876 6877 6878 6879 6880 6881 6882 6883 6884 6885 6886 6887 6888 6889 6890 6891 6892 6893 6894 6895 6896 6897 6898 6899 6900 6901 6902 6903 6904 6905 6906 6907 6908 6909 6910 6911 6912 6913 6914 6915 6916 6917 6918 6919 6920 6921 6922 6923 6924 6925 6926 6927 6928 6929 6930 6931 6932 6933 6934 6935 6936 6937 6938 6939 6940 6941 6942 6943 6944 6945 6946 6947 6948 6949 6950 6951 6952 6953 6954 6955 6956 6957 6958 6959 6960 6961 6962 6963 6964 6965 6966 6967 6968 6969 6970 6971 6972 6973 6974 6975 6976 6977 6978 6979 6980 6981 6982 6983 6984 6985 6986 6987 6988 6989 6990 6991 6992 6993 6994 6995 6996 6997 6998 6999 7000 7001 7002 7003 7004 7005 7006 7007 7008 7009 7010 7011 7012 7013 7014 7015 7016 7017 7018 7019 7020 7021 7022 7023 7024 7025 7026 7027 7028 7029 7030 7031 7032 7033 7034 7035 7036 7037 7038 7039 7040 7041 7042 7043 7044 7045 7046 7047 7048 7049 7050 7051 7052 7053 7054 7055 7056 7057 7058 7059 7060 7061 7062 7063 7064 7065 7066 7067 7068 7069 7070 7071 7072 7073 7074 7075 7076 7077 7078 7079 7080 7081 7082 7083 7084 7085 7086 7087 7088 7089 7090 7091 7092 7093 7094 7095 7096 7097 7098 7099 7100 7101 7102 7103 7104 7105 7106 7107 7108 7109 7110 7111 7112 7113 7114 7115 7116 7117 7118 7119 7120 7121 7122 7123 7124 7125 7126 7127 7128 7129 7130 7131 7132 7133 7134 7135 7136 7137 7138 7139 7140 7141 7142 7143 7144 7145 7146 7147 7148 7149 7150 7151 7152 7153 7154 7155 7156 7157 7158 7159 7160 7161 7162 7163 7164 7165 7166 7167 7168 7169 7170 7171 7172 7173 7174 7175 7176 7177 7178 7179 7180 7181 7182 7183 7184 7185 7186 7187 7188 7189 7190 7191 7192 7193 7194 7195 7196 7197 7198 7199 7200 7201 7202 7203 7204 7205 7206 7207 7208 7209 7210 7211 7212 7213 7214 7215 7216 7217 7218 7219 7220 7221 7222 7223 7224 7225 7226 7227 7228 7229 7230 7231 7232 7233 7234 7235 7236 7237 7238 7239 7240 7241 7242 7243 7244 7245 7246 7247 7248 7249 7250 7251 7252 7253 7254 7255 7256 7257 7258 7259 7260 7261 7262 7263 7264 7265 7266 7267 7268 7269 7270 7271 7272 7273 7274 7275 7276 7277 7278 7279 7280 7281 7282 7283 7284 7285 7286 7287 7288 7289 7290 7291 7292 7293 7294 7295 7296 7297 7298 7299 7300 7301 7302 7303 7304 7305 7306 7307 7308 7309 7310 7311 7312 7313 7314 7315 7316 7317 7318 7319 7320 7321 7322 7323 7324 7325 7326 7327 7328 7329 7330 7331 7332 7333 7334 7335 7336 7337 7338 7339 7340 7341 7342 7343 7344 7345 7346 7347 7348 7349 7350 7351 7352 7353 7354 7355 7356 7357 7358 7359 7360 7361 7362 7363 7364 7365 7366 7367 7368 7369 7370 7371 7372 7373 7374 7375 7376 7377 7378 7379 7380 7381 7382 7383 7384 7385 7386 7387 7388 7389 7390 7391 7392 7393 7394 7395 7396 7397 7398 7399 7400 7401 7402 7403 7404 7405 7406 7407 7408 7409 7410 7411 7412 7413 7414 7415 7416 7417 7418 7419 7420 7421 7422 7423 7424 7425 7426 7427 7428 7429 7430 7431 7432 7433 7434 7435 7436 7437 7438 7439 7440 7441 7442 7443 7444 7445 7446 7447 7448 7449 7450 7451 7452 7453 7454 7455 7456 7457 7458 7459 7460 7461 7462 7463 7464 7465 7466 7467 7468 7469 7470 7471 7472 7473 7474 7475 7476 7477 7478 7479 7480 7481 7482 7483 7484 7485 7486 7487 7488 7489 7490 7491 7492 7493 7494 7495 7496 7497 7498 7499 7500 7501 7502 7503 7504 7505 7506 7507 7508 7509 7510 7511 7512 7513 7514 7515 7516 7517 7518 7519 7520 7521 7522 7523 7524 7525 7526 7527 7528 7529 7530 7531 7532 7533 7534 7535 7536 7537 7538 7539 7540 7541 7542 7543 7544 7545 7546 7547 7548 7549 7550 7551 7552 7553 7554 7555 7556 7557 7558 7559 7560 7561 7562 7563 7564 7565 7566 7567 7568 7569 7570 7571 7572 7573 7574 7575 7576 7577 7578 7579 7580 7581 7582 7583 7584 7585 7586 7587 7588 7589 7590 7591 7592 7593 7594 7595 7596 7597 7598 7599 7600 7601 7602 7603 7604 7605 7606 7607 7608 7609 7610 7611 7612 7613 7614 7615 7616 7617 7618 7619 7620 7621 7622 7623 7624 7625 7626 7627 7628 7629 7630 7631 7632 7633 7634 7635 7636 7637 7638 7639 7640 7641 7642 7643 7644 7645 7646 7647 7648 7649 7650 7651 7652 7653 7654 7655 7656 7657 7658 7659 7660 7661 7662 7663 7664 7665 7666 7667 7668 7669 7670 7671 7672 7673 7674 7675 7676 7677 7678 7679 7680 7681 7682 7683 7684 7685 7686 7687 7688 7689 7690 7691 7692 7693 7694 7695 7696 7697 7698 7699 7700 7701 7702 7703 7704 7705 7706 7707 7708 7709 7710 7711 7712 7713 7714 7715 7716 7717 7718 7719 7720 7721 7722 7723 7724 7725 7726 7727 7728 7729 7730 7731 7732 7733 7734 7735 7736 7737 7738 7739 7740 7741 7742 7743 7744 7745 7746 7747 7748 7749 7750 7751 7752 7753 7754 7755 7756 7757 7758 7759 7760 7761 7762 7763 7764 7765 7766 7767 7768 7769 7770 7771 7772 7773 7774 7775 7776 7777 7778 7779 7780 7781 7782 7783 7784 7785 7786 7787 7788 7789 7790 7791 7792 7793 7794 7795 7796 7797 7798 7799 7800 7801 7802 7803 7804 7805 7806 7807 7808 7809 7810 7811 7812 7813 7814 7815 7816 7817 7818 7819 7820 7821 7822 7823 7824 7825 7826 7827 7828 7829 7830 7831 7832 7833 7834 7835 7836 7837 7838 7839 7840 7841 7842 7843 7844 7845 7846 7847 7848 7849 7850 7851 7852 7853 7854 7855 7856 7857 7858 7859 7860 7861 7862 7863 7864 7865 7866 7867 7868 7869 7870 7871 7872 7873 7874 7875 7876 7877 7878 7879 7880 7881 7882 7883 7884 7885 7886 7887 7888 7889 7890 7891 7892 7893 7894 7895 7896 7897 7898 7899 7900 7901 7902 7903 7904 7905 7906 7907 7908 7909 7910 7911 7912 7913 7914 7915 7916 7917 7918 7919 7920 7921 7922 7923 7924 7925 7926 7927 7928 7929 7930 7931 7932 7933 7934 7935 7936 7937 7938 7939 7940 7941 7942 7943 7944 7945 7946 7947 7948 7949 7950 7951 7952 7953 7954 7955 7956 7957 7958 7959 7960 7961 7962 7963 7964 7965 7966 7967 7968 7969 7970 7971 7972 7973 7974 7975 7976 7977 7978 7979 7980 7981 7982 7983 7984 7985 7986 7987 7988 7989 7990 7991 7992 7993 7994 7995 7996 7997 7998 7999 8000 8001 8002 8003 8004 8005 8006 8007 8008 8009 8010 8011 8012 8013 8014 8015 8016 8017 8018 8019 8020 8021 8022 8023 8024 8025 8026 8027 8028 8029 8030 8031 8032 8033 8034 8035 8036 8037 8038 8039 8040 8041 8042 8043 8044 8045 8046 8047 8048 8049 8050 8051 8052 8053 8054 8055 8056 8057 8058 8059 8060 8061 8062 8063 8064 8065 8066 8067 8068 8069 8070 8071 8072 8073 8074 8075 8076 8077 8078 8079 8080 8081 8082 8083 8084 8085 8086 8087 8088 8089 8090 8091 8092 8093 8094 8095 8096 8097 8098 8099 8100 8101 8102 8103 8104 8105 8106 8107 8108 8109 8110 8111 8112 8113 8114 8115 8116 8117 8118 8119 8120 8121 8122 8123 8124 8125 8126 8127 8128 8129 8130 8131 8132 8133 8134 8135 8136 8137 8138 8139 8140 8141 8142 8143 8144 8145 8146 8147 8148 8149 8150 8151 8152 8153 8154 8155 8156 8157 8158 8159 8160 8161 8162 8163 8164 8165 8166 8167 8168 8169 8170 8171 8172 8173 8174 8175 8176 8177 8178 8179 8180 8181 8182 8183 8184 8185 8186 8187 8188 8189 8190 8191 8192 8193 8194 8195 8196 8197 8198 8199 8200 8201 8202 8203 8204 8205 8206 8207 8208 8209 8210 8211 8212 8213 8214 8215 8216 8217 8218 8219 8220 8221 8222 8223 8224 8225 8226 8227 8228 8229 8230 8231 8232 8233 8234 8235 8236 8237 8238 8239 8240 8241 8242 8243 8244 8245 8246 8247 8248 8249 8250 8251 8252 8253 8254 8255 8256 8257 8258 8259 8260 8261 8262 8263 8264 8265 8266 8267 8268 8269 8270 8271 8272 8273 8274 8275 8276 8277 8278 8279 8280 8281 8282 8283 8284 8285 8286 8287 8288 8289 8290 8291 8292 8293 8294 8295 8296 8297 8298 8299 8300 8301 8302 8303 8304 8305 8306 8307 8308 8309 8310 8311 8312 8313 8314 8315 8316 8317 8318 8319 8320 8321 8322 8323 8324 8325 8326 8327 8328 8329 8330 8331 8332 8333 8334 8335 8336 8337 8338 8339 8340 8341 8342 8343 8344 8345 8346 8347 8348 8349 8350 8351 8352 8353 8354 8355 8356 8357 8358 8359 8360 8361 8362 8363 8364 8365 8366 8367 8368 8369 8370 8371 8372 8373 8374 8375 8376 8377 8378 8379 8380 8381 8382 8383 8384 8385 8386 8387 8388 8389 8390 8391 8392 8393 8394 8395 8396 8397 8398 8399 8400 8401 8402 8403 8404 8405 8406 8407 8408 8409 8410 8411 8412 8413 8414 8415 8416 8417 8418 8419 8420 8421 8422 8423 8424 8425 8426 8427 8428 8429 8430 8431 8432 8433 8434 8435 8436 8437 8438 8439 8440 8441 8442 8443 8444 8445 8446 8447 8448 8449 8450 8451 8452 8453 8454 8455 8456 8457 8458 8459 8460 8461 8462 8463 8464 8465 8466 8467 8468 8469 8470 8471 8472 8473 8474 8475 8476 8477 8478 8479 8480 8481 8482 8483 8484 8485 8486 8487 8488 8489 8490 8491 8492 8493 8494 8495 8496 8497 8498 8499 8500 8501 8502 8503 8504 8505 8506 8507 8508 8509 8510 8511 8512 8513 8514 8515 8516 8517 8518 8519 8520 8521 8522 8523 8524 8525 8526 8527 8528 8529 8530 8531 8532 8533 8534 8535 8536 8537 8538 8539 8540 8541 8542 8543 8544 8545 8546 8547 8548 8549 8550 8551 8552 8553 8554 8555 8556 8557 8558 8559 8560 8561 8562 8563 8564 8565 8566 8567 8568 8569 8570 8571 8572 8573 8574 8575 8576 8577 8578 8579 8580 8581 8582 8583 8584 8585 8586 8587 8588 8589 8590 8591 8592 8593 8594 8595 8596 8597 8598 8599 8600 8601 8602 8603 8604 8605 8606 8607 8608 8609 8610 8611 8612 8613 8614 8615 8616 8617 8618 8619 8620 8621 8622 8623 8624 8625 8626 8627 8628 8629 8630 8631 8632 8633 8634 8635 8636 8637 8638 8639 8640 8641 8642 8643 8644 8645 8646 8647 8648 8649 8650 8651 8652 8653 8654 8655 8656 8657 8658 8659 8660 8661 8662 8663 8664 8665 8666 8667 8668 8669 8670 8671 8672 8673 8674 8675 8676 8677 8678 8679 8680 8681 8682 8683 8684 8685 8686 8687 8688 8689 8690 8691 8692 8693 8694 8695 8696 8697 8698 8699 8700 8701 8702 8703 8704 8705 8706 8707 8708 8709 8710 8711 8712 8713 8714 8715 8716 8717 8718 8719 8720 8721 8722 8723 8724 8725 8726 8727 8728 8729 8730 8731 8732 8733 8734 8735 8736 8737 8738 8739 8740 8741 8742 8743 8744 8745 8746 8747 8748 8749 8750 8751 8752 8753 8754 8755 8756 8757 8758 8759 8760 8761 8762 8763 8764 8765 8766 8767 8768 8769 8770 8771 8772 8773 8774 8775 8776 8777 8778 8779 8780 8781 8782 8783 8784 8785 8786 8787 8788 8789 8790 8791 8792 8793 8794 8795 8796 8797 8798 8799 8800 8801 8802 8803 8804 8805 8806 8807 8808 8809 8810 8811 8812 8813 8814 8815 8816 8817 8818 8819 8820 8821 8822 8823 8824 8825 8826 8827 8828 8829 8830 8831 8832 8833 8834 8835 8836 8837 8838 8839 8840 8841 8842 8843 8844 8845 8846 8847 8848 8849 8850 8851 8852 8853 8854 8855 8856 8857 8858 8859 8860 8861 8862 8863 8864 8865 8866 8867 8868 8869 8870 8871 8872 8873 8874 8875 8876 8877 8878 8879 8880 8881 8882 8883 8884 8885 8886 8887 8888 8889 8890 8891 8892 8893 8894 8895 8896 8897 8898 8899 8900 8901 8902 8903 8904 8905 8906 8907 8908 8909 8910 8911 8912 8913 8914 8915 8916 8917 8918 8919 8920 8921 8922 8923 8924 8925 8926 8927 8928 8929 8930 8931 8932 8933 8934 8935 8936 8937 8938 8939 8940 8941 8942 8943 8944 8945 8946 8947 8948 8949 8950 8951 8952 8953 8954 8955 8956 8957 8958 8959 8960 8961 8962 8963 8964 8965 8966 8967 8968 8969 8970 8971 8972 8973 8974 8975 8976 8977 8978 8979 8980 8981 8982 8983 8984 8985 8986 8987 8988 8989 8990 8991 8992 8993 8994 8995 8996 8997 8998 8999 9000 9001 9002 9003 9004 9005 9006 9007 9008 9009 9010 9011 9012 9013 9014 9015 9016 9017 9018 9019 9020 9021 9022 9023 9024 9025 9026 9027 9028 9029 9030 9031 9032 9033 9034 9035 9036 9037 9038 9039 9040 9041 9042 9043 9044 9045 9046 9047 9048 9049 9050 9051 9052 9053 9054 9055 9056 9057 9058 9059 9060 9061 9062 9063 9064 9065 9066 9067 9068 9069 9070 9071 9072 9073 9074 9075 9076 9077 9078 9079 9080 9081 9082 9083 9084 9085 9086 9087 9088 9089 9090 9091 9092 9093 9094 9095 9096 9097 9098 9099 9100 9101 9102 9103 9104 9105 9106 9107 9108 9109 9110 9111 9112 9113 9114 9115 9116 9117 9118 9119 9120 9121 9122 9123 9124 9125 9126 9127 9128 9129 9130 9131 9132 9133 9134 9135 9136 9137 9138 9139 9140 9141 9142 9143 9144 9145 9146 9147 9148 9149 9150 9151 9152 9153 9154 9155 9156 9157 9158 9159 9160 9161 9162 9163 9164 9165 9166 9167 9168 9169 9170 9171 9172 9173 9174 9175 9176 9177 9178 9179 9180 9181 9182 9183 9184 9185 9186 9187 9188 9189 9190 9191 9192 9193 9194 9195 9196 9197 9198 9199 9200 9201 9202 9203 9204 9205 9206 9207 9208 9209 9210 9211 9212 9213 9214 9215 9216 9217 9218 9219 9220 9221 9222 9223 9224 9225 9226 9227 9228 9229 9230 9231 9232 9233 9234 9235 9236 9237 9238 9239 9240 9241 9242 9243 9244 9245 9246 9247 9248 9249 9250 9251 9252 9253 9254 9255 9256 9257 9258 9259 9260 9261 9262 9263 9264 9265 9266 9267 9268 9269 9270 9271 9272 9273 9274 9275 9276 9277 9278 9279 9280 9281 9282 9283 9284 9285 9286 9287 9288 9289 9290 9291 9292 9293 9294 9295 9296 9297 9298 9299 9300 9301 9302 9303 9304 9305 9306 9307 9308 9309 9310 9311 9312 9313 9314 9315 9316 9317 9318 9319 9320 9321 9322 9323 9324 9325 9326 9327 9328 9329 9330 9331 9332 9333 9334 9335 9336 9337 9338 9339 9340 9341 9342 9343 9344 9345 9346 9347 9348 9349 9350 9351 9352 9353 9354 9355 9356 9357 9358 9359 9360 9361 9362 9363 9364 9365 9366 9367 9368 9369 9370 9371 9372 9373 9374 9375 9376 9377 9378 9379 9380 9381 9382 9383 9384 9385 9386 9387 9388 9389 9390 9391 9392 9393 9394 9395 9396 9397 9398 9399 9400 9401 9402 9403 9404 9405 9406 9407 9408 9409 9410 9411 9412 9413 9414 9415 9416 9417 9418 9419 9420 9421 9422 9423 9424 9425 9426 9427 9428 9429 9430 9431 9432 9433 9434 9435 9436 9437 9438 9439 9440 9441 9442 9443 9444 9445 9446 9447 9448 9449 9450 9451 9452 9453 9454 9455 9456 9457 9458 9459 9460 9461 9462 9463 9464 9465 9466 9467 9468 9469 9470 9471 9472 9473 9474 9475 9476 9477 9478 9479 9480 9481 9482 9483 9484 9485 9486 9487 9488 9489 9490 9491 9492 9493 9494 9495 9496 9497 9498 9499 9500 9501 9502 9503 9504 9505 9506 9507 9508 9509 9510 9511 9512 9513 9514 9515 9516 9517 9518 9519 9520 9521 9522 9523 9524 9525 9526 9527 9528 9529 9530 9531 9532 9533 9534 9535 9536 9537 9538 9539 9540 9541 9542 9543 9544 9545 9546 9547 9548 9549 9550 9551 9552 9553 9554 9555 9556 9557 9558 9559 9560 9561 9562 9563 9564 9565 9566 9567 9568 9569 9570 9571 9572 9573 9574 9575 9576 9577 9578 9579 9580 9581 9582 9583 9584 9585 9586 9587 9588 9589 9590 9591 9592 9593 9594 9595 9596 9597 9598 9599 9600 9601 9602 9603 9604 9605 9606 9607 9608 9609 9610 9611 9612 9613 9614 9615 9616 9617 9618 9619 9620 9621 9622 9623 9624 9625 9626 9627 9628 9629 9630 9631 9632 9633 9634 9635 9636 9637 9638 9639 9640 9641 9642 9643 9644 9645 9646 9647 9648 9649 9650 9651 9652 9653 9654 9655 9656 9657 9658 9659 9660 9661 9662 9663 9664 9665 9666 9667 9668 9669 9670 9671 9672 9673 9674 9675 9676 9677 9678 9679 9680 9681 9682 9683 9684 9685 9686 9687 9688 9689 9690 9691 9692 9693 9694 9695 9696 9697 9698 9699 9700 9701 9702 9703 9704 9705 9706 9707 9708 9709 9710 9711 9712 9713 9714 9715 9716 9717 9718 9719 9720 9721 9722 9723 9724 9725 9726 9727 9728 9729 9730 9731 9732 9733 9734 9735 9736 9737 9738 9739 9740 9741 9742 9743 9744 9745 9746 9747 9748 9749 9750 9751 9752 9753 9754 9755 9756 9757 9758 9759 9760 9761 9762 9763 9764 9765 9766 9767 9768 9769 9770 9771 9772 9773 9774 9775 9776 9777 9778 9779 9780 9781 9782 9783 9784 9785 9786 9787 9788 9789 9790 9791 9792 9793 9794 9795 9796 9797 9798 9799 9800 9801 9802 9803 9804 9805 9806 9807 9808 9809 9810 9811 9812 9813 9814 9815 9816 9817 9818 9819 9820 9821 9822 9823 9824 9825 9826 9827 9828 9829 9830 9831 9832 9833 9834 9835 9836 9837 9838 9839 9840 9841 9842 9843 9844 9845 9846 9847 9848 9849 9850 9851 9852 9853 9854 9855 9856 9857 9858 9859 9860 9861 9862 9863 9864 9865 9866 9867 9868 9869 9870 9871 9872 9873 9874 9875 9876 9877 9878 9879 9880 9881 9882 9883 9884 9885 9886 9887 9888 9889 9890 9891 9892 9893 9894 9895 9896 9897 9898 9899 9900 9901 9902 9903 9904 9905 9906 9907 9908 9909 9910 9911 9912 9913 9914 9915 9916 9917 9918 9919 9920 9921 9922 9923 9924 9925 9926 9927 9928 9929 9930 9931 9932 9933 9934 9935 9936 9937 9938 9939 9940 9941 9942 9943 9944 9945 9946 9947 9948 9949 9950 9951 9952 9953 9954 9955 9956 9957 9958 9959 9960 9961 9962 9963 9964 9965 9966 9967 9968 9969 9970 9971 9972 9973 9974 9975 9976 9977 9978 9979 9980 9981 9982 9983 9984 9985 9986 9987 9988 9989 9990 9991 9992 9993 9994 9995 9996 9997 9998 9999 10000 10001 10002 10003 10004 10005 10006 10007 10008 10009 10010 10011 10012 10013 10014 10015 10016 10017 10018 10019 10020 10021 10022 10023 10024 10025 10026 10027 10028 10029 10030 10031 10032 10033 10034 10035 10036 10037 10038 10039 10040 10041 10042 10043 10044 10045 10046 10047 10048 10049 10050 10051 10052 10053 10054 10055 10056 10057 10058 10059 10060 10061 10062 10063 10064 10065 10066 10067 10068 10069 10070 10071 10072 10073 10074 10075 10076 10077 10078 10079 10080 10081 10082 10083 10084 10085 10086 10087 10088 10089 10090 10091 10092 10093 10094 10095 10096 10097 10098 10099 10100 10101 10102 10103 10104 10105 10106 10107 10108 10109 10110 10111 10112 10113 10114 10115 10116 10117 10118 10119 10120 10121 10122 10123 10124 10125 10126 10127 10128 10129 10130 10131 10132 10133 10134 10135 10136 10137 10138 10139 10140 10141 10142 10143 10144 10145 10146 10147 10148 10149 10150 10151 10152 10153 10154 10155 10156 10157 10158 10159 10160 10161 10162 10163 10164 10165 10166 10167 10168 10169 10170 10171 10172 10173 10174 10175 10176 10177 10178 10179 10180 10181 10182 10183 10184 10185 10186 10187 10188 10189 10190 10191 10192 10193 10194 10195 10196 10197 10198 10199 10200 10201 10202 10203 10204 10205 10206 10207 10208 10209 10210 10211 10212 10213 10214 10215 10216 10217 10218 10219 10220 10221 10222 10223 10224 10225 10226 10227 10228 10229 10230 10231 10232 10233 10234 10235 10236 10237 10238 10239 10240 10241 10242 10243 10244 10245 10246 10247 10248 10249 10250 10251 10252 10253 10254 10255 10256 10257 10258 10259 10260 10261 10262 10263 10264 10265 10266 10267 10268 10269 10270 10271 10272 10273 10274 10275 10276 10277 10278 10279 10280 10281 10282 10283 10284 10285 10286 10287 10288 10289 10290 10291 10292 10293 10294 10295 10296 10297 10298 10299 10300 10301 10302 10303 10304 10305 10306 10307 10308 10309 10310 10311 10312 10313 10314 10315 10316 10317 10318 10319 10320 10321 10322 10323 10324 10325 10326 10327 10328 10329 10330 10331 10332 10333 10334 10335 10336 10337 10338 10339 10340 10341 10342 10343 10344 10345 10346 10347 10348 10349 10350 10351 10352 10353 10354 10355 10356 10357 10358 10359 10360 10361 10362 10363 10364 10365 10366 10367 10368 10369 10370 10371 10372 10373 10374 10375 10376 10377 10378 10379 10380 10381 10382 10383 10384 10385 10386 10387 10388 10389 10390 10391 10392 10393 10394 10395 10396 10397 10398 10399 10400 10401 10402 10403 10404 10405 10406 10407 10408 10409 10410 10411 10412 10413 10414 10415 10416 10417 10418 10419 10420 10421 10422 10423 10424 10425 10426 10427 10428 10429 10430 10431 10432 10433 10434 10435 10436 10437 10438 10439 10440 10441 10442 10443 10444 10445 10446 10447 10448 10449 10450 10451 10452 10453 10454 10455 10456 10457 10458 10459 10460 10461 10462 10463 10464 10465 10466 10467 10468 10469 10470 10471 10472 10473 10474 10475 10476 10477 10478 10479 10480 10481 10482 10483 10484 10485 10486 10487 10488 10489 10490 10491 10492 10493 10494 10495 10496 10497 10498 10499 10500 10501 10502 10503 10504 10505 10506 10507 10508 10509 10510 10511 10512 10513 10514 10515 10516 10517 10518 10519 10520 10521 10522 10523 10524 10525 10526 10527 10528 10529 10530 10531 10532 10533 10534 10535 10536 10537 10538 10539 10540 10541 10542 10543 10544 10545 10546 10547 10548 10549 10550 10551 10552 10553 10554 10555 10556 10557 10558 10559 10560 10561 10562 10563 10564 10565 10566 10567 10568 10569 10570 10571 10572 10573 10574 10575 10576 10577 10578 10579 10580 10581 10582 10583 10584 10585 10586 10587 10588 10589 10590 10591 10592 10593 10594 10595 10596 10597 10598 10599 10600 10601 10602 10603 10604 10605 10606 10607 10608 10609 10610 10611 10612 10613 10614 10615 10616 10617 10618 10619 10620 10621 10622 10623 10624 10625 10626 10627 10628 10629 10630 10631 10632 10633 10634 10635 10636 10637 10638 10639 10640 10641 10642 10643 10644 10645 10646 10647 10648 10649 10650 10651 10652 10653 10654 10655 10656 10657 10658 10659 10660 10661 10662 10663 10664 10665 10666 10667 10668 10669 10670 10671 10672 10673 10674 10675 10676 10677 10678 10679 10680 10681 10682 10683 10684 10685 10686 10687 10688 10689 10690 10691 10692 10693 10694 10695 10696 10697 10698 10699 10700 10701 10702 10703 10704 10705 10706 10707 10708 10709 10710 10711 10712 10713 10714 10715 10716 10717 10718 10719 10720 10721 10722 10723 10724 10725 10726 10727 10728 10729 10730 10731 10732 10733 10734 10735 10736 10737 10738 10739 10740 10741 10742 10743 10744 10745 10746 10747 10748 10749 10750 10751 10752 10753 10754 10755 10756 10757 10758 10759 10760 10761 10762 10763 10764 10765 10766 10767 10768 10769 10770 10771 10772 10773 10774 10775 10776 10777 10778 10779 10780 10781 10782 10783 10784 10785 10786 10787 10788 10789 10790 10791 10792 10793 10794 10795 10796 10797 10798 10799 10800 10801 10802 10803 10804 10805 10806 10807 10808 10809 10810 10811 10812 10813 10814 10815 10816 10817 10818 10819 10820 10821 10822 10823 10824 10825 10826 10827 10828 10829 10830 10831 10832 10833 10834 10835 10836 10837 10838 10839 10840 10841 10842 10843 10844 10845 10846 10847 10848 10849 10850 10851 10852 10853 10854 10855 10856 10857 10858 10859 10860 10861 10862 10863 10864 10865 10866 10867 10868 10869 10870 10871 10872 10873 10874 10875 10876 10877 10878 10879 10880 10881 10882 10883 10884 10885 10886 10887 10888 10889 10890 10891 10892 10893 10894 10895 10896 10897 10898 10899 10900 10901 10902 10903 10904 10905 10906 10907 10908 10909 10910 10911 10912 10913 10914 10915 10916 10917 10918 10919 10920 10921 10922 10923 10924 10925 10926 10927 10928 10929 10930 10931 10932 10933 10934 10935 10936 10937 10938 10939 10940 10941 10942 10943 10944 10945 10946 10947 10948 10949 10950 10951 10952 10953 10954 10955 10956 10957 10958 10959 10960 10961 10962 10963 10964 10965 10966 10967 10968 10969 10970 10971 10972 10973 10974 10975 10976 10977 10978 10979 10980 10981 10982 10983 10984 10985 10986 10987 10988 10989 10990 10991 10992 10993 10994 10995 10996 10997 10998 10999 11000 11001 11002 11003 11004 11005 11006 11007 11008 11009 11010 11011 11012 11013 11014 11015 11016 11017 11018 11019 11020 11021 11022 11023 11024 11025 11026 11027 11028 11029 11030 11031 11032 11033 11034 11035 11036 11037 11038 11039 11040 11041 11042 11043 11044 11045 11046 11047 11048 11049 11050 11051 11052 11053 11054 11055 11056 11057 11058 11059 11060 11061 11062 11063 11064 11065 11066 11067 11068 11069 11070 11071 11072 11073 11074 11075 11076 11077 11078 11079 11080 11081 11082 11083 11084 11085 11086 11087 11088 11089 11090 11091 11092 11093 11094 11095 11096 11097 11098 11099 11100 11101 11102 11103 11104 11105 11106 11107 11108 11109 11110 11111 11112 11113 11114 11115 11116 11117 11118 11119 11120 11121 11122 11123 11124 11125 11126 11127 11128 11129 11130 11131 11132 11133 11134 11135 11136 11137 11138 11139 11140 11141 11142 11143 11144 11145 11146 11147 11148 11149 11150 11151 11152 11153 11154 11155 11156 11157 11158 11159 11160 11161 11162 11163 11164 11165 11166 11167 11168 11169 11170 11171 11172 11173 11174 11175 11176 11177 11178 11179 11180 11181 11182 11183 11184 11185 11186 11187 11188 11189 11190 11191 11192 11193 11194 11195 11196 11197 11198 11199 11200 11201 11202 11203 11204 11205 11206 11207 11208 11209 11210 11211 11212 11213 11214 11215 11216 11217 11218 11219 11220 11221 11222 11223 11224 11225 11226 11227 11228 11229 11230 11231 11232 11233 11234 11235 11236 11237 11238 11239 11240 11241 11242 11243 11244 11245 11246 11247 11248 11249 11250 11251 11252 11253 11254 11255 11256 11257 11258 11259 11260 11261 11262 11263 11264 11265 11266 11267 11268 11269 11270 11271 11272 11273 11274 11275 11276 11277 11278 11279 11280 11281 11282 11283 11284 11285 11286 11287 11288 11289 11290 11291 11292 11293 11294 11295 11296 11297 11298 11299 11300 11301 11302 11303 11304 11305 11306 11307 11308 11309 11310 11311 11312 11313 11314 11315 11316 11317 11318 11319 11320 11321 11322 11323 11324 11325 11326 11327 11328 11329 11330 11331 11332 11333 11334 11335 11336 11337 11338 11339 11340 11341 11342 11343 11344 11345 11346 11347 11348 11349 11350 11351 11352 11353 11354 11355 11356 11357 11358 11359 11360 11361 11362 11363 11364 11365 11366 11367 11368 11369 11370 11371 11372 11373 11374 11375 11376 11377 11378 11379 11380 11381 11382 11383 11384 11385 11386 11387 11388 11389 11390 11391 11392 11393 11394 11395 11396 11397 11398 11399 11400 11401 11402 11403 11404 11405 11406 11407 11408 11409 11410 11411 11412 11413 11414 11415 11416 11417 11418 11419 11420 11421 11422 11423 11424 11425 11426 11427 11428 11429 11430 11431 11432 11433 11434 11435 11436 11437 11438 11439 11440 11441 11442 11443 11444 11445 11446 11447 11448 11449 11450 11451 11452 11453 11454 11455 11456 11457 11458 11459 11460 11461 11462 11463 11464 11465 11466 11467 11468 11469 11470 11471 11472 11473 11474 11475 11476 11477 11478 11479 11480 11481 11482 11483 11484 11485 11486 11487 11488 11489 11490 11491 11492 11493 11494 11495 11496 11497 11498 11499 11500 11501 11502 11503 11504 11505 11506 11507 11508 11509 11510 11511 11512 11513 11514 11515 11516 11517 11518 11519 11520 11521 11522 11523 11524 11525 11526 11527 11528 11529 11530 11531 11532 11533 11534 11535 11536 11537 11538 11539 11540 11541 11542 11543 11544 11545 11546 11547 11548 11549 11550 11551 11552 11553 11554 11555 11556 11557 11558 11559 11560 11561 11562 11563 11564 11565 11566 11567 11568 11569 11570 11571 11572 11573 11574 11575 11576 11577 11578 11579 11580 11581 11582 11583 11584 11585 11586 11587 11588 11589 11590 11591 11592 11593 11594 11595 11596 11597 11598 11599 11600 11601 11602 11603 11604 11605 11606 11607 11608 11609 11610 11611 11612 11613 11614 11615 11616 11617 11618 11619 11620 11621 11622 11623 11624 11625 11626 11627 11628 11629 11630 11631 11632 11633 11634 11635 11636 11637 11638 11639 11640 11641 11642 11643 11644 11645 11646 11647 11648 11649 11650 11651 11652 11653 11654 11655 11656 11657 11658 11659 11660 11661 11662 11663 11664 11665 11666 11667 11668 11669 11670 11671 11672 11673 11674 11675 11676 11677 11678 11679 11680 11681 11682 11683 11684 11685 11686 11687 11688 11689 11690 11691 11692 11693 11694 11695 11696 11697 11698 11699 11700 11701 11702 11703 11704 11705 11706 11707 11708 11709 11710 11711 11712 11713 11714 11715 11716 11717 11718 11719 11720 11721 11722 11723 11724 11725 11726 11727 11728 11729 11730 11731 11732 11733 11734 11735 11736 11737 11738 11739 11740 11741 11742 11743 11744 11745 11746 11747 11748 11749 11750 11751 11752 11753 11754 11755 11756 11757 11758 11759 11760 11761 11762 11763 11764 11765 11766 11767 11768 11769 11770 11771 11772 11773 11774 11775 11776 11777 11778 11779 11780 11781 11782 11783 11784 11785 11786 11787 11788 11789 11790 11791 11792 11793 11794 11795 11796 11797 11798 11799 11800 11801 11802 11803 11804 11805 11806 11807 11808 11809 11810 11811 11812 11813 11814 11815 11816 11817 11818 11819 11820 11821 11822 11823 11824 11825 11826 11827 11828 11829 11830 11831 11832 11833 11834 11835 11836 11837 11838 11839 11840 11841 11842 11843 11844 11845 11846 11847 11848 11849 11850 11851 11852 11853 11854 11855 11856 11857 11858 11859 11860 11861 11862 11863 11864 11865 11866 11867 11868 11869 11870 11871 11872 11873 11874 11875 11876 11877 11878 11879 11880 11881 11882 11883 11884 11885 11886 11887 11888 11889 11890 11891 11892 11893 11894 11895 11896 11897 11898 11899 11900 11901 11902 11903 11904 11905 11906 11907 11908 11909 11910 11911 11912 11913 11914 11915 11916 11917 11918 11919 11920 11921 11922 11923 11924 11925 11926 11927 11928 11929 11930 11931 11932 11933 11934 11935 11936 11937 11938 11939 11940 11941 11942 11943 11944 11945 11946 11947 11948 11949 11950 11951 11952 11953 11954 11955 11956 11957 11958 11959 11960 11961 11962 11963 11964 11965 11966 11967 11968 11969 11970 11971 11972 11973 11974 11975 11976 11977 11978 11979 11980 11981 11982 11983 11984 11985 11986 11987 11988 11989 11990 11991 11992 11993 11994 11995 11996 11997 11998 11999 12000 12001 12002 12003 12004 12005 12006 12007 12008 12009 12010 12011 12012 12013 12014 12015 12016 12017 12018 12019 12020 12021 12022 12023 12024 12025 12026 12027 12028 12029 12030 12031 12032 12033 12034 12035 12036 12037 12038 12039 12040 12041 12042 12043 12044 12045 12046 12047 12048 12049 12050 12051 12052 12053 12054 12055 12056 12057 12058 12059 12060 12061 12062 12063 12064 12065 12066 12067 12068 12069 12070 12071 12072 12073 12074 12075 12076 12077 12078 12079 12080 12081 12082 12083 12084 12085 12086 12087 12088 12089 12090 12091 12092 12093 12094 12095 12096 12097 12098 12099 12100 12101 12102 12103 12104 12105 12106 12107 12108 12109 12110 12111 12112 12113 12114 12115 12116 12117 12118 12119 12120 12121 12122 12123 12124 12125 12126 12127 12128 12129 12130 12131 12132 12133 12134 12135 12136 12137 12138 12139 12140 12141 12142 12143 12144 12145 12146 12147 12148 12149 12150 12151 12152 12153 12154 12155 12156 12157 12158 12159 12160 12161 12162 12163 12164 12165 12166 12167 12168 12169 12170 12171 12172 12173 12174 12175 12176 12177 12178 12179 12180 12181 12182 12183 12184 12185 12186 12187 12188 12189 12190 12191 12192 12193 12194 12195 12196 12197 12198 12199 12200 12201 12202 12203 12204 12205 12206 12207 12208 12209 12210 12211 12212 12213 12214 12215 12216 12217 12218 12219 12220 12221 12222 12223 12224 12225 12226 12227 12228 12229 12230 12231 12232 12233 12234 12235 12236 12237 12238 12239 12240 12241 12242 12243 12244 12245 12246 12247 12248 12249 12250 12251 12252 12253 12254 12255 12256 12257 12258 12259 12260 12261 12262 12263 12264 12265 12266 12267 12268 12269 12270 12271 12272 12273 12274 12275 12276 12277 12278 12279 12280 12281 12282 12283 12284 12285 12286 12287 12288 12289 12290 12291 12292 12293 12294 12295 12296 12297 12298 12299 12300 12301 12302 12303 12304 12305 12306 12307 12308 12309 12310 12311 12312 12313 12314 12315 12316 12317 12318 12319 12320 12321 12322 12323 12324 12325 12326 12327 12328 12329 12330 12331 12332 12333 12334 12335 12336 12337 12338 12339 12340 12341 12342 12343 12344 12345 12346 12347 12348 12349 12350 12351 12352 12353 12354 12355 12356 12357 12358 12359 12360 12361 12362 12363 12364 12365 12366 12367 12368 12369 12370 12371 12372 12373 12374 12375 12376 12377 12378 12379 12380 12381 12382 12383 12384 12385 12386 12387 12388 12389 12390 12391 12392 12393 12394 12395 12396 12397 12398 12399 12400 12401 12402 12403 12404 12405 12406 12407 12408 12409 12410 12411 12412 12413 12414 12415 12416 12417 12418 12419 12420 12421 12422 12423 12424 12425 12426 12427 12428 12429 12430 12431 12432 12433 12434 12435 12436 12437 12438 12439 12440 12441 12442 12443 12444 12445 12446 12447 12448 12449 12450 12451 12452 12453 12454 12455 12456 12457 12458 12459 12460 12461 12462 12463 12464 12465 12466 12467 12468 12469 12470 12471 12472 12473 12474 12475 12476 12477 12478 12479 12480 12481 12482 12483 12484 12485 12486 12487 12488 12489 12490 12491 12492 12493 12494 12495 12496 12497 12498 12499 12500 12501 12502 12503 12504 12505 12506 12507 12508 12509 12510 12511 12512 12513 12514 12515 12516 12517 12518 12519 12520 12521 12522 12523 12524 12525 12526 12527 12528 12529 12530 12531 12532 12533 12534 12535 12536 12537 12538 12539 12540 12541 12542 12543 12544 12545 12546 12547 12548 12549 12550 12551 12552 12553 12554 12555 12556 12557 12558 12559 12560 12561 12562 12563 12564 12565 12566 12567 12568 12569 12570 12571 12572 12573 12574 12575 12576 12577 12578 12579 12580 12581 12582 12583 12584 12585 12586 12587 12588 12589 12590 12591 12592 12593 12594 12595 12596 12597 12598 12599 12600 12601 12602 12603 12604 12605 12606 12607 12608 12609 12610 12611 12612 12613 12614 12615 12616 12617 12618 12619 12620 12621 12622 12623 12624 12625 12626 12627 12628 12629 12630 12631 12632 12633 12634 12635 12636 12637 12638 12639 12640 12641 12642 12643 12644 12645 12646 12647 12648 12649 12650 12651 12652 12653 12654 12655 12656 12657 12658 12659 12660 12661 12662 12663 12664 12665 12666 12667 12668 12669 12670 12671 12672 12673 12674 12675 12676 12677 12678 12679 12680 12681 12682 12683 12684 12685 12686 12687 12688 12689 12690 12691 12692 12693 12694 12695 12696 12697 12698 12699 12700 12701 12702 12703 12704 12705 12706 12707 12708 12709 12710 12711 12712 12713 12714 12715 12716 12717 12718 12719 12720 12721 12722 12723 12724 12725 12726 12727 12728 12729 12730 12731 12732 12733 12734 12735 12736 12737 12738 12739 12740 12741 12742 12743 12744 12745 12746 12747 12748 12749 12750 12751 12752 12753 12754 12755 12756 12757 12758 12759 12760 12761 12762 12763 12764 12765 12766 12767 12768 12769 12770 12771 12772 12773 12774 12775 12776 12777 12778 12779 12780 12781 12782 12783 12784 12785 12786 12787 12788 12789 12790 12791 12792 12793 12794 12795 12796 12797 12798 12799 12800 12801 12802 12803 12804 12805 12806 12807 12808 12809 12810 12811 12812 12813 12814 12815 12816 12817 12818 12819 12820 12821 12822 12823 12824 12825 12826 12827 12828 12829 12830 12831 12832 12833 12834 12835 12836 12837 12838 12839 12840 12841 12842 12843 12844 12845 12846 12847 12848 12849 12850 12851 12852 12853 12854 12855 12856 12857 12858 12859 12860 12861 12862 12863 12864 12865 12866 12867 12868 12869 12870 12871 12872 12873 12874 12875 12876 12877 12878 12879 12880 12881 12882 12883 12884 12885 12886 12887 12888 12889 12890 12891 12892 12893 12894 12895 12896 12897 12898 12899 12900 12901 12902 12903 12904 12905 12906 12907 12908 12909 12910 12911 12912 12913 12914 12915 12916 12917 12918 12919 12920 12921 12922 12923 12924 12925 12926 12927 12928 12929 12930 12931 12932 12933 12934 12935 12936 12937 12938 12939 12940 12941 12942 12943 12944 12945 12946 12947 12948 12949 12950 12951 12952 12953 12954 12955 12956 12957 12958 12959 12960 12961 12962 12963 12964 12965 12966 12967 12968 12969 12970 12971 12972 12973 12974 12975 12976 12977 12978 12979 12980 12981 12982 12983 12984 12985 12986 12987 12988 12989 12990 12991 12992 12993 12994 12995 12996 12997 12998 12999 13000 13001 13002 13003 13004 13005 13006 13007 13008 13009 13010 13011 13012 13013 13014 13015 13016 13017 13018 13019 13020 13021 13022 13023 13024 13025 13026 13027 13028 13029 13030 13031 13032 13033 13034 13035 13036 13037 13038 13039 13040 13041 13042 13043 13044 13045 13046 13047 13048 13049 13050 13051 13052 13053 13054 13055 13056 13057 13058 13059 13060 13061 13062 13063 13064 13065 13066 13067 13068 13069 13070 13071 13072 13073 13074 13075 13076 13077 13078 13079 13080 13081 13082 13083 13084 13085 13086 13087 13088 13089 13090 13091 13092 13093 13094 13095 13096 13097 13098 13099 13100 13101 13102 13103 13104 13105 13106 13107 13108 13109 13110 13111 13112 13113 13114 13115 13116 13117 13118 13119 13120 13121 13122 13123 13124 13125 13126 13127 13128 13129 13130 13131 13132 13133 13134 13135 13136 13137 13138 13139 13140 13141 13142 13143 13144 13145 13146 13147 13148 13149 13150 13151 13152 13153 13154 13155 13156 13157 13158 13159 13160 13161 13162 13163 13164 13165 13166 13167 13168 13169 13170 13171 13172 13173 13174 13175 13176 13177 13178 13179 13180 13181 13182 13183 13184 13185 13186 13187 13188 13189 13190 13191 13192 13193 13194 13195 13196 13197 13198 13199 13200 13201 13202 13203 13204 13205 13206 13207 13208 13209 13210 13211 13212 13213 13214 13215 13216 13217 13218 13219 13220 13221 13222 13223 13224 13225 13226 13227 13228 13229 13230 13231 13232 13233 13234 13235 13236 13237 13238 13239 13240 13241 13242 13243 13244 13245 13246 13247 13248 13249 13250 13251 13252 13253 13254 13255 13256 13257 13258 13259 13260 13261 13262 13263 13264 13265 13266 13267 13268 13269 13270 13271 13272 13273 13274 13275 13276 13277 13278 13279 13280 13281 13282 13283 13284 13285 13286 13287 13288 13289 13290 13291 13292 13293 13294 13295 13296 13297 13298 13299 13300 13301 13302 13303 13304 13305 13306 13307 13308 13309 13310 13311 13312 13313 13314 13315 13316 13317 13318 13319 13320 13321 13322 13323 13324 13325 13326 13327 13328 13329 13330 13331 13332 13333 13334 13335 13336 13337 13338 13339 13340 13341 13342 13343 13344 13345 13346 13347 13348 13349 13350 13351 13352 13353 13354 13355 13356 13357 13358 13359 13360 13361 13362 13363 13364 13365 13366 13367 13368 13369 13370 13371 13372 13373 13374 13375 13376 13377 13378 13379 13380 13381 13382 13383 13384 13385 13386 13387 13388 13389 13390 13391 13392 13393 13394 13395 13396 13397 13398 13399 13400 13401 13402 13403 13404 13405 13406 13407 13408 13409 13410 13411 13412 13413 13414 13415 13416 13417 13418 13419 13420 13421 13422 13423 13424 13425 13426 13427 13428 13429 13430 13431 13432 13433 13434 13435 13436 13437 13438 13439 13440 13441 13442 13443 13444 13445 13446 13447 13448 13449 13450 13451 13452 13453 13454 13455 13456 13457 13458 13459 13460 13461 13462 13463 13464 13465 13466 13467 13468 13469 13470 13471 13472 13473 13474 13475 13476 13477 13478 13479 13480 13481 13482 13483 13484 13485 13486 13487 13488 13489 13490 13491 13492 13493 13494 13495 13496 13497 13498 13499 13500 13501 13502 13503 13504 13505 13506 13507 13508 13509 13510 13511 13512 13513 13514 13515 13516 13517 13518 13519 13520 13521 13522 13523 13524 13525 13526 13527 13528 13529 13530 13531 13532 13533 13534 13535 13536 13537 13538 13539 13540 13541 13542 13543 13544 13545 13546 13547 13548 13549 13550 13551 13552 13553 13554 13555 13556 13557 13558 13559 13560 13561 13562 13563 13564 13565 13566 13567 13568 13569 13570 13571 13572 13573 13574 13575 13576 13577 13578 13579 13580 13581 13582 13583 13584 13585 13586 13587 13588 13589 13590 13591 13592 13593 13594 13595 13596 13597 13598 13599 13600 13601 13602 13603 13604 13605 13606 13607 13608 13609 13610 13611 13612 13613 13614 13615 13616 13617 13618 13619 13620 13621 13622 13623 13624 13625 13626 13627 13628 13629 13630 13631 13632 13633 13634 13635 13636 13637 13638 13639 13640 13641 13642 13643 13644 13645 13646 13647 13648 13649 13650 13651 13652 13653 13654 13655 13656 13657 13658 13659 13660 13661 13662 13663 13664 13665 13666 13667 13668 13669 13670 13671 13672 13673 13674 13675 13676 13677 13678 13679 13680 13681 13682 13683 13684 13685 13686 13687 13688 13689 13690 13691 13692 13693 13694 13695 13696 13697 13698 13699 13700 13701 13702 13703 13704 13705 13706 13707 13708 13709 13710 13711 13712 13713 13714 13715 13716 13717 13718 13719 13720 13721 13722 13723 13724 13725 13726 13727 13728 13729 13730 13731 13732 13733 13734 13735 13736 13737 13738 13739 13740 13741 13742 13743 13744 13745 13746 13747 13748 13749 13750 13751 13752 13753 13754 13755 13756 13757 13758 13759 13760 13761 13762 13763 13764 13765 13766 13767 13768 13769 13770 13771 13772 13773 13774 13775 13776 13777 13778 13779 13780 13781 13782 13783 13784 13785 13786 13787 13788 13789 13790 13791 13792 13793 13794 13795 13796 13797 13798 13799 13800 13801 13802 13803 13804 13805 13806 13807 13808 13809 13810 13811 13812 13813 13814 13815 13816 13817 13818 13819 13820 13821 13822 13823 13824 13825 13826 13827 13828 13829 13830 13831 13832 13833 13834 13835 13836 13837 13838 13839 13840 13841 13842 13843 13844 13845 13846 13847 13848 13849 13850 13851 13852 13853 13854 13855 13856 13857 13858 13859 13860 13861 13862 13863 13864 13865 13866 13867 13868 13869 13870 13871 13872 13873 13874 13875 13876 13877 13878 13879 13880 13881 13882 13883 13884 13885 13886 13887 13888 13889 13890 13891 13892 13893 13894 13895 13896 13897 13898 13899 13900 13901 13902 13903 13904 13905 13906 13907 13908 13909 13910 13911 13912 13913 13914 13915 13916 13917 13918 13919 13920 13921 13922 13923 13924 13925 13926 13927 13928 13929 13930 13931 13932 13933 13934 13935 13936 13937 13938 13939 13940 13941 13942 13943 13944 13945 13946 13947 13948 13949 13950 13951 13952 13953 13954 13955 13956 13957 13958 13959 13960 13961 13962 13963 13964 13965 13966 13967 13968 13969 13970 13971 13972 13973 13974 13975 13976 13977 13978 13979 13980 13981 13982 13983 13984 13985 13986 13987 13988 13989 13990 13991 13992 13993 13994 13995 13996 13997 13998 13999 14000 14001 14002 14003 14004 14005 14006 14007 14008 14009 14010 14011 14012 14013 14014 14015 14016 14017 14018 14019 14020 14021 14022 14023 14024 14025 14026 14027 14028 14029 14030 14031 14032 14033 14034 14035 14036 14037 14038 14039 14040 14041 14042 14043 14044 14045 14046 14047 14048 14049 14050 14051 14052 14053 14054 14055 14056 14057 14058 14059 14060 14061 14062 14063 14064 14065 14066 14067 14068 14069 14070 14071 14072 14073 14074 14075 14076 14077 14078 14079 14080 14081 14082 14083 14084 14085 14086 14087 14088 14089 14090 14091 14092 14093 14094 14095 14096 14097 14098 14099 14100 14101 14102 14103 14104 14105 14106 14107 14108 14109 14110 14111 14112 14113 14114 14115 14116 14117 14118 14119 14120 14121 14122 14123 14124 14125 14126 14127 14128 14129 14130 14131 14132 14133 14134 14135 14136 14137 14138 14139 14140 14141 14142 14143 14144 14145 14146 14147 14148 14149 14150 14151 14152 14153 14154 14155 14156 14157 14158 14159 14160 14161 14162 14163 14164 14165 14166 14167 14168 14169 14170 14171 14172 14173 14174 14175 14176 14177 14178 14179 14180 14181 14182 14183 14184 14185 14186 14187 14188 14189 14190 14191 14192 14193 14194 14195 14196 14197 14198 14199 14200 14201 14202 14203 14204 14205 14206 14207 14208 14209 14210 14211 14212 14213 14214 14215 14216 14217 14218 14219 14220 14221 14222 14223 14224 14225 14226 14227 14228 14229 14230 14231 14232 14233 14234 14235 14236 14237 14238 14239 14240 14241 14242 14243 14244 14245 14246 14247 14248 14249 14250 14251 14252 14253 14254 14255 14256 14257 14258 14259 14260 14261 14262 14263 14264 14265 14266 14267 14268 14269 14270 14271 14272 14273 14274 14275 14276 14277 14278 14279 14280 14281 14282 14283 14284 14285 14286 14287 14288 14289 14290 14291 14292 14293 14294 14295 14296 14297 14298 14299 14300 14301 14302 14303 14304 14305 14306 14307 14308 14309 14310 14311 14312 14313 14314 14315 14316 14317 14318 14319 14320 14321 14322 14323 14324 14325 14326 14327 14328 14329 14330 14331 14332 14333 14334 14335 14336 14337 14338 14339 14340 14341 14342 14343 14344 14345 14346 14347 14348 14349 14350 14351 14352 14353 14354 14355 14356 14357 14358 14359 14360 14361 14362 14363 14364 14365 14366 14367 14368 14369 14370 14371 14372 14373 14374 14375 14376 14377 14378 14379 14380 14381 14382 14383 14384 14385 14386 14387 14388 14389 14390 14391 14392 14393 14394 14395 14396 14397 14398 14399 14400 14401 14402 14403 14404 14405 14406 14407 14408 14409 14410 14411 14412 14413 14414 14415 14416 14417 14418 14419 14420 14421 14422 14423 14424 14425 14426 14427 14428 14429 14430 14431 14432 14433 14434 14435 14436 14437 14438 14439 14440 14441 14442 14443 14444 14445 14446 14447 14448 14449 14450 14451 14452 14453 14454 14455 14456 14457 14458 14459 14460 14461 14462 14463 14464 14465 14466 14467 14468 14469 14470 14471 14472 14473 14474 14475 14476 14477 14478 14479 14480 14481 14482 14483 14484 14485 14486 14487 14488 14489 14490 14491 14492 14493 14494 14495 14496 14497 14498 14499 14500 14501 14502 14503 14504 14505 14506 14507 14508 14509 14510 14511 14512 14513 14514 14515 14516 14517 14518 14519 14520 14521 14522 14523 14524 14525 14526 14527 14528 14529 14530 14531 14532 14533 14534 14535 14536 14537 14538 14539 14540 14541 14542 14543 14544 14545 14546 14547 14548 14549 14550 14551 14552 14553 14554 14555 14556 14557 14558 14559 14560 14561 14562 14563 14564 14565 14566 14567 14568 14569 14570 14571 14572 14573 14574 14575 14576 14577 14578 14579 14580 14581 14582 14583 14584 14585 14586 14587 14588 14589 14590 14591 14592 14593 14594 14595 14596 14597 14598 14599 14600 14601 14602 14603 14604 14605 14606 14607 14608 14609 14610 14611 14612 14613 14614 14615 14616 14617 14618 14619 14620 14621 14622 14623 14624 14625 14626 14627 14628 14629 14630 14631 14632 14633 14634 14635 14636 14637 14638 14639 14640 14641 14642 14643 14644 14645 14646 14647 14648 14649 14650 14651 14652 14653 14654 14655 14656 14657 14658 14659 14660 14661 14662 14663 14664 14665 14666 14667 14668 14669 14670 14671 14672 14673 14674 14675 14676 14677 14678 14679 14680 14681 14682 14683 14684 14685 14686 14687 14688 14689 14690 14691 14692 14693 14694 14695 14696 14697 14698 14699 14700 14701 14702 14703 14704 14705 14706 14707 14708 14709 14710 14711 14712 14713 14714 14715 14716 14717 14718 14719 14720 14721 14722 14723 14724 14725 14726 14727 14728 14729 14730 14731 14732 14733 14734 14735 14736 14737 14738 14739 14740 14741 14742 14743 14744 14745 14746 14747 14748 14749 14750 14751 14752 14753 14754 14755 14756 14757 14758 14759 14760 14761 14762 14763 14764 14765 14766 14767 14768 14769 14770 14771 14772 14773 14774 14775 14776 14777 14778 14779 14780 14781 14782 14783 14784 14785 14786 14787 14788 14789 14790 14791 14792 14793 14794 14795 14796 14797 14798 14799 14800 14801 14802 14803 14804 14805 14806 14807 14808 14809 14810 14811 14812 14813 14814 14815 14816 14817 14818 14819 14820 14821 14822 14823 14824 14825 14826 14827 14828 14829 14830 14831 14832 14833 14834 14835 14836 14837 14838 14839 14840 14841 14842 14843 14844 14845 14846 14847 14848 14849 14850 14851 14852 14853 14854 14855 14856 14857 14858 14859 14860 14861 14862 14863 14864 14865 14866 14867 14868 14869 14870 14871 14872 14873 14874 14875 14876 14877 14878 14879 14880 14881 14882 14883 14884 14885 14886 14887 14888 14889 14890 14891 14892 14893 14894 14895 14896 14897 14898 14899 14900 14901 14902 14903 14904 14905 14906 14907 14908 14909 14910 14911 14912 14913 14914 14915 14916 14917 14918 14919 14920 14921 14922 14923 14924 14925 14926 14927 14928 14929 14930 14931 14932 14933 14934 14935 14936 14937 14938 14939 14940 14941 14942 14943 14944 14945 14946 14947 14948 14949 14950 14951 14952 14953 14954 14955 14956 14957 14958 14959 14960 14961 14962 14963 14964 14965 14966 14967 14968 14969 14970 14971 14972 14973 14974 14975 14976 14977 14978 14979 14980 14981 14982 14983 14984 14985 14986 14987 14988 14989 14990 14991 14992 14993 14994 14995 14996 14997 14998 14999 15000 15001 15002 15003 15004 15005 15006 15007 15008 15009 15010 15011 15012 15013 15014 15015 15016 15017 15018 15019 15020 15021 15022 15023 15024 15025 15026 15027 15028 15029 15030 15031 15032 15033 15034 15035 15036 15037 15038 15039 15040 15041 15042 15043 15044 15045 15046 15047 15048 15049 15050 15051 15052 15053 15054 15055 15056 15057 15058 15059 15060 15061 15062 15063 15064 15065 15066 15067 15068 15069 15070 15071 15072 15073 15074 15075 15076 15077 15078 15079 15080 15081 15082 15083 15084 15085 15086 15087 15088 15089 15090 15091 15092 15093 15094 15095 15096 15097 15098 15099 15100 15101 15102 15103 15104 15105 15106 15107 15108 15109 15110 15111 15112 15113 15114 15115 15116 15117 15118 15119 15120 15121 15122 15123 15124 15125 15126 15127 15128 15129 15130 15131 15132 15133 15134 15135 15136 15137 15138 15139 15140 15141 15142 15143 15144 15145 15146 15147 15148 15149 15150 15151 15152 15153 15154 15155 15156 15157 15158 15159 15160 15161 15162 15163 15164 15165 15166 15167 15168 15169 15170 15171 15172 15173 15174 15175 15176 15177 15178 15179 15180 15181 15182 15183 15184 15185 15186 15187 15188 15189 15190 15191 15192 15193 15194 15195 15196 15197 15198 15199 15200 15201 15202 15203 15204 15205 15206 15207 15208 15209 15210 15211 15212 15213 15214 15215 15216 15217 15218 15219 15220 15221 15222 15223 15224 15225 15226 15227 15228 15229 15230 15231 15232 15233 15234 15235 15236 15237 15238 15239 15240 15241 15242 15243 15244 15245 15246 15247 15248 15249 15250 15251 15252 15253 15254 15255 15256 15257 15258 15259 15260 15261 15262 15263 15264 15265 15266 15267 15268 15269 15270 15271 15272 15273 15274 15275 15276 15277 15278 15279 15280 15281 15282 15283 15284 15285 15286 15287 15288 15289 15290 15291 15292 15293 15294 15295 15296 15297 15298 15299 15300 15301 15302 15303 15304 15305 15306 15307 15308 15309 15310 15311 15312 15313 15314 15315 15316 15317 15318 15319 15320 15321 15322 15323 15324 15325 15326 15327 15328 15329 15330 15331 15332 15333 15334 15335 15336 15337 15338 15339 15340 15341 15342 15343 15344 15345 15346 15347 15348 15349 15350 15351 15352 15353 15354 15355 15356 15357 15358 15359 15360 15361 15362 15363 15364 15365 15366 15367 15368 15369 15370 15371 15372 15373 15374 15375 15376 15377 15378 15379 15380 15381 15382 15383 15384 15385 15386 15387 15388 15389 15390 15391 15392 15393 15394 15395 15396 15397 15398 15399 15400 15401 15402 15403 15404 15405 15406 15407 15408 15409 15410 15411 15412 15413 15414 15415 15416 15417 15418 15419 15420 15421 15422 15423 15424 15425 15426 15427 15428 15429 15430 15431 15432 15433 15434 15435 15436 15437 15438 15439 15440 15441 15442 15443 15444 15445 15446 15447 15448 15449 15450 15451 15452 15453 15454 15455 15456 15457 15458 15459 15460 15461 15462 15463 15464 15465 15466 15467 15468 15469 15470 15471 15472 15473 15474 15475 15476 15477 15478 15479 15480 15481 15482 15483 15484 15485 15486 15487 15488 15489 15490 15491 15492 15493 15494 15495 15496 15497 15498 15499 15500 15501 15502 15503 15504 15505 15506 15507 15508 15509 15510 15511 15512 15513 15514 15515 15516 15517 15518 15519 15520 15521 15522 15523 15524 15525 15526 15527 15528 15529 15530 15531 15532 15533 15534 15535 15536 15537 15538 15539 15540 15541 15542 15543 15544 15545 15546 15547 15548 15549 15550 15551 15552 15553 15554 15555 15556 15557 15558 15559 15560 15561 15562 15563 15564 15565 15566 15567 15568 15569 15570 15571 15572 15573 15574 15575 15576 15577 15578 15579 15580 15581 15582 15583 15584 15585 15586 15587 15588 15589 15590 15591 15592 15593 15594 15595 15596 15597 15598 15599 15600 15601 15602 15603 15604 15605 15606 15607 15608 15609 15610 15611 15612 15613 15614 15615 15616 15617 15618 15619 15620 15621 15622 15623 15624 15625 15626 15627 15628 15629 15630 15631 15632 15633 15634 15635 15636 15637 15638 15639 15640 15641 15642 15643 15644 15645 15646 15647 15648 15649 15650 15651 15652 15653 15654 15655 15656 15657 15658 15659 15660 15661 15662 15663 15664 15665 15666 15667 15668 15669 15670 15671 15672 15673 15674 15675 15676 15677 15678 15679 15680 15681 15682 15683 15684 15685 15686 15687 15688 15689 15690 15691 15692 15693 15694 15695 15696 15697 15698 15699 15700 15701 15702 15703 15704 15705 15706 15707 15708 15709 15710 15711 15712 15713 15714 15715 15716 15717 15718 15719 15720 15721 15722 15723 15724 15725 15726 15727 15728 15729 15730 15731 15732 15733 15734 15735 15736 15737 15738 15739 15740 15741 15742 15743 15744 15745 15746 15747 15748 15749 15750 15751 15752 15753 15754 15755 15756 15757 15758 15759 15760 15761 15762 15763 15764 15765 15766 15767 15768 15769 15770 15771 15772 15773 15774 15775 15776 15777 15778 15779 15780 15781 15782 15783 15784 15785 15786 15787 15788 15789 15790 15791 15792 15793 15794 15795 15796 15797 15798 15799 15800 15801 15802 15803 15804 15805 15806 15807 15808 15809 15810 15811 15812 15813 15814 15815 15816 15817 15818 15819 15820 15821 15822 15823 15824 15825 15826 15827 15828 15829 15830 15831 15832 15833 15834 15835 15836 15837 15838 15839 15840 15841 15842 15843 15844 15845 15846 15847 15848 15849 15850 15851 15852 15853 15854 15855 15856 15857 15858 15859 15860 15861 15862 15863 15864 15865 15866 15867 15868 15869 15870 15871 15872 15873 15874 15875 15876 15877 15878 15879 15880 15881 15882 15883 15884 15885 15886 15887 15888 15889 15890 15891 15892 15893 15894 15895 15896 15897 15898 15899 15900 15901 15902 15903 15904 15905 15906 15907 15908 15909 15910 15911 15912 15913 15914 15915 15916 15917 15918 15919 15920 15921 15922 15923 15924 15925 15926 15927 15928 15929 15930 15931 15932 15933 15934 15935 15936 15937 15938 15939 15940 15941 15942 15943 15944 15945 15946 15947 15948 15949 15950 15951 15952 15953 15954 15955 15956 15957 15958 15959 15960 15961 15962 15963 15964 15965 15966 15967 15968 15969 15970 15971 15972 15973 15974 15975 15976 15977 15978 15979 15980 15981 15982 15983 15984 15985 15986 15987 15988 15989 15990 15991 15992 15993 15994 15995 15996 15997 15998 15999 16000 16001 16002 16003 16004 16005 16006 16007 16008 16009 16010 16011 16012 16013 16014 16015 16016 16017 16018 16019 16020 16021 16022 16023 16024 16025 16026 16027 16028 16029 16030 16031 16032 16033 16034 16035 16036 16037 16038 16039 16040 16041 16042 16043 16044 16045 16046 16047 16048 16049 16050 16051 16052 16053 16054 16055 16056 16057 16058 16059 16060 16061 16062 16063 16064 16065 16066 16067 16068 16069 16070 16071 16072 16073 16074 16075 16076 16077 16078 16079 16080 16081 16082 16083 16084 16085 16086 16087 16088 16089 16090 16091 16092 16093 16094 16095 16096 16097 16098 16099 16100 16101 16102 16103 16104 16105 16106 16107 16108 16109 16110 16111 16112 16113 16114 16115 16116 16117 16118 16119 16120 16121 16122 16123 16124 16125 16126 16127 16128 16129 16130 16131 16132 16133 16134 16135 16136 16137 16138 16139 16140 16141 16142 16143 16144 16145 16146 16147 16148 16149 16150 16151 16152 16153 16154 16155 16156 16157 16158 16159 16160 16161 16162 16163 16164 16165 16166 16167 16168 16169 16170 16171 16172 16173 16174 16175 16176 16177 16178 16179 16180 16181 16182 16183 16184 16185 16186 16187 16188 16189 16190 16191 16192 16193 16194 16195 16196 16197 16198 16199 16200 16201 16202 16203 16204 16205 16206 16207 16208 16209 16210 16211 16212 16213 16214 16215 16216 16217 16218 16219 16220 16221 16222 16223 16224 16225 16226 16227 16228 16229 16230 16231 16232 16233 16234 16235 16236 16237 16238 16239 16240 16241 16242 16243 16244 16245 16246 16247 16248 16249 16250 16251 16252 16253 16254 16255 16256 16257 16258 16259 16260 16261 16262 16263 16264 16265 16266 16267 16268 16269 16270 16271 16272 16273 16274 16275 16276 16277 16278 16279 16280 16281 16282 16283 16284 16285 16286 16287 16288 16289 16290 16291 16292 16293 16294 16295 16296 16297 16298 16299 16300 16301 16302 16303 16304 16305 16306 16307 16308 16309 16310 16311 16312 16313 16314 16315 16316 16317 16318 16319 16320 16321 16322 16323 16324 16325 16326 16327 16328 16329 16330 16331 16332 16333 16334 16335 16336 16337 16338 16339 16340 16341 16342 16343 16344 16345 16346 16347 16348 16349 16350 16351 16352 16353 16354 16355 16356 16357 16358 16359 16360 16361 16362 16363 16364 16365 16366 16367 16368 16369 16370 16371 16372 16373 16374 16375 16376 16377 16378 16379 16380 16381 16382 16383 16384 16385 16386 16387 16388 16389 16390 16391 16392 16393 16394 16395 16396 16397 16398 16399 16400 16401 16402 16403 16404 16405 16406 16407 16408 16409 16410 16411 16412 16413 16414 16415 16416 16417 16418 16419 16420 16421 16422 16423 16424 16425 16426 16427 16428 16429 16430 16431 16432 16433 16434 16435 16436 16437 16438 16439 16440 16441 16442 16443 16444 16445 16446 16447 16448 16449 16450 16451 16452 16453 16454 16455 16456 16457 16458 16459 16460 16461 16462 16463 16464 16465 16466 16467 16468 16469 16470 16471 16472 16473 16474 16475 16476 16477 16478 16479 16480 16481 16482 16483 16484 16485 16486 16487 16488 16489 16490 16491 16492 16493 16494 16495 16496 16497 16498 16499 16500 16501 16502 16503 16504 16505 16506 16507 16508 16509 16510 16511 16512 16513 16514 16515 16516 16517 16518 16519 16520 16521 16522 16523 16524 16525 16526 16527 16528 16529 16530 16531 16532 16533 16534 16535 16536 16537 16538 16539 16540 16541 16542 16543 16544 16545 16546 16547 16548 16549 16550 16551 16552 16553 16554 16555 16556 16557 16558 16559 16560 16561 16562 16563 16564 16565 16566 16567 16568 16569 16570 16571 16572 16573 16574 16575 16576 16577 16578 16579 16580 16581 16582 16583 16584 16585 16586 16587 16588 16589 16590 16591 16592 16593 16594 16595 16596 16597 16598 16599 16600 16601 16602 16603 16604 16605 16606 16607 16608 16609 16610 16611 16612 16613 16614 16615 16616 16617 16618 16619 16620 16621 16622 16623 16624 16625 16626 16627 16628 16629 16630 16631 16632 16633 16634 16635 16636 16637 16638 16639 16640 16641 16642 16643 16644 16645 16646 16647 16648 16649 16650 16651 16652 16653 16654 16655 16656 16657 16658 16659 16660 16661 16662 16663 16664 16665 16666 16667 16668 16669 16670 16671 16672 16673 16674 16675 16676 16677 16678 16679 16680 16681 16682 16683 16684 16685 16686 16687 16688 16689 16690 16691 16692 16693 16694 16695 16696 16697 16698 16699 16700 16701 16702 16703 16704 16705 16706 16707 16708 16709 16710 16711 16712 16713 16714 16715 16716 16717 16718 16719 16720 16721 16722 16723 16724 16725 16726 16727 16728 16729 16730 16731 16732 16733 16734 16735 16736 16737 16738 16739 16740 16741 16742 16743 16744 16745 16746 16747 16748 16749 16750 16751 16752 16753 16754 16755 16756 16757 16758 16759 16760 16761 16762 16763 16764 16765 16766 16767 16768 16769 16770 16771 16772 16773 16774 16775 16776 16777 16778 16779 16780 16781 16782 16783 16784 16785 16786 16787 16788 16789 16790 16791 16792 16793 16794 16795 16796 16797 16798 16799 16800 16801 16802 16803 16804 16805 16806 16807 16808 16809 16810 16811 16812 16813 16814 16815 16816 16817 16818 16819 16820 16821 16822 16823 16824 16825 16826 16827 16828 16829 16830 16831 16832 16833 16834 16835 16836 16837 16838 16839 16840 16841 16842 16843 16844 16845 16846 16847 16848 16849 16850 16851 16852 16853 16854 16855 16856 16857 16858 16859 16860 16861 16862 16863 16864 16865 16866 16867 16868 16869 16870 16871 16872 16873 16874 16875 16876 16877 16878 16879 16880 16881 16882 16883 16884 16885 16886 16887 16888 16889 16890 16891 16892 16893 16894 16895 16896 16897 16898 16899 16900 16901 16902 16903 16904 16905 16906 16907 16908 16909 16910 16911 16912 16913 16914 16915 16916 16917 16918 16919 16920 16921 16922 16923 16924 16925 16926 16927 16928 16929 16930 16931 16932 16933 16934 16935 16936 16937 16938 16939 16940 16941 16942 16943 16944 16945 16946 16947 16948 16949 16950 16951 16952 16953 16954 16955 16956 16957 16958 16959 16960 16961 16962 16963 16964 16965 16966 16967 16968 16969 16970 16971 16972 16973 16974 16975 16976 16977 16978 16979 16980 16981 16982 16983 16984 16985 16986 16987 16988 16989 16990 16991 16992 16993 16994 16995 16996 16997 16998 16999 17000 17001 17002 17003 17004 17005 17006 17007 17008 17009 17010 17011 17012 17013 17014 17015 17016 17017 17018 17019 17020 17021 17022 17023 17024 17025 17026 17027 17028 17029 17030 17031 17032 17033 17034 17035 17036 17037 17038 17039 17040 17041 17042 17043 17044 17045 17046 17047 17048 17049 17050 17051 17052 17053 17054 17055 17056 17057 17058 17059 17060 17061 17062 17063 17064 17065 17066 17067 17068 17069 17070 17071 17072 17073 17074 17075 17076 17077 17078 17079 17080 17081 17082 17083 17084 17085 17086 17087 17088 17089 17090 17091 17092 17093 17094 17095 17096 17097 17098 17099 17100 17101 17102 17103 17104 17105 17106 17107 17108 17109 17110 17111 17112 17113 17114 17115 17116 17117 17118 17119 17120 17121 17122 17123 17124 17125 17126 17127 17128 17129 17130 17131 17132 17133 17134 17135 17136 17137 17138 17139 17140 17141 17142 17143 17144 17145 17146 17147 17148 17149 17150 17151 17152 17153 17154 17155 17156 17157 17158 17159 17160 17161 17162 17163 17164 17165 17166 17167 17168 17169 17170 17171 17172 17173 17174 17175 17176 17177 17178 17179 17180 17181 17182 17183 17184 17185 17186 17187 17188 17189 17190 17191 17192 17193 17194 17195 17196 17197 17198 17199 17200 17201 17202 17203 17204 17205 17206 17207 17208 17209 17210 17211 17212 17213 17214 17215 17216 17217 17218 17219 17220 17221 17222 17223 17224 17225 17226 17227 17228 17229 17230 17231 17232 17233 17234 17235 17236 17237 17238 17239 17240 17241 17242 17243 17244 17245 17246 17247 17248 17249 17250 17251 17252 17253 17254 17255 17256 17257 17258 17259 17260 17261 17262 17263 17264 17265 17266 17267 17268 17269 17270 17271 17272 17273 17274 17275 17276 17277 17278 17279 17280 17281 17282 17283 17284 17285 17286 17287 17288 17289 17290 17291 17292 17293 17294 17295 17296 17297 17298 17299 17300 17301 17302 17303 17304 17305 17306 17307 17308 17309 17310 17311 17312 17313 17314 17315 17316 17317 17318 17319 17320 17321 17322 17323 17324 17325 17326 17327 17328 17329 17330 17331 17332 17333 17334 17335 17336 17337 17338 17339 17340 17341 17342 17343 17344 17345 17346 17347 17348 17349 17350 17351 17352 17353 17354 17355 17356 17357 17358 17359 17360 17361 17362 17363 17364 17365 17366 17367 17368 17369 17370 17371 17372 17373 17374 17375 17376 17377 17378 17379 17380 17381 17382 17383 17384 17385 17386 17387 17388 17389 17390 17391 17392 17393 17394 17395 17396 17397 17398 17399 17400 17401 17402 17403 17404 17405 17406 17407 17408 17409 17410 17411 17412 17413 17414 17415 17416 17417 17418 17419 17420 17421 17422 17423 17424 17425 17426 17427 17428 17429 17430 17431 17432 17433 17434 17435 17436 17437 17438 17439 17440 17441 17442 17443 17444 17445 17446 17447 17448 17449 17450 17451 17452 17453 17454 17455 17456 17457 17458 17459 17460 17461 17462 17463 17464 17465 17466 17467 17468 17469 17470 17471 17472 17473 17474 17475 17476 17477 17478 17479 17480 17481 17482 17483 17484 17485 17486 17487 17488 17489 17490 17491 17492 17493 17494 17495 17496 17497 17498 17499 17500 17501 17502 17503 17504 17505 17506 17507 17508 17509 17510 17511 17512 17513 17514 17515 17516 17517 17518 17519 17520 17521 17522 17523 17524 17525 17526 17527 17528 17529 17530 17531 17532 17533 17534 17535 17536 17537 17538 17539 17540 17541 17542 17543 17544 17545 17546 17547 17548 17549 17550 17551 17552 17553 17554 17555 17556 17557 17558 17559 17560 17561 17562 17563 17564 17565 17566 17567 17568 17569 17570 17571 17572 17573 17574 17575 17576 17577 17578 17579 17580 17581 17582 17583 17584 17585 17586 17587 17588 17589 17590 17591 17592 17593 17594 17595 17596 17597 17598 17599 17600 17601 17602 17603 17604 17605 17606 17607 17608 17609 17610 17611 17612 17613 17614 17615 17616 17617 17618 17619 17620 17621 17622 17623 17624 17625 17626 17627 17628 17629 17630 17631 17632 17633 17634 17635 17636 17637 17638 17639 17640 17641 17642 17643 17644 17645 17646 17647 17648 17649 17650 17651 17652 17653 17654 17655 17656 17657 17658 17659 17660 17661 17662 17663 17664 17665 17666 17667 17668 17669 17670 17671 17672 17673 17674 17675 17676 17677 17678 17679 17680 17681 17682 17683 17684 17685 17686 17687 17688 17689 17690 17691 17692 17693 17694 17695 17696 17697 17698 17699 17700 17701 17702 17703 17704 17705 17706 17707 17708 17709 17710 17711 17712 17713 17714 17715 17716 17717 17718 17719 17720 17721 17722 17723 17724 17725 17726 17727 17728 17729 17730 17731 17732 17733 17734 17735 17736 17737 17738 17739 17740 17741 17742 17743 17744 17745 17746 17747 17748 17749 17750 17751 17752 17753 17754 17755 17756 17757 17758 17759 17760 17761 17762 17763 17764 17765 17766 17767 17768 17769 17770 17771 17772 17773 17774 17775 17776 17777 17778 17779 17780 17781 17782 17783 17784 17785 17786 17787 17788 17789 17790 17791 17792 17793 17794 17795 17796 17797 17798 17799 17800 17801 17802 17803 17804 17805 17806 17807 17808 17809 17810 17811 17812 17813 17814 17815 17816 17817 17818 17819 17820 17821 17822 17823 17824 17825 17826 17827 17828 17829 17830 17831 17832 17833 17834 17835 17836 17837 17838 17839 17840 17841 17842 17843 17844 17845 17846 17847 17848 17849 17850 17851 17852 17853 17854 17855 17856 17857 17858 17859 17860 17861 17862 17863 17864 17865 17866 17867 17868 17869 17870 17871 17872 17873 17874 17875 17876 17877 17878 17879 17880 17881 17882 17883 17884 17885 17886 17887 17888 17889 17890 17891 17892 17893 17894 17895 17896 17897 17898 17899 17900 17901 17902 17903 17904 17905 17906 17907 17908 17909 17910 17911 17912 17913 17914 17915 17916 17917 17918 17919 17920 17921 17922 17923 17924 17925 17926 17927 17928 17929 17930 17931 17932 17933 17934 17935 17936 17937 17938 17939 17940 17941 17942 17943 17944 17945 17946 17947 17948 17949 17950 17951 17952 17953 17954 17955 17956 17957 17958 17959 17960 17961 17962 17963 17964 17965 17966 17967 17968 17969 17970 17971 17972 17973 17974 17975 17976 17977 17978 17979 17980 17981 17982 17983 17984 17985 17986 17987 17988 17989 17990 17991 17992 17993 17994 17995 17996 17997 17998 17999 18000 18001 18002 18003 18004 18005 18006 18007 18008 18009 18010 18011 18012 18013 18014 18015 18016 18017 18018 18019 18020 18021 18022 18023 18024 18025 18026 18027 18028 18029 18030 18031 18032 18033 18034 18035 18036 18037 18038 18039 18040 18041 18042 18043 18044 18045 18046 18047 18048 18049 18050 18051 18052 18053 18054 18055 18056 18057 18058 18059 18060 18061 18062 18063 18064 18065 18066 18067 18068 18069 18070 18071 18072 18073 18074 18075 18076 18077 18078 18079 18080 18081 18082 18083 18084 18085 18086 18087 18088 18089 18090 18091 18092 18093 18094 18095 18096 18097 18098 18099 18100 18101 18102 18103 18104 18105 18106 18107 18108 18109 18110 18111 18112 18113 18114 18115 18116 18117 18118 18119 18120 18121 18122 18123 18124 18125 18126 18127 18128 18129 18130 18131 18132 18133 18134 18135 18136 18137 18138 18139 18140 18141 18142 18143 18144 18145 18146 18147 18148 18149 18150 18151 18152 18153 18154 18155 18156 18157 18158 18159 18160 18161 18162 18163 18164 18165 18166 18167 18168 18169 18170 18171 18172 18173 18174 18175 18176 18177 18178 18179 18180 18181 18182 18183 18184 18185 18186 18187 18188 18189 18190 18191 18192 18193 18194 18195 18196 18197 18198 18199 18200 18201 18202 18203 18204 18205 18206 18207 18208 18209 18210 18211 18212 18213 18214 18215 18216 18217 18218 18219 18220 18221 18222 18223 18224 18225 18226 18227 18228 18229 18230 18231 18232 18233 18234 18235 18236 18237 18238 18239 18240 18241 18242 18243 18244 18245 18246 18247 18248 18249 18250 18251 18252 18253 18254 18255 18256 18257 18258 18259 18260 18261 18262 18263 18264 18265 18266 18267 18268 18269 18270 18271 18272 18273 18274 18275 18276 18277 18278 18279 18280 18281 18282 18283 18284 18285 18286 18287 18288 18289 18290 18291 18292 18293 18294 18295 18296 18297 18298 18299 18300 18301 18302 18303 18304 18305 18306 18307 18308 18309 18310 18311 18312 18313 18314 18315 18316 18317 18318 18319 18320 18321 18322 18323 18324 18325 18326 18327 18328 18329 18330 18331 18332 18333 18334 18335 18336 18337 18338 18339 18340 18341 18342 18343 18344 18345 18346 18347 18348 18349 18350 18351 18352 18353 18354 18355 18356 18357 18358 18359 18360 18361 18362 18363 18364 18365 18366 18367 18368 18369 18370 18371 18372 18373 18374 18375 18376 18377 18378 18379 18380 18381 18382 18383 18384 18385 18386 18387 18388 18389 18390 18391 18392 18393 18394 18395 18396 18397 18398 18399 18400 18401 18402 18403 18404 18405 18406 18407 18408 18409 18410 18411 18412 18413 18414 18415 18416 18417 18418 18419 18420 18421 18422 18423 18424 18425 18426 18427 18428 18429 18430 18431 18432 18433 18434 18435 18436 18437 18438 18439 18440 18441 18442 18443 18444 18445 18446 18447 18448 18449 18450 18451 18452 18453 18454 18455 18456 18457 18458 18459 18460 18461 18462 18463 18464 18465 18466 18467 18468 18469 18470 18471 18472 18473 18474 18475 18476 18477 18478 18479 18480 18481 18482 18483 18484 18485 18486 18487 18488 18489 18490 18491 18492 18493 18494 18495 18496 18497 18498 18499 18500 18501 18502 18503 18504 18505 18506 18507 18508 18509 18510 18511 18512 18513 18514 18515 18516 18517 18518 18519 18520 18521 18522 18523 18524 18525 18526 18527 18528 18529 18530 18531 18532 18533 18534 18535 18536 18537 18538 18539 18540 18541 18542 18543 18544 18545 18546 18547 18548 18549 18550 18551 18552 18553 18554 18555 18556 18557 18558 18559 18560 18561 18562 18563 18564 18565 18566 18567 18568 18569 18570 18571 18572 18573 18574 18575 18576 18577 18578 18579 18580 18581 18582 18583 18584 18585 18586 18587 18588 18589 18590 18591 18592 18593 18594 18595 18596 18597 18598 18599 18600 18601 18602 18603 18604 18605 18606 18607 18608 18609 18610 18611 18612 18613 18614 18615 18616 18617 18618 18619 18620 18621 18622 18623 18624 18625 18626 18627 18628 18629 18630 18631 18632 18633 18634 18635 18636 18637 18638 18639 18640 18641 18642 18643 18644 18645 18646 18647 18648 18649 18650 18651 18652 18653 18654 18655 18656 18657 18658 18659 18660 18661 18662 18663 18664 18665 18666 18667 18668 18669 18670 18671 18672 18673 18674 18675 18676 18677 18678 18679 18680 18681 18682 18683 18684 18685 18686 18687 18688 18689 18690 18691 18692 18693 18694 18695 18696 18697 18698 18699 18700 18701 18702 18703 18704 18705 18706 18707 18708 18709 18710 18711 18712 18713 18714 18715 18716 18717 18718 18719 18720 18721 18722 18723 18724 18725 18726 18727 18728 18729 18730 18731 18732 18733 18734 18735 18736 18737 18738 18739 18740 18741 18742 18743 18744 18745 18746 18747 18748 18749 18750 18751 18752 18753 18754 18755 18756 18757 18758 18759 18760 18761 18762 18763 18764 18765 18766 18767 18768 18769 18770 18771 18772 18773 18774 18775 18776 18777 18778 18779 18780 18781 18782 18783 18784 18785 18786 18787 18788 18789 18790 18791 18792 18793 18794 18795 18796 18797 18798 18799 18800 18801 18802 18803 18804 18805 18806 18807 18808 18809 18810 18811 18812 18813 18814 18815 18816 18817 18818 18819 18820 18821 18822 18823 18824 18825 18826 18827 18828 18829 18830 18831 18832 18833 18834 18835 18836 18837 18838 18839 18840 18841 18842 18843 18844 18845 18846 18847 18848 18849 18850 18851 18852 18853 18854 18855 18856 18857 18858 18859 18860 18861 18862 18863 18864 18865 18866 18867 18868 18869 18870 18871 18872 18873 18874 18875 18876 18877 18878 18879 18880 18881 18882 18883 18884 18885 18886 18887 18888 18889 18890 18891 18892 18893 18894 18895 18896 18897 18898 18899 18900 18901 18902 18903 18904 18905 18906 18907 18908 18909 18910 18911 18912 18913 18914 18915 18916 18917 18918 18919 18920 18921 18922 18923 18924 18925 18926 18927 18928 18929 18930 18931 18932 18933 18934 18935 18936 18937 18938 18939 18940 18941 18942 18943 18944 18945 18946 18947 18948 18949 18950 18951 18952 18953 18954 18955 18956 18957 18958 18959 18960 18961 18962 18963 18964 18965 18966 18967 18968 18969 18970 18971 18972 18973 18974 18975 18976 18977 18978 18979 18980 18981 18982 18983 18984 18985 18986 18987 18988 18989 18990 18991 18992 18993 18994 18995 18996 18997 18998 18999 19000 19001 19002 19003 19004 19005 19006 19007 19008 19009 19010 19011 19012 19013 19014 19015 19016 19017 19018 19019 19020 19021 19022 19023 19024 19025 19026 19027 19028 19029 19030 19031 19032 19033 19034 19035 19036 19037 19038 19039 19040 19041 19042 19043 19044 19045 19046 19047 19048 19049 19050 19051 19052 19053 19054 19055 19056 19057 19058 19059 19060 19061 19062 19063 19064 19065 19066 19067 19068 19069 19070 19071 19072 19073 19074 19075 19076 19077 19078 19079 19080 19081 19082 19083 19084 19085 19086 19087 19088 19089 19090 19091 19092 19093 19094 19095 19096 19097 19098 19099 19100 19101 19102 19103 19104 19105 19106 19107 19108 19109 19110 19111 19112 19113 19114 19115 19116 19117 19118 19119 19120 19121 19122 19123 19124 19125 19126 19127 19128 19129 19130 19131 19132 19133 19134 19135 19136 19137 19138 19139 19140 19141 19142 19143 19144 19145 19146 19147 19148 19149 19150 19151 19152 19153 19154 19155 19156 19157 19158 19159 19160 19161 19162 19163 19164 19165 19166 19167 19168 19169 19170 19171 19172 19173 19174 19175 19176 19177 19178 19179 19180 19181 19182 19183 19184 19185 19186 19187 19188 19189 19190 19191 19192 19193 19194 19195 19196 19197 19198 19199 19200 19201 19202 19203 19204 19205 19206 19207 19208 19209 19210 19211 19212 19213 19214 19215 19216 19217 19218 19219 19220 19221 19222 19223 19224 19225 19226 19227 19228 19229 19230 19231 19232 19233 19234 19235 19236 19237 19238 19239 19240 19241 19242 19243 19244 19245 19246 19247 19248 19249 19250 19251 19252 19253 19254 19255 19256 19257 19258 19259 19260 19261 19262 19263 19264 19265 19266 19267 19268 19269 19270 19271 19272 19273 19274 19275 19276 19277 19278 19279 19280 19281 19282 19283 19284 19285 19286 19287 19288 19289 19290 19291 19292 19293 19294 19295 19296 19297 19298 19299 19300 19301 19302 19303 19304 19305 19306 19307 19308 19309 19310 19311 19312 19313 19314 19315 19316 19317 19318 19319 19320 19321 19322 19323 19324 19325 19326 19327 19328 19329 19330 19331 19332 19333 19334 19335 19336 19337 19338 19339 19340 19341 19342 19343 19344 19345 19346 19347 19348 19349 19350 19351 19352 19353 19354 19355 19356 19357 19358 19359 19360 19361 19362 19363 19364 19365 19366 19367 19368 19369 19370 19371 19372 19373 19374 19375 19376 19377 19378 19379 19380 19381 19382 19383 19384 19385 19386 19387 19388 19389 19390 19391 19392 19393 19394 19395 19396 19397 19398 19399 19400 19401 19402 19403 19404 19405 19406 19407 19408 19409 19410 19411 19412 19413 19414 19415 19416 19417 19418 19419 19420 19421 19422 19423 19424 19425 19426 19427 19428 19429 19430 19431 19432 19433 19434 19435 19436 19437 19438 19439 19440 19441 19442 19443 19444 19445 19446 19447 19448 19449 19450 19451 19452 19453 19454 19455 19456 19457 19458 19459 19460 19461 19462 19463 19464 19465 19466 19467 19468 19469 19470 19471 19472 19473 19474 19475 19476 19477 19478 19479 19480 19481 19482 19483 19484 19485 19486 19487 19488 19489 19490 19491 19492 19493 19494 19495 19496 19497 19498 19499 19500 19501 19502 19503 19504 19505 19506 19507 19508 19509 19510 19511 19512 19513 19514 19515 19516 19517 19518 19519 19520 19521 19522 19523 19524 19525 19526 19527 19528 19529 19530 19531 19532 19533 19534 19535 19536 19537 19538 19539 19540 19541 19542 19543 19544 19545 19546 19547 19548 19549 19550 19551 19552 19553 19554 19555 19556 19557 19558 19559 19560 19561 19562 19563 19564 19565 19566 19567 19568 19569 19570 19571 19572 19573 19574 19575 19576 19577 19578 19579 19580 19581 19582 19583 19584 19585 19586 19587 19588 19589 19590 19591 19592 19593 19594 19595 19596 19597 19598 19599 19600 19601 19602 19603 19604 19605 19606 19607 19608 19609 19610 19611 19612 19613 19614 19615 19616 19617 19618 19619 19620 19621 19622 19623 19624 19625 19626 19627 19628 19629 19630 19631 19632 19633 19634 19635 19636 19637 19638 19639 19640 19641 19642 19643 19644 19645 19646 19647 19648 19649 19650 19651 19652 19653 19654 19655 19656 19657 19658 19659 19660 19661 19662 19663 19664 19665 19666 19667 19668 19669 19670 19671 19672 19673 19674 19675 19676 19677 19678 19679 19680 19681 19682 19683 19684 19685 19686 19687 19688 19689 19690 19691 19692 19693 19694 19695 19696 19697 19698 19699 19700 19701 19702 19703 19704 19705 19706 19707 19708 19709 19710 19711 19712 19713 19714 19715 19716 19717 19718 19719 19720 19721 19722 19723 19724 19725 19726 19727 19728 19729 19730 19731 19732 19733 19734 19735 19736 19737 19738 19739 19740 19741 19742 19743 19744 19745 19746 19747 19748 19749 19750 19751 19752 19753 19754 19755 19756 19757 19758 19759 19760 19761 19762 19763 19764 19765 19766 19767 19768 19769 19770 19771 19772 19773 19774 19775 19776 19777 19778 19779 19780 19781 19782 19783 19784 19785 19786 19787 19788 19789 19790 19791 19792 19793 19794 19795 19796 19797 19798 19799 19800 19801 19802 19803 19804 19805 19806 19807 19808 19809 19810 19811 19812 19813 19814 19815 19816 19817 19818 19819 19820 19821 19822 19823 19824 19825 19826 19827 19828 19829 19830 19831 19832 19833 19834 19835 19836 19837 19838 19839 19840 19841 19842 19843 19844 19845 19846 19847 19848 19849 19850 19851 19852 19853 19854 19855 19856 19857 19858 19859 19860 19861 19862 19863 19864 19865 19866 19867 19868 19869 19870 19871 19872 19873 19874 19875 19876 19877 19878 19879 19880 19881 19882 19883 19884 19885 19886 19887 19888 19889 19890 19891 19892 19893 19894 19895 19896 19897 19898 19899 19900 19901 19902 19903 19904 19905 19906 19907 19908 19909 19910 19911 19912 19913 19914 19915 19916 19917 19918 19919 19920 19921 19922 19923 19924 19925 19926 19927 19928 19929 19930 19931 19932 19933 19934 19935 19936 19937 19938 19939 19940 19941 19942 19943 19944 19945 19946 19947 19948 19949 19950 19951 19952 19953 19954 19955 19956 19957 19958 19959 19960 19961 19962 19963 19964 19965 19966 19967 19968 19969 19970 19971 19972 19973 19974 19975 19976 19977 19978 19979 19980 19981 19982 19983 19984 19985 19986 19987 19988 19989 19990 19991 19992 19993 19994 19995 19996 19997 19998 19999 20000 20001 20002 20003 20004 20005 20006 20007 20008 20009 20010 20011 20012 20013 20014 20015 20016 20017 20018 20019 20020 20021 20022 20023 20024 20025 20026 20027 20028 20029 20030 20031 20032 20033 20034 20035 20036 20037 20038 20039 20040 20041 20042 20043 20044 20045 20046 20047 20048 20049 20050 20051 20052 20053 20054 20055 20056 20057 20058 20059 20060 20061 20062 20063 20064 20065 20066 20067 20068 20069 20070 20071 20072 20073 20074 20075 20076 20077 20078 20079 20080 20081 20082 20083 20084 20085 20086 20087 20088 20089 20090 20091 20092 20093 20094 20095 20096 20097 20098 20099 20100 20101 20102 20103 20104 20105 20106 20107 20108 20109 20110 20111 20112 20113 20114 20115 20116 20117 20118 20119 20120 20121 20122 20123 20124 20125 20126 20127 20128 20129 20130 20131 20132 20133 20134 20135 20136 20137 20138 20139 20140 20141 20142 20143 20144 20145 20146 20147 20148 20149 20150 20151 20152 20153 20154 20155 20156 20157 20158 20159 20160 20161 20162 20163 20164 20165 20166 20167 20168 20169 20170 20171 20172 20173 20174 20175 20176 20177 20178 20179 20180 20181 20182 20183 20184 20185 20186 20187 20188 20189 20190 20191 20192 20193 20194 20195 20196 20197 20198 20199 20200 20201 20202 20203 20204 20205 20206 20207 20208 20209 20210 20211 20212 20213 20214 20215 20216 20217 20218 20219 20220 20221 20222 20223 20224 20225 20226 20227 20228 20229 20230 20231 20232 20233 20234 20235 20236 20237 20238 20239 20240 20241 20242 20243 20244 20245 20246 20247 20248 20249 20250 20251 20252 20253 20254 20255 20256 20257 20258 20259 20260 20261 20262 20263 20264 20265 20266 20267 20268 20269 20270 20271 20272 20273 20274 20275 20276 20277 20278 20279 20280 20281 20282 20283 20284 20285 20286 20287 20288 20289 20290 20291 20292 20293 20294 20295 20296 20297 20298 20299 20300 20301 20302 20303 20304 20305 20306 20307 20308 20309 20310 20311 20312 20313 20314 20315 20316 20317 20318 20319 20320 20321 20322 20323 20324 20325 20326 20327 20328 20329 20330 20331 20332 20333 20334 20335 20336 20337 20338 20339 20340 20341 20342 20343 20344 20345 20346 20347 20348 20349 20350 20351 20352 20353 20354 20355 20356 20357 20358 20359 20360 20361 20362 20363 20364 20365 20366 20367 20368 20369 20370 20371 20372 20373 20374 20375 20376 20377 20378 20379 20380 20381 20382 20383 20384 20385 20386 20387 20388 20389 20390 20391 20392 20393 20394 20395 20396 20397 20398 20399 20400 20401 20402 20403 20404 20405 20406 20407 20408 20409 20410 20411 20412 20413 20414 20415 20416 20417 20418 20419 20420 20421 20422 20423 20424 20425 20426 20427 20428 20429 20430 20431 20432 20433 20434 20435 20436 20437 20438 20439 20440 20441 20442 20443 20444 20445 20446 20447 20448 20449 20450 20451 20452 20453 20454 20455 20456 20457 20458 20459 20460 20461 20462 20463 20464 20465 20466 20467 20468 20469 20470 20471 20472 20473 20474 20475 20476 20477 20478 20479 20480 20481 20482 20483 20484 20485 20486 20487 20488 20489 20490 20491 20492 20493 20494 20495 20496 20497 20498 20499 20500 20501 20502 20503 20504 20505 20506 20507 20508 20509 20510 20511 20512 20513 20514 20515 20516 20517 20518 20519 20520 20521 20522 20523 20524 20525 20526 20527 20528 20529 20530 20531 20532 20533 20534 20535 20536 20537 20538 20539 20540 20541 20542 20543 20544 20545 20546 20547 20548 20549 20550 20551 20552 20553 20554 20555 20556 20557 20558 20559 20560 20561 20562 20563 20564 20565 20566 20567 20568 20569 20570 20571 20572 20573 20574 20575 20576 20577 20578 20579 20580 20581 20582 20583 20584 20585 20586 20587 20588 20589 20590 20591 20592 20593 20594 20595 20596 20597 20598 20599 20600 20601 20602 20603 20604 20605 20606 20607 20608 20609 20610 20611 20612 20613 20614 20615 20616 20617 20618 20619 20620 20621 20622 20623 20624 20625 20626 20627 20628 20629 20630 20631 20632 20633 20634 20635 20636 20637 20638 20639 20640 20641 20642 20643 20644 20645 20646 20647 20648 20649 20650 20651 20652 20653 20654 20655 20656 20657 20658 20659 20660 20661 20662 20663 20664 20665 20666 20667 20668 20669 20670 20671 20672 20673 20674 20675 20676 20677 20678 20679 20680 20681 20682 20683 20684 20685 20686 20687 20688 20689 20690 20691 20692 20693 20694 20695 20696 20697 20698 20699 20700 20701 20702 20703 20704 20705 20706 20707 20708 20709 20710 20711 20712 20713 20714 20715 20716 20717 20718 20719 20720 20721 20722 20723 20724 20725 20726 20727 20728 20729 20730 20731 20732 20733 20734 20735 20736 20737 20738 20739 20740 20741 20742 20743 20744 20745 20746 20747 20748 20749 20750 20751 20752 20753 20754 20755 20756 20757 20758 20759 20760 20761 20762 20763 20764 20765 20766 20767 20768 20769 20770 20771 20772 20773 20774 20775 20776 20777 20778 20779 20780 20781 20782 20783 20784 20785 20786 20787 20788 20789 20790 20791 20792 20793 20794 20795 20796 20797 20798 20799 20800 20801 20802 20803 20804 20805 20806 20807 20808 20809 20810 20811 20812 20813 20814 20815 20816 20817 20818 20819 20820 20821 20822 20823 20824 20825 20826 20827 20828 20829 20830 20831 20832 20833 20834 20835 20836 20837 20838 20839 20840 20841 20842 20843 20844 20845 20846 20847 20848 20849 20850 20851 20852 20853 20854 20855 20856 20857 20858 20859 20860 20861 20862 20863 20864 20865 20866 20867 20868 20869 20870 20871 20872 20873 20874 20875 20876 20877 20878 20879 20880 20881 20882 20883 20884 20885 20886 20887 20888 20889 20890 20891 20892 20893 20894 20895 20896 20897 20898 20899 20900 20901 20902 20903 20904 20905 20906 20907 20908 20909 20910 20911 20912 20913 20914 20915 20916 20917 20918 20919 20920 20921 20922 20923 20924 20925 20926 20927 20928 20929 20930 20931 20932 20933 20934 20935 20936 20937 20938 20939 20940 20941 20942 20943 20944 20945 20946 20947 20948 20949 20950 20951 20952 20953 20954 20955 20956 20957 20958 20959 20960 20961 20962 20963 20964 20965 20966 20967 20968 20969 20970 20971 20972 20973 20974 20975 20976 20977 20978 20979 20980 20981 20982 20983 20984 20985 20986 20987 20988 20989 20990 20991 20992 20993 20994 20995 20996 20997 20998 20999 21000 21001 21002 21003 21004 21005 21006 21007 21008 21009 21010 21011 21012 21013 21014 21015 21016 21017 21018 21019 21020 21021 21022 21023 21024 21025 21026 21027 21028 21029 21030 21031 21032 21033 21034 21035 21036 21037 21038 21039 21040 21041 21042 21043 21044 21045 21046 21047 21048 21049 21050 21051 21052 21053 21054 21055 21056 21057 21058 21059 21060 21061 21062 21063 21064 21065 21066 21067 21068 21069 21070 21071 21072 21073 21074 21075 21076 21077 21078 21079 21080 21081 21082 21083 21084 21085 21086 21087 21088 21089 21090 21091 21092 21093 21094 21095 21096 21097 21098 21099 21100 21101 21102 21103 21104 21105 21106 21107 21108 21109 21110 21111 21112 21113 21114 21115 21116 21117 21118 21119 21120 21121 21122 21123 21124 21125 21126 21127 21128 21129 21130 21131 21132 21133 21134 21135 21136 21137 21138 21139 21140 21141 21142 21143 21144 21145 21146 21147 21148 21149 21150 21151 21152 21153 21154 21155 21156 21157 21158 21159 21160 21161 21162 21163 21164 21165 21166 21167 21168 21169 21170 21171 21172 21173 21174 21175 21176 21177 21178 21179 21180 21181 21182 21183 21184 21185 21186 21187 21188 21189 21190 21191 21192 21193 21194 21195 21196 21197 21198 21199 21200 21201 21202 21203 21204 21205 21206 21207 21208 21209 21210 21211 21212 21213 21214 21215 21216 21217 21218 21219 21220 21221 21222 21223 21224 21225 21226 21227 21228 21229 21230 21231 21232 21233 21234 21235 21236 21237 21238 21239 21240 21241 21242 21243 21244 21245 21246 21247 21248 21249 21250 21251 21252 21253 21254 21255 21256 21257 21258 21259 21260 21261 21262 21263 21264 21265 21266 21267 21268 21269 21270 21271 21272 21273 21274 21275 21276 21277 21278 21279 21280 21281 21282 21283 21284 21285 21286 21287 21288 21289 21290 21291 21292 21293 21294 21295 21296 21297 21298 21299 21300 21301 21302 21303 21304 21305 21306 21307 21308 21309 21310 21311 21312 21313 21314 21315 21316 21317 21318 21319 21320 21321 21322 21323 21324 21325 21326 21327 21328 21329 21330 21331 21332 21333 21334 21335 21336 21337 21338 21339 21340 21341 21342 21343 21344 21345 21346 21347 21348 21349 21350 21351 21352 21353 21354 21355 21356 21357 21358 21359 21360 21361 21362 21363 21364 21365 21366 21367 21368 21369 21370 21371 21372 21373 21374 21375 21376 21377 21378 21379 21380 21381 21382 21383 21384 21385 21386 21387 21388 21389 21390 21391 21392 21393 21394 21395 21396 21397 21398 21399 21400 21401 21402 21403 21404 21405 21406 21407 21408 21409 21410 21411 21412 21413 21414 21415 21416 21417 21418 21419 21420 21421 21422 21423 21424 21425 21426 21427 21428 21429 21430 21431 21432 21433 21434 21435 21436 21437 21438 21439 21440 21441 21442 21443 21444 21445 21446 21447 21448 21449 21450 21451 21452 21453 21454 21455 21456 21457 21458 21459 21460 21461 21462 21463 21464 21465 21466 21467 21468 21469 21470 21471 21472 21473 21474 21475 21476 21477 21478 21479 21480 21481 21482 21483 21484 21485 21486 21487 21488 21489 21490 21491 21492 21493 21494 21495 21496 21497 21498 21499 21500 21501 21502 21503 21504 21505 21506 21507 21508 21509 21510 21511 21512 21513 21514 21515 21516 21517 21518 21519 21520 21521 21522 21523 21524 21525 21526 21527 21528 21529 21530 21531 21532 21533 21534 21535 21536 21537 21538 21539 21540 21541 21542 21543 21544 21545 21546 21547 21548 21549 21550 21551 21552 21553 21554 21555 21556 21557 21558 21559 21560 21561 21562 21563 21564 21565 21566 21567 21568 21569 21570 21571 21572 21573 21574 21575 21576 21577 21578 21579 21580 21581 21582 21583 21584 21585 21586 21587 21588 21589 21590 21591 21592 21593 21594 21595 21596 21597 21598 21599 21600 21601 21602 21603 21604 21605 21606 21607 21608 21609 21610 21611 21612 21613 21614 21615 21616 21617 21618 21619 21620 21621 21622 21623 21624 21625 21626 21627 21628 21629 21630 21631 21632 21633 21634 21635 21636 21637 21638 21639 21640 21641 21642 21643 21644 21645 21646 21647 21648 21649 21650 21651 21652 21653 21654 21655 21656 21657 21658 21659 21660 21661 21662 21663 21664 21665 21666 21667 21668 21669 21670 21671 21672 21673 21674 21675 21676 21677 21678 21679 21680 21681 21682 21683 21684 21685 21686 21687 21688 21689 21690 21691 21692 21693 21694 21695 21696 21697 21698 21699 21700 21701 21702 21703 21704 21705 21706 21707 21708 21709 21710 21711 21712 21713 21714 21715 21716 21717 21718 21719 21720 21721 21722 21723 21724 21725 21726 21727 21728 21729 21730 21731 21732 21733 21734 21735 21736 21737 21738 21739 21740 21741 21742 21743 21744 21745 21746 21747 21748 21749 21750 21751 21752 21753 21754 21755 21756 21757 21758 21759 21760 21761 21762 21763 21764 21765 21766 21767 21768 21769 21770 21771 21772 21773 21774 21775 21776 21777 21778 21779 21780 21781 21782 21783 21784 21785 21786 21787 21788 21789 21790 21791 21792 21793 21794 21795 21796 21797 21798 21799 21800 21801 21802 21803 21804 21805 21806 21807 21808 21809 21810 21811 21812 21813 21814 21815 21816 21817 21818 21819 21820 21821 21822 21823 21824 21825 21826 21827 21828 21829 21830 21831 21832 21833 21834 21835 21836 21837 21838 21839 21840 21841 21842 21843 21844 21845 21846 21847 21848 21849 21850 21851 21852 21853 21854 21855 21856 21857 21858 21859 21860 21861 21862 21863 21864 21865 21866 21867 21868 21869 21870 21871 21872 21873 21874 21875 21876 21877 21878 21879 21880 21881 21882 21883 21884 21885 21886 21887 21888 21889 21890 21891 21892 21893 21894 21895 21896 21897 21898 21899 21900 21901 21902 21903 21904 21905 21906 21907 21908 21909 21910 21911 21912 21913 21914 21915 21916 21917 21918 21919 21920 21921 21922 21923 21924 21925 21926 21927 21928 21929 21930 21931 21932 21933 21934 21935 21936 21937 21938 21939 21940 21941 21942 21943 21944 21945 21946 21947 21948 21949 21950 21951 21952 21953 21954 21955 21956 21957 21958 21959 21960 21961 21962 21963 21964 21965 21966 21967 21968 21969 21970 21971 21972 21973 21974 21975 21976 21977 21978 21979 21980 21981 21982 21983 21984 21985 21986 21987 21988 21989 21990 21991 21992 21993 21994 21995 21996 21997 21998 21999 22000 22001 22002 22003 22004 22005 22006 22007 22008 22009 22010 22011 22012 22013 22014 22015 22016 22017 22018 22019 22020 22021 22022 22023 22024 22025 22026 22027 22028 22029 22030 22031 22032 22033 22034 22035 22036 22037 22038 22039 22040 22041 22042 22043 22044 22045 22046 22047 22048 22049 22050 22051 22052 22053 22054 22055 22056 22057 22058 22059 22060 22061 22062 22063 22064 22065 22066 22067 22068 22069 22070 22071 22072 22073 22074 22075 22076 22077 22078 22079 22080 22081 22082 22083 22084 22085 22086 22087 22088 22089 22090 22091 22092 22093 22094 22095 22096 22097 22098 22099 22100 22101 22102 22103 22104 22105 22106 22107 22108 22109 22110 22111 22112 22113 22114 22115 22116 22117 22118 22119 22120 22121 22122 22123 22124 22125 22126 22127 22128 22129 22130 22131 22132 22133 22134 22135 22136 22137 22138 22139 22140 22141 22142 22143 22144 22145 22146 22147 22148 22149 22150 22151 22152 22153 22154 22155 22156 22157 22158 22159 22160 22161 22162 22163 22164 22165 22166 22167 22168 22169 22170 22171 22172 22173 22174 22175 22176 22177 22178 22179 22180 22181 22182 22183 22184 22185 22186 22187 22188 22189 22190 22191 22192 22193 22194 22195 22196 22197 22198 22199 22200 22201 22202 22203 22204 22205 22206 22207 22208 22209 22210 22211 22212 22213 22214 22215 22216 22217 22218 22219 22220 22221 22222 22223 22224 22225 22226 22227 22228 22229 22230 22231 22232 22233 22234 22235 22236 22237 22238 22239 22240 22241 22242 22243 22244 22245 22246 22247 22248 22249 22250 22251 22252 22253 22254 22255 22256 22257 22258 22259 22260 22261 22262 22263 22264 22265 22266 22267 22268 22269 22270 22271 22272 22273 22274 22275 22276 22277 22278 22279 22280 22281 22282 22283 22284 22285 22286 22287 22288 22289 22290 22291 22292 22293 22294 22295 22296 22297 22298 22299 22300 22301 22302 22303 22304 22305 22306 22307 22308 22309 22310 22311 22312 22313 22314 22315 22316 22317 22318 22319 22320 22321 22322 22323 22324 22325 22326 22327 22328 22329 22330 22331 22332 22333 22334 22335 22336 22337 22338 22339 22340 22341 22342 22343 22344 22345 22346 22347 22348 22349 22350 22351 22352 22353 22354 22355 22356 22357 22358 22359 22360 22361 22362 22363 22364 22365 22366 22367 22368 22369 22370 22371 22372 22373 22374 22375 22376 22377 22378 22379 22380 22381 22382 22383 22384 22385 22386 22387 22388 22389 22390 22391 22392 22393 22394 22395 22396 22397 22398 22399 22400 22401 22402 22403 22404 22405 22406 22407 22408 22409 22410 22411 22412 22413 22414 22415 22416 22417 22418 22419 22420 22421 22422 22423 22424 22425 22426 22427 22428 22429 22430 22431 22432 22433 22434 22435 22436 22437 22438 22439 22440 22441 22442 22443 22444 22445 22446 22447 22448 22449 22450 22451 22452 22453 22454 22455 22456 22457 22458 22459 22460 22461 22462 22463 22464 22465 22466 22467 22468 22469 22470 22471 22472 22473 22474 22475 22476 22477 22478 22479 22480 22481 22482 22483 22484 22485 22486 22487 22488 22489 22490 22491 22492 22493 22494 22495 22496 22497 22498 22499 22500 22501 22502 22503 22504 22505 22506 22507 22508 22509 22510 22511 22512 22513 22514 22515 22516 22517 22518 22519 22520 22521 22522 22523 22524 22525 22526 22527 22528 22529 22530 22531 22532 22533 22534 22535 22536 22537 22538 22539 22540 22541 22542 22543 22544 22545 22546 22547 22548 22549 22550 22551 22552 22553 22554 22555 22556 22557 22558 22559 22560 22561 22562 22563 22564 22565 22566 22567 22568 22569 22570 22571 22572 22573 22574 22575 22576 22577 22578 22579 22580 22581 22582 22583 22584 22585 22586 22587 22588 22589 22590 22591 22592 22593 22594 22595 22596 22597 22598 22599 22600 22601 22602 22603 22604 22605 22606 22607 22608 22609 22610 22611 22612 22613 22614 22615 22616 22617 22618 22619 22620 22621 22622 22623 22624 22625 22626 22627 22628 22629 22630 22631 22632 22633 22634 22635 22636 22637 22638 22639 22640 22641 22642 22643 22644 22645 22646 22647 22648 22649 22650 22651 22652 22653 22654 22655 22656 22657 22658 22659 22660 22661 22662 22663 22664 22665 22666 22667 22668 22669 22670 22671 22672 22673 22674 22675 22676 22677 22678 22679 22680 22681 22682 22683 22684 22685 22686 22687 22688 22689 22690 22691 22692 22693 22694 22695 22696 22697 22698 22699 22700 22701 22702 22703 22704 22705 22706 22707 22708 22709 22710 22711 22712 22713 22714 22715 22716 22717 22718 22719 22720 22721 22722 22723 22724 22725 22726 22727 22728 22729 22730 22731 22732 22733 22734 22735 22736 22737 22738 22739 22740 22741 22742 22743 22744 22745 22746 22747 22748 22749 22750 22751 22752 22753 22754 22755 22756 22757 22758 22759 22760 22761 22762 22763 22764 22765 22766 22767 22768 22769 22770 22771 22772 22773 22774 22775 22776 22777 22778 22779 22780 22781 22782 22783 22784 22785 22786 22787 22788 22789 22790 22791 22792 22793 22794 22795 22796 22797 22798 22799 22800 22801 22802 22803 22804 22805 22806 22807 22808 22809 22810 22811 22812 22813 22814 22815 22816 22817 22818 22819 22820 22821 22822 22823 22824 22825 22826 22827 22828 22829 22830 22831 22832 22833 22834 22835 22836 22837 22838 22839 22840 22841 22842 22843 22844 22845 22846 22847 22848 22849 22850 22851 22852 22853 22854 22855 22856 22857 22858 22859 22860 22861 22862 22863 22864 22865 22866 22867 22868 22869 22870 22871 22872 22873 22874 22875 22876 22877 22878 22879 22880 22881 22882 22883 22884 22885 22886 22887 22888 22889 22890 22891 22892 22893 22894 22895 22896 22897 22898 22899 22900 22901 22902 22903 22904 22905 22906 22907 22908 22909 22910 22911 22912 22913 22914 22915 22916 22917 22918 22919 22920 22921 22922 22923 22924 22925 22926 22927 22928 22929 22930 22931 22932 22933 22934 22935 22936 22937 22938 22939 22940 22941 22942 22943 22944 22945 22946 22947 22948 22949 22950 22951 22952 22953 22954 22955 22956 22957 22958 22959 22960 22961 22962 22963 22964 22965 22966 22967 22968 22969 22970 22971 22972 22973 22974 22975 22976 22977 22978 22979 22980 22981 22982 22983 22984 22985 22986 22987 22988 22989 22990 22991 22992 22993 22994 22995 22996 22997 22998 22999 23000 23001 23002 23003 23004 23005 23006 23007 23008 23009 23010 23011 23012 23013 23014 23015 23016 23017 23018 23019 23020 23021 23022 23023 23024 23025 23026 23027 23028 23029 23030 23031 23032 23033 23034 23035 23036 23037 23038 23039 23040 23041 23042 23043 23044 23045 23046 23047 23048 23049 23050 23051 23052 23053 23054 23055 23056 23057 23058 23059 23060 23061 23062 23063 23064 23065 23066 23067 23068 23069 23070 23071 23072 23073 23074 23075 23076 23077 23078 23079 23080 23081 23082 23083 23084 23085 23086 23087 23088 23089 23090 23091 23092 23093 23094 23095 23096 23097 23098 23099 23100 23101 23102 23103 23104 23105 23106 23107 23108 23109 23110 23111 23112 23113 23114 23115 23116 23117 23118 23119 23120 23121 23122 23123 23124 23125 23126 23127 23128 23129 23130 23131 23132 23133 23134 23135 23136 23137 23138 23139 23140 23141 23142 23143 23144 23145 23146 23147 23148 23149 23150 23151 23152 23153 23154 23155 23156 23157 23158 23159 23160 23161 23162 23163 23164 23165 23166 23167 23168 23169 23170 23171 23172 23173 23174 23175 23176 23177 23178 23179 23180 23181 23182 23183 23184 23185 23186 23187 23188 23189 23190 23191 23192 23193 23194 23195 23196 23197 23198 23199 23200 23201 23202 23203 23204 23205 23206 23207 23208 23209 23210 23211 23212 23213 23214 23215 23216 23217 23218 23219 23220 23221 23222 23223 23224 23225 23226 23227 23228 23229 23230 23231 23232 23233 23234 23235 23236 23237 23238 23239 23240 23241 23242 23243 23244 23245 23246 23247 23248 23249 23250 23251 23252 23253 23254 23255 23256 23257 23258 23259 23260 23261 23262 23263 23264 23265 23266 23267 23268 23269 23270 23271 23272 23273 23274 23275 23276 23277 23278 23279 23280 23281 23282 23283 23284 23285 23286 23287 23288 23289 23290 23291 23292 23293 23294 23295 23296 23297 23298 23299 23300 23301 23302 23303 23304 23305 23306 23307 23308 23309 23310 23311 23312 23313 23314 23315 23316 23317 23318 23319 23320 23321 23322 23323 23324 23325 23326 23327 23328 23329 23330 23331 23332 23333 23334 23335 23336 23337 23338 23339 23340 23341 23342 23343 23344 23345 23346 23347 23348 23349 23350 23351 23352 23353 23354 23355 23356 23357 23358 23359 23360 23361 23362 23363 23364 23365 23366 23367 23368 23369 23370 23371 23372 23373 23374 23375 23376 23377 23378 23379 23380 23381 23382 23383 23384 23385 23386 23387 23388 23389 23390 23391 23392 23393 23394 23395 23396 23397 23398 23399 23400 23401 23402 23403 23404 23405 23406 23407 23408 23409 23410 23411 23412 23413 23414 23415 23416 23417 23418 23419 23420 23421 23422 23423 23424 23425 23426 23427 23428 23429 23430 23431 23432 23433 23434 23435 23436 23437 23438 23439 23440 23441 23442 23443 23444 23445 23446 23447 23448 23449 23450 23451 23452 23453 23454 23455 23456 23457 23458 23459 23460 23461 23462 23463 23464 23465 23466 23467 23468 23469 23470 23471 23472 23473 23474 23475 23476 23477 23478 23479 23480 23481 23482 23483 23484 23485 23486 23487 23488 23489 23490 23491 23492 23493 23494 23495 23496 23497 23498 23499 23500 23501 23502 23503 23504 23505 23506 23507 23508 23509 23510 23511 23512 23513 23514 23515 23516 23517 23518 23519 23520 23521 23522 23523 23524 23525 23526 23527 23528 23529 23530 23531 23532 23533 23534 23535 23536 23537 23538 23539 23540 23541 23542 23543 23544 23545 23546 23547 23548 23549 23550 23551 23552 23553 23554 23555 23556 23557 23558 23559 23560 23561 23562 23563 23564 23565 23566 23567 23568 23569 23570 23571 23572 23573 23574 23575 23576 23577 23578 23579 23580 23581 23582 23583 23584 23585 23586 23587 23588 23589 23590 23591 23592 23593 23594 23595 23596 23597 23598 23599 23600 23601 23602 23603 23604 23605 23606 23607 23608 23609 23610 23611 23612 23613 23614 23615 23616 23617 23618 23619 23620 23621 23622 23623 23624 23625 23626 23627 23628 23629 23630 23631 23632 23633 23634 23635 23636 23637 23638 23639 23640 23641 23642 23643 23644 23645 23646 23647 23648 23649 23650 23651 23652 23653 23654 23655 23656 23657 23658 23659 23660 23661 23662 23663 23664 23665 23666 23667 23668 23669 23670 23671 23672 23673 23674 23675 23676 23677 23678 23679 23680 23681 23682 23683 23684 23685 23686 23687 23688 23689 23690 23691 23692 23693 23694 23695 23696 23697 23698 23699 23700 23701 23702 23703 23704 23705 23706 23707 23708 23709 23710 23711 23712 23713 23714 23715 23716 23717 23718 23719 23720 23721 23722 23723 23724 23725 23726 23727 23728 23729 23730 23731 23732 23733 23734 23735 23736 23737 23738 23739 23740 23741 23742 23743 23744 23745 23746 23747 23748 23749 23750 23751 23752 23753 23754 23755 23756 23757 23758 23759 23760 23761 23762 23763 23764 23765 23766 23767 23768 23769 23770 23771 23772 23773 23774 23775 23776 23777 23778 23779 23780 23781 23782 23783 23784 23785 23786 23787 23788 23789 23790 23791 23792 23793 23794 23795 23796 23797 23798 23799 23800 23801 23802 23803 23804 23805 23806 23807 23808 23809 23810 23811 23812 23813 23814 23815 23816 23817 23818 23819 23820 23821 23822 23823 23824 23825 23826 23827 23828 23829 23830 23831 23832 23833 23834 23835 23836 23837 23838 23839 23840 23841 23842 23843 23844 23845 23846 23847 23848 23849 23850 23851 23852 23853 23854 23855 23856 23857 23858 23859 23860 23861 23862 23863 23864 23865 23866 23867 23868 23869 23870 23871 23872 23873 23874 23875 23876 23877 23878 23879 23880 23881 23882 23883 23884 23885 23886 23887 23888 23889 23890 23891 23892 23893 23894 23895 23896 23897 23898 23899 23900 23901 23902 23903 23904 23905 23906 23907 23908 23909 23910 23911 23912 23913 23914 23915 23916 23917 23918 23919 23920 23921 23922 23923 23924 23925 23926 23927 23928 23929 23930 23931 23932 23933 23934 23935 23936 23937 23938 23939 23940 23941 23942 23943 23944 23945 23946 23947 23948 23949 23950 23951 23952 23953 23954 23955 23956 23957 23958 23959 23960 23961 23962 23963 23964 23965 23966 23967 23968 23969 23970 23971 23972 23973 23974 23975 23976 23977 23978 23979 23980 23981 23982 23983 23984 23985 23986 23987 23988 23989 23990 23991 23992 23993 23994 23995 23996 23997 23998 23999 24000 24001 24002 24003 24004 24005 24006 24007 24008 24009 24010 24011 24012 24013 24014 24015 24016 24017 24018 24019 24020 24021 24022 24023 24024 24025 24026 24027 24028 24029 24030 24031 24032 24033 24034 24035 24036 24037 24038 24039 24040 24041 24042 24043 24044 24045 24046 24047 24048 24049 24050 24051 24052 24053 24054 24055 24056 24057 24058 24059 24060 24061 24062 24063 24064 24065 24066 24067 24068 24069 24070 24071 24072 24073 24074 24075 24076 24077 24078 24079 24080 24081 24082 24083 24084 24085 24086 24087 24088 24089 24090 24091 24092 24093 24094 24095 24096 24097 24098 24099 24100 24101 24102 24103 24104 24105 24106 24107 24108 24109 24110 24111 24112 24113 24114 24115 24116 24117 24118 24119 24120 24121 24122 24123 24124 24125 24126 24127 24128 24129 24130 24131 24132 24133 24134 24135 24136 24137 24138 24139 24140 24141 24142 24143 24144 24145 24146 24147 24148 24149 24150 24151 24152 24153 24154 24155 24156 24157 24158 24159 24160 24161 24162 24163 24164 24165 24166 24167 24168 24169 24170 24171 24172 24173 24174 24175 24176 24177 24178 24179 24180 24181 24182 24183 24184 24185 24186 24187 24188 24189 24190 24191 24192 24193 24194 24195 24196 24197 24198 24199 24200 24201 24202 24203 24204 24205 24206 24207 24208 24209 24210 24211 24212 24213 24214 24215 24216 24217 24218 24219 24220 24221 24222 24223 24224 24225 24226 24227 24228 24229 24230 24231 24232 24233 24234 24235 24236 24237 24238 24239 24240 24241 24242 24243 24244 24245 24246 24247 24248 24249 24250 24251 24252 24253 24254 24255 24256 24257 24258 24259 24260 24261 24262 24263 24264 24265 24266 24267 24268 24269 24270 24271 24272 24273 24274 24275 24276 24277 24278 24279 24280 24281 24282 24283 24284 24285 24286 24287 24288 24289 24290 24291 24292 24293 24294 24295 24296 24297 24298 24299 24300 24301 24302 24303 24304 24305 24306 24307 24308 24309 24310 24311 24312 24313 24314 24315 24316 24317 24318 24319 24320 24321 24322 24323 24324 24325 24326 24327 24328 24329 24330 24331 24332 24333 24334 24335 24336 24337 24338 24339 24340 24341 24342 24343 24344 24345 24346 24347 24348 24349 24350 24351 24352 24353 24354 24355 24356 24357 24358 24359 24360 24361 24362 24363 24364 24365 24366 24367 24368 24369 24370 24371 24372 24373 24374 24375 24376 24377 24378 24379 24380 24381 24382 24383 24384 24385 24386 24387 24388 24389 24390 24391 24392 24393 24394 24395 24396 24397 24398 24399 24400 24401 24402 24403 24404 24405 24406 24407 24408 24409 24410 24411 24412 24413 24414 24415 24416 24417 24418 24419 24420 24421 24422 24423 24424 24425 24426 24427 24428 24429 24430 24431 24432 24433 24434 24435 24436 24437 24438 24439 24440 24441 24442 24443 24444 24445 24446 24447 24448 24449 24450 24451 24452 24453 24454 24455 24456 24457 24458 24459 24460 24461 24462 24463 24464 24465 24466 24467 24468 24469 24470 24471 24472 24473 24474 24475 24476 24477 24478 24479 24480 24481 24482 24483 24484 24485 24486 24487 24488 24489 24490 24491 24492 24493 24494 24495 24496 24497 24498 24499 24500 24501 24502 24503 24504 24505 24506 24507 24508 24509 24510 24511 24512 24513 24514 24515 24516 24517 24518 24519 24520 24521 24522 24523 24524 24525 24526 24527 24528 24529 24530 24531 24532 24533 24534 24535 24536 24537 24538 24539 24540 24541 24542 24543 24544 24545 24546 24547 24548 24549 24550 24551 24552 24553 24554 24555 24556 24557 24558 24559 24560 24561 24562 24563 24564 24565 24566 24567 24568 24569 24570 24571 24572 24573 24574 24575 24576 24577 24578 24579 24580 24581 24582 24583 24584 24585 24586 24587 24588 24589 24590 24591 24592 24593 24594 24595 24596 24597 24598 24599 24600 24601 24602 24603 24604 24605 24606 24607 24608 24609 24610 24611 24612 24613 24614 24615 24616 24617 24618 24619 24620 24621 24622 24623 24624 24625 24626 24627 24628 24629 24630 24631 24632 24633 24634 24635 24636 24637 24638 24639 24640 24641 24642 24643 24644 24645 24646 24647 24648 24649 24650 24651 24652 24653 24654 24655 24656 24657 24658 24659 24660 24661 24662 24663 24664 24665 24666 24667 24668 24669 24670 24671 24672 24673 24674 24675 24676 24677 24678 24679 24680 24681 24682 24683 24684 24685 24686 24687 24688 24689 24690 24691 24692 24693 24694 24695 24696 24697 24698 24699 24700 24701 24702 24703 24704 24705 24706 24707 24708 24709 24710 24711 24712 24713 24714 24715 24716 24717 24718 24719 24720 24721 24722 24723 24724 24725 24726 24727 24728 24729 24730 24731 24732 24733 24734 24735 24736 24737 24738 24739 24740 24741 24742 24743 24744 24745 24746 24747 24748 24749 24750 24751 24752 24753 24754 24755 24756 24757 24758 24759 24760 24761 24762 24763 24764 24765 24766 24767 24768 24769 24770 24771 24772 24773 24774 24775 24776 24777 24778 24779 24780 24781 24782 24783 24784 24785 24786 24787 24788 24789 24790 24791 24792 24793 24794 24795 24796 24797 24798 24799 24800 24801 24802 24803 24804 24805 24806 24807 24808 24809 24810 24811 24812 24813 24814 24815 24816 24817 24818 24819 24820 24821 24822 24823 24824 24825 24826 24827 24828 24829 24830 24831 24832 24833 24834 24835 24836 24837 24838 24839 24840 24841 24842 24843 24844 24845 24846 24847 24848 24849 24850 24851 24852 24853 24854 24855 24856 24857 24858 24859 24860 24861 24862 24863 24864 24865 24866 24867 24868 24869 24870 24871 24872 24873 24874 24875 24876 24877 24878 24879 24880 24881 24882 24883 24884 24885 24886 24887 24888 24889 24890 24891 24892 24893 24894 24895 24896 24897 24898 24899 24900 24901 24902 24903 24904 24905 24906 24907 24908 24909 24910 24911 24912 24913 24914 24915 24916 24917 24918 24919 24920 24921 24922 24923 24924 24925 24926 24927 24928 24929 24930 24931 24932 24933 24934 24935 24936 24937 24938 24939 24940 24941 24942 24943 24944 24945 24946 24947 24948 24949 24950 24951 24952 24953 24954 24955 24956 24957 24958 24959 24960 24961 24962 24963 24964 24965 24966 24967 24968 24969 24970 24971 24972 24973 24974 24975 24976 24977 24978 24979 24980 24981 24982 24983 24984 24985 24986 24987 24988 24989 24990 24991 24992 24993 24994 24995 24996 24997 24998 24999 25000 25001 25002 25003 25004 25005 25006 25007 25008 25009 25010 25011 25012 25013 25014 25015 25016 25017 25018 25019 25020 25021 25022 25023 25024 25025 25026 25027 25028 25029 25030 25031 25032 25033 25034 25035 25036 25037 25038 25039 25040 25041 25042 25043 25044 25045 25046 25047 25048 25049 25050 25051 25052 25053 25054 25055 25056 25057 25058 25059 25060 25061 25062 25063 25064 25065 25066 25067 25068 25069 25070 25071 25072 25073 25074 25075 25076 25077 25078 25079 25080 25081 25082 25083 25084 25085 25086 25087 25088 25089 25090 25091 25092 25093 25094 25095 25096 25097 25098 25099 25100 25101 25102 25103 25104 25105 25106 25107 25108 25109 25110 25111 25112 25113 25114 25115 25116 25117 25118 25119 25120 25121 25122 25123 25124 25125 25126 25127 25128 25129 25130 25131 25132 25133 25134 25135 25136 25137 25138 25139 25140 25141 25142 25143 25144 25145 25146 25147 25148 25149 25150 25151 25152 25153 25154 25155 25156 25157 25158 25159 25160 25161 25162 25163 25164 25165 25166 25167 25168 25169 25170 25171 25172 25173 25174 25175 25176 25177 25178 25179 25180 25181 25182 25183 25184 25185 25186 25187 25188 25189 25190 25191 25192 25193 25194 25195 25196 25197 25198 25199 25200 25201 25202 25203 25204 25205 25206 25207 25208 25209 25210 25211 25212 25213 25214 25215 25216 25217 25218 25219 25220 25221 25222 25223 25224 25225 25226 25227 25228 25229 25230 25231 25232 25233 25234 25235 25236 25237 25238 25239 25240 25241 25242 25243 25244 25245 25246 25247 25248 25249 25250 25251 25252 25253 25254 25255 25256 25257 25258 25259 25260 25261 25262 25263 25264 25265 25266 25267 25268 25269 25270 25271 25272 25273 25274 25275 25276 25277 25278 25279 25280 25281 25282 25283 25284 25285 25286 25287 25288 25289 25290 25291 25292 25293 25294 25295 25296 25297 25298 25299 25300 25301 25302 25303 25304 25305 25306 25307 25308 25309 25310 25311 25312 25313 25314 25315 25316 25317 25318 25319 25320 25321 25322 25323 25324 25325 25326 25327 25328 25329 25330 25331 25332 25333 25334 25335 25336 25337 25338 25339 25340 25341 25342 25343 25344 25345 25346 25347 25348 25349 25350 25351 25352 25353 25354 25355 25356 25357 25358 25359 25360 25361 25362 25363 25364 25365 25366 25367 25368 25369 25370 25371 25372 25373 25374 25375 25376 25377 25378 25379 25380 25381 25382 25383 25384 25385 25386 25387 25388 25389 25390 25391 25392 25393 25394 25395 25396 25397 25398 25399 25400 25401 25402 25403 25404 25405 25406 25407 25408 25409 25410 25411 25412 25413 25414 25415 25416 25417 25418 25419 25420 25421 25422 25423 25424 25425 25426 25427 25428 25429 25430 25431 25432 25433 25434 25435 25436 25437 25438 25439 25440 25441 25442 25443 25444 25445 25446 25447 25448 25449 25450 25451 25452 25453 25454 25455 25456 25457 25458 25459 25460 25461 25462 25463 25464 25465 25466 25467 25468 25469 25470 25471 25472 25473 25474 25475 25476 25477 25478 25479 25480 25481 25482 25483 25484 25485 25486 25487 25488 25489 25490 25491 25492 25493 25494 25495 25496 25497 25498 25499 25500 25501 25502 25503 25504 25505 25506 25507 25508 25509 25510 25511 25512 25513 25514 25515 25516 25517 25518 25519 25520 25521 25522 25523 25524 25525 25526 25527 25528 25529 25530 25531 25532 25533 25534 25535 25536 25537 25538 25539 25540 25541 25542 25543 25544 25545 25546 25547 25548 25549 25550 25551 25552 25553 25554 25555 25556 25557 25558 25559 25560 25561 25562 25563 25564 25565 25566 25567 25568 25569 25570 25571 25572 25573 25574 25575 25576 25577 25578 25579 25580 25581 25582 25583 25584 25585 25586 25587 25588 25589 25590 25591 25592 25593 25594 25595 25596 25597 25598 25599 25600 25601 25602 25603 25604 25605 25606 25607 25608 25609 25610 25611 25612 25613 25614 25615 25616 25617 25618 25619 25620 25621 25622 25623 25624 25625 25626 25627 25628 25629 25630 25631 25632 25633 25634 25635 25636 25637 25638 25639 25640 25641 25642 25643 25644 25645 25646 25647 25648 25649 25650 25651 25652 25653 25654 25655 25656 25657 25658 25659 25660 25661 25662 25663 25664 25665 25666 25667 25668 25669 25670 25671 25672 25673 25674 25675 25676 25677 25678 25679 25680 25681 25682 25683 25684 25685 25686 25687 25688 25689 25690 25691 25692 25693 25694 25695 25696 25697 25698 25699 25700 25701 25702 25703 25704 25705 25706 25707 25708 25709 25710 25711 25712 25713 25714 25715 25716 25717 25718 25719 25720 25721 25722 25723 25724 25725 25726 25727 25728 25729 25730 25731 25732 25733 25734 25735 25736 25737 25738 25739 25740 25741 25742 25743 25744 25745 25746 25747 25748 25749 25750 25751 25752 25753 25754 25755 25756 25757 25758 25759 25760 25761 25762 25763 25764 25765 25766 25767 25768 25769 25770 25771 25772 25773 25774 25775 25776 25777 25778 25779 25780 25781 25782 25783 25784 25785 25786 25787 25788 25789 25790 25791 25792 25793 25794 25795 25796 25797 25798 25799 25800 25801 25802 25803 25804 25805 25806 25807 25808 25809 25810 25811 25812 25813 25814 25815 25816 25817 25818 25819 25820 25821 25822 25823 25824 25825 25826 25827 25828 25829 25830 25831 25832 25833 25834 25835 25836 25837 25838 25839 25840 25841 25842 25843 25844 25845 25846 25847 25848 25849 25850 25851 25852 25853 25854 25855 25856 25857 25858 25859 25860 25861 25862 25863 25864 25865 25866 25867 25868 25869 25870 25871 25872 25873 25874 25875 25876 25877 25878 25879 25880 25881 25882 25883 25884 25885 25886 25887 25888 25889 25890 25891 25892 25893 25894 25895 25896 25897 25898 25899 25900 25901 25902 25903 25904 25905 25906 25907 25908 25909 25910 25911 25912 25913 25914 25915 25916 25917 25918 25919 25920 25921 25922 25923 25924 25925 25926 25927 25928 25929 25930 25931 25932 25933 25934 25935 25936 25937 25938 25939 25940 25941 25942 25943 25944 25945 25946 25947 25948 25949 25950 25951 25952 25953 25954 25955 25956 25957 25958 25959 25960 25961 25962 25963 25964 25965 25966 25967 25968 25969 25970 25971 25972 25973 25974 25975 25976 25977 25978 25979 25980 25981 25982 25983 25984 25985 25986 25987 25988 25989 25990 25991 25992 25993 25994 25995 25996 25997 25998 25999 26000 26001 26002 26003 26004 26005 26006 26007 26008 26009 26010 26011 26012 26013 26014 26015 26016 26017 26018 26019 26020 26021 26022 26023 26024 26025 26026 26027 26028 26029 26030 26031 26032 26033 26034 26035 26036 26037 26038 26039 26040 26041 26042 26043 26044 26045 26046 26047 26048 26049 26050 26051 26052 26053 26054 26055 26056 26057 26058 26059 26060 26061 26062 26063 26064 26065 26066 26067 26068 26069 26070 26071 26072 26073 26074 26075 26076 26077 26078 26079 26080 26081 26082 26083 26084 26085 26086 26087 26088 26089 26090 26091 26092 26093 26094 26095 26096 26097 26098 26099 26100 26101 26102 26103 26104 26105 26106 26107 26108 26109 26110 26111 26112 26113 26114 26115 26116 26117 26118 26119 26120 26121 26122 26123 26124 26125 26126 26127 26128 26129 26130 26131 26132 26133 26134 26135 26136 26137 26138 26139 26140 26141 26142 26143 26144 26145 26146 26147 26148 26149 26150 26151 26152 26153 26154 26155 26156 26157 26158 26159 26160 26161 26162 26163 26164 26165 26166 26167 26168 26169 26170 26171 26172 26173 26174 26175 26176 26177 26178 26179 26180 26181 26182 26183 26184 26185 26186 26187 26188 26189 26190 26191 26192 26193 26194 26195 26196 26197 26198 26199 26200 26201 26202 26203 26204 26205 26206 26207 26208 26209 26210 26211 26212 26213 26214 26215 26216 26217 26218 26219 26220 26221 26222 26223 26224 26225 26226 26227 26228 26229 26230 26231 26232 26233 26234 26235 26236 26237 26238 26239 26240 26241 26242 26243 26244 26245 26246 26247 26248 26249 26250 26251 26252 26253 26254 26255 26256 26257 26258 26259 26260 26261 26262 26263 26264 26265 26266 26267 26268 26269 26270 26271 26272 26273 26274 26275 26276 26277 26278 26279 26280 26281 26282 26283 26284 26285 26286 26287 26288 26289 26290 26291 26292 26293 26294 26295 26296 26297 26298 26299 26300 26301 26302 26303 26304 26305 26306 26307 26308 26309 26310 26311 26312 26313 26314 26315 26316 26317 26318 26319 26320 26321 26322 26323 26324 26325 26326 26327 26328 26329 26330 26331 26332 26333 26334 26335 26336 26337 26338 26339 26340 26341 26342 26343 26344 26345 26346 26347 26348 26349 26350 26351 26352 26353 26354 26355 26356 26357 26358 26359 26360 26361 26362 26363 26364 26365 26366 26367 26368 26369 26370 26371 26372 26373 26374 26375 26376 26377 26378 26379 26380 26381 26382 26383 26384 26385 26386 26387 26388 26389 26390 26391 26392 26393 26394 26395 26396 26397 26398 26399 26400 26401 26402 26403 26404 26405 26406 26407 26408 26409 26410 26411 26412 26413 26414 26415 26416 26417 26418 26419 26420 26421 26422 26423 26424 26425 26426 26427 26428 26429 26430 26431 26432 26433 26434 26435 26436 26437 26438 26439 26440 26441 26442 26443 26444 26445 26446 26447 26448 26449 26450 26451 26452 26453 26454 26455 26456 26457 26458 26459 26460 26461 26462 26463 26464 26465 26466 26467 26468 26469 26470 26471 26472 26473 26474 26475 26476 26477 26478 26479 26480 26481 26482 26483 26484 26485 26486 26487 26488 26489 26490 26491 26492 26493 26494 26495 26496 26497 26498 26499 26500 26501 26502 26503 26504 26505 26506 26507 26508 26509 26510 26511 26512 26513 26514 26515 26516 26517 26518 26519 26520 26521 26522 26523 26524 26525 26526 26527 26528 26529 26530 26531 26532 26533 26534 26535 26536 26537 26538 26539 26540 26541 26542 26543 26544 26545 26546 26547 26548 26549 26550 26551 26552 26553 26554 26555 26556 26557 26558 26559 26560 26561 26562 26563 26564 26565 26566 26567 26568 26569 26570 26571 26572 26573 26574 26575 26576 26577 26578 26579 26580 26581 26582 26583 26584 26585 26586 26587 26588 26589 26590 26591 26592 26593 26594 26595 26596 26597 26598 26599 26600 26601 26602 26603 26604 26605 26606 26607 26608 26609 26610 26611 26612 26613 26614 26615 26616 26617 26618 26619 26620 26621 26622 26623 26624 26625 26626 26627 26628 26629 26630 26631 26632 26633 26634 26635 26636 26637 26638 26639 26640 26641 26642 26643 26644 26645 26646 26647 26648 26649 26650 26651 26652 26653 26654 26655 26656 26657 26658 26659 26660 26661 26662 26663 26664 26665 26666 26667 26668 26669 26670 26671 26672 26673 26674 26675 26676 26677 26678 26679 26680 26681 26682 26683 26684 26685 26686 26687 26688 26689 26690 26691 26692 26693 26694 26695 26696 26697 26698 26699 26700 26701 26702 26703 26704 26705 26706 26707 26708 26709 26710 26711 26712 26713 26714 26715 26716 26717 26718 26719 26720 26721 26722 26723 26724 26725 26726 26727 26728 26729 26730 26731 26732 26733 26734 26735 26736 26737 26738 26739 26740 26741 26742 26743 26744 26745 26746 26747 26748 26749 26750 26751 26752 26753 26754 26755 26756 26757 26758 26759 26760 26761 26762 26763 26764 26765 26766 26767 26768 26769 26770 26771 26772 26773 26774 26775 26776 26777 26778 26779 26780 26781 26782 26783 26784 26785 26786 26787 26788 26789 26790 26791 26792 26793 26794 26795 26796 26797 26798 26799 26800 26801 26802 26803 26804 26805 26806 26807 26808 26809 26810 26811 26812 26813 26814 26815 26816 26817 26818 26819 26820 26821 26822 26823 26824 26825 26826 26827 26828 26829 26830 26831 26832 26833 26834 26835 26836 26837 26838 26839 26840 26841 26842 26843 26844 26845 26846 26847 26848 26849 26850 26851 26852 26853 26854 26855 26856 26857 26858 26859 26860 26861 26862 26863 26864 26865 26866 26867 26868 26869 26870 26871 26872 26873 26874 26875 26876 26877 26878 26879 26880 26881 26882 26883 26884 26885 26886 26887 26888 26889 26890 26891 26892 26893 26894 26895 26896 26897 26898 26899 26900 26901 26902 26903 26904 26905 26906 26907 26908 26909 26910 26911 26912 26913 26914 26915 26916 26917 26918 26919 26920 26921 26922 26923 26924 26925 26926 26927 26928 26929 26930 26931 26932 26933 26934 26935 26936 26937 26938 26939 26940 26941 26942 26943 26944 26945 26946 26947 26948 26949 26950 26951 26952 26953 26954 26955 26956 26957 26958 26959 26960 26961 26962 26963 26964 26965 26966 26967 26968 26969 26970 26971 26972 26973 26974 26975 26976 26977 26978 26979 26980 26981 26982 26983 26984 26985 26986 26987 26988 26989 26990 26991 26992 26993 26994 26995 26996 26997 26998 26999 27000 27001 27002 27003 27004 27005 27006 27007 27008 27009 27010 27011 27012 27013 27014 27015 27016 27017 27018 27019 27020 27021 27022 27023 27024 27025 27026 27027 27028 27029 27030 27031 27032 27033 27034 27035 27036 27037 27038 27039 27040 27041 27042 27043 27044 27045 27046 27047 27048 27049 27050 27051 27052 27053 27054 27055 27056 27057 27058 27059 27060 27061 27062 27063 27064 27065 27066 27067 27068 27069 27070 27071 27072 27073 27074 27075 27076 27077 27078 27079 27080 27081 27082 27083 27084 27085 27086 27087 27088 27089 27090 27091 27092 27093 27094 27095 27096 27097 27098 27099 27100 27101 27102 27103 27104 27105 27106 27107 27108 27109 27110 27111 27112 27113 27114 27115 27116 27117 27118 27119 27120 27121 27122 27123 27124 27125 27126 27127 27128 27129 27130 27131 27132 27133 27134 27135 27136 27137 27138 27139 27140 27141 27142 27143 27144 27145 27146 27147 27148 27149 27150 27151 27152 27153 27154 27155 27156 27157 27158 27159 27160 27161 27162 27163 27164 27165 27166 27167 27168 27169 27170 27171 27172 27173 27174 27175 27176 27177 27178 27179 27180 27181 27182 27183 27184 27185 27186 27187 27188 27189 27190 27191 27192 27193 27194 27195 27196 27197 27198 27199 27200 27201 27202 27203 27204 27205 27206 27207 27208 27209 27210 27211 27212 27213 27214 27215 27216 27217 27218 27219 27220 27221 27222 27223 27224 27225 27226 27227 27228 27229 27230 27231 27232 27233 27234 27235 27236 27237 27238 27239 27240 27241 27242 27243 27244 27245 27246 27247 27248 27249 27250 27251 27252 27253 27254 27255 27256 27257 27258 27259 27260 27261 27262 27263 27264 27265 27266 27267 27268 27269 27270 27271 27272 27273 27274 27275 27276 27277 27278 27279 27280 27281 27282 27283 27284 27285 27286 27287 27288 27289 27290 27291 27292 27293 27294 27295 27296 27297 27298 27299 27300 27301 27302 27303 27304 27305 27306 27307 27308 27309 27310 27311 27312 27313 27314 27315 27316 27317 27318 27319 27320 27321 27322 27323 27324 27325 27326 27327 27328 27329 27330 27331 27332 27333 27334 27335 27336 27337 27338 27339 27340 27341 27342 27343 27344 27345 27346 27347 27348 27349 27350 27351 27352 27353 27354 27355 27356 27357 27358 27359 27360 27361 27362 27363 27364 27365 27366 27367 27368 27369 27370 27371 27372 27373 27374 27375 27376 27377 27378 27379 27380 27381 27382 27383 27384 27385 27386 27387 27388 27389 27390 27391 27392 27393 27394 27395 27396 27397 27398 27399 27400 27401 27402 27403 27404 27405 27406 27407 27408 27409 27410 27411 27412 27413 27414 27415 27416 27417 27418 27419 27420 27421 27422 27423 27424 27425 27426 27427 27428 27429 27430 27431 27432 27433 27434 27435 27436 27437 27438 27439 27440 27441 27442 27443 27444 27445 27446 27447 27448 27449 27450 27451 27452 27453 27454 27455 27456 27457 27458 27459 27460 27461 27462 27463 27464 27465 27466 27467 27468 27469 27470 27471 27472 27473 27474 27475 27476 27477 27478 27479 27480 27481 27482 27483 27484 27485 27486 27487 27488 27489 27490 27491 27492 27493 27494 27495 27496 27497 27498 27499 27500 27501 27502 27503 27504 27505 27506 27507 27508 27509 27510 27511 27512 27513 27514 27515 27516 27517 27518 27519 27520 27521 27522 27523 27524 27525 27526 27527 27528 27529 27530 27531 27532 27533 27534 27535 27536 27537 27538 27539 27540 27541 27542 27543 27544 27545 27546 27547 27548 27549 27550 27551 27552 27553 27554 27555 27556 27557 27558 27559 27560 27561 27562 27563 27564 27565 27566 27567 27568 27569 27570 27571 27572 27573 27574 27575 27576 27577 27578 27579 27580 27581 27582 27583 27584 27585 27586 27587 27588 27589 27590 27591 27592 27593 27594 27595 27596 27597 27598 27599 27600 27601 27602 27603 27604 27605 27606 27607 27608 27609 27610 27611 27612 27613 27614 27615 27616 27617 27618 27619 27620 27621 27622 27623 27624 27625 27626 27627 27628 27629 27630 27631 27632 27633 27634 27635 27636 27637 27638 27639 27640 27641 27642 27643 27644 27645 27646 27647 27648 27649 27650 27651 27652 27653 27654 27655 27656 27657 27658 27659 27660 27661 27662 27663 27664 27665 27666 27667 27668 27669 27670 27671 27672 27673 27674 27675 27676 27677 27678 27679 27680 27681 27682 27683 27684 27685 27686 27687 27688 27689 27690 27691 27692 27693 27694 27695 27696 27697 27698 27699 27700 27701 27702 27703 27704 27705 27706 27707 27708 27709 27710 27711 27712 27713 27714 27715 27716 27717 27718 27719 27720 27721 27722 27723 27724 27725 27726 27727 27728 27729 27730 27731 27732 27733 27734 27735 27736 27737 27738 27739 27740 27741 27742 27743 27744 27745 27746 27747 27748 27749 27750 27751 27752 27753 27754 27755 27756 27757 27758 27759 27760 27761 27762 27763 27764 27765 27766 27767 27768 27769 27770 27771 27772 27773 27774 27775 27776 27777 27778 27779 27780 27781 27782 27783 27784 27785 27786 27787 27788 27789 27790 27791 27792 27793 27794 27795 27796 27797 27798 27799 27800 27801 27802 27803 27804 27805 27806 27807 27808 27809 27810 27811 27812 27813 27814 27815 27816 27817 27818 27819 27820 27821 27822 27823 27824 27825 27826 27827 27828 27829 27830 27831 27832 27833 27834 27835 27836 27837 27838 27839 27840 27841 27842 27843 27844 27845 27846 27847 27848 27849 27850 27851 27852 27853 27854 27855 27856 27857 27858 27859 27860 27861 27862 27863 27864 27865 27866 27867 27868 27869 27870 27871 27872 27873 27874 27875 27876 27877 27878 27879 27880 27881 27882 27883 27884 27885 27886 27887 27888 27889 27890 27891 27892 27893 27894 27895 27896 27897 27898 27899 27900 27901 27902 27903 27904 27905 27906 27907 27908 27909 27910 27911 27912 27913 27914 27915 27916 27917 27918 27919 27920 27921 27922 27923 27924 27925 27926 27927 27928 27929 27930 27931 27932 27933 27934 27935 27936 27937 27938 27939 27940 27941 27942 27943 27944 27945 27946 27947 27948 27949 27950 27951 27952 27953 27954 27955 27956 27957 27958 27959 27960 27961 27962 27963 27964 27965 27966 27967 27968 27969 27970 27971 27972 27973 27974 27975 27976 27977 27978 27979 27980 27981 27982 27983 27984 27985 27986 27987 27988 27989 27990 27991 27992 27993 27994 27995 27996 27997 27998 27999 28000 28001 28002 28003 28004 28005 28006 28007 28008 28009 28010 28011 28012 28013 28014 28015 28016 28017 28018 28019 28020 28021 28022 28023 28024 28025 28026 28027 28028 28029 28030 28031 28032 28033 28034 28035 28036 28037 28038 28039 28040 28041 28042 28043 28044 28045 28046 28047 28048 28049 28050 28051 28052 28053 28054 28055 28056 28057 28058 28059 28060 28061 28062 28063 28064 28065 28066 28067 28068 28069 28070 28071 28072 28073 28074 28075 28076 28077 28078 28079 28080 28081 28082 28083 28084 28085 28086 28087 28088 28089 28090 28091 28092 28093 28094 28095 28096 28097 28098 28099 28100 28101 28102 28103 28104 28105 28106 28107 28108 28109 28110 28111 28112 28113 28114 28115 28116 28117 28118 28119 28120 28121 28122 28123 28124 28125 28126 28127 28128 28129 28130 28131 28132 28133 28134 28135 28136 28137 28138 28139 28140 28141 28142 28143 28144 28145 28146 28147 28148 28149 28150 28151 28152 28153 28154 28155 28156 28157 28158 28159 28160 28161 28162 28163 28164 28165 28166 28167 28168 28169 28170 28171 28172 28173 28174 28175 28176 28177 28178 28179 28180 28181 28182 28183 28184 28185 28186 28187 28188 28189 28190 28191 28192 28193 28194 28195 28196 28197 28198 28199 28200 28201 28202 28203 28204 28205 28206 28207 28208 28209 28210 28211 28212 28213 28214 28215 28216 28217 28218 28219 28220 28221 28222 28223 28224 28225 28226 28227 28228 28229 28230 28231 28232 28233 28234 28235 28236 28237 28238 28239 28240 28241 28242 28243 28244 28245 28246 28247 28248 28249 28250 28251 28252 28253 28254 28255 28256 28257 28258 28259 28260 28261 28262 28263 28264 28265 28266 28267 28268 28269 28270 28271 28272 28273 28274 28275 28276 28277 28278 28279 28280 28281 28282 28283 28284 28285 28286 28287 28288 28289 28290 28291 28292 28293 28294 28295 28296 28297 28298 28299 28300 28301 28302 28303 28304 28305 28306 28307 28308 28309 28310 28311 28312 28313 28314 28315 28316 28317 28318 28319 28320 28321 28322 28323 28324 28325 28326 28327 28328 28329 28330 28331 28332 28333 28334 28335 28336 28337 28338 28339 28340 28341 28342 28343 28344 28345 28346 28347 28348 28349 28350 28351 28352 28353 28354 28355 28356 28357 28358 28359 28360 28361 28362 28363 28364 28365 28366 28367 28368 28369 28370 28371 28372 28373 28374 28375 28376 28377 28378 28379 28380 28381 28382 28383 28384 28385 28386 28387 28388 28389 28390 28391 28392 28393 28394 28395 28396 28397 28398 28399 28400 28401 28402 28403 28404 28405 28406 28407 28408 28409 28410 28411 28412 28413 28414 28415 28416 28417 28418 28419 28420 28421 28422 28423 28424 28425 28426 28427 28428 28429 28430 28431 28432 28433 28434 28435 28436 28437 28438 28439 28440 28441 28442 28443 28444 28445 28446 28447 28448 28449 28450 28451 28452 28453 28454 28455 28456 28457 28458 28459 28460 28461 28462 28463 28464 28465 28466 28467 28468 28469 28470 28471 28472 28473 28474 28475 28476 28477 28478 28479 28480 28481 28482 28483 28484 28485 28486 28487 28488 28489 28490 28491 28492 28493 28494 28495 28496 28497 28498 28499 28500 28501 28502 28503 28504 28505 28506 28507 28508 28509 28510 28511 28512 28513 28514 28515 28516 28517 28518 28519 28520 28521 28522 28523 28524 28525 28526 28527 28528 28529 28530 28531 28532 28533 28534 28535 28536 28537 28538 28539 28540 28541 28542 28543 28544 28545 28546 28547 28548 28549 28550 28551 28552 28553 28554 28555 28556 28557 28558 28559 28560 28561 28562 28563 28564 28565 28566 28567 28568 28569 28570 28571 28572 28573 28574 28575 28576 28577 28578 28579 28580 28581 28582 28583 28584 28585 28586 28587 28588 28589 28590 28591 28592 28593 28594 28595 28596 28597 28598 28599 28600 28601 28602 28603 28604 28605 28606 28607 28608 28609 28610 28611 28612 28613 28614 28615 28616 28617 28618 28619 28620 28621 28622 28623 28624 28625 28626 28627 28628 28629 28630 28631 28632 28633 28634 28635 28636 28637 28638 28639 28640 28641 28642 28643 28644 28645 28646 28647 28648 28649 28650 28651 28652 28653 28654 28655 28656 28657 28658 28659 28660 28661 28662 28663 28664 28665 28666 28667 28668 28669 28670 28671 28672 28673 28674 28675 28676 28677 28678 28679 28680 28681 28682 28683 28684 28685 28686 28687 28688 28689 28690 28691 28692 28693 28694 28695 28696 28697 28698 28699 28700 28701 28702 28703 28704 28705 28706 28707 28708 28709 28710 28711 28712 28713 28714 28715 28716 28717 28718 28719 28720 28721 28722 28723 28724 28725 28726 28727 28728 28729 28730 28731 28732 28733 28734 28735 28736 28737 28738 28739 28740 28741 28742 28743 28744 28745 28746 28747 28748 28749 28750 28751 28752 28753 28754 28755 28756 28757 28758 28759 28760 28761 28762 28763 28764 28765 28766 28767 28768 28769 28770 28771 28772 28773 28774 28775 28776 28777 28778 28779 28780 28781 28782 28783 28784 28785 28786 28787 28788 28789 28790 28791 28792 28793 28794 28795 28796 28797 28798 28799 28800 28801 28802 28803 28804 28805 28806 28807 28808 28809 28810 28811 28812 28813 28814 28815 28816 28817 28818 28819 28820 28821 28822 28823 28824 28825 28826 28827 28828 28829 28830 28831 28832 28833 28834 28835 28836 28837 28838 28839 28840 28841 28842 28843 28844 28845 28846 28847 28848 28849 28850 28851 28852 28853 28854 28855 28856 28857 28858 28859 28860 28861 28862 28863 28864 28865 28866 28867 28868 28869 28870 28871 28872 28873 28874 28875 28876 28877 28878 28879 28880 28881 28882 28883 28884 28885 28886 28887 28888 28889 28890 28891 28892 28893 28894 28895 28896 28897 28898 28899 28900 28901 28902 28903 28904 28905 28906 28907 28908 28909 28910 28911 28912 28913 28914 28915 28916 28917 28918 28919 28920 28921 28922 28923 28924 28925 28926 28927 28928 28929 28930 28931 28932 28933 28934 28935 28936 28937 28938 28939 28940 28941 28942 28943 28944 28945 28946 28947 28948 28949 28950 28951 28952 28953 28954 28955 28956 28957 28958 28959 28960 28961 28962 28963 28964 28965 28966 28967 28968 28969 28970 28971 28972 28973 28974 28975 28976 28977 28978 28979 28980 28981 28982 28983 28984 28985 28986 28987 28988 28989 28990 28991 28992 28993 28994 28995 28996 28997 28998 28999 29000 29001 29002 29003 29004 29005 29006 29007 29008 29009 29010 29011 29012 29013 29014 29015 29016 29017 29018 29019 29020 29021 29022 29023 29024 29025 29026 29027 29028 29029 29030 29031 29032 29033 29034 29035 29036 29037 29038 29039 29040 29041 29042 29043 29044 29045 29046 29047 29048 29049 29050 29051 29052 29053 29054 29055 29056 29057 29058 29059 29060 29061 29062 29063 29064 29065 29066 29067 29068 29069 29070 29071 29072 29073 29074 29075 29076 29077 29078 29079 29080 29081 29082 29083 29084 29085 29086 29087 29088 29089 29090 29091 29092 29093 29094 29095 29096 29097 29098 29099 29100 29101 29102 29103 29104 29105 29106 29107 29108 29109 29110 29111 29112 29113 29114 29115 29116 29117 29118 29119 29120 29121 29122 29123 29124 29125 29126 29127 29128 29129 29130 29131 29132 29133 29134 29135 29136 29137 29138 29139 29140 29141 29142 29143 29144 29145 29146 29147 29148 29149 29150 29151 29152 29153 29154 29155 29156 29157 29158 29159 29160 29161 29162 29163 29164 29165 29166 29167 29168 29169 29170 29171 29172 29173 29174 29175 29176 29177 29178 29179 29180 29181 29182 29183 29184 29185 29186 29187 29188 29189 29190 29191 29192 29193 29194 29195 29196 29197 29198 29199 29200 29201 29202 29203 29204 29205 29206 29207 29208 29209 29210 29211 29212 29213 29214 29215 29216 29217 29218 29219 29220 29221 29222 29223 29224 29225 29226 29227 29228 29229 29230 29231 29232 29233 29234 29235 29236 29237 29238 29239 29240 29241 29242 29243 29244 29245 29246 29247 29248 29249 29250 29251 29252 29253 29254 29255 29256 29257 29258 29259 29260 29261 29262 29263 29264 29265 29266 29267 29268 29269 29270 29271 29272 29273 29274 29275 29276 29277 29278 29279 29280 29281 29282 29283 29284 29285 29286 29287 29288 29289 29290 29291 29292 29293 29294 29295 29296 29297 29298 29299 29300 29301 29302 29303 29304 29305 29306 29307 29308 29309 29310 29311 29312 29313 29314 29315 29316 29317 29318 29319 29320 29321 29322 29323 29324 29325 29326 29327 29328 29329 29330 29331 29332 29333 29334 29335 29336 29337 29338 29339 29340 29341 29342 29343 29344 29345 29346 29347 29348 29349 29350 29351 29352 29353 29354 29355 29356 29357 29358 29359 29360 29361 29362 29363 29364 29365 29366 29367 29368 29369 29370 29371 29372 29373 29374 29375 29376 29377 29378 29379 29380 29381 29382 29383 29384 29385 29386 29387 29388 29389 29390 29391 29392 29393 29394 29395 29396 29397 29398 29399 29400 29401 29402 29403 29404 29405 29406 29407 29408 29409 29410 29411 29412 29413 29414 29415 29416 29417 29418 29419 29420 29421 29422 29423 29424 29425 29426 29427 29428 29429 29430 29431 29432 29433 29434 29435 29436 29437 29438 29439 29440 29441 29442 29443 29444 29445 29446 29447 29448 29449 29450 29451 29452 29453 29454 29455 29456 29457 29458 29459 29460 29461 29462 29463 29464 29465 29466 29467 29468 29469 29470 29471 29472 29473 29474 29475 29476 29477 29478 29479 29480 29481 29482 29483 29484 29485 29486 29487 29488 29489 29490 29491 29492 29493 29494 29495 29496 29497 29498 29499 29500 29501 29502 29503 29504 29505 29506 29507 29508 29509 29510 29511 29512 29513 29514 29515 29516 29517 29518 29519 29520 29521 29522 29523 29524 29525 29526 29527 29528 29529 29530 29531 29532 29533 29534 29535 29536 29537 29538 29539 29540 29541 29542 29543 29544 29545 29546 29547 29548 29549 29550 29551 29552 29553 29554 29555 29556 29557 29558 29559 29560 29561 29562 29563 29564 29565 29566 29567 29568 29569 29570 29571 29572 29573 29574 29575 29576 29577 29578 29579 29580 29581 29582 29583 29584 29585 29586 29587 29588 29589 29590 29591 29592 29593 29594 29595 29596 29597 29598 29599 29600 29601 29602 29603 29604 29605 29606 29607 29608 29609 29610 29611 29612 29613 29614 29615 29616 29617 29618 29619 29620 29621 29622 29623 29624 29625 29626 29627 29628 29629 29630 29631 29632 29633 29634 29635 29636 29637 29638 29639 29640 29641 29642 29643 29644 29645 29646 29647 29648 29649 29650 29651 29652 29653 29654 29655 29656 29657 29658 29659 29660 29661 29662 29663 29664 29665 29666 29667 29668 29669 29670 29671 29672 29673 29674 29675 29676 29677 29678 29679 29680 29681 29682 29683 29684 29685 29686 29687 29688 29689 29690 29691 29692 29693 29694 29695 29696 29697 29698 29699 29700 29701 29702 29703 29704 29705 29706 29707 29708 29709 29710 29711 29712 29713 29714 29715 29716 29717 29718 29719 29720 29721 29722 29723 29724 29725 29726 29727 29728 29729 29730 29731 29732 29733 29734 29735 29736 29737 29738 29739 29740 29741 29742 29743 29744 29745 29746 29747 29748 29749 29750 29751 29752 29753 29754 29755 29756 29757 29758 29759 29760 29761 29762 29763 29764 29765 29766 29767 29768 29769 29770 29771 29772 29773 29774 29775 29776 29777 29778 29779 29780 29781 29782 29783 29784 29785 29786 29787 29788 29789 29790 29791 29792 29793 29794 29795 29796 29797 29798 29799 29800 29801 29802 29803 29804 29805 29806 29807 29808 29809 29810 29811 29812 29813 29814 29815 29816 29817 29818 29819 29820 29821 29822 29823 29824 29825 29826 29827 29828 29829 29830 29831 29832 29833 29834 29835 29836 29837 29838 29839 29840 29841 29842 29843 29844 29845 29846 29847 29848 29849 29850 29851 29852 29853 29854 29855 29856 29857 29858 29859 29860 29861 29862 29863 29864 29865 29866 29867 29868 29869 29870 29871 29872 29873 29874 29875 29876 29877 29878 29879 29880 29881 29882 29883 29884 29885 29886 29887 29888 29889 29890 29891 29892 29893 29894 29895 29896 29897 29898 29899 29900 29901 29902 29903 29904 29905 29906 29907 29908 29909 29910 29911 29912 29913 29914 29915 29916 29917 29918 29919 29920 29921 29922 29923 29924 29925 29926 29927 29928 29929 29930 29931 29932 29933 29934 29935 29936 29937 29938 29939 29940 29941 29942 29943 29944 29945 29946 29947 29948 29949 29950 29951 29952 29953 29954 29955 29956 29957 29958 29959 29960 29961 29962 29963 29964 29965 29966 29967 29968 29969 29970 29971 29972 29973 29974 29975 29976 29977 29978 29979 29980 29981 29982 29983 29984 29985 29986 29987 29988 29989 29990 29991 29992 29993 29994 29995 29996 29997 29998 29999 30000 30001 30002 30003 30004 30005 30006 30007 30008 30009 30010 30011 30012 30013 30014 30015 30016 30017 30018 30019 30020 30021 30022 30023 30024 30025 30026 30027 30028 30029 30030 30031 30032 30033 30034 30035 30036 30037 30038 30039 30040 30041 30042 30043 30044 30045 30046 30047 30048 30049 30050 30051 30052 30053 30054 30055 30056 30057 30058 30059 30060 30061 30062 30063 30064 30065 30066 30067 30068 30069 30070 30071 30072 30073 30074 30075 30076 30077 30078 30079 30080 30081 30082 30083 30084 30085 30086 30087 30088 30089 30090 30091 30092 30093 30094 30095 30096 30097 30098 30099 30100 30101 30102 30103 30104 30105 30106 30107 30108 30109 30110 30111 30112 30113 30114 30115 30116 30117 30118 30119 30120 30121 30122 30123 30124 30125 30126 30127 30128 30129 30130 30131 30132 30133 30134 30135 30136 30137 30138 30139 30140 30141 30142 30143 30144 30145 30146 30147 30148 30149 30150 30151 30152 30153 30154 30155 30156 30157 30158 30159 30160 30161 30162 30163 30164 30165 30166 30167 30168 30169 30170 30171 30172 30173 30174 30175 30176 30177 30178 30179 30180 30181 30182 30183 30184 30185 30186 30187 30188 30189 30190 30191 30192 30193 30194 30195 30196 30197 30198 30199 30200 30201 30202 30203 30204 30205 30206 30207 30208 30209 30210 30211 30212 30213 30214 30215 30216 30217 30218 30219 30220 30221 30222 30223 30224 30225 30226 30227 30228 30229 30230 30231 30232 30233 30234 30235 30236 30237 30238 30239 30240 30241 30242 30243 30244 30245 30246 30247 30248 30249 30250 30251 30252 30253 30254 30255 30256 30257 30258 30259 30260 30261 30262 30263 30264 30265 30266 30267 30268 30269 30270 30271 30272 30273 30274 30275 30276 30277 30278 30279 30280 30281 30282 30283 30284 30285 30286 30287 30288 30289 30290 30291 30292 30293 30294 30295 30296 30297 30298 30299 30300 30301 30302 30303 30304 30305 30306 30307 30308 30309 30310 30311 30312 30313 30314 30315 30316 30317 30318 30319 30320 30321 30322 30323 30324 30325 30326 30327 30328 30329 30330 30331 30332 30333 30334 30335 30336 30337 30338 30339 30340 30341 30342 30343 30344 30345 30346 30347 30348 30349 30350 30351 30352 30353 30354 30355 30356 30357 30358 30359 30360 30361 30362 30363 30364 30365 30366 30367 30368 30369 30370 30371 30372 30373 30374 30375 30376 30377 30378 30379 30380 30381 30382 30383 30384 30385 30386 30387 30388 30389 30390 30391 30392 30393 30394 30395 30396 30397 30398 30399 30400 30401 30402 30403 30404 30405 30406 30407 30408 30409 30410 30411 30412 30413 30414 30415 30416 30417 30418 30419 30420 30421 30422 30423 30424 30425 30426 30427 30428 30429 30430 30431 30432 30433 30434 30435 30436 30437 30438 30439 30440 30441 30442 30443 30444 30445 30446 30447 30448 30449 30450 30451 30452 30453 30454 30455 30456 30457 30458 30459 30460 30461 30462 30463 30464 30465 30466 30467 30468 30469 30470 30471 30472 30473 30474 30475 30476 30477 30478 30479 30480 30481 30482 30483 30484 30485 30486 30487 30488 30489 30490 30491 30492 30493 30494 30495 30496 30497 30498 30499 30500 30501 30502 30503 30504 30505 30506 30507 30508 30509 30510 30511 30512 30513 30514 30515 30516 30517 30518 30519 30520 30521 30522 30523 30524 30525 30526 30527 30528 30529 30530 30531 30532 30533 30534 30535 30536 30537 30538 30539 30540 30541 30542 30543 30544 30545 30546 30547 30548 30549 30550 30551 30552 30553 30554 30555 30556 30557 30558 30559 30560 30561 30562 30563 30564 30565 30566 30567 30568 30569 30570 30571 30572 30573 30574 30575 30576 30577 30578 30579 30580 30581 30582 30583 30584 30585 30586 30587 30588 30589 30590 30591 30592 30593 30594 30595 30596 30597 30598 30599 30600 30601 30602 30603 30604 30605 30606 30607 30608 30609 30610 30611 30612 30613 30614 30615 30616 30617 30618 30619 30620 30621 30622 30623 30624 30625 30626 30627 30628 30629 30630 30631 30632 30633 30634 30635 30636 30637 30638 30639 30640 30641 30642 30643 30644 30645 30646 30647 30648 30649 30650 30651 30652 30653 30654 30655 30656 30657 30658 30659 30660 30661 30662 30663 30664 30665 30666 30667 30668 30669 30670 30671 30672 30673 30674 30675 30676 30677 30678 30679 30680 30681 30682 30683 30684 30685 30686 30687 30688 30689 30690 30691 30692 30693 30694 30695 30696 30697 30698 30699 30700 30701 30702 30703 30704 30705 30706 30707 30708 30709 30710 30711 30712 30713 30714 30715 30716 30717 30718 30719 30720 30721 30722 30723 30724 30725 30726 30727 30728 30729 30730 30731 30732 30733 30734 30735 30736 30737 30738 30739 30740 30741 30742 30743 30744 30745 30746 30747 30748 30749 30750 30751 30752 30753 30754 30755 30756 30757 30758 30759 30760 30761 30762 30763 30764 30765 30766 30767 30768 30769 30770 30771 30772 30773 30774 30775 30776 30777 30778 30779 30780 30781 30782 30783 30784 30785 30786 30787 30788 30789 30790 30791 30792 30793 30794 30795 30796 30797 30798 30799 30800 30801 30802 30803 30804 30805 30806 30807 30808 30809 30810 30811 30812 30813 30814 30815 30816 30817 30818 30819 30820 30821 30822 30823 30824 30825 30826 30827 30828 30829 30830 30831 30832 30833 30834 30835 30836 30837 30838 30839 30840 30841 30842 30843 30844 30845 30846 30847 30848 30849 30850 30851 30852 30853 30854 30855 30856 30857 30858 30859 30860 30861 30862 30863 30864 30865 30866 30867 30868 30869 30870 30871 30872 30873 30874 30875 30876 30877 30878 30879 30880 30881 30882 30883 30884 30885 30886 30887 30888 30889 30890 30891 30892 30893 30894 30895 30896 30897 30898 30899 30900 30901 30902 30903 30904 30905 30906 30907 30908 30909 30910 30911 30912 30913 30914 30915 30916 30917 30918 30919 30920 30921 30922 30923 30924 30925 30926 30927 30928 30929 30930 30931 30932 30933 30934 30935 30936 30937 30938 30939 30940 30941 30942 30943 30944 30945 30946 30947 30948 30949 30950 30951 30952 30953 30954 30955 30956 30957 30958 30959 30960 30961 30962 30963 30964 30965 30966 30967 30968 30969 30970 30971 30972 30973 30974 30975 30976 30977 30978 30979 30980 30981 30982 30983 30984 30985 30986 30987 30988 30989 30990 30991 30992 30993 30994 30995 30996 30997 30998 30999 31000 31001 31002 31003 31004 31005 31006 31007 31008 31009 31010 31011 31012 31013 31014 31015 31016 31017 31018 31019 31020 31021 31022 31023 31024 31025 31026 31027 31028 31029 31030 31031 31032 31033 31034 31035 31036 31037 31038 31039 31040 31041 31042 31043 31044 31045 31046 31047 31048 31049 31050 31051 31052 31053 31054 31055 31056 31057 31058 31059 31060 31061 31062 31063 31064 31065 31066 31067 31068 31069 31070 31071 31072 31073 31074 31075 31076 31077 31078 31079 31080 31081 31082 31083 31084 31085 31086 31087 31088 31089 31090 31091 31092 31093 31094 31095 31096 31097 31098 31099 31100 31101 31102 31103 31104 31105 31106 31107 31108 31109 31110 31111 31112 31113 31114 31115 31116 31117 31118 31119 31120 31121 31122 31123 31124 31125 31126 31127 31128 31129 31130 31131 31132 31133 31134 31135 31136 31137 31138 31139 31140 31141 31142 31143 31144 31145 31146 31147 31148 31149 31150 31151 31152 31153 31154 31155 31156 31157 31158 31159 31160 31161 31162 31163 31164 31165 31166 31167 31168 31169 31170 31171 31172 31173 31174 31175 31176 31177 31178 31179 31180 31181 31182 31183 31184 31185 31186 31187 31188 31189 31190 31191 31192 31193 31194 31195 31196 31197 31198 31199 31200 31201 31202 31203 31204 31205 31206 31207 31208 31209 31210 31211 31212 31213 31214 31215 31216 31217 31218 31219 31220 31221 31222 31223 31224 31225 31226 31227 31228 31229 31230 31231 31232 31233 31234 31235 31236 31237 31238 31239 31240 31241 31242 31243 31244 31245 31246 31247 31248 31249 31250 31251 31252 31253 31254 31255 31256 31257 31258 31259 31260 31261 31262 31263 31264 31265 31266 31267 31268 31269 31270 31271 31272 31273 31274 31275 31276 31277 31278 31279 31280 31281 31282 31283 31284 31285 31286 31287 31288 31289 31290 31291 31292 31293 31294 31295 31296 31297 31298 31299 31300 31301 31302 31303 31304 31305 31306 31307 31308 31309 31310 31311 31312 31313 31314 31315 31316 31317 31318 31319 31320 31321 31322 31323 31324 31325 31326 31327 31328 31329 31330 31331 31332 31333 31334 31335 31336 31337 31338 31339 31340 31341 31342 31343 31344 31345 31346 31347 31348 31349 31350 31351 31352 31353 31354 31355 31356 31357 31358 31359 31360 31361 31362 31363 31364 31365 31366 31367 31368 31369 31370 31371 31372 31373 31374 31375 31376 31377 31378 31379 31380 31381 31382 31383 31384 31385 31386 31387 31388 31389 31390 31391 31392 31393 31394 31395 31396 31397 31398 31399 31400 31401 31402 31403 31404 31405 31406 31407 31408 31409 31410 31411 31412 31413 31414 31415 31416 31417 31418 31419 31420 31421 31422 31423 31424 31425 31426 31427 31428 31429 31430 31431 31432 31433 31434 31435 31436 31437 31438 31439 31440 31441 31442 31443 31444 31445 31446 31447 31448 31449 31450 31451 31452 31453 31454 31455 31456 31457 31458 31459 31460 31461 31462 31463 31464 31465 31466 31467 31468 31469 31470 31471 31472 31473 31474 31475 31476 31477 31478 31479 31480 31481 31482 31483 31484 31485 31486 31487 31488 31489 31490 31491 31492 31493 31494 31495 31496 31497 31498 31499 31500 31501 31502 31503 31504 31505 31506 31507 31508 31509 31510 31511 31512 31513 31514 31515 31516 31517 31518 31519 31520 31521 31522 31523 31524 31525 31526 31527 31528 31529 31530 31531 31532 31533 31534 31535 31536 31537 31538 31539 31540 31541 31542 31543 31544 31545 31546 31547 31548 31549 31550 31551 31552 31553 31554 31555 31556 31557 31558 31559 31560 31561 31562 31563 31564 31565 31566 31567 31568 31569 31570 31571 31572 31573 31574 31575 31576 31577 31578 31579 31580 31581 31582 31583 31584 31585 31586 31587 31588 31589 31590 31591 31592 31593 31594 31595 31596 31597 31598 31599 31600 31601 31602 31603 31604 31605 31606 31607 31608 31609 31610 
</DataArray>
<DataArray type="UInt32" Name="offsets" format="ascii">
3 6 9 12 14 17 20 23 26 29 32 35 38 41 44 47 50 53 56 59 62 65 68 71 74 77 80 83 85 88 91 94 97 99 102 105 108 111 114 117 120 123 125 128 131 134 137 139 141 144 147 150 153 156 159 162 164 167 170 172 174 176 179 181 183 185 188 191 194 196 199 202 205 208 211 214 217 220 223 226 229 232 235 238 241 244 247 250 253 256 259 261 264 267 270 273 276 279 281 284 287 289 292 294 297 300 303 306 308 311 314 316 319 322 324 327 330 333 335 338 341 344 347 350 353 356 359 362 365 368 371 374 377 380 383 386 389 392 395 398 401 404 407 410 413 415 418 421 424 426 429 432 435 438 441 444 447 449 452 455 458 461 463 466 469 472 474 477 480 483 486 489 492 495 498 501 504 507 510 512 515 517 520 523 526 528 531 534 537 540 543 546 549 552 555 558 561 564 566 568 571 574 577 580 582 585 587 590 593 596 599 602 605 608 611 614 617 620 623 626 629 632 635 638 641 644 647 650 653 656 659 661 664 667 670 673 676 679 682 685 688 690 693 695 698 701 704 707 710 712 715 718 721 724 727 730 733 735 738 741 744 747 749 752 755 758 761 764 767 770 773 776 778 781 784 787 790 793 796 799 802 804 807 809 812 815 817 820 823 826 829 832 834 837 840 843 846 849 851 854 857 860 863 866 868 871 874 877 880 883 886 889 892 895 898 900 903 905 908 911 914 917 919 922 924 927 930 933 935 938 941 944 946 949 952 955 958 961 964 966 969 972 974 977 980 983 986 989 992 995 998 1001 1004 1007 1009 1011 1014 1017 1019 1022 1025 1028 1031 1034 1037 1040 1042 1045 1048 1051 1054 1057 1060 1063 1065 1068 1070 1073 1076 1079 1082 1085 1088 1091 1094 1097 1100 1103 1105 1108 1111 1114 1117 1120 1123 1125 1128 1131 1134 1137 1140 1143 1146 1148 1151 1154 1156 1159 1162 1165 1167 1170 1173 1176 1179 1182 1185 1187 1190 1193 1196 1198 1201 1204 1207 1209 1212 1215 1217 1220 1223 1226 1229 1231 1233 1236 1239 1241 1243 1246 1249 1252 1255 1257 1260 1263 1266 1269 1272 1275 1278 1280 1283 1286 1289 1292 1294 1297 1300 1303 1306 1309 1312 1315 1317 1320 1323 1326 1328 1331 1333 1336 1338 1341 1344 1347 1350 1353 1355 1358 1361 1364 1366 1369 1371 1374 1377 1379 1382 1385 1387 1390 1393 1396 1399 1402 1405 1408 1411 1414 1417 1420 1423 1426 1429 1431 1434 1437 1440 1443 1446 1449 1451 1454 1456 1459 1462 1465 1468 1470 1473 1476 1479 1482 1484 1487 1490 1493 1496 1499 1502 1504 1507 1510 1513 1516 1519 1522 1525 1527 1530 1533 1536 1539 1542 1544 1547 1550 1553 1556 1558 1561 1564 1567 1570 1572 1575 1578 1581 1584 1587 1590 1593 1595 1598 1601 1604 1607 1610 1613 1616 1619 1622 1625 1628 1630 1633 1636 1639 1642 1645 1648 1651 1654 1656 1659 1662 1665 1668 1671 1674 1677 1680 1683 1686 1689 1692 1695 1698 1701 1704 1706 1709 1712 1715 1718 1721 1724 1727 1730 1733 1736 1739 1742 1745 1748 1751 1754 1757 1760 1763 1766 1769 1772 1775 1778 1781 1784 1787 1790 1793 1796 1799 1802 1805 1808 1811 1814 1817 1820 1823 1826 1829 1832 1835 1838 1841 1844 1847 1850 1853 1856 1859 1862 1865 1868 1871 1874 1877 1880 1883 1886 1888 1891 1894 1896 1899 1902 1905 1908 1911 1914 1917 1920 1923 1925 1928 1931 1934 1937 1939 1942 1945 1948 1951 1954 1957 1960 1963 1966 1969 1972 1975 1978 1981 1984 1986 1989 1992 1995 1998 2001 2004 2007 2010 2013 2016 2019 2022 2025 2028 2030 2033 2036 2039 2042 2045 2048 2051 2054 2057 2059 2061 2064 2067 2070 2072 2075 2078 2081 2084 2087 2090 2093 2096 2099 2102 2105 2108 2110 2113 2116 2119 2122 2125 2128 2131 2134 2137 2140 2143 2146 2149 2152 2155 2158 2161 2164 2167 2170 2173 2176 2179 2182 2185 2188 2191 2194 2197 2200 2203 2206 2209 2212 2215 2218 2221 2224 2227 2230 2233 2236 2239 2241 2244 2247 2250 2253 2256 2259 2261 2264 2267 2269 2272 2275 2278 2280 2283 2286 2289 2292 2295 2298 2301 2304 2307 2310 2313 2316 2319 2322 2325 2328 2331 2334 2337 2340 2343 2346 2349 2352 2355 2358 2361 2364 2367 2370 2373 2376 2379 2382 2385 2388 2391 2394 2397 2400 2403 2406 2409 2412 2415 2418 2421 2424 2427 2430 2433 2436 2439 2442 2445 2448 2451 2454 2457 2460 2463 2466 2468 2471 2474 2477 2480 2483 2486 2489 2492 2495 2498 2501 2504 2506 2509 2512 2515 2518 2521 2524 2527 2530 2533 2536 2539 2542 2545 2548 2550 2553 2555 2558 2561 2563 2566 2569 2572 2574 2577 2580 2583 2586 2589 2592 2595 2597 2600 2602 2605 2608 2611 2614 2617 2619 2622 2625 2628 2631 2634 2636 2639 2642 2645 2648 2651 2653 2655 2658 2661 2664 2667 2670 2672 2675 2678 2681 2683 2686 2688 2691 2694 2697 2699 2702 2704 2707 2710 2713 2715 2718 2720 2723 2726 2729 2732 2734 2737 2740 2743 2746 2749 2752 2755 2758 2761 2764 2766 2768 2771 2773 2776 2779 2781 2784 2787 2789 2792 2795 2798 2801 2803 2806 2809 2812 2815 2818 2821 2824 2827 2830 2833 2836 2839 2842 2845 2848 2851 2854 2857 2860 2863 2866 2869 2872 2875 2878 2881 2884 2887 2890 2893 2896 2898 2901 2903 2905 2908 2911 2913 2916 2919 2922 2925 2928 2931 2934 2937 2940 2943 2946 2949 2952 2955 2958 2960 2963 2966 2969 2972 2975 2978 2981 2983 2986 2989 2992 2995 2998 3001 3004 3006 3009 3012 3015 3018 3021 3024 3027 3029 3032 3035 3037 3040 3043 3046 3049 3052 3054 3056 3059 3062 3065 3068 3071 3073 3076 3079 3082 3085 3087 3090 3093 3095 3098 3101 3104 3107 3110 3112 3114 3117 3120 3123 3126 3129 3132 3135 3138 3141 3144 3147 3150 3152 3155 3158 3161 3164 3167 3170 3173 3176 3179 3182 3185 3188 3191 3194 3197 3200 3203 3206 3209 3212 3215 3218 3221 3224 3226 3229 3232 3235 3238 3240 3243 3246 3249 3251 3254 3257 3260 3263 3266 3269 3272 3274 3277 3280 3283 3286 3289 3291 3294 3297 3300 3303 3306 3309 3312 3315 3318 3321 3324 3327 3330 3333 3336 3339 3342 3345 3347 3350 3353 3356 3359 3362 3365 3368 3371 3374 3377 3380 3382 3384 3387 3390 3393 3395 3397 3400 3403 3406 3408 3411 3414 3416 3419 3422 3425 3427 3430 3432 3434 3437 3440 3443 3446 3449 3452 3455 3458 3461 3464 3467 3470 3472 3475 3478 3480 3483 3486 3488 3491 3493 3496 3499 3502 3504 3507 3510 3513 3516 3519 3522 3525 3528 3530 3533 3536 3539 3542 3545 3547 3550 3553 3556 3559 3562 3565 3568 3570 3573 3576 3579 3582 3585 3588 3591 3594 3596 3599 3601 3604 3607 3610 3613 3615 3618 3620 3623 3625 3628 3630 3633 3636 3639 3642 3645 3648 3651 3653 3656 3659 3661 3664 3666 3669 3671 3674 3677 3679 3682 3685 3688 3691 3694 3697 3700 3703 3705 3708 3711 3714 3717 3720 3723 3725 3728 3731 3734 3737 3740 3743 3746 3749 3752 3755 3758 3761 3763 3766 3769 3772 3774 3777 3780 3783 3786 3789 3792 3794 3797 3800 3803 3806 3809 3812 3815 3818 3821 3824 3827 3830 3833 3836 3839 3842 3845 3848 3851 3854 3857 3860 3863 3866 3869 3872 3875 3877 3880 3882 3885 3888 3891 3894 3897 3900 3903 3906 3909 3912 3915 3918 3920 3923 3926 3928 3931 3934 3936 3939 3942 3945 3948 3951 3954 3957 3960 3963 3966 3969 3971 3974 3976 3979 3982 3985 3988 3991 3994 3997 4000 4003 4006 4009 4012 4015 4018 4021 4024 4027 4030 4033 4035 4038 4041 4044 4047 4049 4052 4055 4058 4061 4063 4066 4069 4071 4073 4076 4079 4082 4085 4088 4091 4094 4097 4100 4103 4106 4109 4112 4114 4117 4120 4123 4126 4129 4132 4135 4138 4141 4143 4146 4148 4151 4154 4157 4160 4163 4166 4169 4172 4175 4178 4181 4184 4187 4190 4193 4196 4199 4202 4204 4207 4210 4213 4216 4219 4222 4225 4228 4231 4234 4237 4240 4243 4246 4249 4252 4255 4258 4261 4264 4267 4270 4273 4276 4279 4282 4285 4288 4291 4294 4297 4300 4303 4306 4309 4312 4315 4318 4321 4324 4327 4330 4333 4336 4338 4341 4344 4347 4350 4353 4356 4359 4361 4364 4367 4370 4373 4376 4379 4382 4385 4388 4391 4393 4396 4399 4402 4405 4408 4410 4413 4416 4419 4422 4425 4428 4431 4434 4437 4440 4443 4446 4449 4451 4454 4457 4459 4462 4464 4467 4470 4473 4476 4479 4482 4485 4488 4491 4494 4497 4500 4503 4506 4509 4512 4515 4517 4519 4522 4524 4527 4530 4533 4536 4539 4542 4544 4546 4549 4551 4554 4557 4560 4563 4566 4569 4571 4574 4577 4580 4583 4586 4589 4592 4595 4598 4601 4604 4607 4609 4612 4615 4617 4620 4623 4626 4629 4632 4634 4637 4639 4642 4644 4647 4650 4653 4656 4659 4662 4665 4668 4671 4674 4677 4679 4682 4684 4687 4690 4692 4695 4698 4701 4704 4707 4710 4713 4716 4719 4721 4723 4726 4729 4732 4735 4737 4739 4742 4745 4748 4750 4753 4756 4759 4761 4764 4767 4770 4773 4776 4778 4781 4784 4786 4789 4791 4794 4797 4800 4802 4805 4808 4811 4814 4817 4820 4822 4825 4827 4829 4832 4835 4838 4841 4844 4847 4850 4852 4855 4858 4860 4863 4865 4868 4871 4874 4877 4880 4883 4886 4889 4892 4895 4898 4901 4904 4907 4910 4913 4916 4919 4922 4925 4928 4931 4934 4937 4940 4942 4945 4948 4951 4954 4957 4960 4963 4965 4968 4971 4974 4977 4979 4982 4985 4988 4991 4994 4997 5000 5003 5006 5009 5012 5014 5017 5020 5023 5026 5029 5032 5035 5038 5041 5043 5046 5049 5052 5055 5058 5061 5064 5067 5070 5073 5075 5078 5081 5083 5086 5089 5092 5095 5098 5101 5104 5106 5109 5112 5115 5117 5120 5122 5125 5127 5130 5133 5136 5139 5142 5145 5148 5151 5154 5157 5160 5163 5166 5169 5171 5174 5177 5180 5182 5185 5188 5190 5193 5196 5199 5202 5205 5208 5211 5214 5217 5220 5223 5226 5229 5231 5234 5236 5239 5242 5244 5247 5249 5252 5255 5258 5261 5264 5267 5270 5272 5275 5278 5281 5284 5287 5290 5293 5295 5298 5301 5304 5306 5309 5312 5315 5318 5321 5324 5326 5329 5332 5335 5338 5340 5343 5346 5349 5352 5355 5358 5361 5364 5367 5370 5373 5375 5378 5381 5384 5387 5390 5392 5394 5397 5400 5403 5405 5407 5410 5413 5416 5418 5421 5424 5426 5429 5432 5434 5437 5439 5441 5444 5447 5450 5453 5455 5458 5461 5464 5467 5470 5473 5475 5478 5481 5484 5487 5490 5492 5495 5498 5501 5504 5507 5509 5512 5515 5518 5521 5524 5527 5530 5533 5536 5539 5542 5545 5548 5550 5553 5556 5559 5562 5565 5567 5570 5572 5575 5578 5581 5584 5587 5590 5592 5595 5598 5601 5604 5607 5610 5612 5614 5616 5619 5622 5625 5627 5630 5633 5636 5639 5642 5645 5648 5651 5654 5657 5660 5662 5665 5668 5671 5674 5677 5680 5683 5686 5689 5692 5695 5698 5700 5702 5704 5707 5710 5712 5715 5718 5721 5723 5726 5729 5731 5734 5736 5739 5741 5744 5746 5748 5750 5753 5756 5759 5762 5765 5767 5770 5773 5775 5778 5781 5784 5786 5789 5791 5794 5797 5800 5803 5805 5808 5811 5814 5817 5820 5823 5826 5828 5831 5834 5837 5840 5842 5845 5848 5851 5854 5857 5860 5863 5865 5868 5871 5873 5876 5879 5882 5885 5888 5890 5893 5896 5899 5902 5905 5908 5911 5914 5917 5919 5922 5925 5928 5931 5934 5937 5940 5942 5945 5948 5951 5954 5957 5959 5962 5965 5967 5970 5973 5976 5979 5982 5985 5988 5991 5994 5997 6000 6003 6006 6009 6012 6015 6018 6021 6024 6027 6030 6033 6036 6039 6042 6045 6048 6051 6054 6057 6060 6063 6066 6069 6072 6075 6078 6081 6084 6087 6089 6092 6094 6097 6099 6102 6105 6107 6110 6113 6116 6119 6122 6125 6128 6131 6134 6136 6138 6141 6144 6147 6150 6152 6155 6158 6160 6163 6166 6169 6172 6175 6177 6180 6183 6186 6188 6191 6193 6195 6197 6200 6203 6206 6209 6212 6215 6218 6221 6224 6227 6230 6233 6236 6239 6242 6245 6248 6251 6254 6257 6260 6263 6266 6269 6272 6275 6278 6280 6283 6286 6288 6291 6294 6296 6299 6302 6305 6308 6311 6313 6316 6319 6321 6324 6327 6329 6331 6334 6336 6338 6341 6344 6347 6349 6352 6354 6357 6360 6363 6366 6369 6372 6375 6377 6380 6383 6386 6389 6392 6395 6398 6401 6404 6407 6410 6413 6416 6419 6422 6425 6428 6431 6434 6437 6440 6443 6446 6449 6452 6455 6458 6461 6464 6467 6470 6473 6476 6479 6482 6485 6488 6491 6494 6497 6500 6503 6505 6508 6511 6514 6517 6520 6523 6525 6528 6531 6534 6537 6540 6543 6546 6549 6552 6555 6558 6561 6564 6566 6569 6572 6575 6577 6580 6583 6586 6589 6592 6595 6598 6600 6603 6606 6609 6612 6615 6618 6621 6624 6627 6630 6633 6636 6639 6642 6645 6648 6650 6653 6655 6658 6661 6663 6666 6669 6672 6675 6677 6680 6683 6686 6689 6692 6695 6698 6701 6704 6706 6709 6712 6714 6717 6719 6722 6725 6728 6731 6734 6736 6739 6742 6744 6747 6750 6753 6756 6759 6761 6764 6767 6770 6772 6775 6778 6781 6784 6786 6789 6792 6795 6797 6800 6803 6806 6809 6812 6815 6817 6820 6823 6826 6828 6831 6834 6836 6839 6842 6844 6847 6849 6851 6854 6857 6860 6863 6866 6869 6872 6875 6878 6881 6884 6887 6890 6893 6896 6899 6902 6905 6908 6911 6914 6917 6920 6923 6926 6929 6932 6935 6938 6941 6944 6947 6950 6953 6956 6959 6962 6965 6968 6971 6974 6977 6980 6982 6985 6988 6990 6993 6996 6999 7001 7004 7007 7010 7013 7016 7019 7022 7025 7028 7031 7034 7036 7039 7042 7045 7048 7051 7054 7057 7060 7062 7065 7068 7071 7074 7077 7080 7083 7086 7089 7092 7094 7097 7100 7102 7105 7108 7110 7112 7115 7118 7120 7123 7126 7129 7132 7135 7138 7141 7144 7147 7150 7153 7156 7159 7161 7164 7167 7169 7172 7175 7178 7181 7184 7187 7190 7193 7195 7198 7201 7203 7205 7208 7210 7213 7216 7219 7222 7224 7227 7230 7233 7236 7238 7241 7244 7247 7250 7253 7256 7259 7262 7265 7268 7271 7274 7276 7279 7282 7285 7287 7290 7293 7296 7299 7302 7305 7307 7310 7313 7316 7319 7321 7324 7327 7329 7331 7334 7337 7340 7343 7346 7348 7351 7354 7356 7359 7362 7365 7368 7371 7374 7377 7379 7382 7384 7387 7390 7393 7396 7399 7402 7405 7407 7410 7413 7416 7419 7422 7425 7427 7430 7433 7436 7439 7441 7444 7447 7450 7453 7456 7458 7461 7464 7467 7470 7472 7475 7478 7481 7484 7487 7490 7493 7496 7499 7502 7504 7507 7510 7512 7515 7517 7520 7523 7525 7527 7530 7533 7536 7538 7541 7544 7547 7550 7553 7556 7559 7561 7564 7567 7570 7573 7576 7579 7581 7584 7587 7590 7593 7596 7599 7601 7604 7606 7608 7611 7614 7617 7620 7622 7625 7628 7631 7633 7636 7639 7642 7645 7648 7651 7654 7657 7660 7663 7666 7669 7672 7675 7678 7681 7684 7687 7690 7693 7696 7699 7702 7705 7707 7710 7713 7715 7718 7721 7724 7727 7730 7732 7734 7737 7740 7742 7745 7748 7751 7754 7756 7759 7761 7764 7767 7770 7773 7775 7778 7781 7784 7787 7790 7793 7796 7798 7801 7804 7807 7810 7813 7816 7818 7821 7824 7826 7829 7832 7834 7837 7840 7843 7845 7847 7850 7853 7855 7858 7861 7864 7867 7870 7872 7875 7878 7881 7884 7887 7890 7893 7896 7899 7901 7903 7906 7909 7911 7914 7917 7920 7923 7926 7929 7932 7935 7938 7940 7943 7946 7948 7951 7953 7956 7959 7961 7964 7966 7969 7972 7975 7977 7980 7983 7985 7988 7990 7993 7996 7999 8002 8005 8008 8011 8014 8016 8019 8021 8024 8027 8030 8032 8035 8038 8041 8044 8047 8050 8052 8055 8058 8061 8064 8067 8069 8072 8074 8076 8079 8082 8085 8088 8091 8093 8096 8099 8102 8104 8107 8109 8112 8115 8118 8121 8124 8127 8130 8133 8136 8138 8141 8144 8146 8148 8151 8154 8157 8159 8162 8165 8168 8171 8173 8176 8178 8181 8184 8187 8190 8193 8196 8199 8202 8204 8207 8209 8212 8215 8218 8221 8224 8227 8230 8233 8236 8239 8242 8244 8247 8250 8253 8256 8259 8262 8265 8268 8270 8273 8275 8277 8280 8282 8285 8288 8291 8294 8296 8299 8302 8305 8307 8310 8313 8316 8319 8322 8325 8327 8330 8333 8336 8339 8342 8344 8346 8349 8352 8355 8358 8361 8364 8367 8370 8373 8375 8378 8381 8384 8387 8390 8393 8396 8399 8402 8405 8407 8410 8413 8416 8419 8422 8424 8427 8429 8432 8434 8437 8440 8443 8446 8449 8452 8455 8458 8460 8463 8466 8469 8472 8475 8478 8481 8484 8487 8490 8493 8496 8499 8502 8505 8508 8511 8514 8517 8520 8522 8525 8528 8531 8534 8537 8540 8543 8546 8549 8551 8554 8557 8560 8563 8566 8568 8571 8574 8577 8580 8583 8586 8589 8591 8593 8596 8599 8601 8604 8607 8610 8613 8616 8619 8622 8625 8628 8630 8633 8635 8638 8641 8644 8647 8650 8652 8655 8658 8661 8664 8667 8670 8673 8676 8679 8682 8685 8688 8691 8693 8695 8698 8701 8704 8707 8710 8713 8716 8719 8722 8725 8728 8730 8733 8736 8738 8741 8743 8745 8748 8750 8753 8755 8758 8761 8763 8766 8769 8772 8775 8777 8779 8782 8785 8788 8791 8794 8797 8800 8803 8806 8809 8812 8815 8817 8820 8823 8826 8829 8832 8835 8838 8840 8842 8845 8847 8850 8852 8855 8858 8861 8864 8867 8870 8872 8875 8877 8880 8883 8886 8889 8892 8895 8897 8900 8902 8905 8908 8911 8914 8917 8920 8923 8926 8929 8932 8935 8938 8941 8944 8947 8950 8953 8956 8959 8962 8965 8968 8971 8973 8976 8979 8982 8984 8987 8990 8992 8995 8998 9000 9003 9006 9009 9012 9015 9018 9021 9024 9027 9029 9032 9035 9038 9040 9043 9046 9049 9052 9054 9057 9060 9063 9065 9068 9071 9074 9076 9079 9082 9084 9087 9090 9093 9096 9099 9102 9105 9108 9110 9112 9114 9117 9119 9122 9125 9128 9130 9133 9136 9139 9142 9145 9148 9150 9152 9155 9158 9161 9164 9167 9170 9173 9175 9178 9181 9183 9186 9189 9192 9194 9197 9200 9203 9205 9208 9211 9214 9217 9220 9222 9225 9228 9231 9234 9237 9240 9242 9245 9248 9251 9253 9256 9259 9262 9265 9267 9270 9272 9274 9277 9280 9282 9285 9287 9290 9292 9295 9298 9300 9303 9306 9309 9312 9315 9318 9321 9324 9327 9330 9333 9335 9338 9340 9343 9346 9349 9352 9355 9358 9361 9364 9367 9370 9373 9376 9379 9382 9385 9388 9391 9394 9396 9399 9402 9405 9408 9411 9414 9417 9420 9423 9426 9429 9432 9435 9438 9441 9443 9446 9449 9452 9455 9458 9460 9463 9466 9469 9472 9475 9478 9481 9484 9487 9490 9492 9495 9498 9501 9504 9507 9510 9512 9515 9518 9521 9524 9527 9530 9533 9536 9539 9542 9545 9548 9551 9554 9557 9560 9563 9566 9569 9572 9575 9578 9581 9584 9587 9590 9593 9596 9599 9602 9605 9607 9610 9613 9616 9619 9622 9625 9628 9631 9634 9637 9640 9643 9646 9649 9651 9653 9656 9659 9662 9665 9668 9671 9674 9676 9679 9682 9685 9688 9691 9693 9696 9699 9702 9705 9708 9711 9714 9716 9719 9722 9725 9728 9730 9733 9736 9739 9742 9745 9748 9751 9753 9756 9759 9762 9765 9767 9769 9772 9774 9777 9780 9782 9784 9787 9789 9792 9795 9797 9799 9802 9805 9808 9811 9814 9817 9820 9823 9825 9828 9831 9834 9837 9840 9843 9846 9849 9852 9855 9858 9861 9864 9867 9869 9872 9874 9877 9879 9882 9885 9887 9890 9893 9895 9898 9900 9903 9906 9909 9911 9913 9916 9919 9921 9924 9927 9929 9932 9935 9938 9941 9944 9947 9950 9953 9956 9959 9962 9964 9967 9970 9973 9976 9979 9982 9985 9988 9991 9994 9997 10000 10003 10006 10009 10012 10015 10018 10021 10024 10027 10030 10033 10036 10039 10042 10045 10048 10050 10053 10056 10059 10062 10064 10067 10070 10073 10076 10079 10081 10084 10086 10089 10091 10094 10097 10099 10102 10105 10108 10111 10113 10115 10118 10121 10124 10127 10130 10133 10136 10139 10142 10145 10148 10150 10153 10156 10158 10161 10164 10167 10170 10173 10176 10178 10181 10184 10187 10190 10193 10196 10198 10201 10204 10207 10210 10213 10216 10219 10222 10225 10228 10231 10233 10236 10239 10242 10245 10247 10250 10253 10256 10258 10261 10264 10267 10270 10273 10275 10278 10281 10284 10287 10289 10292 10295 10297 10300 10302 10305 10308 10311 10314 10317 10320 10323 10326 10329 10332 10334 10337 10340 10343 10346 10349 10352 10355 10357 10360 10363 10366 10369 10372 10375 10378 10381 10384 10387 10390 10393 10396 10399 10402 10405 10408 10411 10413 10415 10418 10421 10424 10427 10430 10433 10436 10438 10441 10444 10447 10450 10453 10456 10458 10461 10464 10467 10470 10473 10476 10479 10482 10484 10487 10490 10492 10495 10498 10501 10504 10507 10510 10513 10516 10519 10522 10524 10527 10530 10533 10536 10539 10542 10545 10548 10551 10554 10557 10560 10563 10566 10569 10572 10575 10577 10579 10582 10584 10587 10590 10593 10596 10599 10601 10604 10607 10610 10613 10616 10619 10622 10624 10627 10630 10633 10636 10639 10642 10645 10648 10651 10654 10657 10660 10663 10666 10668 10671 10674 10677 10680 10683 10686 10688 10691 10694 10697 10700 10703 10706 10709 10712 10715 10718 10721 10724 10727 10730 10733 10735 10738 10741 10743 10746 10748 10751 10754 10757 10760 10763 10765 10767 10770 10773 10776 10779 10781 10783 10786 10789 10792 10795 10798 10801 10804 10807 10810 10813 10815 10818 10821 10824 10827 10830 10833 10836 10839 10842 10844 10847 10850 10852 10854 10856 10859 10862 10864 10867 10870 10873 10875 10878 10881 10884 10887 10889 10892 10895 10898 10900 10903 10906 10909 10912 10915 10918 10921 10923 10926 10929 10932 10934 10937 10940 10943 10946 10949 10952 10955 10958 10961 10964 10967 10970 10973 10976 10978 10981 10984 10987 10989 10992 10995 10998 11001 11004 11007 11009 11012 11015 11018 11021 11024 11027 11030 11033 11035 11038 11041 11044 11047 11050 11053 11056 11059 11062 11065 11068 11071 11074 11077 11080 11083 11086 11089 11092 11095 11098 11101 11104 11106 11109 11112 11114 11117 11120 11122 11124 11127 11130 11132 11135 11138 11141 11144 11147 11150 11153 11156 11158 11161 11164 11167 11170 11173 11176 11179 11182 11185 11188 11190 11193 11196 11199 11202 11205 11208 11211 11214 11217 11220 11223 11226 11229 11232 11235 11238 11241 11244 11247 11250 11253 11256 11259 11262 11265 11268 11271 11273 11276 11278 11281 11284 11287 11290 11293 11295 11298 11301 11303 11306 11309 11311 11314 11317 11320 11323 11326 11329 11332 11335 11338 11341 11344 11346 11349 11352 11355 11357 11360 11363 11366 11369 11372 11375 11378 11381 11384 11387 11389 11392 11395 11398 11401 11404 11407 11409 11412 11415 11418 11421 11424 11427 11430 11433 11435 11438 11441 11444 11447 11449 11452 11455 11458 11461 11464 11467 11470 11473 11476 11479 11482 11485 11488 11491 11494 11497 11500 11503 11506 11509 11511 11514 11517 11520 11523 11525 11528 11531 11534 11537 11540 11543 11546 11549 11552 11555 11558 11561 11564 11566 11569 11572 11575 11578 11580 11583 11586 11589 11592 11595 11597 11599 11602 11605 11608 11611 11613 11616 11619 11622 11625 11628 11631 11634 11637 11640 11643 11646 11649 11652 11655 11658 11661 11664 11667 11670 11673 11676 11679 11682 11685 11688 11691 11694 11696 11699 11702 11705 11708 11710 11713 11716 11719 11722 11725 11727 11730 11733 11736 11738 11741 11744 11747 11750 11753 11756 11759 11762 11764 11767 11770 11773 11776 11779 11782 11784 11787 11790 11793 11796 11798 11801 11804 11807 11810 11813 11816 11819 11822 11825 11828 11831 11833 11836 11839 11842 11845 11848 11851 11854 11857 11859 11862 11865 11868 11871 11873 11876 11879 11882 11885 11887 11890 11893 11896 11898 11901 11904 11907 11910 11913 11916 11919 11922 11925 11927 11930 11932 11935 11938 11941 11944 11946 11949 11951 11954 11957 11960 11963 11966 11968 11971 11974 11976 11979 11982 11984 11987 11990 11992 11995 11998 12000 12002 12004 12007 12009 12012 12014 12017 12020 12023 12025 12028 12031 12033 12035 12038 12040 12043 12045 12048 12051 12054 12057 12060 12063 12066 12069 12072 12075 12078 12081 12084 12087 12090 12093 12096 12099 12102 12105 12108 12111 12114 12117 12119 12122 12125 12128 12131 12134 12137 12140 12143 12146 12149 12152 12155 12158 12161 12164 12167 12170 12173 12176 12179 12182 12184 12187 12190 12193 12196 12199 12202 12205 12208 12211 12214 12217 12220 12223 12226 12229 12232 12235 12238 12241 12244 12247 12250 12253 12256 12259 12262 12265 12268 12270 12273 12275 12278 12281 12284 12287 12290 12293 12296 12299 12302 12305 12308 12311 12314 12317 12320 12323 12326 12329 12332 12335 12338 12341 12344 12346 12349 12352 12354 12357 12360 12363 12365 12368 12371 12374 12376 12379 12382 12385 12388 12391 12394 12397 12400 12403 12406 12409 12412 12415 12418 12421 12424 12426 12429 12431 12433 12435 12438 12441 12444 12447 12449 12452 12455 12457 12459 12462 12465 12468 12470 12472 12475 12478 12481 12484 12487 12490 12493 12496 12498 12500 12503 12506 12509 12511 12514 12516 12519 12522 12525 12527 12530 12533 12536 12539 12541 12544 12546 12549 12552 12555 12558 12561 12564 12567 12570 12573 12576 12579 12582 12585 12587 12590 12593 12595 12598 12600 12603 12605 12607 12610 12613 12616 12619 12622 12624 12626 12629 12632 12635 12638 12640 12643 12646 12649 12652 12655 12658 12660 12663 12665 12668 12671 12674 12676 12679 12682 12684 12687 12690 12693 12696 12699 12702 12704 12707 12709 12712 12715 12718 12721 12723 12726 12729 12732 12735 12738 12741 12744 12746 12749 12752 12755 12758 12761 12764 12766 12769 12772 12774 12777 12780 12782 12785 12788 12791 12794 12797 12800 12803 12806 12809 12812 12815 12818 12821 12823 12826 12829 12832 12835 12838 12841 12844 12846 12848 12851 12854 12857 12860 12862 12865 12868 12871 12874 12877 12880 12883 12885 12888 12891 12893 12896 12898 12901 12903 12905 12908 12911 12914 12917 12920 12923 12926 12928 12931 12934 12937 12940 12942 12945 12947 12950 12953 12955 12958 12961 12964 12967 12970 12973 12976 12979 12982 12985 12988 12991 12994 12997 13000 13003 13006 13009 13012 13015 13018 13020 13023 13026 13029 13032 13035 13038 13041 13044 13047 13049 13052 13055 13058 13061 13064 13067 13069 13072 13075 13078 13081 13084 13087 13090 13093 13096 13099 13102 13105 13108 13111 13114 13117 13119 13122 13125 13128 13131 13134 13136 13139 13142 13145 13148 13151 13154 13157 13160 13163 13166 13169 13172 13175 13178 13181 13184 13187 13190 13193 13196 13199 13201 13204 13207 13210 13213 13216 13218 13221 13224 13227 13230 13233 13236 13239 13242 13244 13247 13250 13253 13256 13259 13262 13265 13268 13271 13274 13277 13280 13282 13285 13288 13291 13294 13296 13299 13302 13305 13308 13310 13313 13316 13319 13322 13325 13328 13331 13334 13337 13340 13343 13346 13348 13351 13354 13357 13360 13363 13366 13369 13372 13375 13378 13381 13384 13387 13390 13393 13396 13399 13401 13403 13406 13409 13412 13414 13417 13419 13422 13424 13427 13430 13432 13435 13438 13441 13444 13447 13450 13452 13455 13457 13460 13463 13466 13469 13472 13474 13477 13479 13482 13485 13488 13491 13494 13497 13500 13503 13506 13509 13512 13515 13518 13521 13524 13527 13530 13533 13535 13538 13541 13544 13547 13550 13552 13555 13558 13561 13564 13567 13570 13573 13576 13579 13582 13585 13588 13591 13594 13597 13599 13602 13605 13607 13610 13613 13616 13619 13621 13624 13627 13629 13631 13634 13637 13640 13642 13645 13647 13649 13652 13655 13657 13660 13662 13665 13667 13670 13673 13675 13678 13680 13683 13685 13688 13691 13694 13697 13700 13702 13705 13708 13711 13714 13717 13720 13723 13725 13727 13730 13733 13736 13738 13741 13743 13746 13749 13752 13755 13758 13761 13764 13766 13769 13772 13775 13778 13781 13783 13786 13789 13792 13795 13798 13800 13802 13805 13808 13811 13814 13817 13820 13823 13826 13829 13832 13835 13838 13841 13844 13847 13850 13853 13856 13859 13862 13865 13868 13871 13874 13877 13880 13883 13885 13888 13891 13893 13895 13898 13901 13904 13907 13909 13912 13915 13917 13920 13923 13926 13929 13932 13935 13938 13941 13944 13947 13949 13952 13955 13958 13960 13963 13966 13969 13971 13974 13976 13979 13982 13985 13988 13991 13994 13996 13999 14001 14004 14007 14010 14013 14016 14019 14021 14024 14027 14030 14033 14035 14037 14039 14042 14044 14047 14050 14053 14056 14059 14062 14065 14067 14070 14073 14076 14079 14082 14085 14088 14091 14094 14097 14100 14102 14105 14108 14111 14114 14116 14119 14122 14124 14127 14130 14132 14135 14137 14140 14142 14145 14147 14149 14152 14155 14157 14160 14162 14165 14168 14171 14174 14177 14180 14183 14185 14188 14191 14194 14197 14200 14203 14206 14209 14212 14214 14217 14220 14222 14225 14228 14231 14234 14237 14240 14243 14246 14249 14251 14254 14257 14259 14262 14265 14268 14271 14274 14277 14280 14283 14286 14289 14292 14295 14298 14301 14304 14307 14310 14313 14316 14319 14322 14325 14328 14331 14334 14337 14340 14343 14346 14349 14352 14355 14358 14361 14364 14367 14370 14373 14376 14379 14382 14385 14388 14391 14393 14395 14398 14401 14404 14407 14410 14413 14416 14418 14421 14424 14427 14429 14432 14435 14438 14441 14443 14446 14449 14451 14454 14457 14460 14463 14466 14469 14472 14475 14478 14481 14484 14487 14490 14493 14496 14499 14502 14505 14508 14511 14514 14517 14520 14523 14526 14529 14531 14534 14536 14539 14542 14545 14548 14550 14552 14554 14557 14560 14563 14566 14569 14571 14574 14576 14579 14582 14585 14588 14591 14594 14597 14600 14603 14606 14609 14612 14615 14618 14621 14624 14627 14630 14633 14635 14638 14641 14643 14646 14649 14652 14655 14658 14661 14664 14667 14670 14673 14676 14679 14682 14685 14688 14691 14694 14697 14700 14703 14706 14709 14711 14714 14717 14720 14723 14725 14727 14729 14732 14735 14738 14741 14744 14747 14749 14752 14755 14758 14761 14764 14767 14770 14773 14776 14779 14782 14785 14788 14791 14794 14797 14799 14802 14805 14808 14811 14813 14816 14819 14822 14825 14828 14831 14834 14837 14839 14842 14845 14848 14851 14854 14857 14860 14863 14865 14868 14870 14873 14876 14878 14881 14883 14886 14889 14891 14894 14897 14899 14902 14904 14907 14910 14913 14916 14919 14921 14924 14927 14930 14933 14936 14938 14941 14944 14947 14950 14953 14956 14959 14962 14964 14967 14970 14973 14976 14979 14981 14984 14987 14989 14991 14994 14996 14999 15002 15005 15008 15011 15014 15017 15020 15023 15025 15028 15031 15034 15036 15039 15042 15045 15047 15050 15053 15055 15058 15061 15064 15067 15070 15073 15076 15079 15082 15085 15088 15091 15094 15097 15100 15103 15106 15109 15112 15114 15116 15119 15121 15124 15127 15130 15133 15136 15139 15142 15144 15147 15150 15153 15156 15159 15161 15164 15166 15169 15172 15175 15178 15181 15184 15187 15190 15193 15196 15199 15202 15205 15208 15211 15214 15217 15220 15223 15226 15229 15232 15235 15238 15240 15243 15245 15248 15251 15254 15257 15260 15263 15265 15267 15270 15273 15276 15278 15281 15284 15287 15289 15292 15295 15298 15300 15303 15305 15308 15311 15314 15317 15320 15323 15326 15329 15332 15335 15338 15341 15344 15346 15349 15352 15355 15358 15360 15363 15366 15369 15372 15375 15378 15381 15384 15387 15390 15393 15396 15399 15401 15404 15407 15410 15413 15416 15419 15422 15425 15428 15430 15433 15436 15438 15440 15443 15446 15449 15452 15455 15457 15460 15463 15466 15469 15472 15475 15478 15480 15483 15486 15489 15492 15495 15498 15501 15503 15506 15509 15512 15515 15518 15521 15523 15525 15528 15530 15533 15536 15539 15542 15545 15548 15550 15553 15555 15558 15560 15563 15566 15569 15572 15574 15577 15579 15582 15584 15587 15590 15593 15596 15599 15602 15605 15608 15611 15614 15617 15620 15623 15626 15629 15632 15635 15637 15640 15643 15646 15649 15651 15654 15657 15660 15663 15666 15668 15671 15673 15676 15679 15682 15685 15688 15691 15694 15697 15700 15703 15705 15708 15711 15714 15717 15720 15723 15726 15729 15732 15735 15738 15740 15743 15746 15749 15752 15755 15758 15761 15764 15767 15770 15773 15776 15779 15782 15785 15787 15789 15792 15795 15797 15800 15803 15805 15807 15810 15813 15816 15819 15821 15824 15827 15830 15833 15836 15839 15841 15843 15846 15849 15852 15854 15857 15860 15863 15865 15868 15870 15873 15876 15879 15881 15884 15887 15889 15892 15895 15898 15900 15903 15906 15909 15912 15915 15918 15921 15924 15927 15930 15933 15936 15939 15942 15945 15948 15951 15954 15957 15959 15962 15965 15968 15971 15974 15977 15980 15983 15985 15988 15991 15994 15997 16000 16003 16006 16008 16011 16014 16017 16020 16023 16026 16029 16032 16035 16038 16041 16044 16047 16050 16053 16056 16059 16062 16065 16068 16071 16074 16077 16080 16083 16086 16089 16092 16095 16098 16101 16104 16107 16110 16113 16116 16119 16122 16125 16128 16131 16134 16137 16140 16143 16146 16149 16152 16155 16158 16161 16164 16167 16170 16173 16176 16179 16182 16185 16188 16191 16194 16197 16200 16203 16206 16209 16212 16215 16218 16221 16224 16226 16229 16232 16235 16238 16241 16244 16247 16249 16252 16255 16258 16261 16264 16267 16270 16272 16275 16278 16281 16284 16287 16290 16293 16296 16299 16302 16305 16308 16311 16314 16317 16320 16323 16326 16329 16332 16335 16338 16341 16344 16347 16350 16353 16356 16359 16362 16365 16368 16371 16373 16376 16379 16381 16384 16387 16390 16392 16395 16398 16401 16404 16407 16410 16413 16416 16419 16422 16425 16428 16430 16433 16436 16439 16442 16445 16448 16451 16454 16457 16460 16463 16466 16469 16472 16475 16478 16481 16484 16487 16490 16493 16496 16499 16502 16505 16508 16511 16514 16517 16520 16523 16526 16529 16532 16535 16538 16541 16544 16547 16550 16552 16555 16558 16561 16564 16567 16570 16573 16576 16579 16582 16585 16588 16591 16594 16597 16600 16603 16606 16609 16611 16614 16617 16620 16623 16625 16628 16631 16633 16636 16639 16642 16645 16648 16651 16654 16657 16660 16663 16666 16669 16672 16675 16678 16681 16684 16686 16689 16691 16694 16697 16700 16703 16705 16708 16711 16714 16717 16720 16723 16726 16729 16732 16735 16738 16741 16744 16747 16750 16753 16756 16759 16762 16765 16768 16771 16774 16777 16780 16783 16786 16789 16792 16795 16798 16801 16804 16807 16810 16813 16816 16819 16822 16825 16828 16831 16834 16837 16840 16843 16846 16849 16852 16855 16858 16861 16864 16867 16870 16873 16876 16879 16882 16885 16888 16891 16894 16897 16900 16903 16906 16909 16912 16915 16918 16921 16924 16927 16930 16933 16936 16939 16942 16945 16948 16951 16954 16957 16960 16963 16966 16969 16972 16975 16978 16981 16984 16987 16990 16993 16996 16999 17002 17005 17008 17011 17014 17017 17020 17023 17026 17029 17032 17035 17038 17040 17043 17046 17048 17051 17054 17056 17059 17062 17065 17067 17070 17073 17076 17079 17082 17084 17087 17090 17093 17096 17099 17102 17105 17108 17111 17113 17116 17119 17122 17125 17128 17131 17134 17137 17140 17142 17145 17148 17151 17154 17157 17160 17163 17166 17169 17172 17175 17178 17181 17184 17187 17190 17193 17196 17199 17202 17205 17208 17211 17214 17217 17220 17223 17226 17229 17232 17235 17238 17240 17243 17246 17249 17252 17255 17258 17261 17264 17267 17270 17273 17276 17279 17282 17285 17288 17291 17294 17297 17300 17303 17306 17309 17312 17315 17318 17321 17324 17327 17330 17333 17336 17339 17342 17345 17348 17351 17354 17357 17360 17363 17366 17369 17372 17375 17378 17380 17383 17386 17388 17391 17394 17397 17400 17403 17406 17409 17412 17415 17418 17421 17424 17427 17430 17432 17435 17438 17441 17443 17446 17449 17452 17455 17458 17461 17464 17467 17470 17473 17476 17479 17482 17485 17488 17491 17494 17497 17500 17503 17506 17509 17512 17515 17518 17521 17524 17527 17530 17533 17536 17539 17542 17545 17548 17551 17554 17557 17560 17563 17566 17569 17572 17575 17578 17581 17584 17587 17590 17593 17596 17599 17602 17605 17608 17611 17614 17617 17620 17623 17626 17629 17632 17635 17637 17640 17643 17646 17649 17652 17655 17658 17661 17664 17667 17670 17673 17675 17678 17681 17684 17687 17690 17692 17694 17697 17700 17703 17706 17708 17711 17713 17715 17718 17720 17723 17726 17728 17731 17733 17736 17739 17742 17745 17748 17751 17754 17756 17759 17762 17765 17768 17771 17773 17776 17779 17782 17785 17787 17790 17793 17796 17798 17801 17803 17806 17809 17812 17815 17818 17821 17823 17826 17829 17832 17835 17838 17841 17844 17847 17850 17853 17856 17858 17861 17864 17867 17870 17873 17876 17878 17881 17884 17887 17890 17893 17896 17899 17902 17905 17908 17911 17914 17916 17919 17922 17924 17927 17930 17932 17935 17938 17941 17944 17947 17950 17953 17956 17959 17962 17965 17968 17971 17974 17977 17980 17982 17985 17988 17991 17994 17997 17999 18002 18005 18008 18011 18014 18017 18020 18023 18026 18029 18032 18035 18038 18041 18044 18046 18049 18052 18055 18058 18061 18064 18067 18070 18073 18076 18078 18081 18084 18087 18090 18093 18096 18099 18101 18104 18107 18110 18113 18116 18119 18121 18124 18127 18130 18133 18136 18139 18142 18145 18148 18151 18154 18157 18160 18163 18166 18169 18172 18175 18178 18181 18184 18187 18190 18193 18196 18199 18202 18205 18208 18211 18214 18217 18220 18223 18226 18229 18232 18235 18238 18241 18244 18247 18250 18253 18256 18259 18262 18265 18268 18271 18274 18277 18280 18282 18285 18288 18291 18294 18297 18300 18303 18306 18309 18312 18315 18318 18321 18324 18327 18330 18333 18336 18339 18342 18345 18348 18351 18354 18357 18360 18363 18366 18368 18371 18374 18377 18380 18383 18386 18389 18392 18395 18397 18400 18403 18406 18409 18412 18415 18417 18419 18422 18425 18428 18431 18434 18437 18440 18443 18446 18449 18452 18455 18457 18460 18463 18466 18468 18470 18473 18476 18479 18482 18485 18488 18491 18494 18497 18500 18503 18506 18509 18512 18515 18518 18520 18522 18525 18528 18531 18534 18537 18539 18542 18545 18547 18550 18553 18556 18559 18562 18564 18567 18570 18573 18576 18578 18581 18584 18587 18590 18593 18596 18599 18602 18605 18607 18610 18613 18616 18619 18622 18625 18628 18631 18634 18637 18640 18643 18646 18649 18652 18655 18658 18661 18664 18667 18670 18673 18675 18678 18681 18684 18687 18690 18693 18695 18698 18701 18704 18707 18710 18713 18716 18719 18722 18725 18728 18731 18733 18736 18739 18742 18744 18747 18749 18752 18755 18758 18761 18764 18767 18769 18772 18775 18778 18781 18784 18786 18789 18792 18795 18798 18801 18804 18807 18810 18813 18816 18819 18821 18823 18826 18829 18832 18835 18838 18841 18844 18847 18850 18853 18856 18858 18861 18864 18867 18870 18873 18876 18879 18882 18885 18888 18891 18894 18896 18899 18902 18905 18908 18911 18914 18917 18920 18922 18925 18928 18930 18933 18936 18939 18942 18944 18946 18949 18952 18955 18958 18960 18962 18965 18968 18971 18974 18977 18980 18983 18986 18989 18992 18995 18998 19001 19004 19007 19010 19013 19016 19019 19022 19025 19028 19030 19033 19036 19039 19042 19045 19048 19051 19054 19056 19059 19061 19064 19067 19070 19073 19076 19079 19082 19085 19088 19091 19094 19097 19100 19102 19105 19108 19111 19114 19117 19120 19122 19125 19128 19130 19132 19134 19137 19140 19143 19146 19149 19152 19155 19157 19159 19162 19165 19168 19171 19174 19176 19179 19181 19183 19185 19188 19191 19193 19196 19199 19202 19205 19208 19211 19213 19216 19219 19222 19224 19227 19230 19233 19236 19239 19242 19244 19247 19250 19253 19256 19259 19262 19265 19268 19271 19274 19277 19280 19283 19286 19289 19292 19295 19298 19301 19304 19307 19310 19313 19316 19319 19322 19325 19328 19331 19334 19337 19340 19343 19346 19349 19352 19355 19358 19361 19363 19366 19369 19372 19375 19378 19381 19384 19387 19390 19393 19396 19399 19402 19404 19407 19410 19413 19416 19419 19422 19425 19428 19431 19434 19437 19440 19443 19446 19449 19452 19455 19458 19461 19464 19467 19470 19473 19476 19479 19482 19485 19488 19491 19494 19497 19500 19503 19506 19509 19512 19515 19518 19521 19524 19527 19530 19533 19536 19539 19542 19545 19548 19551 19554 19557 19560 19563 19566 19569 19572 19575 19578 19581 19584 19587 19590 19593 19596 19599 19602 19605 19608 19611 19614 19617 19620 19623 19626 19629 19631 19634 19637 19640 19643 19645 19647 19650 19653 19656 19659 19662 19665 19668 19670 19672 19675 19678 19681 19684 19687 19689 19692 19695 19697 19700 19703 19706 19709 19712 19715 19717 19720 19723 19726 19729 19732 19735 19738 19741 19744 19747 19749 19752 19755 19758 19761 19764 19767 19770 19773 19776 19779 19782 19784 19787 19790 19792 19795 19798 19801 19803 19806 19809 19812 19815 19817 19820 19823 19826 19829 19832 19835 19838 19841 19844 19847 19850 19853 19856 19859 19862 19865 19868 19871 19874 19877 19880 19883 19886 19889 19892 19895 19898 19901 19904 19907 19910 19913 19916 19919 19922 19925 19928 19931 19934 19937 19940 19943 19946 19949 19952 19955 19958 19961 19964 19967 19970 19973 19976 19979 19982 19985 19988 19991 19994 19997 20000 20003 20006 20009 20012 20015 20018 20021 20024 20027 20030 20033 20036 20039 20042 20045 20048 20051 20053 20056 20059 20062 20065 20067 20070 20073 20076 20079 20081 20084 20087 20089 20092 20095 20098 20101 20104 20106 20109 20112 20115 20118 20121 20124 20126 20129 20132 20135 20138 20140 20143 20146 20149 20152 20155 20158 20161 20164 20167 20170 20173 20176 20179 20182 20184 20187 20189 20192 20195 20198 20201 20204 20207 20210 20213 20216 20219 20222 20225 20228 20231 20234 20237 20240 20243 20246 20249 20251 20254 20257 20260 20262 20265 20268 20271 20274 20277 20280 20283 20286 20289 20292 20295 20298 20301 20304 20307 20310 20313 20315 20318 20321 20324 20327 20330 20332 20335 20338 20341 20344 20346 20349 20352 20354 20357 20360 20363 20366 20369 20372 20375 20378 20381 20384 20386 20389 20392 20395 20398 20401 20404 20407 20410 20413 20416 20418 20421 20424 20426 20429 20432 20434 20437 20440 20442 20445 20448 20451 20454 20457 20460 20463 20466 20469 20472 20474 20477 20480 20482 20484 20487 20490 20493 20496 20499 20502 20505 20508 20511 20514 20517 20520 20523 20526 20529 20532 20535 20538 20541 20544 20547 20550 20553 20556 20559 20562 20565 20568 20571 20573 20576 20579 20582 20585 20588 20591 20594 20597 20599 20602 20605 20607 20610 20613 20616 20619 20621 20624 20627 20630 20633 20636 20638 20641 20644 20647 20650 20653 20656 20659 20661 20664 20667 20670 20673 20676 20679 20682 20685 20687 20690 20693 20696 20699 20702 20705 20708 20711 20714 20717 20720 20723 20726 20729 20732 20735 20738 20741 20744 20747 20750 20753 20756 20759 20762 20765 20768 20771 20774 20777 20780 20783 20786 20789 20792 20795 20798 20801 20804 20807 20810 20813 20816 20819 20822 20825 20828 20831 20834 20837 20840 20843 20846 20849 20852 20854 20857 20860 20863 20865 20868 20871 20874 20877 20880 20883 20885 20888 20890 20893 20896 20898 20901 20904 20907 20909 20912 20915 20918 20921 20924 20927 20930 20933 20935 20938 20941 20943 20946 20949 20952 20955 20958 20961 20964 20967 20970 20972 20975 20978 20981 20984 20987 20990 20993 20996 20999 21002 21005 21008 21011 21014 21017 21020 21023 21026 21029 21032 21035 21038 21041 21044 21047 21049 21052 21055 21058 21060 21063 21066 21069 21072 21075 21078 21080 21083 21085 21088 21091 21093 21096 21099 21102 21104 21107 21110 21113 21115 21117 21120 21123 21126 21128 21130 21133 21136 21139 21142 21145 21148 21151 21153 21155 21158 21161 21163 21166 21168 21171 21174 21177 21180 21183 21186 21189 21191 21194 21197 21200 21203 21206 21208 21211 21214 21217 21220 21223 21226 21229 21232 21235 21237 21240 21243 21245 21248 21251 21254 21257 21260 21263 21266 21269 21271 21274 21277 21280 21283 21286 21288 21291 21294 21297 21300 21303 21306 21309 21312 21315 21318 21320 21323 21326 21329 21331 21334 21337 21340 21343 21346 21349 21352 21355 21358 21361 21364 21367 21369 21372 21375 21378 21381 21383 21386 21388 21391 21393 21396 21399 21402 21405 21408 21411 21414 21417 21420 21423 21426 21429 21432 21435 21438 21441 21444 21446 21449 21452 21455 21457 21460 21462 21465 21467 21469 21472 21475 21478 21481 21484 21487 21490 21492 21494 21497 21500 21503 21505 21508 21510 21513 21516 21519 21522 21525 21528 21531 21534 21537 21540 21543 21545 21548 21550 21553 21556 21559 21561 21564 21567 21570 21573 21576 21579 21582 21585 21588 21591 21593 21595 21598 21601 21604 21607 21609 21612 21615 21618 21621 21623 21626 21629 21632 21635 21638 21641 21643 21646 21649 21652 21654 21657 21659 21662 21665 21668 21671 21673 21676 21679 21682 21685 21688 21691 21694 21697 21699 21702 21705 21708 21711 21714 21717 21720 21723 21726 21729 21732 21735 21738 21741 21744 21747 21749 21752 21755 21757 21760 21762 21765 21768 21771 21774 21777 21780 21783 21786 21788 21791 21794 21797 21800 21803 21805 21808 21811 21814 21817 21820 21822 21825 21828 21831 21834 21837 21840 21843 21846 21848 21851 21854 21857 21860 21863 21866 21868 21870 21873 21876 21879 21882 21885 21888 21891 21894 21896 21899 21902 21905 21908 21911 21914 21916 21919 21922 21924 21927 21930 21932 21935 21938 21941 21944 21947 21950 21953 21956 21959 21962 21965 21968 21971 21974 21977 21980 21983 21986 21989 21992 21995 21998 22001 22004 22007 22010 22013 22016 22019 22022 22025 22028 22031 22034 22037 22040 22043 22046 22049 22052 22055 22058 22061 22064 22067 22070 22073 22076 22079 22082 22085 22088 22091 22094 22097 22100 22103 22106 22109 22112 22115 22118 22120 22123 22126 22129 22132 22135 22138 22141 22144 22147 22150 22153 22156 22159 22162 22165 22168 22171 22174 22177 22180 22183 22186 22189 22192 22195 22198 22201 22204 22207 22210 22213 22216 22219 22222 22225 22228 22231 22234 22237 22240 22243 22246 22249 22252 22255 22258 22261 22264 22267 22270 22273 22276 22279 22282 22285 22288 22291 22294 22297 22300 22303 22306 22309 22312 22315 22318 22321 22324 22327 22330 22333 22336 22339 22342 22345 22348 22351 22354 22356 22359 22362 22365 22367 22370 22373 22376 22379 22382 22384 22386 22389 22392 22394 22397 22400 22403 22406 22409 22412 22414 22416 22419 22422 22425 22428 22431 22434 22437 22440 22443 22446 22449 22452 22455 22458 22461 22464 22467 22469 22472 22475 22478 22481 22484 22487 22490 22493 22496 22499 22502 22505 22508 22511 22514 22516 22518 22521 22524 22527 22530 22533 22536 22539 22542 22545 22548 22551 22554 22557 22560 22563 22566 22569 22572 22575 22577 22580 22583 22586 22589 22592 22595 22598 22601 22604 22607 22610 22613 22616 22619 22622 22624 22627 22630 22633 22635 22637 22639 22642 22644 22647 22650 22653 22655 22657 22660 22663 22665 22668 22671 22673 22676 22679 22682 22685 22687 22690 22693 22695 22697 22700 22703 22706 22709 22712 22715 22717 22720 22723 22726 22729 22732 22735 22738 22741 22744 22747 22750 22752 22755 22758 22761 22764 22767 22770 22773 22776 22779 22782 22785 22788 22791 22794 22797 22800 22803 22806 22809 22811 22814 22816 22819 22822 22825 22828 22831 22834 22837 22840 22843 22846 22849 22852 22855 22858 22861 22864 22867 22870 22873 22876 22879 22881 22884 22887 22890 22893 22896 22899 22902 22905 22908 22911 22914 22917 22920 22923 22926 22929 22931 22934 22936 22939 22942 22944 22947 22950 22953 22956 22959 22962 22965 22968 22971 22974 22977 22980 22983 22986 22988 22991 22994 22997 23000 23003 23006 23009 23012 23015 23018 23021 23023 23026 23029 23032 23035 23038 23041 23044 23047 23050 23053 23056 23059 23061 23064 23067 23070 23073 23076 23079 23082 23085 23088 23091 23094 23097 23100 23102 23105 23108 23111 23114 23117 23120 23123 23126 23129 23132 23135 23138 23141 23144 23147 23150 23153 23156 23159 23162 23165 23168 23171 23173 23176 23179 23182 23185 23187 23190 23193 23196 23199 23202 23205 23208 23211 23214 23217 23220 23222 23225 23228 23231 23234 23237 23240 23243 23246 23249 23252 23255 23258 23261 23264 23267 23270 23273 23276 23279 23282 23285 23288 23290 23293 23296 23299 23302 23304 23307 23310 23313 23316 23319 23322 23325 23328 23331 23334 23337 23340 23343 23346 23348 23351 23353 23356 23359 23362 23364 23367 23370 23373 23376 23378 23380 23383 23386 23389 23392 23395 23398 23401 23404 23407 23410 23413 23416 23418 23421 23424 23426 23429 23432 23435 23438 23441 23444 23447 23450 23453 23456 23459 23462 23465 23468 23471 23474 23477 23480 23483 23486 23489 23492 23495 23498 23501 23504 23507 23510 23513 23516 23519 23522 23525 23528 23530 23533 23536 23539 23542 23544 23547 23550 23553 23556 23559 23561 23564 23567 23570 23572 23575 23578 23581 23584 23586 23589 23592 23595 23598 23600 23603 23606 23609 23611 23614 23617 23620 23623 23626 23629 23631 23634 23637 23640 23643 23646 23649 23652 23654 23656 23659 23662 23665 23668 23671 23674 23677 23679 23682 23685 23688 23691 23693 23696 23699 23702 23705 23707 23710 23713 23716 23719 23722 23725 23728 23731 23734 23737 23740 23743 23746 23749 23752 23755 23758 23761 23764 23767 23770 23772 23775 23778 23781 23784 23787 23790 23793 23796 23799 23802 23805 23808 23811 23814 23816 23818 23821 23824 23827 23830 23832 23834 23837 23840 23842 23845 23848 23851 23854 23857 23860 23863 23866 23869 23872 23875 23878 23881 23883 23886 23889 23892 23895 23898 23901 23904 23906 23909 23912 23915 23917 23920 23923 23926 23929 23932 23934 23937 23940 23943 23946 23949 23952 23955 23958 23961 23964 23967 23970 23973 23976 23979 23982 23985 23987 23990 23993 23996 23999 24002 24005 24008 24011 24014 24017 24020 24023 24026 24029 24032 24035 24038 24040 24043 24046 24049 24051 24054 24057 24060 24063 24066 24069 24072 24075 24078 24081 24084 24087 24090 24093 24096 24099 24102 24105 24108 24111 24114 24117 24120 24123 24126 24129 24132 24135 24138 24141 24144 24147 24150 24153 24156 24159 24162 24165 24168 24171 24174 24177 24180 24183 24186 24189 24192 24195 24197 24200 24203 24206 24209 24212 24214 24217 24220 24223 24226 24229 24232 24235 24238 24240 24243 24246 24248 24251 24254 24257 24260 24263 24266 24269 24272 24275 24278 24280 24283 24285 24287 24290 24293 24296 24298 24301 24304 24307 24310 24313 24315 24317 24320 24323 24326 24329 24332 24335 24338 24341 24344 24347 24350 24353 24356 24359 24362 24364 24367 24370 24373 24376 24378 24380 24383 24386 24389 24392 24395 24398 24401 24404 24407 24410 24413 24416 24419 24421 24424 24427 24430 24433 24436 24439 24442 24445 24448 24451 24454 24457 24460 24463 24466 24469 24472 24475 24478 24481 24484 24487 24490 24493 24496 24499 24502 24505 24508 24511 24514 24517 24520 24523 24526 24529 24531 24534 24537 24540 24543 24546 24549 24552 24555 24558 24561 24564 24567 24570 24573 24576 24579 24582 24585 24588 24591 24594 24596 24599 24602 24605 24608 24610 24613 24616 24619 24622 24625 24628 24631 24634 24637 24639 24642 24644 24647 24650 24653 24656 24658 24661 24664 24667 24669 24672 24675 24678 24681 24683 24685 24687 24690 24692 24695 24698 24701 24703 24706 24708 24711 24714 24717 24720 24722 24725 24728 24731 24734 24736 24739 24742 24744 24747 24750 24753 24756 24758 24761 24764 24767 24770 24773 24776 24779 24782 24785 24788 24791 24794 24797 24800 24803 24806 24809 24812 24815 24817 24820 24823 24826 24829 24832 24835 24838 24841 24844 24847 24850 24853 24856 24859 24862 24865 24868 24871 24874 24877 24880 24883 24886 24889 24892 24895 24898 24901 24904 24907 24910 24913 24916 24919 24922 24925 24928 24931 24934 24937 24940 24943 24946 24949 24952 24955 24958 24961 24964 24967 24970 24973 24976 24979 24981 24984 24987 24990 24992 24994 24997 25000 25002 25004 25007 25009 25011 25014 25017 25020 25023 25025 25027 25030 25033 25035 25038 25041 25044 25047 25050 25053 25056 25059 25062 25065 25068 25071 25074 25077 25080 25082 25085 25088 25091 25094 25097 25100 25103 25105 25108 25111 25113 25116 25119 25122 25124 25127 25130 25133 25136 25139 25142 25145 25148 25150 25153 25156 25159 25162 25165 25168 25171 25174 25177 25180 25183 25186 25189 25191 25194 25197 25200 25203 25206 25208 25210 25213 25215 25218 25221 25223 25226 25229 25232 25235 25238 25240 25243 25246 25249 25252 25255 25258 25260 25263 25266 25269 25272 25275 25278 25281 25284 25287 25290 25292 25295 25298 25301 25303 25306 25309 25312 25315 25318 25321 25324 25326 25329 25332 25335 25338 25341 25344 25347 25350 25353 25356 25359 25362 25365 25368 25371 25374 25377 25379 25382 25385 25388 25391 25394 25397 25400 25403 25406 25409 25412 25415 25418 25421 25424 25427 25430 25433 25436 25439 25442 25445 25448 25451 25454 25457 25460 25463 25466 25469 25472 25475 25478 25481 25484 25487 25490 25493 25496 25499 25502 25505 25508 25511 25514 25517 25520 25522 25525 25528 25531 25533 25536 25539 25542 25545 25548 25550 25553 25556 25559 25562 25565 25568 25571 25574 25577 25580 25583 25586 25589 25592 25595 25598 25600 25603 25605 25608 25611 25614 25617 25620 25623 25626 25629 25631 25634 25637 25640 25642 25645 25648 25651 25653 25656 25659 25662 25664 25667 25669 25672 25675 25678 25681 25684 25687 25690 25693 25696 25698 25701 25704 25707 25710 25712 25715 25718 25721 25724 25727 25730 25733 25736 25738 25741 25743 25746 25749 25752 25755 25757 25760 25763 25766 25769 25772 25775 25778 25781 25783 25786 25789 25792 25795 25797 25800 25803 25806 25809 25812 25815 25817 25820 25823 25826 25828 25831 25834 25837 25840 25843 25846 25849 25852 25855 25858 25861 25864 25867 25870 25873 25876 25879 25882 25885 25888 25891 25893 25896 25899 25902 25905 25908 25911 25914 25917 25920 25923 25926 25929 25932 25935 25938 25941 25943 25946 25949 25952 25955 25958 25960 25963 25966 25969 25972 25974 25977 25980 25983 25986 25989 25992 25995 25997 26000 26003 26006 26009 26012 26015 26018 26021 26024 26027 26030 26033 26036 26039 26042 26045 26048 26051 26054 26057 26059 26062 26065 26068 26071 26074 26077 26079 26082 26085 26088 26091 26094 26096 26099 26102 26105 26107 26110 26113 26116 26119 26122 26125 26128 26131 26134 26137 26140 26142 26144 26147 26150 26153 26156 26159 26162 26165 26168 26171 26174 26176 26179 26182 26184 26186 26189 26192 26195 26198 26201 26204 26206 26209 26212 26215 26217 26219 26221 26224 26227 26229 26232 26235 26238 26240 26243 26245 26247 26250 26253 26256 26259 26262 26264 26266 26269 26271 26273 26276 26278 26281 26284 26287 26290 26293 26296 26299 26302 26305 26308 26311 26313 26316 26319 26322 26324 26327 26330 26333 26336 26339 26342 26344 26347 26350 26353 26356 26359 26362 26365 26367 26370 26372 26375 26378 26381 26384 26386 26389 26392 26394 26397 26399 26401 26403 26406 26409 26411 26414 26417 26420 26423 26426 26428 26431 26434 26436 26439 26442 26444 26447 26450 26452 26454 26457 26460 26463 26466 26469 26472 26475 26478 26481 26484 26486 26489 26492 26495 26498 26501 26504 26507 26509 26511 26514 26517 26520 26523 26526 26529 26532 26534 26537 26540 26543 26546 26548 26551 26553 26556 26558 26561 26563 26565 26568 26571 26573 26576 26578 26581 26584 26586 26589 26592 26594 26597 26599 26602 26605 26608 26611 26614 26617 26620 26623 26626 26629 26632 26635 26637 26640 26643 26646 26649 26652 26655 26658 26661 26664 26667 26670 26672 26675 26678 26680 26683 26686 26689 26691 26694 26696 26699 26702 26705 26708 26710 26713 26716 26719 26722 26725 26728 26731 26734 26737 26740 26743 26746 26749 26751 26753 26756 26759 26761 26764 26767 26769 26771 26774 26777 26780 26783 26786 26789 26792 26795 26798 26800 26803 26806 26808 26811 26814 26816 26818 26821 26823 26826 26829 26831 26834 26837 26839 26842 26844 26847 26850 26853 26855 26858 26861 26864 26867 26870 26873 26876 26879 26882 26885 26888 26891 26894 26897 26900 26902 26905 26908 26911 26914 26917 26920 26922 26925 26928 26930 26933 26936 26938 26941 26944 26947 26950 26953 26956 26958 26961 26964 26967 26969 26972 26975 26977 26980 26983 26986 26989 26992 26994 26997 27000 27002 27005 27008 27011 27014 27016 27019 27021 27024 27026 27029 27032 27035 27037 27040 27043 27046 27049 27052 27055 27057 27060 27062 27065 27068 27071 27074 27077 27080 27083 27086 27089 27092 27095 27097 27100 27103 27106 27109 27112 27115 27118 27120 27123 27126 27129 27132 27135 27138 27141 27143 27146 27149 27152 27155 27157 27160 27163 27166 27169 27172 27175 27178 27181 27184 27187 27190 27193 27196 27199 27202 27205 27208 27211 27214 27217 27220 27223 27226 27229 27232 27235 27238 27241 27244 27247 27249 27252 27255 27258 27261 27264 27267 27270 27273 27276 27279 27282 27284 27287 27290 27292 27294 27297 27300 27303 27306 27308 27311 27314 27316 27319 27322 27324 27327 27329 27332 27335 27337 27340 27343 27346 27349 27352 27355 27357 27359 27362 27365 27368 27371 27374 27377 27380 27382 27385 27388 27391 27393 27396 27399 27402 27405 27408 27411 27414 27417 27420 27423 27426 27429 27432 27435 27438 27440 27443 27446 27449 27452 27455 27457 27460 27463 27466 27469 27472 27475 27478 27481 27484 27487 27490 27493 27496 27498 27501 27503 27506 27509 27512 27515 27518 27520 27523 27525 27528 27531 27534 27537 27540 27543 27546 27549 27552 27555 27558 27561 27563 27566 27568 27571 27574 27577 27580 27582 27585 27587 27590 27593 27596 27598 27601 27603 27606 27609 27611 27613 27616 27618 27620 27623 27626 27629 27632 27635 27638 27641 27643 27646 27649 27652 27655 27658 27660 27663 27666 27668 27671 27673 27676 27679 27681 27684 27687 27690 27693 27696 27699 27701 27704 27706 27709 27711 27714 27717 27720 27723 27725 27728 27730 27732 27735 27738 27741 27744 27747 27750 27753 27756 27759 27762 27765 27768 27770 27772 27774 27777 27780 27783 27786 27789 27792 27795 27798 27801 27804 27807 27810 27813 27816 27819 27822 27825 27828 27830 27833 27836 27839 27842 27844 27847 27850 27853 27856 27859 27862 27865 27868 27871 27873 27875 27878 27881 27883 27886 27889 27892 27895 27898 27900 27903 27906 27909 27912 27915 27918 27921 27924 27927 27930 27933 27936 27939 27942 27944 27947 27950 27953 27956 27959 27962 27965 27968 27971 27974 27977 27980 27983 27986 27989 27992 27995 27998 28001 28003 28006 28009 28012 28015 28018 28021 28024 28026 28029 28032 28035 28038 28041 28043 28046 28049 28052 28055 28058 28061 28064 28067 28070 28073 28076 28079 28082 28085 28087 28090 28093 28096 28099 28102 28105 28108 28111 28114 28117 28119 28122 28125 28128 28131 28133 28136 28139 28142 28145 28148 28151 28154 28157 28160 28163 28166 28169 28172 28175 28178 28181 28184 28187 28190 28193 28196 28199 28202 28205 28208 28211 28214 28217 28220 28223 28226 28229 28232 28235 28238 28241 28244 28247 28250 28253 28256 28259 28262 28265 28268 28271 28274 28277 28280 28283 28286 28289 28292 28295 28298 28301 28304 28307 28310 28313 28316 28319 28322 28325 28328 28331 28334 28336 28339 28342 28345 28348 28351 28353 28356 28359 28362 28365 28367 28370 28373 28376 28379 28382 28385 28388 28391 28394 28397 28400 28403 28406 28409 28412 28415 28418 28421 28424 28427 28430 28433 28436 28439 28442 28445 28448 28451 28454 28457 28459 28462 28465 28468 28470 28473 28476 28479 28482 28485 28488 28491 28494 28497 28500 28503 28506 28509 28512 28515 28518 28521 28524 28527 28530 28533 28536 28538 28541 28544 28547 28550 28552 28555 28558 28560 28563 28566 28568 28571 28574 28577 28580 28583 28585 28588 28591 28594 28597 28599 28601 28604 28607 28609 28612 28615 28618 28621 28623 28625 28628 28631 28634 28636 28638 28641 28644 28647 28649 28651 28654 28657 28659 28662 28665 28668 28671 28674 28676 28679 28682 28684 28687 28690 28693 28695 28698 28700 28703 28706 28709 28712 28715 28718 28721 28724 28727 28730 28733 28736 28739 28742 28745 28747 28750 28753 28756 28758 28761 28764 28767 28770 28773 28776 28779 28782 28785 28788 28791 28793 28796 28799 28801 28804 28806 28809 28812 28815 28817 28819 28822 28825 28828 28830 28833 28836 28839 28842 28844 28847 28850 28853 28856 28859 28862 28864 28867 28870 28873 28876 28879 28881 28884 28886 28889 28892 28895 28898 28901 28904 28907 28910 28912 28915 28918 28921 28924 28927 28930 28933 28936 28939 28942 28945 28948 28951 28954 28957 28960 28963 28966 28969 28971 28974 28977 28980 28983 28986 28989 28992 28995 28998 29000 29003 29006 29009 29012 29015 29018 29021 29024 29026 29029 29032 29034 29037 29040 29043 29046 29049 29052 29055 29058 29061 29064 29067 29070 29073 29076 29079 29082 29085 29088 29091 29094 29097 29099 29102 29105 29108 29111 29114 29117 29120 29123 29126 29129 29132 29134 29137 29140 29143 29146 29149 29152 29155 29157 29160 29163 29166 29169 29172 29175 29178 29181 29184 29187 29190 29192 29195 29198 29201 29204 29207 29209 29212 29215 29218 29221 29224 29227 29230 29233 29236 29239 29242 29245 29247 29250 29253 29256 29259 29262 29265 29268 29271 29274 29277 29280 29283 29286 29289 29292 29295 29298 29301 29304 29307 29310 29313 29316 29319 29322 29325 29328 29331 29334 29336 29339 29342 29345 29348 29351 29354 29357 29359 29362 29365 29368 29371 29374 29376 29379 29382 29385 29388 29391 29394 29396 29399 29402 29405 29407 29410 29413 29416 29419 29422 29425 29428 29431 29434 29437 29440 29443 29446 29448 29451 29454 29457 29459 29462 29465 29468 29471 29474 29477 29480 29483 29486 29489 29492 29495 29498 29501 29504 29507 29510 29513 29516 29519 29522 29525 29528 29531 29534 29537 29540 29543 29546 29549 29552 29555 29558 29561 29564 29567 29570 29573 29576 29579 29582 29585 29588 29591 29593 29596 29599 29602 29605 29608 29611 29613 29616 29619 29622 29625 29628 29631 29633 29636 29639 29642 29645 29648 29651 29654 29657 29660 29663 29666 29669 29672 29675 29678 29681 29684 29687 29690 29693 29696 29699 29702 29705 29708 29711 29714 29717 29720 29722 29725 29728 29730 29733 29736 29738 29741 29744 29747 29750 29752 29755 29758 29761 29763 29766 29769 29772 29775 29778 29781 29784 29787 29790 29793 29796 29799 29802 29804 29807 29810 29813 29816 29819 29821 29824 29827 29830 29833 29836 29839 29841 29844 29847 29849 29852 29855 29858 29861 29863 29866 29869 29872 29875 29878 29881 29884 29887 29889 29891 29894 29897 29900 29903 29906 29908 29911 29914 29917 29920 29923 29926 29929 29932 29935 29938 29941 29944 29947 29950 29952 29955 29958 29961 29964 29967 29970 29972 29975 29978 29981 29984 29986 29989 29992 29995 29998 30001 30004 30007 30009 30012 30015 30018 30021 30024 30026 30028 30031 30034 30037 30040 30043 30045 30048 30051 30054 30057 30060 30063 30066 30069 30072 30075 30078 30081 30084 30087 30090 30093 30096 30099 30102 30105 30108 30111 30114 30117 30120 30123 30126 30129 30132 30134 30137 30140 30143 30146 30148 30151 30154 30157 30160 30163 30166 30169 30172 30175 30178 30181 30184 30187 30190 30193 30196 30199 30202 30205 30208 30211 30214 30217 30219 30222 30225 30228 30230 30233 30236 30239 30242 30244 30247 30250 30253 30256 30259 30262 30265 30268 30271 30274 30277 30280 30282 30285 30288 30291 30293 30296 30299 30302 30304 30307 30310 30313 30316 30319 30322 30325 30328 30331 30334 30337 30340 30343 30346 30349 30352 30355 30358 30361 30363 30366 30369 30372 30375 30378 30381 30384 30387 30390 30393 30396 30398 30401 30404 30407 30410 30413 30416 30418 30421 30423 30426 30428 30431 30434 30437 30440 30443 30446 30449 30452 30455 30458 30461 30464 30467 30469 30471 30474 30477 30480 30483 30486 30488 30491 30494 30497 30500 30502 30505 30508 30511 30514 30517 30520 30523 30526 30529 30532 30535 30538 30541 30544 30547 30550 30553 30556 30558 30561 30563 30566 30569 30572 30575 30577 30580 30583 30585 30588 30591 30594 30597 30600 30603 30606 30609 30612 30615 30618 30621 30624 30627 30629 30632 30635 30638 30641 30644 30647 30650 30653 30656 30659 30662 30665 30668 30671 30674 30677 30679 30682 30685 30688 30691 30694 30696 30699 30702 30704 30707 30710 30713 30715 30718 30721 30724 30727 30729 30732 30735 30738 30741 30744 30747 30750 30753 30756 30759 30762 30765 30768 30771 30774 30777 30780 30783 30785 30788 30791 30793 30796 30799 30802 30805 30807 30810 30813 30816 30819 30821 30824 30827 30830 30833 30836 30839 30842 30845 30848 30851 30854 30857 30860 30863 30866 30869 30871 30874 30876 30879 30882 30885 30888 30891 30894 30897 30899 30902 30905 30908 30911 30913 30916 30919 30921 30924 30927 30930 30933 30936 30938 30941 30944 30947 30950 30953 30956 30959 30962 30965 30968 30971 30974 30977 30980 30983 30986 30989 30991 30994 30996 30998 31001 31004 31007 31010 31013 31016 31019 31022 31025 31028 31031 31034 31037 31040 31042 31045 31048 31051 31054 31057 31059 31062 31065 31068 31071 31074 31076 31079 31082 31085 31088 31091 31094 31097 31100 31103 31106 31109 31112 31115 31118 31121 31124 31127 31130 31133 31136 31139 31141 31143 31146 31149 31152 31154 31157 31160 31163 31166 31169 31172 31175 31178 31181 31184 31187 31189 31192 31195 31198 31201 31204 31207 31210 31213 31216 31219 31222 31225 31228 31231 31234 31237 31240 31243 31246 31249 31252 31255 31258 31261 31264 31267 31270 31273 31276 31279 31282 31285 31288 31291 31294 31296 31299 31302 31304 31307 31310 31313 31316 31319 31322 31325 31328 31331 31334 31337 31340 31343 31346 31349 31352 31355 31358 31361 31364 31367 31370 31372 31375 31378 31381 31384 31387 31390 31392 31395 31398 31401 31404 31407 31410 31413 31416 31419 31422 31425 31428 31431 31434 31436 31439 31442 31445 31448 31451 31454 31456 31459 31462 31465 31467 31470 31473 31476 31479 31482 31485 31488 31491 31494 31497 31500 31503 31506 31509 31512 31515 31518 31521 31524 31527 31530 31533 31536 31539 31542 31545 31548 31551 31554 31556 31559 31562 31565 31568 31571 31574 31577 31579 31582 31585 31587 31590 31593 31596 31599 31602 31605 31608 31611 
</DataArray>
<DataArray type="UInt32" Name="types" format="ascii">
5 5 5 5 3 5 5 5 5 5 5 5 5 5 5 5 5 5 5 5 5 5 5 5 5 5 5 5 3 5 5 5 5 3 5 5 5 5 5 5 5 5 3 5 5 5 5 3 3 5 5 5 5 5 5 5 3 5 5 3 3 3 5 3 3 3 5 5 5 3 5 5 5 5 5 5 5 5 5 5 5 5 5 5 5 5 5 5 5 5 5 3 5 5 5 5 5 5 3 5 5 3 5 3 5 5 5 5 3 5 5 3 5 5 3 5 5 5 3 5 5 5 5 5 5 5 5 5 5 5 5 5 5 5 5 5 5 5 5 5 5 5 5 5 5 3 5 5 5 3 5 5 5 5 5 5 5 3 5 5 5 5 3 5 5 5 3 5 5 5 5 5 5 5 5 5 5 5 5 3 5 3 5 5 5 3 5 5 5 5 5 5 5 5 5 5 5 5 3 3 5 5 5 5 3 5 3 5 5 5 5 5 5 5 5 5 5 5 5 5 5 5 5 5 5 5 5 5 5 5 5 3 5 5 5 5 5 5 5 5 5 3 5 3 5 5 5 5 5 3 5 5 5 5 5 5 5 3 5 5 5 5 3 5 5 5 5 5 5 5 5 5 3 5 5 5 5 5 5 5 5 3 5 3 5 5 3 5 5 5 5 5 3 5 5 5 5 5 3 5 5 5 5 5 3 5 5 5 5 5 5 5 5 5 5 3 5 3 5 5 5 5 3 5 3 5 5 5 3 5 5 5 3 5 5 5 5 5 5 3 5 5 3 5 5 5 5 5 5 5 5 5 5 5 3 3 5 5 3 5 5 5 5 5 5 5 3 5 5 5 5 5 5 5 3 5 3 5 5 5 5 5 5 5 5 5 5 5 3 5 5 5 5 5 5 3 5 5 5 5 5 5 5 3 5 5 3 5 5 5 3 5 5 5 5 5 5 3 5 5 5 3 5 5 5 3 5 5 3 5 5 5 5 3 3 5 5 3 3 5 5 5 5 3 5 5 5 5 5 5 5 3 5 5 5 5 3 5 5 5 5 5 5 5 3 5 5 5 3 5 3 5 3 5 5 5 5 5 3 5 5 5 3 5 3 5 5 3 5 5 3 5 5 5 5 5 5 5 5 5 5 5 5 5 5 3 5 5 5 5 5 5 3 5 3 5 5 5 5 3 5 5 5 5 3 5 5 5 5 5 5 3 5 5 5 5 5 5 5 3 5 5 5 5 5 3 5 5 5 5 3 5 5 5 5 3 5 5 5 5 5 5 5 3 5 5 5 5 5 5 5 5 5 5 5 3 5 5 5 5 5 5 5 5 3 5 5 5 5 5 5 5 5 5 5 5 5 5 5 5 5 3 5 5 5 5 5 5 5 5 5 5 5 5 5 5 5 5 5 5 5 5 5 5 5 5 5 5 5 5 5 5 5 5 5 5 5 5 5 5 5 5 5 5 5 5 5 5 5 5 5 5 5 5 5 5 5 5 5 5 5 5 3 5 5 3 5 5 5 5 5 5 5 5 5 3 5 5 5 5 3 5 5 5 5 5 5 5 5 5 5 5 5 5 5 5 3 5 5 5 5 5 5 5 5 5 5 5 5 5 5 3 5 5 5 5 5 5 5 5 5 3 3 5 5 5 3 5 5 5 5 5 5 5 5 5 5 5 5 3 5 5 5 5 5 5 5 5 5 5 5 5 5 5 5 5 5 5 5 5 5 5 5 5 5 5 5 5 5 5 5 5 5 5 5 5 5 5 5 5 5 5 5 3 5 5 5 5 5 5 3 5 5 3 5 5 5 3 5 5 5 5 5 5 5 5 5 5 5 5 5 5 5 5 5 5 5 5 5 5 5 5 5 5 5 5 5 5 5 5 5 5 5 5 5 5 5 5 5 5 5 5 5 5 5 5 5 5 5 5 5 5 5 5 5 5 5 5 5 5 3 5 5 5 5 5 5 5 5 5 5 5 5 3 5 5 5 5 5 5 5 5 5 5 5 5 5 5 3 5 3 5 5 3 5 5 5 3 5 5 5 5 5 5 5 3 5 3 5 5 5 5 5 3 5 5 5 5 5 3 5 5 5 5 5 3 3 5 5 5 5 5 3 5 5 5 3 5 3 5 5 5 3 5 3 5 5 5 3 5 3 5 5 5 5 3 5 5 5 5 5 5 5 5 5 5 3 3 5 3 5 5 3 5 5 3 5 5 5 5 3 5 5 5 5 5 5 5 5 5 5 5 5 5 5 5 5 5 5 5 5 5 5 5 5 5 5 5 5 5 5 5 3 5 3 3 5 5 3 5 5 5 5 5 5 5 5 5 5 5 5 5 5 5 3 5 5 5 5 5 5 5 3 5 5 5 5 5 5 5 3 5 5 5 5 5 5 5 3 5 5 3 5 5 5 5 5 3 3 5 5 5 5 5 3 5 5 5 5 3 5 5 3 5 5 5 5 5 3 3 5 5 5 5 5 5 5 5 5 5 5 5 3 5 5 5 5 5 5 5 5 5 5 5 5 5 5 5 5 5 5 5 5 5 5 5 5 3 5 5 5 5 3 5 5 5 3 5 5 5 5 5 5 5 3 5 5 5 5 5 3 5 5 5 5 5 5 5 5 5 5 5 5 5 5 5 5 5 5 3 5 5 5 5 5 5 5 5 5 5 5 3 3 5 5 5 3 3 5 5 5 3 5 5 3 5 5 5 3 5 3 3 5 5 5 5 5 5 5 5 5 5 5 5 3 5 5 3 5 5 3 5 3 5 5 5 3 5 5 5 5 5 5 5 5 3 5 5 5 5 5 3 5 5 5 5 5 5 5 3 5 5 5 5 5 5 5 5 3 5 3 5 5 5 5 3 5 3 5 3 5 3 5 5 5 5 5 5 5 3 5 5 3 5 3 5 3 5 5 3 5 5 5 5 5 5 5 5 3 5 5 5 5 5 5 3 5 5 5 5 5 5 5 5 5 5 5 5 3 5 5 5 3 5 5 5 5 5 5 3 5 5 5 5 5 5 5 5 5 5 5 5 5 5 5 5 5 5 5 5 5 5 5 5 5 5 5 3 5 3 5 5 5 5 5 5 5 5 5 5 5 5 3 5 5 3 5 5 3 5 5 5 5 5 5 5 5 5 5 5 3 5 3 5 5 5 5 5 5 5 5 5 5 5 5 5 5 5 5 5 5 5 3 5 5 5 5 3 5 5 5 5 3 5 5 3 3 5 5 5 5 5 5 5 5 5 5 5 5 5 3 5 5 5 5 5 5 5 5 5 3 5 3 5 5 5 5 5 5 5 5 5 5 5 5 5 5 5 5 5 5 3 5 5 5 5 5 5 5 5 5 5 5 5 5 5 5 5 5 5 5 5 5 5 5 5 5 5 5 5 5 5 5 5 5 5 5 5 5 5 5 5 5 5 5 5 3 5 5 5 5 5 5 5 3 5 5 5 5 5 5 5 5 5 5 3 5 5 5 5 5 3 5 5 5 5 5 5 5 5 5 5 5 5 5 3 5 5 3 5 3 5 5 5 5 5 5 5 5 5 5 5 5 5 5 5 5 5 3 3 5 3 5 5 5 5 5 5 3 3 5 3 5 5 5 5 5 5 3 5 5 5 5 5 5 5 5 5 5 5 5 3 5 5 3 5 5 5 5 5 3 5 3 5 3 5 5 5 5 5 5 5 5 5 5 5 3 5 3 5 5 3 5 5 5 5 5 5 5 5 5 3 3 5 5 5 5 3 3 5 5 5 3 5 5 5 3 5 5 5 5 5 3 5 5 3 5 3 5 5 5 3 5 5 5 5 5 5 3 5 3 3 5 5 5 5 5 5 5 3 5 5 3 5 3 5 5 5 5 5 5 5 5 5 5 5 5 5 5 5 5 5 5 5 5 5 5 5 5 5 3 5 5 5 5 5 5 5 3 5 5 5 5 3 5 5 5 5 5 5 5 5 5 5 5 3 5 5 5 5 5 5 5 5 5 3 5 5 5 5 5 5 5 5 5 5 3 5 5 3 5 5 5 5 5 5 5 3 5 5 5 3 5 3 5 3 5 5 5 5 5 5 5 5 5 5 5 5 5 5 3 5 5 5 3 5 5 3 5 5 5 5 5 5 5 5 5 5 5 5 5 3 5 3 5 5 3 5 3 5 5 5 5 5 5 5 3 5 5 5 5 5 5 5 3 5 5 5 3 5 5 5 5 5 5 3 5 5 5 5 3 5 5 5 5 5 5 5 5 5 5 5 3 5 5 5 5 5 3 3 5 5 5 3 3 5 5 5 3 5 5 3 5 5 3 5 3 3 5 5 5 5 3 5 5 5 5 5 5 3 5 5 5 5 5 3 5 5 5 5 5 3 5 5 5 5 5 5 5 5 5 5 5 5 5 3 5 5 5 5 5 3 5 3 5 5 5 5 5 5 3 5 5 5 5 5 5 3 3 3 5 5 5 3 5 5 5 5 5 5 5 5 5 5 5 3 5 5 5 5 5 5 5 5 5 5 5 5 3 3 3 5 5 3 5 5 5 3 5 5 3 5 3 5 3 5 3 3 3 5 5 5 5 5 3 5 5 3 5 5 5 3 5 3 5 5 5 5 3 5 5 5 5 5 5 5 3 5 5 5 5 3 5 5 5 5 5 5 5 3 5 5 3 5 5 5 5 5 3 5 5 5 5 5 5 5 5 5 3 5 5 5 5 5 5 5 3 5 5 5 5 5 3 5 5 3 5 5 5 5 5 5 5 5 5 5 5 5 5 5 5 5 5 5 5 5 5 5 5 5 5 5 5 5 5 5 5 5 5 5 5 5 5 5 5 5 3 5 3 5 3 5 5 3 5 5 5 5 5 5 5 5 5 3 3 5 5 5 5 3 5 5 3 5 5 5 5 5 3 5 5 5 3 5 3 3 3 5 5 5 5 5 5 5 5 5 5 5 5 5 5 5 5 5 5 5 5 5 5 5 5 5 5 5 3 5 5 3 5 5 3 5 5 5 5 5 3 5 5 3 5 5 3 3 5 3 3 5 5 5 3 5 3 5 5 5 5 5 5 5 3 5 5 5 5 5 5 5 5 5 5 5 5 5 5 5 5 5 5 5 5 5 5 5 5 5 5 5 5 5 5 5 5 5 5 5 5 5 5 5 5 5 5 3 5 5 5 5 5 5 3 5 5 5 5 5 5 5 5 5 5 5 5 5 3 5 5 5 3 5 5 5 5 5 5 5 3 5 5 5 5 5 5 5 5 5 5 5 5 5 5 5 5 3 5 3 5 5 3 5 5 5 5 3 5 5 5 5 5 5 5 5 5 3 5 5 3 5 3 5 5 5 5 5 3 5 5 3 5 5 5 5 5 3 5 5 5 3 5 5 5 5 3 5 5 5 3 5 5 5 5 5 5 3 5 5 5 3 5 5 3 5 5 3 5 3 3 5 5 5 5 5 5 5 5 5 5 5 5 5 5 5 5 5 5 5 5 5 5 5 5 5 5 5 5 5 5 5 5 5 5 5 5 5 5 5 5 5 5 5 3 5 5 3 5 5 5 3 5 5 5 5 5 5 5 5 5 5 5 3 5 5 5 5 5 5 5 5 3 5 5 5 5 5 5 5 5 5 5 3 5 5 3 5 5 3 3 5 5 3 5 5 5 5 5 5 5 5 5 5 5 5 5 3 5 5 3 5 5 5 5 5 5 5 5 3 5 5 3 3 5 3 5 5 5 5 3 5 5 5 5 3 5 5 5 5 5 5 5 5 5 5 5 5 3 5 5 5 3 5 5 5 5 5 5 3 5 5 5 5 3 5 5 3 3 5 5 5 5 5 3 5 5 3 5 5 5 5 5 5 5 3 5 3 5 5 5 5 5 5 5 3 5 5 5 5 5 5 3 5 5 5 5 3 5 5 5 5 5 3 5 5 5 5 3 5 5 5 5 5 5 5 5 5 5 3 5 5 3 5 3 5 5 3 3 5 5 5 3 5 5 5 5 5 5 5 3 5 5 5 5 5 5 3 5 5 5 5 5 5 3 5 3 3 5 5 5 5 3 5 5 5 3 5 5 5 5 5 5 5 5 5 5 5 5 5 5 5 5 5 5 5 5 5 5 5 5 3 5 5 3 5 5 5 5 5 3 3 5 5 3 5 5 5 5 3 5 3 5 5 5 5 3 5 5 5 5 5 5 5 3 5 5 5 5 5 5 3 5 5 3 5 5 3 5 5 5 3 3 5 5 3 5 5 5 5 5 3 5 5 5 5 5 5 5 5 5 3 3 5 5 3 5 5 5 5 5 5 5 5 5 3 5 5 3 5 3 5 5 3 5 3 5 5 5 3 5 5 3 5 3 5 5 5 5 5 5 5 5 3 5 3 5 5 5 3 5 5 5 5 5 5 3 5 5 5 5 5 3 5 3 3 5 5 5 5 5 3 5 5 5 3 5 3 5 5 5 5 5 5 5 5 5 3 5 5 3 3 5 5 5 3 5 5 5 5 3 5 3 5 5 5 5 5 5 5 5 3 5 3 5 5 5 5 5 5 5 5 5 5 5 3 5 5 5 5 5 5 5 5 3 5 3 3 5 3 5 5 5 5 3 5 5 5 3 5 5 5 5 5 5 3 5 5 5 5 5 3 3 5 5 5 5 5 5 5 5 5 3 5 5 5 5 5 5 5 5 5 5 3 5 5 5 5 5 3 5 3 5 3 5 5 5 5 5 5 5 5 3 5 5 5 5 5 5 5 5 5 5 5 5 5 5 5 5 5 5 5 5 3 5 5 5 5 5 5 5 5 5 3 5 5 5 5 5 3 5 5 5 5 5 5 5 3 3 5 5 3 5 5 5 5 5 5 5 5 5 3 5 3 5 5 5 5 5 3 5 5 5 5 5 5 5 5 5 5 5 5 5 3 3 5 5 5 5 5 5 5 5 5 5 5 3 5 5 3 5 3 3 5 3 5 3 5 5 3 5 5 5 5 3 3 5 5 5 5 5 5 5 5 5 5 5 5 3 5 5 5 5 5 5 5 3 3 5 3 5 3 5 5 5 5 5 5 3 5 3 5 5 5 5 5 5 3 5 3 5 5 5 5 5 5 5 5 5 5 5 5 5 5 5 5 5 5 5 5 5 5 5 3 5 5 5 3 5 5 3 5 5 3 5 5 5 5 5 5 5 5 5 3 5 5 5 3 5 5 5 5 3 5 5 5 3 5 5 5 3 5 5 3 5 5 5 5 5 5 5 5 3 3 3 5 3 5 5 5 3 5 5 5 5 5 5 3 3 5 5 5 5 5 5 5 3 5 5 3 5 5 5 3 5 5 5 3 5 5 5 5 5 3 5 5 5 5 5 5 3 5 5 5 3 5 5 5 5 3 5 3 3 5 5 3 5 3 5 3 5 5 3 5 5 5 5 5 5 5 5 5 5 5 3 5 3 5 5 5 5 5 5 5 5 5 5 5 5 5 5 5 5 5 5 3 5 5 5 5 5 5 5 5 5 5 5 5 5 5 5 3 5 5 5 5 5 3 5 5 5 5 5 5 5 5 5 5 3 5 5 5 5 5 5 3 5 5 5 5 5 5 5 5 5 5 5 5 5 5 5 5 5 5 5 5 5 5 5 5 5 5 5 5 5 5 5 3 5 5 5 5 5 5 5 5 5 5 5 5 5 5 3 3 5 5 5 5 5 5 5 3 5 5 5 5 5 3 5 5 5 5 5 5 5 3 5 5 5 5 3 5 5 5 5 5 5 5 3 5 5 5 5 3 3 5 3 5 5 3 3 5 3 5 5 3 3 5 5 5 5 5 5 5 5 3 5 5 5 5 5 5 5 5 5 5 5 5 5 5 3 5 3 5 3 5 5 3 5 5 3 5 3 5 5 5 3 3 5 5 3 5 5 3 5 5 5 5 5 5 5 5 5 5 5 3 5 5 5 5 5 5 5 5 5 5 5 5 5 5 5 5 5 5 5 5 5 5 5 5 5 5 5 5 3 5 5 5 5 3 5 5 5 5 5 3 5 3 5 3 5 5 3 5 5 5 5 3 3 5 5 5 5 5 5 5 5 5 5 5 3 5 5 3 5 5 5 5 5 5 3 5 5 5 5 5 5 3 5 5 5 5 5 5 5 5 5 5 5 3 5 5 5 5 3 5 5 5 3 5 5 5 5 5 3 5 5 5 5 3 5 5 3 5 3 5 5 5 5 5 5 5 5 5 5 3 5 5 5 5 5 5 5 3 5 5 5 5 5 5 5 5 5 5 5 5 5 5 5 5 5 5 3 3 5 5 5 5 5 5 5 3 5 5 5 5 5 5 3 5 5 5 5 5 5 5 5 3 5 5 3 5 5 5 5 5 5 5 5 5 5 3 5 5 5 5 5 5 5 5 5 5 5 5 5 5 5 5 5 3 3 5 3 5 5 5 5 5 3 5 5 5 5 5 5 5 3 5 5 5 5 5 5 5 5 5 5 5 5 5 5 3 5 5 5 5 5 5 3 5 5 5 5 5 5 5 5 5 5 5 5 5 5 5 3 5 5 3 5 3 5 5 5 5 5 3 3 5 5 5 5 3 3 5 5 5 5 5 5 5 5 5 5 3 5 5 5 5 5 5 5 5 5 3 5 5 3 3 3 5 5 3 5 5 5 3 5 5 5 5 3 5 5 5 3 5 5 5 5 5 5 5 3 5 5 5 3 5 5 5 5 5 5 5 5 5 5 5 5 5 5 3 5 5 5 3 5 5 5 5 5 5 3 5 5 5 5 5 5 5 5 3 5 5 5 5 5 5 5 5 5 5 5 5 5 5 5 5 5 5 5 5 5 5 5 3 5 5 3 5 5 3 3 5 5 3 5 5 5 5 5 5 5 5 3 5 5 5 5 5 5 5 5 5 5 3 5 5 5 5 5 5 5 5 5 5 5 5 5 5 5 5 5 5 5 5 5 5 5 5 5 5 5 3 5 3 5 5 5 5 5 3 5 5 3 5 5 3 5 5 5 5 5 5 5 5 5 5 5 3 5 5 5 3 5 5 5 5 5 5 5 5 5 5 3 5 5 5 5 5 5 3 5 5 5 5 5 5 5 5 3 5 5 5 5 3 5 5 5 5 5 5 5 5 5 5 5 5 5 5 5 5 5 5 5 5 3 5 5 5 5 3 5 5 5 5 5 5 5 5 5 5 5 5 5 3 5 5 5 5 3 5 5 5 5 5 3 3 5 5 5 5 3 5 5 5 5 5 5 5 5 5 5 5 5 5 5 5 5 5 5 5 5 5 5 5 5 5 5 5 3 5 5 5 5 3 5 5 5 5 5 3 5 5 5 3 5 5 5 5 5 5 5 5 3 5 5 5 5 5 5 3 5 5 5 5 3 5 5 5 5 5 5 5 5 5 5 5 3 5 5 5 5 5 5 5 5 3 5 5 5 5 3 5 5 5 5 3 5 5 5 3 5 5 5 5 5 5 5 5 5 3 5 3 5 5 5 5 3 5 3 5 5 5 5 5 3 5 5 3 5 5 3 5 5 3 5 5 3 3 3 5 3 5 3 5 5 5 3 5 5 3 3 5 3 5 3 5 5 5 5 5 5 5 5 5 5 5 5 5 5 5 5 5 5 5 5 5 5 5 5 3 5 5 5 5 5 5 5 5 5 5 5 5 5 5 5 5 5 5 5 5 5 3 5 5 5 5 5 5 5 5 5 5 5 5 5 5 5 5 5 5 5 5 5 5 5 5 5 5 5 5 3 5 3 5 5 5 5 5 5 5 5 5 5 5 5 5 5 5 5 5 5 5 5 5 5 5 3 5 5 3 5 5 5 3 5 5 5 3 5 5 5 5 5 5 5 5 5 5 5 5 5 5 5 5 3 5 3 3 3 5 5 5 5 3 5 5 3 3 5 5 5 3 3 5 5 5 5 5 5 5 5 3 3 5 5 5 3 5 3 5 5 5 3 5 5 5 5 3 5 3 5 5 5 5 5 5 5 5 5 5 5 5 5 3 5 5 3 5 3 5 3 3 5 5 5 5 5 3 3 5 5 5 5 3 5 5 5 5 5 5 3 5 3 5 5 5 3 5 5 3 5 5 5 5 5 5 3 5 3 5 5 5 5 3 5 5 5 5 5 5 5 3 5 5 5 5 5 5 3 5 5 3 5 5 3 5 5 5 5 5 5 5 5 5 5 5 5 5 3 5 5 5 5 5 5 5 3 3 5 5 5 5 3 5 5 5 5 5 5 5 3 5 5 3 5 3 5 3 3 5 5 5 5 5 5 5 3 5 5 5 5 3 5 3 5 5 3 5 5 5 5 5 5 5 5 5 5 5 5 5 5 5 5 5 5 5 5 5 3 5 5 5 5 5 5 5 5 5 3 5 5 5 5 5 5 3 5 5 5 5 5 5 5 5 5 5 5 5 5 5 5 5 3 5 5 5 5 5 3 5 5 5 5 5 5 5 5 5 5 5 5 5 5 5 5 5 5 5 5 5 3 5 5 5 5 5 3 5 5 5 5 5 5 5 5 3 5 5 5 5 5 5 5 5 5 5 5 5 3 5 5 5 5 3 5 5 5 5 3 5 5 5 5 5 5 5 5 5 5 5 5 3 5 5 5 5 5 5 5 5 5 5 5 5 5 5 5 5 5 3 3 5 5 5 3 5 3 5 3 5 5 3 5 5 5 5 5 5 3 5 3 5 5 5 5 5 3 5 3 5 5 5 5 5 5 5 5 5 5 5 5 5 5 5 5 5 5 3 5 5 5 5 5 3 5 5 5 5 5 5 5 5 5 5 5 5 5 5 5 3 5 5 3 5 5 5 5 3 5 5 3 3 5 5 5 3 5 3 3 5 5 3 5 3 5 3 5 5 3 5 3 5 3 5 5 5 5 5 3 5 5 5 5 5 5 5 3 3 5 5 5 3 5 3 5 5 5 5 5 5 5 3 5 5 5 5 5 3 5 5 5 5 5 3 3 5 5 5 5 5 5 5 5 5 5 5 5 5 5 5 5 5 5 5 5 5 5 5 5 5 5 5 3 5 5 3 3 5 5 5 5 3 5 5 3 5 5 5 5 5 5 5 5 5 5 3 5 5 5 3 5 5 5 3 5 3 5 5 5 5 5 5 3 5 3 5 5 5 5 5 5 3 5 5 5 5 3 3 3 5 3 5 5 5 5 5 5 5 3 5 5 5 5 5 5 5 5 5 5 5 3 5 5 5 5 3 5 5 3 5 5 3 5 3 5 3 5 3 3 5 5 3 5 3 5 5 5 5 5 5 5 3 5 5 5 5 5 5 5 5 5 3 5 5 3 5 5 5 5 5 5 5 5 5 3 5 5 3 5 5 5 5 5 5 5 5 5 5 5 5 5 5 5 5 5 5 5 5 5 5 5 5 5 5 5 5 5 5 5 5 5 5 5 5 5 5 5 5 5 5 5 5 3 3 5 5 5 5 5 5 5 3 5 5 5 3 5 5 5 5 3 5 5 3 5 5 5 5 5 5 5 5 5 5 5 5 5 5 5 5 5 5 5 5 5 5 5 5 5 5 3 5 3 5 5 5 5 3 3 3 5 5 5 5 5 3 5 3 5 5 5 5 5 5 5 5 5 5 5 5 5 5 5 5 5 5 5 3 5 5 3 5 5 5 5 5 5 5 5 5 5 5 5 5 5 5 5 5 5 5 5 5 5 3 5 5 5 5 3 3 3 5 5 5 5 5 5 3 5 5 5 5 5 5 5 5 5 5 5 5 5 5 5 5 3 5 5 5 5 3 5 5 5 5 5 5 5 5 3 5 5 5 5 5 5 5 5 3 5 3 5 5 3 5 3 5 5 3 5 5 3 5 3 5 5 5 5 5 3 5 5 5 5 5 3 5 5 5 5 5 5 5 5 3 5 5 5 5 5 3 5 5 3 3 5 3 5 5 5 5 5 5 5 5 5 3 5 5 5 3 5 5 5 3 5 5 3 5 5 5 5 5 5 5 5 5 5 5 5 5 5 5 5 5 5 5 3 3 5 3 5 5 5 5 5 5 5 3 5 5 5 5 5 3 5 3 5 5 5 5 5 5 5 5 5 5 5 5 5 5 5 5 5 5 5 5 5 5 5 5 3 5 3 5 5 5 5 5 5 3 3 5 5 5 3 5 5 5 3 5 5 5 3 5 3 5 5 5 5 5 5 5 5 5 5 5 5 5 3 5 5 5 5 3 5 5 5 5 5 5 5 5 5 5 5 5 5 3 5 5 5 5 5 5 5 5 5 3 5 5 3 3 5 5 5 5 5 3 5 5 5 5 5 5 5 3 5 5 5 5 5 5 5 3 5 5 5 5 5 5 3 3 5 3 5 5 5 5 5 5 3 5 3 5 3 5 5 5 5 3 5 3 5 3 5 5 5 5 5 5 5 5 5 5 5 5 5 5 5 5 5 3 5 5 5 5 3 5 5 5 5 5 3 5 3 5 5 5 5 5 5 5 5 5 5 3 5 5 5 5 5 5 5 5 5 5 5 3 5 5 5 5 5 5 5 5 5 5 5 5 5 5 5 3 3 5 5 3 5 5 3 3 5 5 5 5 3 5 5 5 5 5 5 3 3 5 5 5 3 5 5 5 3 5 3 5 5 5 3 5 5 3 5 5 5 3 5 5 5 5 5 5 5 5 5 5 5 5 5 5 5 5 5 5 5 3 5 5 5 5 5 5 5 5 3 5 5 5 5 5 5 5 3 5 5 5 5 5 5 5 5 5 5 5 5 5 5 5 5 5 5 5 5 5 5 5 5 5 5 5 5 5 5 5 5 5 5 5 5 5 5 5 5 5 5 5 5 5 5 5 5 5 5 5 5 5 5 5 5 5 5 5 5 5 5 5 5 5 5 5 5 5 5 5 5 3 5 5 5 5 5 5 5 3 5 5 5 5 5 5 5 3 5 5 5 5 5 5 5 5 5 5 5 5 5 5 5 5 5 5 5 5 5 5 5 5 5 5 5 5 5 5 5 5 5 3 5 5 3 5 5 5 3 5 5 5 5 5 5 5 5 5 5 5 5 3 5 5 5 5 5 5 5 5 5 5 5 5 5 5 5 5 5 5 5 5 5 5 5 5 5 5 5 5 5 5 5 5 5 5 5 5 5 5 5 5 3 5 5 5 5 5 5 5 5 5 5 5 5 5 5 5 5 5 5 5 3 5 5 5 5 3 5 5 3 5 5 5 5 5 5 5 5 5 5 5 5 5 5 5 5 5 3 5 3 5 5 5 5 3 5 5 5 5 5 5 5 5 5 5 5 5 5 5 5 5 5 5 5 5 5 5 5 5 5 5 5 5 5 5 5 5 5 5 5 5 5 5 5 5 5 5 5 5 5 5 5 5 5 5 5 5 5 5 5 5 5 5 5 5 5 5 5 5 5 5 5 5 5 5 5 5 5 5 5 5 5 5 5 5 5 5 5 5 5 5 5 5 5 5 5 5 5 5 5 5 5 5 5 5 5 5 5 5 5 5 5 5 5 5 5 3 5 5 3 5 5 3 5 5 5 3 5 5 5 5 5 3 5 5 5 5 5 5 5 5 5 3 5 5 5 5 5 5 5 5 5 3 5 5 5 5 5 5 5 5 5 5 5 5 5 5 5 5 5 5 5 5 5 5 5 5 5 5 5 5 5 5 5 5 3 5 5 5 5 5 5 5 5 5 5 5 5 5 5 5 5 5 5 5 5 5 5 5 5 5 5 5 5 5 5 5 5 5 5 5 5 5 5 5 5 5 5 5 5 5 5 3 5 5 3 5 5 5 5 5 5 5 5 5 5 5 5 5 5 3 5 5 5 3 5 5 5 5 5 5 5 5 5 5 5 5 5 5 5 5 5 5 5 5 5 5 5 5 5 5 5 5 5 5 5 5 5 5 5 5 5 5 5 5 5 5 5 5 5 5 5 5 5 5 5 5 5 5 5 5 5 5 5 5 5 5 5 5 3 5 5 5 5 5 5 5 5 5 5 5 5 3 5 5 5 5 5 3 3 5 5 5 5 3 5 3 3 5 3 5 5 3 5 3 5 5 5 5 5 5 5 3 5 5 5 5 5 3 5 5 5 5 3 5 5 5 3 5 3 5 5 5 5 5 5 3 5 5 5 5 5 5 5 5 5 5 5 3 5 5 5 5 5 5 3 5 5 5 5 5 5 5 5 5 5 5 5 3 5 5 3 5 5 3 5 5 5 5 5 5 5 5 5 5 5 5 5 5 5 5 3 5 5 5 5 5 3 5 5 5 5 5 5 5 5 5 5 5 5 5 5 5 3 5 5 5 5 5 5 5 5 5 5 3 5 5 5 5 5 5 5 3 5 5 5 5 5 5 3 5 5 5 5 5 5 5 5 5 5 5 5 5 5 5 5 5 5 5 5 5 5 5 5 5 5 5 5 5 5 5 5 5 5 5 5 5 5 5 5 5 5 5 5 5 5 5 5 5 5 5 5 5 3 5 5 5 5 5 5 5 5 5 5 5 5 5 5 5 5 5 5 5 5 5 5 5 5 5 5 5 5 3 5 5 5 5 5 5 5 5 5 3 5 5 5 5 5 5 3 3 5 5 5 5 5 5 5 5 5 5 5 5 3 5 5 5 3 3 5 5 5 5 5 5 5 5 5 5 5 5 5 5 5 5 3 3 5 5 5 5 5 3 5 5 3 5 5 5 5 5 3 5 5 5 5 3 5 5 5 5 5 5 5 5 5 3 5 5 5 5 5 5 5 5 5 5 5 5 5 5 5 5 5 5 5 5 5 5 3 5 5 5 5 5 5 3 5 5 5 5 5 5 5 5 5 5 5 5 3 5 5 5 3 5 3 5 5 5 5 5 5 3 5 5 5 5 5 3 5 5 5 5 5 5 5 5 5 5 5 3 3 5 5 5 5 5 5 5 5 5 5 5 3 5 5 5 5 5 5 5 5 5 5 5 5 3 5 5 5 5 5 5 5 5 3 5 5 3 5 5 5 5 3 3 5 5 5 5 3 3 5 5 5 5 5 5 5 5 5 5 5 5 5 5 5 5 5 5 5 5 5 5 3 5 5 5 5 5 5 5 5 3 5 3 5 5 5 5 5 5 5 5 5 5 5 5 5 3 5 5 5 5 5 5 3 5 5 3 3 3 5 5 5 5 5 5 5 3 3 5 5 5 5 5 3 5 3 3 3 5 5 3 5 5 5 5 5 5 3 5 5 5 3 5 5 5 5 5 5 3 5 5 5 5 5 5 5 5 5 5 5 5 5 5 5 5 5 5 5 5 5 5 5 5 5 5 5 5 5 5 5 5 5 5 5 5 5 5 5 3 5 5 5 5 5 5 5 5 5 5 5 5 5 3 5 5 5 5 5 5 5 5 5 5 5 5 5 5 5 5 5 5 5 5 5 5 5 5 5 5 5 5 5 5 5 5 5 5 5 5 5 5 5 5 5 5 5 5 5 5 5 5 5 5 5 5 5 5 5 5 5 5 5 5 5 5 5 5 5 5 5 5 5 5 5 5 5 5 5 3 5 5 5 5 3 3 5 5 5 5 5 5 5 3 3 5 5 5 5 5 3 5 5 3 5 5 5 5 5 5 3 5 5 5 5 5 5 5 5 5 5 3 5 5 5 5 5 5 5 5 5 5 5 3 5 5 3 5 5 5 3 5 5 5 5 3 5 5 5 5 5 5 5 5 5 5 5 5 5 5 5 5 5 5 5 5 5 5 5 5 5 5 5 5 5 5 5 5 5 5 5 5 5 5 5 5 5 5 5 5 5 5 5 5 5 5 5 5 5 5 5 5 5 5 5 5 5 5 5 5 5 5 5 5 5 5 5 5 5 5 5 5 5 5 3 5 5 5 5 3 5 5 5 5 3 5 5 3 5 5 5 5 5 3 5 5 5 5 5 5 3 5 5 5 5 3 5 5 5 5 5 5 5 5 5 5 5 5 5 5 3 5 3 5 5 5 5 5 5 5 5 5 5 5 5 5 5 5 5 5 5 5 5 3 5 5 5 3 5 5 5 5 5 5 5 5 5 5 5 5 5 5 5 5 5 3 5 5 5 5 5 3 5 5 5 5 3 5 5 3 5 5 5 5 5 5 5 5 5 5 3 5 5 5 5 5 5 5 5 5 5 3 5 5 3 5 5 3 5 5 3 5 5 5 5 5 5 5 5 5 5 3 5 5 3 3 5 5 5 5 5 5 5 5 5 5 5 5 5 5 5 5 5 5 5 5 5 5 5 5 5 5 5 5 5 3 5 5 5 5 5 5 5 5 3 5 5 3 5 5 5 5 3 5 5 5 5 5 3 5 5 5 5 5 5 5 3 5 5 5 5 5 5 5 5 3 5 5 5 5 5 5 5 5 5 5 5 5 5 5 5 5 5 5 5 5 5 5 5 5 5 5 5 5 5 5 5 5 5 5 5 5 5 5 5 5 5 5 5 5 5 5 5 5 5 5 5 5 5 5 5 3 5 5 5 3 5 5 5 5 5 5 3 5 3 5 5 3 5 5 5 3 5 5 5 5 5 5 5 5 3 5 5 3 5 5 5 5 5 5 5 5 5 3 5 5 5 5 5 5 5 5 5 5 5 5 5 5 5 5 5 5 5 5 5 5 5 5 5 3 5 5 5 3 5 5 5 5 5 5 3 5 3 5 5 3 5 5 5 3 5 5 5 3 3 5 5 5 3 3 5 5 5 5 5 5 5 3 3 5 5 3 5 3 5 5 5 5 5 5 5 3 5 5 5 5 5 3 5 5 5 5 5 5 5 5 5 3 5 5 3 5 5 5 5 5 5 5 5 3 5 5 5 5 5 3 5 5 5 5 5 5 5 5 5 5 3 5 5 5 3 5 5 5 5 5 5 5 5 5 5 5 5 3 5 5 5 5 3 5 3 5 3 5 5 5 5 5 5 5 5 5 5 5 5 5 5 5 5 5 3 5 5 5 3 5 3 5 3 3 5 5 5 5 5 5 5 3 3 5 5 5 3 5 3 5 5 5 5 5 5 5 5 5 5 5 3 5 3 5 5 5 3 5 5 5 5 5 5 5 5 5 5 3 3 5 5 5 5 3 5 5 5 5 3 5 5 5 5 5 5 3 5 5 5 3 5 3 5 5 5 5 3 5 5 5 5 5 5 5 5 3 5 5 5 5 5 5 5 5 5 5 5 5 5 5 5 5 3 5 5 3 5 3 5 5 5 5 5 5 5 5 3 5 5 5 5 5 3 5 5 5 5 5 3 5 5 5 5 5 5 5 5 3 5 5 5 5 5 5 3 3 5 5 5 5 5 5 5 5 3 5 5 5 5 5 5 3 5 5 3 5 5 3 5 5 5 5 5 5 5 5 5 5 5 5 5 5 5 5 5 5 5 5 5 5 5 5 5 5 5 5 5 5 5 5 5 5 5 5 5 5 5 5 5 5 5 5 5 5 5 5 5 5 5 5 5 5 5 5 5 5 5 5 5 5 3 5 5 5 5 5 5 5 5 5 5 5 5 5 5 5 5 5 5 5 5 5 5 5 5 5 5 5 5 5 5 5 5 5 5 5 5 5 5 5 5 5 5 5 5 5 5 5 5 5 5 5 5 5 5 5 5 5 5 5 5 5 5 5 5 5 5 5 5 5 5 5 5 5 5 5 5 5 5 3 5 5 5 3 5 5 5 5 5 3 3 5 5 3 5 5 5 5 5 5 3 3 5 5 5 5 5 5 5 5 5 5 5 5 5 5 5 5 5 3 5 5 5 5 5 5 5 5 5 5 5 5 5 5 5 3 3 5 5 5 5 5 5 5 5 5 5 5 5 5 5 5 5 5 5 5 3 5 5 5 5 5 5 5 5 5 5 5 5 5 5 5 3 5 5 5 3 3 3 5 3 5 5 5 3 3 5 5 3 5 5 3 5 5 5 5 3 5 5 3 3 5 5 5 5 5 5 3 5 5 5 5 5 5 5 5 5 5 5 3 5 5 5 5 5 5 5 5 5 5 5 5 5 5 5 5 5 5 5 3 5 3 5 5 5 5 5 5 5 5 5 5 5 5 5 5 5 5 5 5 5 5 5 3 5 5 5 5 5 5 5 5 5 5 5 5 5 5 5 5 3 5 3 5 5 3 5 5 5 5 5 5 5 5 5 5 5 5 5 5 3 5 5 5 5 5 5 5 5 5 5 5 3 5 5 5 5 5 5 5 5 5 5 5 5 3 5 5 5 5 5 5 5 5 5 5 5 5 5 3 5 5 5 5 5 5 5 5 5 5 5 5 5 5 5 5 5 5 5 5 5 5 5 3 5 5 5 5 3 5 5 5 5 5 5 5 5 5 5 5 3 5 5 5 5 5 5 5 5 5 5 5 5 5 5 5 5 5 5 5 5 5 5 3 5 5 5 5 3 5 5 5 5 5 5 5 5 5 5 5 5 5 5 3 5 3 5 5 5 3 5 5 5 5 3 3 5 5 5 5 5 5 5 5 5 5 5 5 3 5 5 3 5 5 5 5 5 5 5 5 5 5 5 5 5 5 5 5 5 5 5 5 5 5 5 5 5 5 5 5 5 5 5 5 5 5 3 5 5 5 5 3 5 5 5 5 5 3 5 5 5 3 5 5 5 5 3 5 5 5 5 3 5 5 5 3 5 5 5 5 5 5 3 5 5 5 5 5 5 5 3 3 5 5 5 5 5 5 5 3 5 5 5 5 3 5 5 5 5 3 5 5 5 5 5 5 5 5 5 5 5 5 5 5 5 5 5 5 5 5 5 3 5 5 5 5 5 5 5 5 5 5 5 5 5 5 3 3 5 5 5 5 3 3 5 5 3 5 5 5 5 5 5 5 5 5 5 5 5 5 3 5 5 5 5 5 5 5 3 5 5 5 3 5 5 5 5 5 3 5 5 5 5 5 5 5 5 5 5 5 5 5 5 5 5 5 3 5 5 5 5 5 5 5 5 5 5 5 5 5 5 5 5 5 3 5 5 5 3 5 5 5 5 5 5 5 5 5 5 5 5 5 5 5 5 5 5 5 5 5 5 5 5 5 5 5 5 5 5 5 5 5 5 5 5 5 5 5 5 5 5 5 5 5 5 5 5 3 5 5 5 5 5 3 5 5 5 5 5 5 5 5 3 5 5 3 5 5 5 5 5 5 5 5 5 5 3 5 3 3 5 5 5 3 5 5 5 5 5 3 3 5 5 5 5 5 5 5 5 5 5 5 5 5 5 5 3 5 5 5 5 3 3 5 5 5 5 5 5 5 5 5 5 5 5 5 3 5 5 5 5 5 5 5 5 5 5 5 5 5 5 5 5 5 5 5 5 5 5 5 5 5 5 5 5 5 5 5 5 5 5 5 5 3 5 5 5 5 5 5 5 5 5 5 5 5 5 5 5 5 5 5 5 5 5 3 5 5 5 5 3 5 5 5 5 5 5 5 5 5 3 5 3 5 5 5 5 3 5 5 5 3 5 5 5 5 3 3 3 5 3 5 5 5 3 5 3 5 5 5 5 3 5 5 5 5 3 5 5 3 5 5 5 5 3 5 5 5 5 5 5 5 5 5 5 5 5 5 5 5 5 5 5 5 3 5 5 5 5 5 5 5 5 5 5 5 5 5 5 5 5 5 5 5 5 5 5 5 5 5 5 5 5 5 5 5 5 5 5 5 5 5 5 5 5 5 5 5 5 5 5 5 5 5 5 5 5 5 5 3 5 5 5 3 3 5 5 3 3 5 3 3 5 5 5 5 3 3 5 5 3 5 5 5 5 5 5 5 5 5 5 5 5 5 5 5 3 5 5 5 5 5 5 5 3 5 5 3 5 5 5 3 5 5 5 5 5 5 5 5 3 5 5 5 5 5 5 5 5 5 5 5 5 5 3 5 5 5 5 5 3 3 5 3 5 5 3 5 5 5 5 5 3 5 5 5 5 5 5 3 5 5 5 5 5 5 5 5 5 5 3 5 5 5 3 5 5 5 5 5 5 5 3 5 5 5 5 5 5 5 5 5 5 5 5 5 5 5 5 5 3 5 5 5 5 5 5 5 5 5 5 5 5 5 5 5 5 5 5 5 5 5 5 5 5 5 5 5 5 5 5 5 5 5 5 5 5 5 5 5 5 5 5 5 5 5 5 5 3 5 5 5 3 5 5 5 5 5 3 5 5 5 5 5 5 5 5 5 5 5 5 5 5 5 5 3 5 3 5 5 5 5 5 5 5 5 3 5 5 5 3 5 5 5 3 5 5 5 3 5 3 5 5 5 5 5 5 5 5 5 3 5 5 5 5 3 5 5 5 5 5 5 5 5 3 5 3 5 5 5 5 3 5 5 5 5 5 5 5 5 3 5 5 5 5 3 5 5 5 5 5 5 3 5 5 5 3 5 5 5 5 5 5 5 5 5 5 5 5 5 5 5 5 5 5 5 5 5 3 5 5 5 5 5 5 5 5 5 5 5 5 5 5 5 5 3 5 5 5 5 5 3 5 5 5 5 3 5 5 5 5 5 5 5 3 5 5 5 5 5 5 5 5 5 5 5 5 5 5 5 5 5 5 5 5 3 5 5 5 5 5 5 3 5 5 5 5 5 3 5 5 5 3 5 5 5 5 5 5 5 5 5 5 5 3 3 5 5 5 5 5 5 5 5 5 5 3 5 5 3 3 5 5 5 5 5 5 3 5 5 5 3 3 3 5 5 3 5 5 5 3 5 3 3 5 5 5 5 5 3 3 5 3 3 5 3 5 5 5 5 5 5 5 5 5 5 5 3 5 5 5 3 5 5 5 5 5 5 3 5 5 5 5 5 5 5 3 5 3 5 5 5 5 3 5 5 3 5 3 3 3 5 5 3 5 5 5 5 5 3 5 5 3 5 5 3 5 5 3 3 5 5 5 5 5 5 5 5 5 5 3 5 5 5 5 5 5 5 3 3 5 5 5 5 5 5 5 3 5 5 5 5 3 5 3 5 3 5 3 3 5 5 3 5 3 5 5 3 5 5 3 5 3 5 5 5 5 5 5 5 5 5 5 5 5 3 5 5 5 5 5 5 5 5 5 5 5 3 5 5 3 5 5 5 3 5 3 5 5 5 5 3 5 5 5 5 5 5 5 5 5 5 5 5 5 3 3 5 5 3 5 5 3 3 5 5 5 5 5 5 5 5 5 3 5 5 3 5 5 3 3 5 3 5 5 3 5 5 3 5 3 5 5 5 3 5 5 5 5 5 5 5 5 5 5 5 5 5 5 5 3 5 5 5 5 5 5 3 5 5 3 5 5 3 5 5 5 5 5 5 3 5 5 5 3 5 5 3 5 5 5 5 5 3 5 5 3 5 5 5 5 3 5 3 5 3 5 5 5 3 5 5 5 5 5 5 3 5 3 5 5 5 5 5 5 5 5 5 5 5 3 5 5 5 5 5 5 5 3 5 5 5 5 5 5 5 3 5 5 5 5 3 5 5 5 5 5 5 5 5 5 5 5 5 5 5 5 5 5 5 5 5 5 5 5 5 5 5 5 5 5 5 3 5 5 5 5 5 5 5 5 5 5 5 3 5 5 3 3 5 5 5 5 3 5 5 3 5 5 3 5 3 5 5 3 5 5 5 5 5 5 3 3 5 5 5 5 5 5 5 3 5 5 5 3 5 5 5 5 5 5 5 5 5 5 5 5 5 5 5 3 5 5 5 5 5 3 5 5 5 5 5 5 5 5 5 5 5 5 5 3 5 3 5 5 5 5 5 3 5 3 5 5 5 5 5 5 5 5 5 5 5 5 3 5 3 5 5 5 5 3 5 3 5 5 5 3 5 3 5 5 3 3 5 3 3 5 5 5 5 5 5 5 3 5 5 5 5 5 3 5 5 3 5 3 5 5 3 5 5 5 5 5 5 3 5 3 5 3 5 5 5 5 3 5 3 3 5 5 5 5 5 5 5 5 5 5 5 5 3 3 3 5 5 5 5 5 5 5 5 5 5 5 5 5 5 5 5 5 5 3 5 5 5 5 3 5 5 5 5 5 5 5 5 5 3 3 5 5 3 5 5 5 5 5 3 5 5 5 5 5 5 5 5 5 5 5 5 5 5 3 5 5 5 5 5 5 5 5 5 5 5 5 5 5 5 5 5 5 5 3 5 5 5 5 5 5 5 3 5 5 5 5 5 3 5 5 5 5 5 5 5 5 5 5 5 5 5 5 3 5 5 5 5 5 5 5 5 5 5 3 5 5 5 5 3 5 5 5 5 5 5 5 5 5 5 5 5 5 5 5 5 5 5 5 5 5 5 5 5 5 5 5 5 5 5 5 5 5 5 5 5 5 5 5 5 5 5 5 5 5 5 5 5 5 5 5 5 5 5 5 5 5 5 5 5 5 5 5 5 5 5 5 3 5 5 5 5 5 3 5 5 5 5 3 5 5 5 5 5 5 5 5 5 5 5 5 5 5 5 5 5 5 5 5 5 5 5 5 5 5 5 5 5 5 3 5 5 5 3 5 5 5 5 5 5 5 5 5 5 5 5 5 5 5 5 5 5 5 5 5 5 3 5 5 5 5 3 5 5 3 5 5 3 5 5 5 5 5 3 5 5 5 5 3 3 5 5 3 5 5 5 5 3 3 5 5 5 3 3 5 5 5 3 3 5 5 3 5 5 5 5 5 3 5 5 3 5 5 5 3 5 3 5 5 5 5 5 5 5 5 5 5 5 5 5 5 5 3 5 5 5 3 5 5 5 5 5 5 5 5 5 5 5 3 5 5 3 5 3 5 5 5 3 3 5 5 5 3 5 5 5 5 3 5 5 5 5 5 5 3 5 5 5 5 5 3 5 3 5 5 5 5 5 5 5 5 3 5 5 5 5 5 5 5 5 5 5 5 5 5 5 5 5 5 5 5 3 5 5 5 5 5 5 5 5 5 3 5 5 5 5 5 5 5 5 3 5 5 3 5 5 5 5 5 5 5 5 5 5 5 5 5 5 5 5 5 5 5 5 5 3 5 5 5 5 5 5 5 5 5 5 5 3 5 5 5 5 5 5 5 3 5 5 5 5 5 5 5 5 5 5 5 3 5 5 5 5 5 3 5 5 5 5 5 5 5 5 5 5 5 5 3 5 5 5 5 5 5 5 5 5 5 5 5 5 5 5 5 5 5 5 5 5 5 5 5 5 5 5 5 5 3 5 5 5 5 5 5 5 3 5 5 5 5 5 3 5 5 5 5 5 5 3 5 5 5 3 5 5 5 5 5 5 5 5 5 5 5 5 5 3 5 5 5 3 5 5 5 5 5 5 5 5 5 5 5 5 5 5 5 5 5 5 5 5 5 5 5 5 5 5 5 5 5 5 5 5 5 5 5 5 5 5 5 5 5 5 5 5 3 5 5 5 5 5 5 3 5 5 5 5 5 5 3 5 5 5 5 5 5 5 5 5 5 5 5 5 5 5 5 5 5 5 5 5 5 5 5 5 5 5 5 5 3 5 5 3 5 5 3 5 5 5 5 3 5 5 5 3 5 5 5 5 5 5 5 5 5 5 5 5 5 3 5 5 5 5 5 3 5 5 5 5 5 5 3 5 5 3 5 5 5 5 3 5 5 5 5 5 5 5 5 3 3 5 5 5 5 5 3 5 5 5 5 5 5 5 5 5 5 5 5 5 5 3 5 5 5 5 5 5 3 5 5 5 5 3 5 5 5 5 5 5 5 3 5 5 5 5 5 3 3 5 5 5 5 5 3 5 5 5 5 5 5 5 5 5 5 5 5 5 5 5 5 5 5 5 5 5 5 5 5 5 5 5 5 5 3 5 5 5 5 3 5 5 5 5 5 5 5 5 5 5 5 5 5 5 5 5 5 5 5 5 5 5 5 3 5 5 5 3 5 5 5 5 3 5 5 5 5 5 5 5 5 5 5 5 5 3 5 5 5 3 5 5 5 3 5 5 5 5 5 5 5 5 5 5 5 5 5 5 5 5 5 5 5 3 5 5 5 5 5 5 5 5 5 5 5 3 5 5 5 5 5 5 3 5 3 5 3 5 5 5 5 5 5 5 5 5 5 5 5 5 3 3 5 5 5 5 5 3 5 5 5 5 3 5 5 5 5 5 5 5 5 5 5 5 5 5 5 5 5 5 5 3 5 3 5 5 5 5 3 5 5 3 5 5 5 5 5 5 5 5 5 5 5 5 5 5 3 5 5 5 5 5 5 5 5 5 5 5 5 5 5 5 5 3 5 5 5 5 5 3 5 5 3 5 5 5 3 5 5 5 5 3 5 5 5 5 5 5 5 5 5 5 5 5 5 5 5 5 5 5 3 5 5 3 5 5 5 5 3 5 5 5 5 3 5 5 5 5 5 5 5 5 5 5 5 5 5 5 5 5 3 5 3 5 5 5 5 5 5 5 3 5 5 5 5 3 5 5 3 5 5 5 5 5 3 5 5 5 5 5 5 5 5 5 5 5 5 5 5 5 5 5 3 5 3 3 5 5 5 5 5 5 5 5 5 5 5 5 5 5 3 5 5 5 5 5 3 5 5 5 5 5 3 5 5 5 5 5 5 5 5 5 5 5 5 5 5 5 5 5 5 5 5 5 3 3 5 5 5 3 5 5 5 5 5 5 5 5 5 5 5 3 5 5 5 5 5 5 5 5 5 5 5 5 5 5 5 5 5 5 5 5 5 5 5 5 5 5 5 5 5 5 5 5 5 5 5 3 5 5 3 5 5 5 5 5 5 5 5 5 5 5 5 5 5 5 5 5 5 5 5 5 5 3 5 5 5 5 5 5 3 5 5 5 5 5 5 5 5 5 5 5 5 5 5 3 5 5 5 5 5 5 3 5 5 5 3 5 5 5 5 5 5 5 5 5 5 5 5 5 5 5 5 5 5 5 5 5 5 5 5 5 5 5 5 5 3 5 5 5 5 5 5 5 3 5 5 3 5 5 5 5 5 5 5 5 
</DataArray>
</Cells>
<PointData Scalars="" Vectors="displacement," Tensors="">
<DataArray type="Float64" Name="displacement" NumberOfComponents="3" format="ascii">
-0.014998139973063386 -0.015000184909525359 0 -0.015151296989710466 -0.014150877874764519 0 -0.015164485016120735 -0.013580910420669726 0 -0.014998139973063386 -0.015000184909525359 0 -0.014556661494114659 -0.014998792388261385 0 -0.014968488053063058 -0.014544275803762908 0 -0.014998139973063386 -0.015000184909525359 0 -0.014968488053063058 -0.014544275803762908 0 -0.015151296989710466 -0.014150877874764519 0 -0.014998139973063386 -0.015000184909525359 0 -0.015164485016120735 -0.013580910420669726 0 -0.014999760510316601 -0.012920431004194785 0 -0.014553255226655406 -0.014999958107709654 0 -0.014555636507752477 -0.014815325847032122 0 -0.014556661494114659 -0.014998792388261385 0 -0.01507875976589536 -0.01458428043354843 0 -0.015425351355054115 -0.014503218933586937 0 -0.014556661494114659 -0.014998792388261385 0 -0.014968488053063058 -0.014544275803762908 0 -0.01507875976589536 -0.01458428043354843 0 -0.014968488053063058 -0.014544275803762908 0 -0.01507875976589536 -0.01458428043354843 0 -0.01529623350876768 -0.014396375945857213 0 -0.014968488053063058 -0.014544275803762908 0 -0.015151296989710466 -0.014150877874764519 0 -0.015264101465026004 -0.014277558169475757 0 -0.014968488053063058 -0.014544275803762908 0 -0.015264101465026004 -0.014277558169475757 0 -0.01529623350876768 -0.014396375945857213 0 -0.015151296989710466 -0.014150877874764519 0 -0.015358756082193531 -0.014031400290652222 0 -0.015264101465026004 -0.014277558169475757 0 -0.015151296989710466 -0.014150877874764519 0 -0.015164485016120735 -0.013580910420669726 0 -0.015358756082193531 -0.014031400290652222 0 -0.015164485016120735 -0.013580910420669726 0 -0.015358756082193531 -0.014031400290652222 0 -0.015390686377029169 -0.013377196624228035 0 -0.015555577006733289 -0.013765833577325732 0 -0.015381477062242502 -0.014664423016210716 0 -0.016270077913520038 -0.013423605396869692 0 -0.015555577006733289 -0.013765833577325732 0 -0.015358756082193531 -0.014031400290652222 0 -0.015390686377029169 -0.013377196624228035 0 -0.015358756082193531 -0.014031400290652222 0 -0.015264101465026004 -0.014277558169475757 0 -0.015377922016903247 -0.014374946241983849 0 -0.015555577006733289 -0.013765833577325732 0 -0.015358756082193531 -0.014031400290652222 0 -0.015381477062242502 -0.014664423016210716 0 -0.015358756082193531 -0.014031400290652222 0 -0.015381477062242502 -0.014664423016210716 0 -0.015377922016903247 -0.014374946241983849 0 -0.015381477062242502 -0.014664423016210716 0 -0.015377922016903247 -0.014374946241983849 0 -0.015065499017293014 -0.014427719337394044 0 -0.015377922016903247 -0.014374946241983849 0 -0.015254173661475858 -0.01428482111955367 0 -0.015065499017293014 -0.014427719337394044 0 -0.015377922016903247 -0.014374946241983849 0 -0.015344404155181297 -0.01437284153888569 0 -0.015254173661475858 -0.01428482111955367 0 -0.015254173661475858 -0.01428482111955367 0 -0.014902424274540756 -0.013896439473627131 0 -0.015065499017293014 -0.014427719337394044 0 -0.015377922016903247 -0.014374946241983849 0 -0.015344404155181297 -0.01437284153888569 0 -0.01529623350876768 -0.014396375945857213 0 -0.015264101465026004 -0.014277558169475757 0 -0.015377922016903247 -0.014374946241983849 0 -0.01529623350876768 -0.014396375945857213 0 -0.01455325959487886 -0.015000031612255908 0 -0.013678151503771326 -0.014999931010202356 0 -0.013775471696443208 -0.015170535775879309 0 -0.01507875976589536 -0.01458428043354843 0 -0.01529623350876768 -0.014396375945857213 0 -0.015425351355054115 -0.014503218933586937 0 -0.015344404155181297 -0.01437284153888569 0 -0.015425351355054115 -0.014503218933586937 0 -0.015254173661475858 -0.01428482111955367 0 -0.015344404155181297 -0.01437284153888569 0 -0.01529623350876768 -0.014396375945857213 0 -0.015425351355054115 -0.014503218933586937 0 -0.014555636507752477 -0.014815325847032122 0 -0.013908782498856001 -0.014574338882048992 0 -0.013678151503771326 -0.014999931010202356 0 -0.012802710979981225 -0.014999943861858836 0 -0.01294154143095143 -0.015165256453426222 0 -0.015425351355054115 -0.014503218933586937 0 -0.015254173661475858 -0.01428482111955367 0 -0.014902424274540756 -0.013896439473627131 0 -0.013678151503771326 -0.014999931010202356 0 -0.013775471696443208 -0.015170535775879309 0 -0.01294154143095143 -0.015165256453426222 0 -0.012802710979981225 -0.014999943861858836 0 -0.01294154143095143 -0.015165256453426222 0 -0.012774810925454877 -0.014746645187391751 0 -0.013908782498856001 -0.014574338882048992 0 -0.012893855172874454 -0.014717542969337506 0 -0.012802710979981225 -0.014999943861858836 0 -0.012774810925454877 -0.014746645187391751 0 -0.011929719297987194 -0.014999276400042921 0 -0.013966205294337375 -0.014479611308785374 0 -0.012960946379021844 -0.014714456569168057 0 -0.014365000208016751 -0.014756146442883627 0 -0.014902424274540756 -0.013896439473627131 0 -0.013966205294337375 -0.014479611308785374 0 -0.012774810925454877 -0.014746645187391751 0 -0.013966205294337375 -0.014479611308785374 0 -0.012774810925454877 -0.014746645187391751 0 -0.012960946379021844 -0.014714456569168057 0 -0.013966205294337375 -0.014479611308785374 0 -0.015065499017293014 -0.014427719337394044 0 -0.014365000208016751 -0.014756146442883627 0 -0.014902424274540756 -0.013896439473627131 0 -0.013966205294337375 -0.014479611308785374 0 -0.015065499017293014 -0.014427719337394044 0 -0.011460134779281862 -0.015347640059734883 0 -0.011927652103057634 -0.014999952072464785 0 -0.011182265111001856 -0.014999952314843952 0 -0.011460134779281862 -0.015347640059734883 0 -0.011182265111001856 -0.014999952314843952 0 -0.011212238241620593 -0.015256969256595587 0 -0.012505480237503268 -0.014996993344899075 0 -0.011928163303638308 -0.014999907651235801 0 -0.012774810925454877 -0.014746645187391751 0 -0.012960946379021844 -0.014714456569168057 0 -0.011929719297987194 -0.014999276400042921 0 -0.012151687263419258 -0.015527539768347013 0 -0.011460134779281862 -0.015347640059734883 0 -0.011927652103057634 -0.014999952072464785 0 -0.012151687263419258 -0.015527539768347013 0 -0.011460134779281862 -0.015347640059734883 0 -0.011612787001112236 -0.015785316103874628 0 -0.011460134779281862 -0.015347640059734883 0 -0.011612787001112236 -0.015785316103874628 0 -0.011040457041288984 -0.015400260738926896 0 -0.013477184126188521 -0.013897802688013126 0 -0.01333406614889329 -0.013620288384902483 0 -0.013477184126188521 -0.013897802688013126 0 -0.013451078647358958 -0.013919375865697334 0 -0.012151687263419258 -0.015527539768347013 0 -0.011612787001112236 -0.015785316103874628 0 -0.012148337211536901 -0.016116404064881344 0 -0.01534181178912372 -0.011701977577383938 0 -0.015145711297169635 -0.011823580429859763 0 -0.015207643267106066 -0.011683954792307195 0 -0.015293335810131486 -0.011949346384151266 0 -0.01534181178912372 -0.011701977577383938 0 -0.015145711297169635 -0.011823580429859763 0 -0.015293335810131486 -0.011949346384151266 0 -0.01534181178912372 -0.011701977577383938 0 -0.015464445942290791 -0.011828018384582483 0 -0.015381477062242502 -0.014664423016210716 0 -0.014365000208016751 -0.014756146442883627 0 -0.013934261615332538 -0.015310649925257304 0 -0.015381477062242502 -0.014664423016210716 0 -0.015065499017293014 -0.014427719337394044 0 -0.014365000208016751 -0.014756146442883627 0 -0.012960946379021844 -0.014714456569168057 0 -0.014365000208016751 -0.014756146442883627 0 -0.013934261615332538 -0.015310649925257304 0 -0.012505480237503268 -0.014996993344899075 0 -0.013097727198827642 -0.016127588300419687 0 -0.012151687263419258 -0.015527539768347013 0 -0.012384511866723182 -0.01599572035911968 0 -0.012148337211536901 -0.016116404064881344 0 -0.012384511866723182 -0.01599572035911968 0 -0.012148337211536901 -0.016116404064881344 0 -0.012645373303504291 -0.016409155037238259 0 -0.013451078647358958 -0.013919375865697334 0 -0.014814663502694211 -0.014039034582849188 0 -0.013097727198827642 -0.016127588300419687 0 -0.014814663502694211 -0.014039034582849188 0 -0.015565420440692186 -0.015098184374384751 0 -0.014814663502694211 -0.014039034582849188 0 -0.015381477062242502 -0.014664423016210716 0 -0.013934261615332538 -0.015310649925257304 0 -0.014695554030958954 -0.016827182483615668 0 -0.014814663502694211 -0.014039034582849188 0 -0.015490166866706791 -0.011817556797649731 0 -0.014814663502694211 -0.014039034582849188 0 -0.015536826886005179 -0.012335594427206135 0 -0.014814663502694211 -0.014039034582849188 0 -0.015615327063344821 -0.012864017696384442 0 -0.015145711297169635 -0.011823580429859763 0 -0.015088102865308142 -0.011632355469042835 0 -0.015207643267106066 -0.011683954792307195 0 -0.015145711297169635 -0.011823580429859763 0 -0.014971675653558128 -0.011693986332672305 0 -0.015088102865308142 -0.011632355469042835 0 -0.014971675653558128 -0.011693986332672305 0 -0.015088102865308142 -0.011632355469042835 0 -0.015030021058584747 -0.011521411774038844 0 -0.015490166866706791 -0.011817556797649731 0 -0.015612740981176279 -0.011756198211661932 0 -0.015088102865308142 -0.011632355469042835 0 -0.015178683995084902 -0.011472415066207041 0 -0.015030021058584747 -0.011521411774038844 0 -0.015178683995084902 -0.011472415066207041 0 -0.015030021058584747 -0.011521411774038844 0 -0.01509660947098908 -0.011350381919933858 0 -0.015760805928414136 -0.012678027546980259 0 -0.015405292471479738 -0.012407540705227588 0 -0.015425647663012913 -0.012600062185214872 0 -0.015618821719324893 -0.01307644199722788 0 -0.015425647663012913 -0.012600062185214872 0 -0.015273120998742246 -0.012783236018943414 0 -0.015615821562275312 -0.013076135754657502 0 -0.015760805928414136 -0.012678027546980259 0 -0.015425647663012913 -0.012600062185214872 0 -0.01534181178912372 -0.011701977577383938 0 -0.015253681951316385 -0.011575765169038705 0 -0.015356901729330796 -0.011535229052220384 0 -0.01534181178912372 -0.011701977577383938 0 -0.015356901729330796 -0.011535229052220384 0 -0.015500162914503415 -0.011537541307856869 0 -0.015088102865308142 -0.011632355469042835 0 -0.015207643267106066 -0.011683954792307195 0 -0.015253681951316385 -0.011575765169038705 0 -0.01534181178912372 -0.011701977577383938 0 -0.015207643267106066 -0.011683954792307195 0 -0.015253681951316385 -0.011575765169038705 0 -0.015088102865308142 -0.011632355469042835 0 -0.015178683995084902 -0.011472415066207041 0 -0.015253681951316385 -0.011575765169038705 0 -0.015178683995084902 -0.011472415066207041 0 -0.015253681951316385 -0.011575765169038705 0 -0.015295379673408712 -0.011435755832707077 0 -0.015356901729330796 -0.011535229052220384 0 -0.015395214923158717 -0.011414076051783021 0 -0.015500162914503415 -0.011537541307856869 0 -0.015253681951316385 -0.011575765169038705 0 -0.015295379673408712 -0.011435755832707077 0 -0.015356901729330796 -0.011535229052220384 0 -0.015295379673408712 -0.011435755832707077 0 -0.015356901729330796 -0.011535229052220384 0 -0.015395214923158717 -0.011414076051783021 0 -0.015417555855403364 -0.011269505568936227 0 -0.015395214923158717 -0.011414076051783021 0 -0.0153036449498821 -0.011346329925487019 0 -0.015417555855403364 -0.011269505568936227 0 -0.015395214923158717 -0.011414076051783021 0 -0.015503799737062457 -0.011354787652372841 0 -0.015295379673408712 -0.011435755832707077 0 -0.015395214923158717 -0.011414076051783021 0 -0.0153036449498821 -0.011346329925487019 0 -0.015417555855403364 -0.011269505568936227 0 -0.0153036449498821 -0.011346329925487019 0 -0.015223823363654061 -0.011305595293850577 0 -0.015178683995084902 -0.011472415066207041 0 -0.015295379673408712 -0.011435755832707077 0 -0.015294907997213834 -0.011324402809906113 0 -0.0153036449498821 -0.011346329925487019 0 -0.015294907997213834 -0.011324402809906113 0 -0.015223823363654061 -0.011305595293850577 0 -0.015295379673408712 -0.011435755832707077 0 -0.0153036449498821 -0.011346329925487019 0 -0.015294907997213834 -0.011324402809906113 0 -0.01498469774732746 -0.011361699839217145 0 -0.015887418869740561 -0.010822140909150176 0 -0.015294907997213834 -0.011324402809906113 0 -0.015223823363654061 -0.011305595293850577 0 -0.015517855467715964 -0.011796532445451438 0 -0.015223823363654061 -0.011305595293850577 0 -0.014586299562094028 -0.010618792388699883 0 -0.015243254222136599 -0.010748717569435276 0 -0.015223823363654061 -0.011305595293850577 0 -0.015485376445792221 -0.010957547470964795 0 -0.015243254222136599 -0.010748717569435276 0 -0.015417555855403364 -0.011269505568936227 0 -0.015223823363654061 -0.011305595293850577 0 -0.015485376445792221 -0.010957547470964795 0 -0.015884874250618675 -0.011659906630073947 0 -0.015694070843293041 -0.011492628106856063 0 -0.015767289143886244 -0.011586989637688146 0 -0.015760805928414136 -0.012678027546980259 0 -0.015892911828323631 -0.012302193279060776 0 -0.015405292471479738 -0.012407540705227588 0 -0.015612740981176279 -0.011756198211661932 0 -0.015661213674394509 -0.012051585667626916 0 -0.015884874250618675 -0.011659906630073947 0 -0.015694070843293041 -0.011492628106856063 0 -0.015928954610143164 -0.011678746453493562 0 -0.015178683995084902 -0.011472415066207041 0 -0.015294907997213834 -0.011324402809906113 0 -0.01509660947098908 -0.011350381919933858 0 -0.015256189466473589 -0.011341965954587249 0 -0.015612740981176279 -0.011756198211661932 0 -0.015294907997213834 -0.011324402809906113 0 -0.015686384687596994 -0.011310741544385801 0 -0.015616506126087065 -0.011506567084281837 0 -0.015612740981176279 -0.011756198211661932 0 -0.015670044811417493 -0.011493222671104267 0 -0.015694070843293041 -0.011492628106856063 0 -0.015616506126087065 -0.011506567084281837 0 -0.015767289143886244 -0.011586989637688146 0 -0.015616506126087065 -0.011506567084281837 0 -0.015767289143886244 -0.011586989637688146 0 -0.015517855467715964 -0.011796532445451438 0 -0.015294907997213834 -0.011324402809906113 0 -0.015616506126087065 -0.011506567084281837 0 -0.015517855467715964 -0.011796532445451438 0 -0.015767289143886244 -0.011586989637688146 0 -0.015884616476754841 -0.011675191978105987 0 -0.015517855467715964 -0.011796532445451438 0 -0.016453301124929952 -0.011642680635324341 0 -0.015887418869740561 -0.010822140909150176 0 -0.015884874250618675 -0.011659906630073947 0 -0.015767289143886244 -0.011586989637688146 0 -0.015884616476754841 -0.011675191978105987 0 -0.016788232229517183 -0.011450893068936758 0 -0.016278848691325131 -0.011330052283614672 0 -0.016908792041144486 -0.011123341180080001 0 -0.016453301124929952 -0.011642680635324341 0 -0.015975024729153808 -0.011805434256831769 0 -0.015884874250618675 -0.011659906630073947 0 -0.015884616476754841 -0.011675191978105987 0 -0.015995961820136319 -0.01185007042582085 0 -0.016788232229517183 -0.011450893068936758 0 -0.016278848691325131 -0.011330052283614672 0 -0.015995961820136319 -0.01185007042582085 0 -0.015661213674394509 -0.012051585667626916 0 -0.015543293982241786 -0.012368558261741181 0 -0.015884874250618675 -0.011659906630073947 0 -0.015928954610143164 -0.011678746453493562 0 -0.015995961820136319 -0.01185007042582085 0 -0.015928954610143164 -0.011678746453493562 0 -0.015995961820136319 -0.01185007042582085 0 -0.015952069131404723 -0.011987259029895376 0 -0.015851084551019749 -0.012056521164806593 0 -0.015995961820136319 -0.01185007042582085 0 -0.015952069131404723 -0.011987259029895376 0 -0.015683173889248801 -0.012296598537262528 0 -0.015543293982241786 -0.012368558261741181 0 -0.015995961820136319 -0.01185007042582085 0 -0.015886366469054836 -0.011516624869131886 0 -0.015781211121966583 -0.011778612892452309 0 -0.015851084551019749 -0.012056521164806593 0 -0.015995961820136319 -0.01185007042582085 0 -0.015781211121966583 -0.011778612892452309 0 -0.016278848691325131 -0.011330052283614672 0 -0.015995961820136319 -0.01185007042582085 0 -0.015886366469054836 -0.011516624869131886 0 -0.016278848691325131 -0.011330052283614672 0 -0.015886366469054836 -0.011516624869131886 0 -0.015911662641521128 -0.011188481653513762 0 -0.014999809285508675 -0.011435737279866442 0 -0.015352756265571805 -0.012197307372273295 0 -0.014999760510316601 -0.012920431004194785 0 -0.015886366469054836 -0.011516624869131886 0 -0.01554988887381404 -0.011498260314525176 0 -0.015911662641521128 -0.011188481653513762 0 -0.015886366469054836 -0.011516624869131886 0 -0.01554988887381404 -0.011498260314525176 0 -0.015781211121966583 -0.011778612892452309 0 -0.01554988887381404 -0.011498260314525176 0 -0.014999809285508675 -0.011435737279866442 0 -0.015352756265571805 -0.012197307372273295 0 -0.01554988887381404 -0.011498260314525176 0 -0.015781211121966583 -0.011778612892452309 0 -0.015352756265571805 -0.012197307372273295 0 -0.015851084551019749 -0.012056521164806593 0 -0.015781211121966583 -0.011778612892452309 0 -0.015352756265571805 -0.012197307372273295 0 -0.015851084551019749 -0.012056521164806593 0 -0.015352756265571805 -0.012197307372273295 0 -0.015485485325185499 -0.012466327407322307 0 -0.015352756265571805 -0.012197307372273295 0 -0.015485485325185499 -0.012466327407322307 0 -0.015264233456046179 -0.012888815320803472 0 -0.015485485325185499 -0.012466327407322307 0 -0.015264233456046179 -0.012888815320803472 0 -0.015511011268366298 -0.012927122317385168 0 -0.015352756265571805 -0.012197307372273295 0 -0.014999760510316601 -0.012920431004194785 0 -0.015264233456046179 -0.012888815320803472 0 -0.015164485016120735 -0.013580910420669726 0 -0.014999760510316601 -0.012920431004194785 0 -0.015264233456046179 -0.012888815320803472 0 -0.015264233456046179 -0.012888815320803472 0 -0.015390686377029169 -0.013377196624228035 0 -0.015511011268366298 -0.012927122317385168 0 -0.015164485016120735 -0.013580910420669726 0 -0.015264233456046179 -0.012888815320803472 0 -0.015390686377029169 -0.013377196624228035 0 -0.015555577006733289 -0.013765833577325732 0 -0.015390686377029169 -0.013377196624228035 0 -0.015563163245884136 -0.013283725642970283 0 -0.015563163245884136 -0.013283725642970283 0 -0.015781072352189139 -0.01299415456873129 0 -0.015511011268366298 -0.012927122317385168 0 -0.015390686377029169 -0.013377196624228035 0 -0.015563163245884136 -0.013283725642970283 0 -0.015511011268366298 -0.012927122317385168 0 -0.015555577006733289 -0.013765833577325732 0 -0.015563163245884136 -0.013283725642970283 0 -0.015824379344362417 -0.013364321944005589 0 -0.015555577006733289 -0.013765833577325732 0 -0.016270077913520038 -0.013423605396869692 0 -0.015824379344362417 -0.013364321944005589 0 -0.016270077913520038 -0.013423605396869692 0 -0.015824379344362417 -0.013364321944005589 0 -0.015781072352189139 -0.01299415456873129 0 -0.015563163245884136 -0.013283725642970283 0 -0.015824379344362417 -0.013364321944005589 0 -0.015781072352189139 -0.01299415456873129 0 -0.015425647663012913 -0.012600062185214872 0 -0.015273120998742246 -0.012783236018943414 0 -0.014935057423705461 -0.012505744818656631 0 -0.015405292471479738 -0.012407540705227588 0 -0.015425647663012913 -0.012600062185214872 0 -0.014935057423705461 -0.012505744818656631 0 -0.015615327063344821 -0.012864017696384442 0 -0.015543293982241786 -0.012368558261741181 0 -0.015781072352189139 -0.01299415456873129 0 -0.015591776605951718 -0.012603551708442884 0 -0.015511011268366298 -0.012927122317385168 0 -0.015485485325185499 -0.012466327407322307 0 -0.015591776605951718 -0.012603551708442884 0 -0.015511011268366298 -0.012927122317385168 0 -0.015851084551019749 -0.012056521164806593 0 -0.015485485325185499 -0.012466327407322307 0 -0.016100808728296886 -0.012250957811951914 0 -0.015584399761386017 -0.012439046178562301 0 -0.015543293982241786 -0.012368558261741181 0 -0.0084543269281724485 -0.015971641745766898 0 -0.008269416065400978 -0.016181235319194701 0 -0.0081637144079728247 -0.015899210231538084 0 -0.0084543269281724485 -0.015971641745766898 0 -0.0085175903705513849 -0.01620649525199987 0 -0.008269416065400978 -0.016181235319194701 0 -0.0084543269281724485 -0.015971641745766898 0 -0.0086928554346254426 -0.016075242889663732 0 -0.0085175903705513849 -0.01620649525199987 0 -0.0086928554346254426 -0.016075242889663732 0 -0.0087038816345431681 -0.015835283602779901 0 -0.0089720307468361526 -0.015983748164534874 0 -0.0084543269281724485 -0.015971641745766898 0 -0.0086928554346254426 -0.016075242889663732 0 -0.0087038816345431681 -0.015835283602779901 0 -0.0084543269281724485 -0.015971641745766898 0 -0.0087038816345431681 -0.015835283602779901 0 -0.0084030567417667235 -0.015636143863466435 0 -0.0087038816345431681 -0.015835283602779901 0 -0.0084030567417667235 -0.015636143863466435 0 -0.0087282692021888406 -0.015606836498669769 0 -0.0080922029282751249 -0.015889716902862935 0 -0.0074110378575614764 -0.015486663722560259 0 -0.0084543269281724485 -0.015971641745766898 0 -0.0084030567417667235 -0.015636143863466435 0 -0.0081637144079728247 -0.015899210231538084 0 -0.0077905854103667502 -0.015985283000268729 0 -0.0082364625796013131 -0.015485022518782855 0 -0.0074404719353130975 -0.01545234726517644 0 -0.0077682273674026516 -0.014999985742770498 0 -0.0082364625796013131 -0.015485022518782855 0 -0.0074404719353130975 -0.01545234726517644 0 -0.0077682273674026516 -0.014999985742770498 0 -0.0082364625796013131 -0.015485022518782855 0 -0.0086699230413688974 -0.015000000507786529 0 -0.0080922029282751249 -0.015889716902862935 0 -0.0084154057040057503 -0.015401430563025247 0 -0.0084030567417667235 -0.015636143863466435 0 -0.0085832463031887078 -0.015364608983195903 0 -0.0087282692021888406 -0.015606836498669769 0 -0.0087282692021888406 -0.015606836498669769 0 -0.0089600806400423356 -0.015448200782989014 0 -0.0089768175002658112 -0.015784608341927447 0 -0.0085832463031887078 -0.015364608983195903 0 -0.0087282692021888406 -0.015606836498669769 0 -0.0089600806400423356 -0.015448200782989014 0 -0.0084154057040057503 -0.015401430563025247 0 -0.0086699128550132426 -0.015000096760983996 0 -0.0085832463031887078 -0.015364608983195903 0 -0.0089600806400423356 -0.015448200782989014 0 -0.0086705880597396714 -0.015000004737511291 0 -0.0089600806400423356 -0.015448200782989014 0 -0.0086705880597396714 -0.015000004737511291 0 -0.0095070898360763989 -0.014999928365930323 0 -0.0089600806400423356 -0.015448200782989014 0 -0.0094653338583738263 -0.015520535588032038 0 -0.0095070898360763989 -0.014999928365930323 0 -0.0089600806400423356 -0.015448200782989014 0 -0.0093379685854132234 -0.015813581658944045 0 -0.0094653338583738263 -0.015520535588032038 0 -0.0093379685854132234 -0.015813581658944045 0 -0.0092074788694687972 -0.015961382726863597 0 -0.0095166876989175343 -0.016016159656166203 0 -0.0093379685854132234 -0.015813581658944045 0 -0.0089768175002658112 -0.015784608341927447 0 -0.0092074788694687972 -0.015961382726863597 0 -0.0089600806400423356 -0.015448200782989014 0 -0.0093379685854132234 -0.015813581658944045 0 -0.0089768175002658112 -0.015784608341927447 0 -0.0087038816345431681 -0.015835283602779901 0 -0.0087282692021888406 -0.015606836498669769 0 -0.0089768175002658112 -0.015784608341927447 0 -0.0087038816345431681 -0.015835283602779901 0 -0.0089768175002658112 -0.015784608341927447 0 -0.0089720307468361526 -0.015983748164534874 0 -0.0089768175002658112 -0.015784608341927447 0 -0.0089720307468361526 -0.015983748164534874 0 -0.0092074788694687972 -0.015961382726863597 0 -0.0089720307468361526 -0.015983748164534874 0 -0.0092074788694687972 -0.015961382726863597 0 -0.0092107009000887089 -0.016154865069035563 0 -0.0092074788694687972 -0.015961382726863597 0 -0.0095166876989175343 -0.016016159656166203 0 -0.0092107009000887089 -0.016154865069035563 0 -0.0097812210373199246 -0.015641978823994467 0 -0.0092447289701663056 -0.016119235363874176 0 -0.010022331667310199 -0.015253006022825999 0 -0.010479878781338036 -0.015819861634078447 0 -0.0092107009000887089 -0.016154865069035563 0 -0.013003648779458825 -0.013730467238787908 0 -0.013605312662257807 -0.013131897698187379 0 -0.015668537826510027 -0.011599728164135872 0 -0.015601140797374303 -0.01188065952775141 0 -0.01559606243089757 -0.01168522185889815 0 -0.010022331667310199 -0.015253006022825999 0 -0.010479878781338036 -0.015819861634078447 0 -0.011369568851709425 -0.014727615527661048 0 -0.010022331667310199 -0.015253006022825999 0 -0.010993015762762046 -0.014326325328437566 0 -0.011369568851709425 -0.014727615527661048 0 -0.0097812210373199246 -0.015641978823994467 0 -0.010533145947710732 -0.014990051737506496 0 -0.0093379685854132234 -0.015813581658944045 0 -0.0095166876989175343 -0.016016159656166203 0 -0.0096557068185291091 -0.015715855119120398 0 -0.0095166876989175343 -0.016016159656166203 0 -0.0096557068185291091 -0.015715855119120398 0 -0.010097839445012993 -0.015747969829560469 0 -0.0093379685854132234 -0.015813581658944045 0 -0.0096557068185291091 -0.015715855119120398 0 -0.0094653338583738263 -0.015520535588032038 0 -0.0096557068185291091 -0.015715855119120398 0 -0.0094653338583738263 -0.015520535588032038 0 -0.009903793024676321 -0.015421354743630215 0 -0.0094653338583738263 -0.015520535588032038 0 -0.0095070898360763989 -0.014999928365930323 0 -0.009903793024676321 -0.015421354743630215 0 -0.0095070898360763989 -0.014999928365930323 0 -0.009903793024676321 -0.015421354743630215 0 -0.010344480498189769 -0.014999922303761735 0 -0.009903793024676321 -0.015421354743630215 0 -0.010349712454021298 -0.015379146547338681 0 -0.010344480498189769 -0.014999922303761735 0 -0.009903793024676321 -0.015421354743630215 0 -0.010097839445012993 -0.015747969829560469 0 -0.010349712454021298 -0.015379146547338681 0 -0.0096557068185291091 -0.015715855119120398 0 -0.009903793024676321 -0.015421354743630215 0 -0.010097839445012993 -0.015747969829560469 0 -0.010097839445012993 -0.015747969829560469 0 -0.010349712454021298 -0.015379146547338681 0 -0.01075588061473687 -0.015334375235260975 0 -0.010993015762762046 -0.014326325328437566 0 -0.011978022476154775 -0.013418766566094944 0 -0.012227437141475436 -0.013611567138443324 0 -0.010993015762762046 -0.014326325328437566 0 -0.012227437141475436 -0.013611567138443324 0 -0.011369568851709425 -0.014727615527661048 0 -0.010533145947710732 -0.014990051737506496 0 -0.011551544314764874 -0.014646341730417008 0 -0.01333406614889329 -0.013620288384902483 0 -0.013605312662257807 -0.013131897698187379 0 -0.010344480498189769 -0.014999922303761735 0 -0.011181813453484075 -0.015000002382929437 0 -0.01075588061473687 -0.015334375235260975 0 -0.010349712454021298 -0.015379146547338681 0 -0.010344480498189769 -0.014999922303761735 0 -0.01075588061473687 -0.015334375235260975 0 -0.011460134779281862 -0.015347640059734883 0 -0.011212238241620593 -0.015256969256595587 0 -0.011040457041288984 -0.015400260738926896 0 -0.011182265111001856 -0.014999952314843952 0 -0.010925055998613615 -0.015304763099057407 0 -0.011212238241620593 -0.015256969256595587 0 -0.0111811141517339 -0.01500069713946081 0 -0.011551544314764874 -0.014646341730417008 0 -0.010925055998613615 -0.015304763099057407 0 -0.011212238241620593 -0.015256969256595587 0 -0.011040457041288984 -0.015400260738926896 0 -0.011551544314764874 -0.014646341730417008 0 -0.01333406614889329 -0.013620288384902483 0 -0.015293335810131486 -0.011949346384151266 0 -0.015447159656131736 -0.012099819260095545 0 -0.015464445942290791 -0.011828018384582483 0 -0.015447159656131736 -0.012099819260095545 0 -0.015464445942290791 -0.011828018384582483 0 -0.015601140797374303 -0.01188065952775141 0 -0.015464445942290791 -0.011828018384582483 0 -0.015601140797374303 -0.01188065952775141 0 -0.01559606243089757 -0.01168522185889815 0 -0.015464445942290791 -0.011828018384582483 0 -0.01559606243089757 -0.01168522185889815 0 -0.015510509625934466 -0.011669953458695492 0 -0.01534181178912372 -0.011701977577383938 0 -0.015464445942290791 -0.011828018384582483 0 -0.015510509625934466 -0.011669953458695492 0 -0.01534181178912372 -0.011701977577383938 0 -0.015510509625934466 -0.011669953458695492 0 -0.015500162914503415 -0.011537541307856869 0 -0.015510509625934466 -0.011669953458695492 0 -0.015618061208644073 -0.011584866863828451 0 -0.015500162914503415 -0.011537541307856869 0 -0.01559606243089757 -0.01168522185889815 0 -0.015510509625934466 -0.011669953458695492 0 -0.015618061208644073 -0.011584866863828451 0 -0.01559606243089757 -0.01168522185889815 0 -0.015618061208644073 -0.011584866863828451 0 -0.015647475353465754 -0.011614135083731148 0 -0.015618061208644073 -0.011584866863828451 0 -0.015663388846887699 -0.011452580167314283 0 -0.015595549800713836 -0.011496021181673999 0 -0.015618061208644073 -0.011584866863828451 0 -0.015595549800713836 -0.011496021181673999 0 -0.015500162914503415 -0.011537541307856869 0 -0.015618061208644073 -0.011584866863828451 0 -0.015663388846887699 -0.011452580167314283 0 -0.015662790068170514 -0.011509217317688676 0 -0.015663388846887699 -0.011452580167314283 0 -0.015595549800713836 -0.011496021181673999 0 -0.015592001792347376 -0.011404735928113174 0 -0.015500162914503415 -0.011537541307856869 0 -0.015503799737062457 -0.011354787652372841 0 -0.015592001792347376 -0.011404735928113174 0 -0.015595549800713836 -0.011496021181673999 0 -0.015500162914503415 -0.011537541307856869 0 -0.015592001792347376 -0.011404735928113174 0 -0.015395214923158717 -0.011414076051783021 0 -0.015500162914503415 -0.011537541307856869 0 -0.015503799737062457 -0.011354787652372841 0 -0.015503799737062457 -0.011354787652372841 0 -0.015592001792347376 -0.011404735928113174 0 -0.01558513677336131 -0.011205246126545672 0 -0.015592001792347376 -0.011404735928113174 0 -0.01558513677336131 -0.011205246126545672 0 -0.015681143208141235 -0.011290847423939146 0 -0.015417555855403364 -0.011269505568936227 0 -0.015503799737062457 -0.011354787652372841 0 -0.01558513677336131 -0.011205246126545672 0 -0.015417555855403364 -0.011269505568936227 0 -0.015485376445792221 -0.010957547470964795 0 -0.01558513677336131 -0.011205246126545672 0 -0.015485376445792221 -0.010957547470964795 0 -0.01558513677336131 -0.011205246126545672 0 -0.015644386987556873 -0.010947882817773282 0 -0.01558513677336131 -0.011205246126545672 0 -0.015719213475654695 -0.011089266559391813 0 -0.015681143208141235 -0.011290847423939146 0 -0.01558513677336131 -0.011205246126545672 0 -0.015644386987556873 -0.010947882817773282 0 -0.015719213475654695 -0.011089266559391813 0 -0.015485376445792221 -0.010957547470964795 0 -0.015644386987556873 -0.010947882817773282 0 -0.015650224020244873 -0.010600606383996375 0 -0.015522990441733475 -0.011224234448074308 0 -0.015477120491395241 -0.010331710892432275 0 -0.015719213475654695 -0.011089266559391813 0 -0.015830461969804945 -0.011258820378301344 0 -0.015839563031675087 -0.010740932168944953 0 -0.015233356656715628 -0.01110427352967581 0 -0.015251261912689098 -0.010806245942292996 0 -0.014931007260917614 -0.010543480767517779 0 -0.015644386987556873 -0.010947882817773282 0 -0.015719213475654695 -0.011089266559391813 0 -0.015839563031675087 -0.010740932168944953 0 -0.015663388846887699 -0.011452580167314283 0 -0.015830461969804945 -0.011258820378301344 0 -0.015662790068170514 -0.011509217317688676 0 -0.015719213475654695 -0.011089266559391813 0 -0.015681143208141235 -0.011290847423939146 0 -0.015830461969804945 -0.011258820378301344 0 -0.015663388846887699 -0.011452580167314283 0 -0.015681143208141235 -0.011290847423939146 0 -0.015830461969804945 -0.011258820378301344 0 -0.015663388846887699 -0.011452580167314283 0 -0.015592001792347376 -0.011404735928113174 0 -0.015681143208141235 -0.011290847423939146 0 -0.015830461969804945 -0.011258820378301344 0 -0.015662790068170514 -0.011509217317688676 0 -0.01560760485910965 -0.011572961719678801 0 -0.015558245160991212 -0.011214765422595823 0 -0.015233356656715628 -0.01110427352967581 0 -0.01560760485910965 -0.011572961719678801 0 -0.015522990441733475 -0.011224234448074308 0 -0.015600848447551954 -0.011501384340179069 0 -0.015558245160991212 -0.011214765422595823 0 -0.015233356656715628 -0.01110427352967581 0 -0.015499920351955587 -0.011000293176384447 0 -0.015830722034753223 -0.011686956450602226 0 -0.01336475976805517 -0.0089533378246406548 0 -0.015499920351955587 -0.011000293176384447 0 -0.015251261912689098 -0.010806245942292996 0 -0.015333914400258278 -0.010573612868449572 0 -0.015499920351955587 -0.011000293176384447 0 -0.015607206878835328 -0.010883997252340417 0 -0.01533832786230626 -0.010683709629840993 0 -0.015233356656715628 -0.01110427352967581 0 -0.015499920351955587 -0.011000293176384447 0 -0.015251261912689098 -0.010806245942292996 0 -0.015744355878945359 -0.010858460760093436 0 -0.015607206878835328 -0.010883997252340417 0 -0.015706647291227824 -0.010944969210876409 0 -0.015744355878945359 -0.010858460760093436 0 -0.015706647291227824 -0.010944969210876409 0 -0.015820393966343663 -0.010904496819764669 0 -0.01460744648247741 -0.011716534111118834 0 -0.01404830340206562 -0.011667448078026322 0 -0.015744355878945359 -0.010858460760093436 0 -0.015607206878835328 -0.010883997252340417 0 -0.015622978417698063 -0.010724423296817148 0 -0.015499920351955587 -0.011000293176384447 0 -0.015607206878835328 -0.010883997252340417 0 -0.015685515707266718 -0.011082603809993348 0 -0.015607206878835328 -0.010883997252340417 0 -0.015685515707266718 -0.011082603809993348 0 -0.015706647291227824 -0.010944969210876409 0 -0.015685515707266718 -0.011082603809993348 0 -0.015706647291227824 -0.010944969210876409 0 -0.015820393966343663 -0.010904496819764669 0 -0.015426482755623796 -0.012184478471437117 0 -0.015250489899580407 -0.011771521964313534 0 -0.015084646427954327 -0.012322358078170715 0 -0.015558245160991212 -0.011214765422595823 0 -0.015735114327588121 -0.011300446229730697 0 -0.01560760485910965 -0.011572961719678801 0 -0.015685515707266718 -0.011082603809993348 0 -0.015735114327588121 -0.011300446229730697 0 -0.015820393966343663 -0.010904496819764669 0 -0.01568842914046412 -0.011712313613603517 0 -0.01404830340206562 -0.011667448078026322 0 -0.015426482755623796 -0.012184478471437117 0 -0.015084646427954327 -0.012322358078170715 0 -0.015110966901311253 -0.012870869710873251 0 -0.015558245160991212 -0.011214765422595823 0 -0.015499920351955587 -0.011000293176384447 0 -0.015685515707266718 -0.011082603809993348 0 -0.015558245160991212 -0.011214765422595823 0 -0.015685515707266718 -0.011082603809993348 0 -0.015735114327588121 -0.011300446229730697 0 -0.015735114327588121 -0.011300446229730697 0 -0.015615614903771047 -0.011675078202231444 0 -0.01560760485910965 -0.011572961719678801 0 -0.01568842914046412 -0.011712313613603517 0 -0.015587783459816009 -0.011707138510939141 0 -0.015426482755623796 -0.012184478471437117 0 -0.015250489899580407 -0.011771521964313534 0 -0.015615614903771047 -0.011675078202231444 0 -0.015618061208644073 -0.011584866863828451 0 -0.015662790068170514 -0.011509217317688676 0 -0.015637196563149214 -0.011597532772820367 0 -0.015662790068170514 -0.011509217317688676 0 -0.015637196563149214 -0.011597532772820367 0 -0.01560760485910965 -0.011572961719678801 0 -0.015637196563149214 -0.011597532772820367 0 -0.015615614903771047 -0.011675078202231444 0 -0.01560760485910965 -0.011572961719678801 0 -0.015637196563149214 -0.011597532772820367 0 -0.015615614903771047 -0.011675078202231444 0 -0.015647475353465754 -0.011614135083731148 0 -0.015668537826510027 -0.011599728164135872 0 -0.015615614903771047 -0.011675078202231444 0 -0.015647475353465754 -0.011614135083731148 0 -0.015668537826510027 -0.011599728164135872 0 -0.01559606243089757 -0.01168522185889815 0 -0.015647475353465754 -0.011614135083731148 0 -0.015618061208644073 -0.011584866863828451 0 -0.015637196563149214 -0.011597532772820367 0 -0.015647475353465754 -0.011614135083731148 0 -0.015668537826510027 -0.011599728164135872 0 -0.015250489899580407 -0.011771521964313534 0 -0.015615614903771047 -0.011675078202231444 0 -0.013003648779458825 -0.013730467238787908 0 -0.012701865039241794 -0.014353320228765691 0 -0.010479878781338036 -0.015819861634078447 0 -0.0096839634310661778 -0.016638329687571302 0 -0.0092107009000887089 -0.016154865069035563 0 -0.0092107009000887089 -0.016154865069035563 0 -0.0091095406296317297 -0.016611537465219643 0 -0.0088063492797186213 -0.016332286635858655 0 -0.0086928554346254426 -0.016075242889663732 0 -0.0089720307468361526 -0.015983748164534874 0 -0.0088063492797186213 -0.016332286635858655 0 -0.0089720307468361526 -0.015983748164534874 0 -0.0092107009000887089 -0.016154865069035563 0 -0.0088063492797186213 -0.016332286635858655 0 -0.0091095406296317297 -0.016611537465219643 0 -0.0087470209543004732 -0.016796539059210299 0 -0.0088063492797186213 -0.016332286635858655 0 -0.0096839634310661778 -0.016638329687571302 0 -0.0092107009000887089 -0.016154865069035563 0 -0.0091095406296317297 -0.016611537465219643 0 -0.0096839634310661778 -0.016638329687571302 0 -0.0091095406296317297 -0.016611537465219643 0 -0.0091847366210706521 -0.017113855491246905 0 -0.015250489899580407 -0.011771521964313534 0 -0.015084646427954327 -0.012322358078170715 0 -0.014558462992518353 -0.012505543491766798 0 -0.012701865039241794 -0.014353320228765691 0 -0.010250788976493622 -0.013674117403751259 0 -0.015084646427954327 -0.012322358078170715 0 -0.015110966901311253 -0.012870869710873251 0 -0.014558462992518353 -0.012505543491766798 0 -0.01404830340206562 -0.011667448078026322 0 -0.010250788976493622 -0.013674117403751259 0 -0.0094420729327785082 -0.012872668974308426 0 -0.0097314151634856037 -0.012841421014143361 0 -0.0093786034770652702 -0.012624919107208024 0 -0.0094420729327785082 -0.012872668974308426 0 -0.0092654033589003766 -0.013007958825703892 0 -0.0096254912099020731 -0.013044850268246611 0 -0.01404830340206562 -0.011667448078026322 0 -0.0099947707047245357 -0.010424415276402057 0 -0.0094420729327785082 -0.012872668974308426 0 -0.0097314151634856037 -0.012841421014143361 0 -0.0096254912099020731 -0.013044850268246611 0 -0.015744355878945359 -0.010858460760093436 0 -0.015777402480280613 -0.010884750989374936 0 -0.015816683878254325 -0.010771527697396609 0 -0.0092251948610871139 -0.01283394031111143 0 -0.0090712030842194404 -0.012808344835628793 0 -0.009015104894252373 -0.012959952517499689 0 -0.0092251948610871139 -0.01283394031111143 0 -0.009015104894252373 -0.012959952517499689 0 -0.0092654033589003766 -0.013007958825703892 0 -0.0094420729327785082 -0.012872668974308426 0 -0.0092251948610871139 -0.01283394031111143 0 -0.0092654033589003766 -0.013007958825703892 0 -0.0096317511517655715 -0.013037219450959085 0 -0.010250788976493622 -0.013674117403751259 0 -0.0092251948610871139 -0.01283394031111143 0 -0.0091208876204416402 -0.012729003037287887 0 -0.0092978310384185421 -0.012737101970686514 0 -0.0094420729327785082 -0.012872668974308426 0 -0.0092251948610871139 -0.01283394031111143 0 -0.0093786034770652702 -0.012624919107208024 0 -0.0092251948610871139 -0.01283394031111143 0 -0.0091208876204416402 -0.012729003037287887 0 -0.0090712030842194404 -0.012808344835628793 0 -0.0091095406296317297 -0.016611537465219643 0 -0.0091847366210706521 -0.017113855491246905 0 -0.0087470209543004732 -0.016796539059210299 0 -0.0091208876204416402 -0.012729003037287887 0 -0.0092978310384185421 -0.012737101970686514 0 -0.009051412577837932 -0.012597104105551793 0 -0.010250788976493622 -0.013674117403751259 0 -0.0089651685995875193 -0.014928014174524265 0 -0.009051412577837932 -0.012597104105551793 0 -0.0089318340227622587 -0.012688159302594192 0 -0.0088337075934875366 -0.012478212716546965 0 -0.0091208876204416402 -0.012729003037287887 0 -0.009051412577837932 -0.012597104105551793 0 -0.0089318340227622587 -0.012688159302594192 0 -0.0091208876204416402 -0.012729003037287887 0 -0.0089318340227622587 -0.012688159302594192 0 -0.0090712030842194404 -0.012808344835628793 0 -0.0067543518953898131 -0.011941672854937054 0 -0.0068424343099492864 -0.011478086992441718 0 -0.00650332693591425 -0.011148283881813444 0 -0.0089318340227622587 -0.012688159302594192 0 -0.0090712030842194404 -0.012808344835628793 0 -0.009015104894252373 -0.012959952517499689 0 -0.0078514278611772313 -0.012227271228431664 0 -0.0074271945378922687 -0.011642891267239833 0 -0.0067085159627621 -0.011162144952986912 0 -0.0068424343099492864 -0.011478086992441718 0 -0.00650332693591425 -0.011148283881813444 0 -0.0071861718638430031 -0.011454954431145021 0 -0.0070425204761755062 -0.011154896263342644 0 -0.0074613236626264361 -0.011114561268955721 0 -0.0071861718638430031 -0.011454954431145021 0 -0.0068424343099492864 -0.011478086992441718 0 -0.0070425204761755062 -0.011154896263342644 0 -0.0067085159627621 -0.011162144952986912 0 -0.0068424343099492864 -0.011478086992441718 0 -0.0070425204761755062 -0.011154896263342644 0 -0.0067543518953898131 -0.011941672854937054 0 -0.0068424343099492864 -0.011478086992441718 0 -0.0072048170874028841 -0.011803884896753601 0 -0.0071861718638430031 -0.011454954431145021 0 -0.0068424343099492864 -0.011478086992441718 0 -0.0072048170874028841 -0.011803884896753601 0 -0.0071861718638430031 -0.011454954431145021 0 -0.0072048170874028841 -0.011803884896753601 0 -0.0074355943029762823 -0.011562079115681738 0 -0.0072048170874028841 -0.011803884896753601 0 -0.0072362696883455794 -0.012224492000072149 0 -0.007527723720068681 -0.011886992201420409 0 -0.0067543518953898131 -0.011941672854937054 0 -0.0072362696883455794 -0.012224492000072149 0 -0.0070540308657196203 -0.012701871668883889 0 -0.0067543518953898131 -0.011941672854937054 0 -0.0072048170874028841 -0.011803884896753601 0 -0.0072362696883455794 -0.012224492000072149 0 -0.0078514278611772313 -0.012227271228431664 0 -0.0079862273699234411 -0.013554675544142553 0 -0.0072362696883455794 -0.012224492000072149 0 -0.0070540308657196203 -0.012701871668883889 0 -0.0076048818407038372 -0.012537697639467629 0 -0.0089651685995875193 -0.014928014174524265 0 -0.0079862273699234411 -0.013554675544142553 0 -0.0087470209543004732 -0.016796539059210299 0 -0.0083702993058973277 -0.016497893670239069 0 -0.0088063492797186213 -0.016332286635858655 0 -0.0083702993058973277 -0.016497893670239069 0 -0.0088063492797186213 -0.016332286635858655 0 -0.0085175903705513849 -0.01620649525199987 0 -0.0086928554346254426 -0.016075242889663732 0 -0.0088063492797186213 -0.016332286635858655 0 -0.0085175903705513849 -0.01620649525199987 0 -0.0083702993058973277 -0.016497893670239069 0 -0.0085175903705513849 -0.01620649525199987 0 -0.008269416065400978 -0.016181235319194701 0 -0.0079862273699234411 -0.013554675544142553 0 -0.0078448193620344591 -0.014776556128131521 0 -0.0072505988505106589 -0.007530772098070836 0 -0.006317433148946108 -0.0069772077986271818 0 -0.0068780378297355277 -0.0080573898397955767 0 -0.0063114863680614587 -0.0069772917632096162 0 -0.0063962616021651158 -0.0076404373483735825 0 -0.0072505988505106589 -0.007530772098070836 0 -0.0076945377689575855 -0.0079905205809868811 0 -0.0079323432855019325 -0.0074955509307792776 0 -0.0072505988505106589 -0.007530772098070836 0 -0.0076945377689575855 -0.0079905205809868811 0 -0.0068780378297355277 -0.0080573898397955767 0 -0.0072505988505106589 -0.007530772098070836 0 -0.0070008746506308598 -0.0069408181513839857 0 -0.0079323432855019325 -0.0074955509307792776 0 -0.0069448433438627976 -0.008581464940906924 0 -0.0072446433995379126 -0.0083149551752020566 0 -0.0068796648603769153 -0.010099709817714629 0 -0.0066724469134666663 -0.010314527805470403 0 -0.0063852136601700773 -0.0097833132055404216 0 -0.0072505988505106589 -0.007530772098070836 0 -0.0070008746506308598 -0.0069408181513839857 0 -0.006317433148946108 -0.0069772077986271818 0 -0.0068796648603769153 -0.010099709817714629 0 -0.0070082708099366512 -0.010531301592988011 0 -0.0074976675770659961 -0.010473698430925495 0 -0.0069448433438627976 -0.008581464940906924 0 -0.0068616763430568292 -0.0084431655439577129 0 -0.0070008746506308598 -0.0069408181513839857 0 -0.006317433148946108 -0.0069772077986271818 0 -0.0061057471893601637 -0.0065829960282742751 0 -0.0070082708099366512 -0.010531301592988011 0 -0.0071704795804940717 -0.010851199706140326 0 -0.0074976675770659961 -0.010473698430925495 0 -0.0070082708099366512 -0.010531301592988011 0 -0.0071704795804940717 -0.010851199706140326 0 -0.0068942081397249206 -0.010866962804705583 0 -0.0071704795804940717 -0.010851199706140326 0 -0.0068942081397249206 -0.010866962804705583 0 -0.0070425204761755062 -0.011154896263342644 0 -0.0067085159627621 -0.011162144952986912 0 -0.0068942081397249206 -0.010866962804705583 0 -0.0070425204761755062 -0.011154896263342644 0 -0.0071704795804940717 -0.010851199706140326 0 -0.0070425204761755062 -0.011154896263342644 0 -0.0074613236626264361 -0.011114561268955721 0 -0.0074271945378922687 -0.011642891267239833 0 -0.006168684876828901 -0.010130391017229075 0 -0.0065517968906200277 -0.011132231620777346 0 -0.006651832464359392 -0.010833879325972254 0 -0.006405026041603072 -0.010408567618733676 0 -0.0067085159627621 -0.011162144952986912 0 -0.0065517968906200277 -0.011132231620777346 0 -0.006651832464359392 -0.010833879325972254 0 -0.0068764063793226729 -0.011486436680037184 0 -0.0074271945378922687 -0.011642891267239833 0 -0.0067085159627621 -0.011162144952986912 0 -0.0068942081397249206 -0.010866962804705583 0 -0.006651832464359392 -0.010833879325972254 0 -0.0068942081397249206 -0.010866962804705583 0 -0.006651832464359392 -0.010833879325972254 0 -0.0067279251976141881 -0.010614904665862519 0 -0.0070082708099366512 -0.010531301592988011 0 -0.0068942081397249206 -0.010866962804705583 0 -0.0067279251976141881 -0.010614904665862519 0 -0.006651832464359392 -0.010833879325972254 0 -0.0067279251976141881 -0.010614904665862519 0 -0.006405026041603072 -0.010408567618733676 0 -0.0067279251976141881 -0.010614904665862519 0 -0.0066724469134666663 -0.010314527805470403 0 -0.006405026041603072 -0.010408567618733676 0 -0.0070082708099366512 -0.010531301592988011 0 -0.0067279251976141881 -0.010614904665862519 0 -0.0066724469134666663 -0.010314527805470403 0 -0.0068796648603769153 -0.010099709817714629 0 -0.0070082708099366512 -0.010531301592988011 0 -0.0066724469134666663 -0.010314527805470403 0 -0.0061842906098698519 -0.010339793821925259 0 -0.006405026041603072 -0.010408567618733676 0 -0.0062902674103337535 -0.010581145162275261 0 -0.0065719478770048167 -0.010783637587384773 0 -0.006405026041603072 -0.010408567618733676 0 -0.0062902674103337535 -0.010581145162275261 0 -0.0065719478770048167 -0.010783637587384773 0 -0.0062902674103337535 -0.010581145162275261 0 -0.0063113889819447523 -0.010755600676280933 0 -0.0062902674103337535 -0.010581145162275261 0 -0.0063113889819447523 -0.010755600676280933 0 -0.0060850311710824037 -0.010732626000419795 0 -0.0074271945378922687 -0.011642891267239833 0 -0.0075564939704854204 -0.01179647670629458 0 -0.0068948582490084278 -0.0085843247235715073 0 -0.0099947707047245357 -0.010424415276402057 0 -0.0081883396052811804 -0.0071452510315954867 0 -0.0085120659857434913 -0.0065069603384209874 0 -0.0087120755751329496 -0.0068817392147418818 0 -0.0061842906098698519 -0.010339793821925259 0 -0.0062902674103337535 -0.010581145162275261 0 -0.0060850311710824037 -0.010732626000419795 0 -0.0075564939704854204 -0.01179647670629458 0 -0.0099947707047245357 -0.010424415276402057 0 -0.0081883396052811804 -0.0071452510315954867 0 -0.0088150262454337013 -0.0072886198307807624 0 -0.0087120755751329496 -0.0068817392147418818 0 -0.0081883396052811804 -0.0071452510315954867 0 -0.0083201559312545085 -0.007532368258515448 0 -0.0088150262454337013 -0.0072886198307807624 0 -0.0083201559312545085 -0.007532368258515448 0 -0.0086930101421369387 -0.0076721840822791135 0 -0.0088150262454337013 -0.0072886198307807624 0 -0.0083201559312545085 -0.007532368258515448 0 -0.0083668651503900678 -0.0077383938809938383 0 -0.0086930101421369387 -0.0076721840822791135 0 -0.0083201559312545085 -0.007532368258515448 0 -0.0081617589339093126 -0.0077128633741835846 0 -0.0083668651503900678 -0.0077383938809938383 0 -0.0083201559312545085 -0.007532368258515448 0 -0.0081617589339093126 -0.0077128633741835846 0 -0.007891708941140798 -0.0077131828751726694 0 -0.0081883396052811804 -0.0071452510315954867 0 -0.0083201559312545085 -0.007532368258515448 0 -0.007891708941140798 -0.0077131828751726694 0 -0.0068948582490084278 -0.0085843247235715073 0 -0.0072446433995379126 -0.0083149551752020566 0 -0.0061842906098698519 -0.010339793821925259 0 -0.006405026041603072 -0.010408567618733676 0 -0.0063852136601700773 -0.0097833132055404216 0 -0.0066724469134666663 -0.010314527805470403 0 -0.006405026041603072 -0.010408567618733676 0 -0.0063852136601700773 -0.0097833132055404216 0 -0.0081617589339093126 -0.0077128633741835846 0 -0.007891708941140798 -0.0077131828751726694 0 -0.0079622208015366382 -0.007753385026064482 0 -0.0081617589339093126 -0.0077128633741835846 0 -0.0080879138934567517 -0.0078073693051840063 0 -0.0079622208015366382 -0.007753385026064482 0 -0.0080879138934567517 -0.0078073693051840063 0 -0.0079622208015366382 -0.007753385026064482 0 -0.0080015050823711922 -0.0079175866328622824 0 -0.0081617589339093126 -0.0077128633741835846 0 -0.0080879138934567517 -0.0078073693051840063 0 -0.0081982045343227273 -0.007874109991488536 0 -0.0076945377689575855 -0.0079905205809868811 0 -0.0078916687227031466 -0.0077064361260993459 0 -0.0079622208015366382 -0.007753385026064482 0 -0.0072446433995379126 -0.0083149551752020566 0 -0.0073696231906545456 -0.0082874543675190877 0 -0.0076945377689575855 -0.0079905205809868811 0 -0.0080015050823711922 -0.0079175866328622824 0 -0.0081103321329616621 -0.0080873192140019298 0 -0.007804876231913959 -0.0076940406529195518 0 -0.0072446433995379126 -0.0083149551752020566 0 -0.0076945377689575855 -0.0079905205809868811 0 -0.0079622208015366382 -0.007753385026064482 0 -0.0080015050823711922 -0.0079175866328622824 0 -0.0080015050823711922 -0.0079175866328622824 0 -0.0081982045343227273 -0.007874109991488536 0 -0.0081103321329616621 -0.0080873192140019298 0 -0.0080879138934567517 -0.0078073693051840063 0 -0.0080015050823711922 -0.0079175866328622824 0 -0.0081982045343227273 -0.007874109991488536 0 -0.0083145554559357834 -0.0080405590451081005 0 -0.0081982045343227273 -0.007874109991488536 0 -0.0081103321329616621 -0.0080873192140019298 0 -0.0083145554559357834 -0.0080405590451081005 0 -0.0081982045343227273 -0.007874109991488536 0 -0.008471593272993223 -0.0078939659932237422 0 -0.0083145554559357834 -0.0080405590451081005 0 -0.008471593272993223 -0.0078939659932237422 0 -0.0085101486057274894 -0.008119437917117096 0 -0.008471593272993223 -0.0078939659932237422 0 -0.0086969437903029294 -0.0079480662294474248 0 -0.0085101486057274894 -0.008119437917117096 0 -0.008471593272993223 -0.0078939659932237422 0 -0.0083668651503900678 -0.0077383938809938383 0 -0.0086930101421369387 -0.0076721840822791135 0 -0.0081982045343227273 -0.007874109991488536 0 -0.008471593272993223 -0.0078939659932237422 0 -0.0083668651503900678 -0.0077383938809938383 0 -0.0081617589339093126 -0.0077128633741835846 0 -0.0081982045343227273 -0.007874109991488536 0 -0.0083668651503900678 -0.0077383938809938383 0 -0.0086969437903029294 -0.0079480662294474248 0 -0.0090763005744836679 -0.007765229821974552 0 -0.0087348934357810697 -0.008283594950655988 0 -0.0091822137711719681 -0.0078549965827171813 0 -0.0086235508899699439 -0.0083012403300026516 0 -0.0086969437903029294 -0.0079480662294474248 0 -0.0090763005744836679 -0.007765229821974552 0 -0.0086930101421369387 -0.0076721840822791135 0 -0.008471593272993223 -0.0078939659932237422 0 -0.0086969437903029294 -0.0079480662294474248 0 -0.0086930101421369387 -0.0076721840822791135 0 -0.0096528589942468119 -0.0083034637453192062 0 -0.0092301536756340917 -0.0079388769633893172 0 -0.009730526818117367 -0.0074943188922511452 0 -0.0096528589942468119 -0.0083034637453192062 0 -0.0092301536756340917 -0.0079388769633893172 0 -0.0089283699339128466 -0.0086193917725155712 0 -0.0092301536756340917 -0.0079388769633893172 0 -0.0095099880066321398 -0.0071953036242074697 0 -0.009730526818117367 -0.0074943188922511452 0 -0.0090763005744836679 -0.007765229821974552 0 -0.0090441298216837728 -0.0074509714092203423 0 -0.0095099880066321398 -0.0071953036242074697 0 -0.0091822137711719681 -0.0078549965827171813 0 -0.00948100405121894 -0.0072178858087524117 0 -0.0090441298216837728 -0.0074509714092203423 0 -0.0088150262454337013 -0.0072886198307807624 0 -0.0091488406008631024 -0.0072223785321896827 0 -0.0090763005744836679 -0.007765229821974552 0 -0.0090441298216837728 -0.0074509714092203423 0 -0.0086930101421369387 -0.0076721840822791135 0 -0.0090441298216837728 -0.0074509714092203423 0 -0.0086930101421369387 -0.0076721840822791135 0 -0.0088150262454337013 -0.0072886198307807624 0 -0.0088150262454337013 -0.0072886198307807624 0 -0.0090933065723807858 -0.0069360465708834711 0 -0.0091488406008631024 -0.0072223785321896827 0 -0.0088150262454337013 -0.0072886198307807624 0 -0.0090933065723807858 -0.0069360465708834711 0 -0.0087120755751329496 -0.0068817392147418818 0 -0.0090933065723807858 -0.0069360465708834711 0 -0.0087120755751329496 -0.0068817392147418818 0 -0.0089759692488012317 -0.0065174799931575029 0 -0.015607206878835328 -0.010883997252340417 0 -0.015622978417698063 -0.010724423296817148 0 -0.01533832786230626 -0.010683709629840993 0 -0.0099947707047245357 -0.010424415276402057 0 -0.012444138526246151 -0.0087178139704562185 0 -0.0085120659857434913 -0.0065069603384209874 0 -0.0087120755751329496 -0.0068817392147418818 0 -0.0089759692488012317 -0.0065174799931575029 0 -0.015744355878945359 -0.010858460760093436 0 -0.015816683878254325 -0.010771527697396609 0 -0.015622978417698063 -0.010724423296817148 0 -0.012444138526246151 -0.0087178139704562185 0 -0.01336475976805517 -0.0089533378246406548 0 -0.0090933065723807858 -0.0069360465708834711 0 -0.0089759692488012317 -0.0065174799931575029 0 -0.009463533504155474 -0.0065345799866453136 0 -0.0090933065723807858 -0.0069360465708834711 0 -0.009463533504155474 -0.0065345799866453136 0 -0.0095099880066321398 -0.0071953036242074697 0 -0.009463533504155474 -0.0065345799866453136 0 -0.0095099880066321398 -0.0071953036242074697 0 -0.0098328582536959443 -0.0072851899707409946 0 -0.01336475976805517 -0.0089533378246406548 0 -0.011837503651448523 -0.0083313347564458688 0 -0.0090441298216837728 -0.0074509714092203423 0 -0.0091488406008631024 -0.0072223785321896827 0 -0.0095099880066321398 -0.0071953036242074697 0 -0.0090933065723807858 -0.0069360465708834711 0 -0.0091488406008631024 -0.0072223785321896827 0 -0.0095099880066321398 -0.0071953036242074697 0 -0.014997507083035247 -0.0096185571752983798 0 -0.015013158276004203 -0.0092876840894555411 0 -0.01526558258341224 -0.0098015570912891176 0 -0.014546152221130888 -0.0092470441291377398 0 -0.014853973591147826 -0.0099069480102575106 0 -0.014997507083035247 -0.0096185571752983798 0 -0.0095099880066321398 -0.0071953036242074697 0 -0.0098328582536959443 -0.0072851899707409946 0 -0.009730526818117367 -0.0074943188922511452 0 -0.014853973591147826 -0.0099069480102575106 0 -0.01526558258341224 -0.0098015570912891176 0 -0.015188405489049503 -0.010111775397856054 0 -0.015477120491395241 -0.010331710892432275 0 -0.015429503212756815 -0.0099688429095170263 0 -0.014853973591147826 -0.0099069480102575106 0 -0.014997507083035247 -0.0096185571752983798 0 -0.01526558258341224 -0.0098015570912891176 0 -0.015251261912689098 -0.010806245942292996 0 -0.015333914400258278 -0.010573612868449572 0 -0.014931007260917614 -0.010543480767517779 0 -0.014546152221130888 -0.0092470441291377398 0 -0.014997507083035247 -0.0096185571752983798 0 -0.015013158276004203 -0.0092876840894555411 0 -0.01336475976805517 -0.0089533378246406548 0 -0.015477120491395241 -0.010331710892432275 0 -0.01590221191287447 -0.010617460958053892 0 -0.015650224020244873 -0.010600606383996375 0 -0.01565262761823891 -0.010229550662578068 0 -0.015485376445792221 -0.010957547470964795 0 -0.015650224020244873 -0.010600606383996375 0 -0.015473982905840998 -0.010618101965390078 0 -0.015644386987556873 -0.010947882817773282 0 -0.015839563031675087 -0.010740932168944953 0 -0.015650224020244873 -0.010600606383996375 0 -0.015477120491395241 -0.010331710892432275 0 -0.015777061002491512 -0.010579677607337537 0 -0.015650224020244873 -0.010600606383996375 0 -0.01565262761823891 -0.010229550662578068 0 -0.015480325316086096 -0.010200562186457898 0 -0.01526558258341224 -0.0098015570912891176 0 -0.015449392515450118 -0.010286390827602722 0 -0.015188405489049503 -0.010111775397856054 0 -0.015429503212756815 -0.0099688429095170263 0 -0.015486063501395801 -0.01028509314081486 0 -0.01565262761823891 -0.010229550662578068 0 -0.015449392515450118 -0.010286390827602722 0 -0.015552371747049818 -0.010195035243104295 0 -0.015449392515450118 -0.010286390827602722 0 -0.015188405489049503 -0.010111775397856054 0 -0.015178539316164776 -0.010409220908277575 0 -0.0098328582536959443 -0.0072851899707409946 0 -0.009730526818117367 -0.0074943188922511452 0 -0.010349037859910364 -0.008295738623855917 0 -0.014853973591147826 -0.0099069480102575106 0 -0.015188405489049503 -0.010111775397856054 0 -0.015178539316164776 -0.010409220908277575 0 -0.011837503651448523 -0.0083313347564458688 0 -0.015120084107562194 -0.0089979556005562299 0 -0.010789133543141443 -0.007828703727430688 0 -0.0094656732983442633 -0.007817399922396738 0 -0.015838052194103055 -0.0077745391005139787 0 -0.016346815567061482 -0.0075568844679843013 0 -0.016188625276504481 -0.0080823737327772802 0 -0.0096945202709230079 -0.0085846098668637232 0 -0.009730526818117367 -0.0074943188922511452 0 -0.010349037859910364 -0.008295738623855917 0 -0.010789133543141443 -0.007828703727430688 0 -0.015120084107562194 -0.0089979556005562299 0 -0.015120084107562194 -0.0089979556005562299 0 -0.016433947536908019 -0.010002848631122377 0 -0.01728790184460131 -0.0092333269106527616 0 -0.016988001345737969 -0.0091437748600441213 0 -0.017108532057002589 -0.0088835101551087443 0 -0.015449392515450118 -0.010286390827602722 0 -0.015178539316164776 -0.010409220908277575 0 -0.01560962527847219 -0.010294059125648057 0 -0.01728790184460131 -0.0092333269106527616 0 -0.016988001345737969 -0.0091437748600441213 0 -0.016850620246460401 -0.0095443862963690059 0 -0.016988001345737969 -0.0091437748600441213 0 -0.017108532057002589 -0.0088835101551087443 0 -0.016872339423231547 -0.0089432104372482862 0 -0.015120084107562194 -0.0089979556005562299 0 -0.016904690105078966 -0.0085225113453854442 0 -0.016346815567061482 -0.0075568844679843013 0 -0.016608346456238994 -0.008127352465147307 0 -0.016188625276504481 -0.0080823737327772802 0 -0.015838052194103055 -0.0077745391005139787 0 -0.016188625276504481 -0.0080823737327772802 0 -0.015786220630091316 -0.0084498659979047961 0 -0.016608346456238994 -0.008127352465147307 0 -0.016188625276504481 -0.0080823737327772802 0 -0.016356218437577352 -0.0085080628598580271 0 -0.016188625276504481 -0.0080823737327772802 0 -0.016356218437577352 -0.0085080628598580271 0 -0.015786220630091316 -0.0084498659979047961 0 -0.016356218437577352 -0.0085080628598580271 0 -0.016068550312226735 -0.0088626080205756897 0 -0.015786220630091316 -0.0084498659979047961 0 -0.016356218437577352 -0.0085080628598580271 0 -0.016568470933005192 -0.0088045864280594278 0 -0.016068550312226735 -0.0088626080205756897 0 -0.01682797740033419 -0.0087265879319016332 0 -0.016648840030210804 -0.0088865505047307086 0 -0.016910263483867323 -0.0086875014911345222 0 -0.016904690105078966 -0.0085225113453854442 0 -0.016851003517837419 -0.0087008231621410349 0 -0.016608346456238994 -0.008127352465147307 0 -0.016356218437577352 -0.0085080628598580271 0 -0.01682797740033419 -0.0087265879319016332 0 -0.017108532057002589 -0.0088835101551087443 0 -0.01682797740033419 -0.0087265879319016332 0 -0.016910263483867323 -0.0086875014911345222 0 -0.016356218437577352 -0.0085080628598580271 0 -0.016568470933005192 -0.0088045864280594278 0 -0.01682797740033419 -0.0087265879319016332 0 -0.016568470933005192 -0.0088045864280594278 0 -0.01682797740033419 -0.0087265879319016332 0 -0.016648840030210804 -0.0088865505047307086 0 -0.017025172706571213 -0.008486294730684173 0 -0.016934234993317376 -0.0086616843903438642 0 -0.01746140530711714 -0.0080732381711392364 0 -0.01725872738710511 -0.0077915996491017669 0 -0.017084813495456496 -0.008167979270317715 0 -0.01746140530711714 -0.0080732381711392364 0 -0.01725872738710511 -0.0077915996491017669 0 -0.017460511786856012 -0.0074662439797802474 0 -0.01746140530711714 -0.0080732381711392364 0 -0.017460511786856012 -0.0074662439797802474 0 -0.018052717182619058 -0.0072753572810823341 0 -0.017460511786856012 -0.0074662439797802474 0 -0.017161243373724443 -0.0074778908911677352 0 -0.017290126043233708 -0.0072125944164405827 0 -0.01725872738710511 -0.0077915996491017669 0 -0.017460511786856012 -0.0074662439797802474 0 -0.017161243373724443 -0.0074778908911677352 0 -0.016564943581588554 -0.0088829594075076346 0 -0.016553089426032112 -0.0088892858622812727 0 -0.016552837790876584 -0.0088916189641425024 0 -0.016648840030210804 -0.0088865505047307086 0 -0.016564943581588554 -0.0088829594075076346 0 -0.016552837790876584 -0.0088916189641425024 0 -0.017025172706571213 -0.008486294730684173 0 -0.017506297626355416 -0.0080551902458250446 0 -0.01608142019333815 -0.0093981300718660593 0 -0.016068550312226735 -0.0088626080205756897 0 -0.01568610169301431 -0.0091810497754846853 0 -0.016568470933005192 -0.0088045864280594278 0 -0.016648840030210804 -0.0088865505047307086 0 -0.016564943581588554 -0.0088829594075076346 0 -0.016568470933005192 -0.0088045864280594278 0 -0.01608142019333815 -0.0093981300718660593 0 -0.016068550312226735 -0.0088626080205756897 0 -0.016470030972425709 -0.0089216584193032526 0 -0.016608031437650963 -0.0089476439639403285 0 -0.0092209232628960372 -0.0087299397157932727 0 -0.0087355032945332454 -0.0088807645430592497 0 -0.0088757495917741978 -0.0083327975008385246 0 -0.016608031437650963 -0.0089476439639403285 0 -0.013136607223566103 -0.0091321024412990854 0 -0.0092209232628960372 -0.0087299397157932727 0 -0.0091270312583013342 -0.0092291269322029371 0 -0.0087355032945332454 -0.0088807645430592497 0 -0.012388350768311667 -0.0090688253571372304 0 -0.013136607223566103 -0.0091321024412990854 0 -0.01608142019333815 -0.0093981300718660593 0 -0.01568610169301431 -0.0091810497754846853 0 -0.015579185350871379 -0.0099728331727700105 0 -0.0091270312583013342 -0.0092291269322029371 0 -0.0087355032945332454 -0.0088807645430592497 0 -0.0085423135281425099 -0.0093096098988972153 0 -0.0087355032945332454 -0.0088807645430592497 0 -0.0088757495917741978 -0.0083327975008385246 0 -0.0084545074951241691 -0.0084886767142337526 0 -0.0088757495917741978 -0.0083327975008385246 0 -0.0087193767332380545 -0.0078889123921925229 0 -0.0084545074951241691 -0.0084886767142337526 0 -0.008666573286389612 -0.0082819166425183791 0 -0.0084846329036874293 -0.0083575146663060085 0 -0.0084077228102732646 -0.0087221781826565398 0 -0.0086235508899699439 -0.0083012403300026516 0 -0.0084505633729082628 -0.0085604955594012593 0 -0.0088757495917741978 -0.0083327975008385246 0 -0.0090688210485846913 -0.0080005472445618796 0 -0.0087193767332380545 -0.0078889123921925229 0 -0.0092209232628960372 -0.0087299397157932727 0 -0.0088757495917741978 -0.0083327975008385246 0 -0.0093073316062642266 -0.0081772438997028546 0 -0.016068550312226735 -0.0088626080205756897 0 -0.01568610169301431 -0.0091810497754846853 0 -0.015786220630091316 -0.0084498659979047961 0 -0.012388350768311667 -0.0090688253571372304 0 -0.012666987546780648 -0.0082422071687774101 0 -0.0088757495917741978 -0.0083327975008385246 0 -0.0093073316062642266 -0.0081772438997028546 0 -0.0090688210485846913 -0.0080005472445618796 0 -0.010789133543141443 -0.007828703727430688 0 -0.0086235508899699439 -0.0083012403300026516 0 -0.0093754890677733467 -0.0075981851514821067 0 -0.0090688210485846913 -0.0080005472445618796 0 -0.0087193767332380545 -0.0078889123921925229 0 -0.0093754890677733467 -0.0075981851514821067 0 -0.0093073316062642266 -0.0081772438997028546 0 -0.0090688210485846913 -0.0080005472445618796 0 -0.010789133543141443 -0.007828703727430688 0 -0.012666987546780648 -0.0082422071687774101 0 -0.0086969437903029294 -0.0079480662294474248 0 -0.0087348934357810697 -0.008283594950655988 0 -0.0085101486057274894 -0.008119437917117096 0 -0.0087348934357810697 -0.008283594950655988 0 -0.0084846329036874293 -0.0083575146663060085 0 -0.0085101486057274894 -0.008119437917117096 0 -0.0086235508899699439 -0.0083012403300026516 0 -0.0085565585376604306 -0.0083320252465022629 0 -0.0084846329036874293 -0.0083575146663060085 0 -0.0082834063378635116 -0.0082217920369877604 0 -0.0082452143483330142 -0.0084378387230213715 0 -0.0082834063378635116 -0.0082217920369877604 0 -0.0079639409043508521 -0.008297700132697601 0 -0.0082452143483330142 -0.0084378387230213715 0 -0.0083145554559357834 -0.0080405590451081005 0 -0.0085101486057274894 -0.008119437917117096 0 -0.0082834063378635116 -0.0082217920369877604 0 -0.0084846329036874293 -0.0083575146663060085 0 -0.0085101486057274894 -0.008119437917117096 0 -0.0082834063378635116 -0.0082217920369877604 0 -0.0083145554559357834 -0.0080405590451081005 0 -0.0082834063378635116 -0.0082217920369877604 0 -0.0081103321329616621 -0.0080873192140019298 0 -0.0082834063378635116 -0.0082217920369877604 0 -0.0081103321329616621 -0.0080873192140019298 0 -0.0079639409043508521 -0.008297700132697601 0 -0.0076945377689575855 -0.0079905205809868811 0 -0.0079639409043508521 -0.008297700132697601 0 -0.0075951315220879291 -0.0084619712849603838 0 -0.0076945377689575855 -0.0079905205809868811 0 -0.0081103321329616621 -0.0080873192140019298 0 -0.0079639409043508521 -0.008297700132697601 0 -0.0079639409043508521 -0.008297700132697601 0 -0.0080008485204135539 -0.0085691535032265433 0 -0.0082452143483330142 -0.0084378387230213715 0 -0.0079639409043508521 -0.008297700132697601 0 -0.0080008485204135539 -0.0085691535032265433 0 -0.0075951315220879291 -0.0084619712849603838 0 -0.0080008485204135539 -0.0085691535032265433 0 -0.0078133953777063808 -0.008881880645192455 0 -0.0075951315220879291 -0.0084619712849603838 0 -0.0080008485204135539 -0.0085691535032265433 0 -0.0084077228102732646 -0.0087221781826565398 0 -0.0082452143483330142 -0.0084378387230213715 0 -0.0084846329036874293 -0.0083575146663060085 0 -0.0084077228102732646 -0.0087221781826565398 0 -0.0082452143483330142 -0.0084378387230213715 0 -0.008209350833976007 -0.0090868318229497622 0 -0.0078133953777063808 -0.008881880645192455 0 -0.0075344198400487464 -0.0092404005666413477 0 -0.0084505633729082628 -0.0085604955594012593 0 -0.00821662551949804 -0.0090740599664758722 0 -0.0087355032945332454 -0.0088807645430592497 0 -0.0084545074951241691 -0.0084886767142337526 0 -0.008209350833976007 -0.0090868318229497622 0 -0.0087355032945332454 -0.0088807645430592497 0 -0.008209350833976007 -0.0090868318229497622 0 -0.0085423135281425099 -0.0093096098988972153 0 -0.0084077228102732646 -0.0087221781826565398 0 -0.008209350833976007 -0.0090868318229497622 0 -0.0078133953777063808 -0.008881880645192455 0 -0.0080008485204135539 -0.0085691535032265433 0 -0.0084077228102732646 -0.0087221781826565398 0 -0.0078133953777063808 -0.008881880645192455 0 -0.0078133953777063808 -0.008881880645192455 0 -0.0075344198400487464 -0.0092404005666413477 0 -0.0072968839929291708 -0.0087403023943908153 0 -0.0055925189330257342 -0.0074244137734535065 0 -0.0057210715396100653 -0.0074157883881506917 0 -0.0056266471525963759 -0.0074182159700717535 0 -0.0066038417860666016 -0.0082127337635062043 0 -0.0064980926705844322 -0.0080880334196883046 0 -0.0072968839929291708 -0.0087403023943908153 0 -0.0075951315220879291 -0.0084619712849603838 0 -0.0068780378297355277 -0.0080573898397955767 0 -0.0064980926705844322 -0.0080880334196883046 0 -0.0063962616021651158 -0.0076404373483735825 0 -0.0078133953777063808 -0.008881880645192455 0 -0.0072968839929291708 -0.0087403023943908153 0 -0.0075951315220879291 -0.0084619712849603838 0 -0.0076945377689575855 -0.0079905205809868811 0 -0.0075951315220879291 -0.0084619712849603838 0 -0.0068780378297355277 -0.0080573898397955767 0 -0.0057210715396100653 -0.0074157883881506917 0 -0.0059116240203069765 -0.0073236605621257445 0 -0.0057508072322697834 -0.007347463849530991 0 -0.016281306248183559 -0.0097127265195775317 0 -0.015609224615855342 -0.0099134844773605714 0 -0.016165562868980445 -0.010305110071632104 0 -0.01593652850565953 -0.0094940386069012773 0 -0.016030813397857075 -0.0098220724349563047 0 -0.015657392397382893 -0.009453380870759925 0 -0.015518823418470769 -0.0092316499470453464 0 -0.015710900005112504 -0.0095932244592058461 0 -0.016486091342703367 -0.010240342270983997 0 -0.016281306248183559 -0.0097127265195775317 0 -0.016165562868980445 -0.010305110071632104 0 -0.016486091342703367 -0.010240342270983997 0 -0.016281306248183559 -0.0097127265195775317 0 -0.016713453733971782 -0.010092065718397884 0 -0.016486091342703367 -0.010240342270983997 0 -0.016741522997902165 -0.010373777069215929 0 -0.016713453733971782 -0.010092065718397884 0 -0.015739191227072954 -0.0095283022144623253 0 -0.016030813397857075 -0.0098220724349563047 0 -0.015692562206139751 -0.0092761846567731964 0 -0.015672899786426987 -0.0090978315660566172 0 -0.015518823418470769 -0.0092316499470453464 0 -0.015672899786426987 -0.0090978315660566172 0 -0.015518823418470769 -0.0092316499470453464 0 -0.015559826532947319 -0.0088798770335616738 0 -0.015657392397382893 -0.009453380870759925 0 -0.015692562206139751 -0.0092761846567731964 0 -0.015518823418470769 -0.0092316499470453464 0 -0.015657392397382893 -0.009453380870759925 0 -0.015692562206139751 -0.0092761846567731964 0 -0.015791089202162018 -0.0094365473789883268 0 -0.015692562206139751 -0.0092761846567731964 0 -0.015672899786426987 -0.0090978315660566172 0 -0.015843298492280507 -0.0091636365670952503 0 -0.015518823418470769 -0.0092316499470453464 0 -0.015559826532947319 -0.0088798770335616738 0 -0.015369060329469948 -0.0089341803427826858 0 -0.01593652850565953 -0.0094940386069012773 0 -0.015588365037142816 -0.0091213692472657277 0 -0.016281306248183559 -0.0097127265195775317 0 -0.015609224615855342 -0.0099134844773605714 0 -0.015835877504134212 -0.0093068959617519584 0 -0.015609224615855342 -0.0099134844773605714 0 -0.01533028154716163 -0.0093440779691730015 0 -0.015835877504134212 -0.0093068959617519584 0 -0.01499992902896506 -0.0096484764217434557 0 -0.015609224615855342 -0.0099134844773605714 0 -0.01533028154716163 -0.0093440779691730015 0 -0.01499992902896506 -0.0096484764217434557 0 -0.015609224615855342 -0.0099134844773605714 0 -0.014999992419266764 -0.010377060136745981 0 -0.015609224615855342 -0.0099134844773605714 0 -0.015637118363345158 -0.01059200634494414 0 -0.014999992419266764 -0.010377060136745981 0 -0.015609224615855342 -0.0099134844773605714 0 -0.015637118363345158 -0.01059200634494414 0 -0.016165562868980445 -0.010305110071632104 0 -0.014999809285508675 -0.011435737279866442 0 -0.015617074167997284 -0.010679490517021191 0 -0.015000017627499394 -0.010377340052366676 0 -0.015621366723687141 -0.010632644029306615 0 -0.015000110298436635 -0.010377226280934366 0 -0.01554988887381404 -0.011498260314525176 0 -0.014999809285508675 -0.011435737279866442 0 -0.015617074167997284 -0.010679490517021191 0 -0.01554988887381404 -0.011498260314525176 0 -0.015617074167997284 -0.010679490517021191 0 -0.015911662641521128 -0.011188481653513762 0 -0.015617074167997284 -0.010679490517021191 0 -0.015911662641521128 -0.011188481653513762 0 -0.016226189843408248 -0.010923567651629766 0 -0.016278848691325131 -0.011330052283614672 0 -0.015911662641521128 -0.011188481653513762 0 -0.016226189843408248 -0.010923567651629766 0 -0.015637118363345158 -0.01059200634494414 0 -0.016165562868980445 -0.010305110071632104 0 -0.016273128197947621 -0.010837602758028527 0 -0.015621366723687141 -0.010632644029306615 0 -0.016262624247017302 -0.010883955787652888 0 -0.016165562868980445 -0.010305110071632104 0 -0.016577964904787745 -0.010499672572352667 0 -0.016273128197947621 -0.010837602758028527 0 -0.016577964904787745 -0.010499672572352667 0 -0.016273128197947621 -0.010837602758028527 0 -0.016879123647257202 -0.010781455438801971 0 -0.016486091342703367 -0.010240342270983997 0 -0.016577964904787745 -0.010499672572352667 0 -0.016741522997902165 -0.010373777069215929 0 -0.016486091342703367 -0.010240342270983997 0 -0.016165562868980445 -0.010305110071632104 0 -0.016577964904787745 -0.010499672572352667 0 -0.016262624247017302 -0.010883955787652888 0 -0.016873056688036785 -0.011110234645599949 0 -0.016278848691325131 -0.011330052283614672 0 -0.016226189843408248 -0.010923567651629766 0 -0.016908792041144486 -0.011123341180080001 0 -0.016788232229517183 -0.011450893068936758 0 -0.016908792041144486 -0.011123341180080001 0 -0.017533971692305382 -0.011040049302125644 0 -0.016908792041144486 -0.011123341180080001 0 -0.016879123647257202 -0.010781455438801971 0 -0.017533971692305382 -0.011040049302125644 0 -0.016273128197947621 -0.010837602758028527 0 -0.016908792041144486 -0.011123341180080001 0 -0.016879123647257202 -0.010781455438801971 0 -0.015887418869740561 -0.010822140909150176 0 -0.016675703736186039 -0.010306994685563909 0 -0.015941869412617792 -0.0098413728082900123 0 -0.015961913230347829 -0.0099924913208499638 0 -0.016002384294911624 -0.010007043292453562 0 -0.016879123647257202 -0.010781455438801971 0 -0.017533971692305382 -0.011040049302125644 0 -0.017116159839587884 -0.01056279544127357 0 -0.015961913230347829 -0.0099924913208499638 0 -0.016017791966885374 -0.0099892340377990708 0 -0.016002384294911624 -0.010007043292453562 0 -0.015961913230347829 -0.0099924913208499638 0 -0.016058756499453927 -0.010014744441137776 0 -0.016017791966885374 -0.0099892340377990708 0 -0.016058756499453927 -0.010014744441137776 0 -0.016017791966885374 -0.0099892340377990708 0 -0.016012154338322458 -0.0098405449610179004 0 -0.016017791966885374 -0.0099892340377990708 0 -0.015973110911891956 -0.009956122533082706 0 -0.016002384294911624 -0.010007043292453562 0 -0.016017791966885374 -0.0099892340377990708 0 -0.015973110911891956 -0.009956122533082706 0 -0.016012154338322458 -0.0098405449610179004 0 -0.016675703736186039 -0.010306994685563909 0 -0.016030813397857075 -0.0098220724349563047 0 -0.015973110911891956 -0.009956122533082706 0 -0.016002384294911624 -0.010007043292453562 0 -0.015792906902654336 -0.0098496127562460074 0 -0.016741522997902165 -0.010373777069215929 0 -0.017116159839587884 -0.01056279544127357 0 -0.016713453733971782 -0.010092065718397884 0 -0.016741522997902165 -0.010373777069215929 0 -0.016827225041853876 -0.010545441036783487 0 -0.017116159839587884 -0.01056279544127357 0 -0.016577964904787745 -0.010499672572352667 0 -0.016741522997902165 -0.010373777069215929 0 -0.016827225041853876 -0.010545441036783487 0 -0.016577964904787745 -0.010499672572352667 0 -0.016879123647257202 -0.010781455438801971 0 -0.016827225041853876 -0.010545441036783487 0 -0.016879123647257202 -0.010781455438801971 0 -0.016827225041853876 -0.010545441036783487 0 -0.017116159839587884 -0.01056279544127357 0 -0.015650224020244873 -0.010600606383996375 0 -0.015473982905840998 -0.010618101965390078 0 -0.015480325316086096 -0.010200562186457898 0 -0.015485376445792221 -0.010957547470964795 0 -0.015473982905840998 -0.010618101965390078 0 -0.015243254222136599 -0.010748717569435276 0 -0.015473982905840998 -0.010618101965390078 0 -0.015243254222136599 -0.010748717569435276 0 -0.015480325316086096 -0.010200562186457898 0 -0.015941869412617792 -0.0098413728082900123 0 -0.015961913230347829 -0.0099924913208499638 0 -0.015480325316086096 -0.010200562186457898 0 -0.014586299562094028 -0.010618792388699883 0 -0.015243254222136599 -0.010748717569435276 0 -0.015480325316086096 -0.010200562186457898 0 -0.015887418869740561 -0.010822140909150176 0 -0.015287885565315368 -0.010097709500442892 0 -0.015961913230347829 -0.0099924913208499638 0 -0.016058756499453927 -0.010014744441137776 0 -0.015707961443201288 -0.010133352948595215 0 -0.015961913230347829 -0.0099924913208499638 0 -0.015707961443201288 -0.010133352948595215 0 -0.015480325316086096 -0.010200562186457898 0 -0.01565262761823891 -0.010229550662578068 0 -0.015480325316086096 -0.010200562186457898 0 -0.015552371747049818 -0.010195035243104295 0 -0.015707961443201288 -0.010133352948595215 0 -0.015480325316086096 -0.010200562186457898 0 -0.015552371747049818 -0.010195035243104295 0 -0.015449392515450118 -0.010286390827602722 0 -0.015552371747049818 -0.010195035243104295 0 -0.01560962527847219 -0.010294059125648057 0 -0.015707961443201288 -0.010133352948595215 0 -0.015552371747049818 -0.010195035243104295 0 -0.01560962527847219 -0.010294059125648057 0 -0.016058756499453927 -0.010014744441137776 0 -0.016850620246460401 -0.0095443862963690059 0 -0.016362839372020942 -0.009431506736866822 0 -0.016058756499453927 -0.010014744441137776 0 -0.015707961443201288 -0.010133352948595215 0 -0.01560962527847219 -0.010294059125648057 0 -0.015978155093837522 -0.010001701345233897 0 -0.016433947536908019 -0.010002848631122377 0 -0.016850620246460401 -0.0095443862963690059 0 -0.016362839372020942 -0.009431506736866822 0 -0.016650109430954282 -0.0093367003282436578 0 -0.016362839372020942 -0.009431506736866822 0 -0.016394139958851018 -0.0091433483626311308 0 -0.016218951954370682 -0.0092610575876612474 0 -0.016362839372020942 -0.009431506736866822 0 -0.016394139958851018 -0.0091433483626311308 0 -0.016543683803704041 -0.0092053825622735626 0 -0.016543683803704041 -0.0092053825622735626 0 -0.016787084912321521 -0.0091880470964781219 0 -0.016645260333382587 -0.009045256893478449 0 -0.016543683803704041 -0.0092053825622735626 0 -0.016650109430954282 -0.0093367003282436578 0 -0.016787084912321521 -0.0091880470964781219 0 -0.016394139958851018 -0.0091433483626311308 0 -0.016543683803704041 -0.0092053825622735626 0 -0.016645260333382587 -0.009045256893478449 0 -0.016362839372020942 -0.009431506736866822 0 -0.016543683803704041 -0.0092053825622735626 0 -0.016650109430954282 -0.0093367003282436578 0 -0.016988001345737969 -0.0091437748600441213 0 -0.016850620246460401 -0.0095443862963690059 0 -0.016787084912321521 -0.0091880470964781219 0 -0.016850620246460401 -0.0095443862963690059 0 -0.016650109430954282 -0.0093367003282436578 0 -0.016787084912321521 -0.0091880470964781219 0 -0.016988001345737969 -0.0091437748600441213 0 -0.016787084912321521 -0.0091880470964781219 0 -0.016872339423231547 -0.0089432104372482862 0 -0.015936062810146794 -0.0096492409248896613 0 -0.015839755063515423 -0.0095796952849183086 0 -0.015882593204431566 -0.0097215394518297988 0 -0.015936062810146794 -0.0096492409248896613 0 -0.015892371564352085 -0.009492096192122013 0 -0.015839755063515423 -0.0095796952849183086 0 -0.015936062810146794 -0.0096492409248896613 0 -0.015892371564352085 -0.009492096192122013 0 -0.01598659446547571 -0.009464439589078397 0 -0.015892371564352085 -0.009492096192122013 0 -0.015791089202162018 -0.0094365473789883268 0 -0.015839755063515423 -0.0095796952849183086 0 -0.015657392397382893 -0.009453380870759925 0 -0.015791089202162018 -0.0094365473789883268 0 -0.015709793483988817 -0.0096209457076774224 0 -0.015791089202162018 -0.0094365473789883268 0 -0.015839755063515423 -0.0095796952849183086 0 -0.015709793483988817 -0.0096209457076774224 0 -0.015888761532047255 -0.0098784489700660533 0 -0.016030813397857075 -0.0098220724349563047 0 -0.015839755063515423 -0.0095796952849183086 0 -0.015709793483988817 -0.0096209457076774224 0 -0.015882593204431566 -0.0097215394518297988 0 -0.015973110911891956 -0.009956122533082706 0 -0.015709793483988817 -0.0096209457076774224 0 -0.015882593204431566 -0.0097215394518297988 0 -0.015973110911891956 -0.009956122533082706 0 -0.015882593204431566 -0.0097215394518297988 0 -0.015949458670368608 -0.009793180036592004 0 -0.015936062810146794 -0.0096492409248896613 0 -0.015882593204431566 -0.0097215394518297988 0 -0.015949458670368608 -0.009793180036592004 0 -0.015973110911891956 -0.009956122533082706 0 -0.015949458670368608 -0.009793180036592004 0 -0.016012154338322458 -0.0098405449610179004 0 -0.016058756499453927 -0.010014744441137776 0 -0.016362839372020942 -0.009431506736866822 0 -0.016103820958447257 -0.0096786969638004167 0 -0.016012154338322458 -0.0098405449610179004 0 -0.016103820958447257 -0.0096786969638004167 0 -0.016030005954723679 -0.0096187919629479486 0 -0.015936062810146794 -0.0096492409248896613 0 -0.015949458670368608 -0.009793180036592004 0 -0.016012154338322458 -0.0098405449610179004 0 -0.015936062810146794 -0.0096492409248896613 0 -0.016012154338322458 -0.0098405449610179004 0 -0.016030005954723679 -0.0096187919629479486 0 -0.016058756499453927 -0.010014744441137776 0 -0.016012154338322458 -0.0098405449610179004 0 -0.016103820958447257 -0.0096786969638004167 0 -0.016362839372020942 -0.009431506736866822 0 -0.016103820958447257 -0.0096786969638004167 0 -0.016122808968110077 -0.0094523094787413008 0 -0.016103820958447257 -0.0096786969638004167 0 -0.016030005954723679 -0.0096187919629479486 0 -0.016122808968110077 -0.0094523094787413008 0 -0.015936062810146794 -0.0096492409248896613 0 -0.016030005954723679 -0.0096187919629479486 0 -0.01598659446547571 -0.009464439589078397 0 -0.016030005954723679 -0.0096187919629479486 0 -0.016122808968110077 -0.0094523094787413008 0 -0.01598659446547571 -0.009464439589078397 0 -0.016122808968110077 -0.0094523094787413008 0 -0.016047901683821038 -0.0092428199274406375 0 -0.01598659446547571 -0.009464439589078397 0 -0.016122808968110077 -0.0094523094787413008 0 -0.016218951954370682 -0.0092610575876612474 0 -0.016047901683821038 -0.0092428199274406375 0 -0.016362839372020942 -0.009431506736866822 0 -0.016122808968110077 -0.0094523094787413008 0 -0.016218951954370682 -0.0092610575876612474 0 -0.016394139958851018 -0.0091433483626311308 0 -0.016218951954370682 -0.0092610575876612474 0 -0.016175884965572904 -0.0090428727727746242 0 -0.016218951954370682 -0.0092610575876612474 0 -0.016047901683821038 -0.0092428199274406375 0 -0.016175884965572904 -0.0090428727727746242 0 -0.016047901683821038 -0.0092428199274406375 0 -0.015909555853469655 -0.0093374366719076764 0 -0.015843298492280507 -0.0091636365670952503 0 -0.016047901683821038 -0.0092428199274406375 0 -0.015843298492280507 -0.0091636365670952503 0 -0.015979022693813714 -0.0089664014245634735 0 -0.016047901683821038 -0.0092428199274406375 0 -0.015909555853469655 -0.0093374366719076764 0 -0.01598659446547571 -0.009464439589078397 0 -0.015892371564352085 -0.009492096192122013 0 -0.015791089202162018 -0.0094365473789883268 0 -0.015909555853469655 -0.0093374366719076764 0 -0.015892371564352085 -0.009492096192122013 0 -0.015909555853469655 -0.0093374366719076764 0 -0.01598659446547571 -0.009464439589078397 0 -0.015791089202162018 -0.0094365473789883268 0 -0.015909555853469655 -0.0093374366719076764 0 -0.015843298492280507 -0.0091636365670952503 0 -0.015692562206139751 -0.0092761846567731964 0 -0.015791089202162018 -0.0094365473789883268 0 -0.015843298492280507 -0.0091636365670952503 0 -0.015843298492280507 -0.0091636365670952503 0 -0.015979022693813714 -0.0089664014245634735 0 -0.015769612366571161 -0.0088902499338155694 0 -0.015914968570236811 -0.0087369708402376661 0 -0.015979022693813714 -0.0089664014245634735 0 -0.015769612366571161 -0.0088902499338155694 0 -0.015914968570236811 -0.0087369708402376661 0 -0.015979022693813714 -0.0089664014245634735 0 -0.016130912739996214 -0.0087333323090803428 0 -0.016047901683821038 -0.0092428199274406375 0 -0.015979022693813714 -0.0089664014245634735 0 -0.016175884965572904 -0.0090428727727746242 0 -0.015979022693813714 -0.0089664014245634735 0 -0.016175884965572904 -0.0090428727727746242 0 -0.016130912739996214 -0.0087333323090803428 0 -0.016394139958851018 -0.0091433483626311308 0 -0.016175884965572904 -0.0090428727727746242 0 -0.016338338157878406 -0.0088933709623528565 0 -0.016338338157878406 -0.0088933709623528565 0 -0.016130912739996214 -0.0087333323090803428 0 -0.016428242980747083 -0.0086359181994809537 0 -0.016175884965572904 -0.0090428727727746242 0 -0.016338338157878406 -0.0088933709623528565 0 -0.016130912739996214 -0.0087333323090803428 0 -0.016428242980747083 -0.0086359181994809537 0 -0.016490254171901791 -0.0083177019549016545 0 -0.016173914797099183 -0.0082295077656624107 0 -0.016130912739996214 -0.0087333323090803428 0 -0.016428242980747083 -0.0086359181994809537 0 -0.016173914797099183 -0.0082295077656624107 0 -0.016130912739996214 -0.0087333323090803428 0 -0.015966515447955496 -0.008456131588986629 0 -0.016173914797099183 -0.0082295077656624107 0 -0.015914968570236811 -0.0087369708402376661 0 -0.015966515447955496 -0.008456131588986629 0 -0.015749376283074611 -0.0086402107499620392 0 -0.015914968570236811 -0.0087369708402376661 0 -0.016130912739996214 -0.0087333323090803428 0 -0.015966515447955496 -0.008456131588986629 0 -0.017108532057002589 -0.0088835101551087443 0 -0.016872339423231547 -0.0089432104372482862 0 -0.016910263483867323 -0.0086875014911345222 0 -0.016872339423231547 -0.0089432104372482862 0 -0.016681919096983969 -0.0087957570455870614 0 -0.016645260333382587 -0.009045256893478449 0 -0.016787084912321521 -0.0091880470964781219 0 -0.016872339423231547 -0.0089432104372482862 0 -0.016645260333382587 -0.009045256893478449 0 -0.016872339423231547 -0.0089432104372482862 0 -0.016681919096983969 -0.0087957570455870614 0 -0.016910263483867323 -0.0086875014911345222 0 -0.016681919096983969 -0.0087957570455870614 0 -0.016645260333382587 -0.009045256893478449 0 -0.016522244526189667 -0.0089178891513593799 0 -0.016681919096983969 -0.0087957570455870614 0 -0.016522244526189667 -0.0089178891513593799 0 -0.016428242980747083 -0.0086359181994809537 0 -0.016394139958851018 -0.0091433483626311308 0 -0.016645260333382587 -0.009045256893478449 0 -0.016522244526189667 -0.0089178891513593799 0 -0.016394139958851018 -0.0091433483626311308 0 -0.016338338157878406 -0.0088933709623528565 0 -0.016522244526189667 -0.0089178891513593799 0 -0.016338338157878406 -0.0088933709623528565 0 -0.016522244526189667 -0.0089178891513593799 0 -0.016428242980747083 -0.0086359181994809537 0 -0.016428242980747083 -0.0086359181994809537 0 -0.016670809908666873 -0.0085066919295714756 0 -0.016490254171901791 -0.0083177019549016545 0 -0.016681919096983969 -0.0087957570455870614 0 -0.016428242980747083 -0.0086359181994809537 0 -0.016670809908666873 -0.0085066919295714756 0 -0.016910263483867323 -0.0086875014911345222 0 -0.017084813495456496 -0.008167979270317715 0 -0.016850213986087142 -0.0083902156620920959 0 -0.016681919096983969 -0.0087957570455870614 0 -0.016670809908666873 -0.0085066919295714756 0 -0.016910263483867323 -0.0086875014911345222 0 -0.016670809908666873 -0.0085066919295714756 0 -0.016910263483867323 -0.0086875014911345222 0 -0.016850213986087142 -0.0083902156620920959 0 -0.01746140530711714 -0.0080732381711392364 0 -0.016910263483867323 -0.0086875014911345222 0 -0.017084813495456496 -0.008167979270317715 0 -0.017084813495456496 -0.008167979270317715 0 -0.016757986780436884 -0.0081913599719225811 0 -0.017021726605220208 -0.0077744752989754012 0 -0.01725872738710511 -0.0077915996491017669 0 -0.017084813495456496 -0.008167979270317715 0 -0.017021726605220208 -0.0077744752989754012 0 -0.017084813495456496 -0.008167979270317715 0 -0.016850213986087142 -0.0083902156620920959 0 -0.016757986780436884 -0.0081913599719225811 0 -0.016670809908666873 -0.0085066919295714756 0 -0.016850213986087142 -0.0083902156620920959 0 -0.016757986780436884 -0.0081913599719225811 0 -0.016670809908666873 -0.0085066919295714756 0 -0.016757986780436884 -0.0081913599719225811 0 -0.016490254171901791 -0.0083177019549016545 0 -0.016757986780436884 -0.0081913599719225811 0 -0.016490254171901791 -0.0083177019549016545 0 -0.016448800852017966 -0.0080187881702295221 0 -0.016780089630467291 -0.0075587108912041744 0 -0.016091032172769408 -0.0075969518245557564 0 -0.016448800852017966 -0.0080187881702295221 0 -0.016804081273089664 -0.0075533299596573259 0 -0.016156616875710409 -0.0077606380059228319 0 -0.016757986780436884 -0.0081913599719225811 0 -0.016448800852017966 -0.0080187881702295221 0 -0.016804081273089664 -0.0075533299596573259 0 -0.01676754188147294 -0.0081342394679833514 0 -0.016941996471495926 -0.0073300953900912449 0 -0.016757986780436884 -0.0081913599719225811 0 -0.017021726605220208 -0.0077744752989754012 0 -0.016835986759468582 -0.0072359631799714351 0 -0.016757986780436884 -0.0081913599719225811 0 -0.016804081273089664 -0.0075533299596573259 0 -0.017043932268799588 -0.0074265267540476465 0 -0.017161243373724443 -0.0074778908911677352 0 -0.017021726605220208 -0.0077744752989754012 0 -0.016835986759468582 -0.0072359631799714351 0 -0.01725872738710511 -0.0077915996491017669 0 -0.017161243373724443 -0.0074778908911677352 0 -0.017021726605220208 -0.0077744752989754012 0 -0.015966515447955496 -0.008456131588986629 0 -0.01594967823126648 -0.0080717153300505669 0 -0.016173914797099183 -0.0082295077656624107 0 -0.015966515447955496 -0.008456131588986629 0 -0.01594967823126648 -0.0080717153300505669 0 -0.015714470365449564 -0.0082514860071448235 0 -0.016490254171901791 -0.0083177019549016545 0 -0.016448800852017966 -0.0080187881702295221 0 -0.016173914797099183 -0.0082295077656624107 0 -0.016448800852017966 -0.0080187881702295221 0 -0.016173914797099183 -0.0082295077656624107 0 -0.016156616875710409 -0.0077606380059228319 0 -0.01594967823126648 -0.0080717153300505669 0 -0.016156616875710409 -0.0077606380059228319 0 -0.015749070358248067 -0.0078155588946082159 0 -0.016091032172769408 -0.0075969518245557564 0 -0.015559436362378977 -0.0076120390921872085 0 -0.01594967823126648 -0.0080717153300505669 0 -0.016173914797099183 -0.0082295077656624107 0 -0.016156616875710409 -0.0077606380059228319 0 -0.01594967823126648 -0.0080717153300505669 0 -0.015749070358248067 -0.0078155588946082159 0 -0.015714470365449564 -0.0082514860071448235 0 -0.015749070358248067 -0.0078155588946082159 0 -0.015507859805545227 -0.0080229557920083704 0 -0.015714470365449564 -0.0082514860071448235 0 -0.015749070358248067 -0.0078155588946082159 0 -0.015507859805545227 -0.0080229557920083704 0 -0.015229209327715159 -0.0076099894292888728 0 -0.015559436362378977 -0.0076120390921872085 0 -0.015223058459617442 -0.0076123829966564058 0 -0.015507859805545227 -0.0080229557920083704 0 -0.01545908301808583 -0.0083190835179533084 0 -0.015714470365449564 -0.0082514860071448235 0 -0.01545908301808583 -0.0083190835179533084 0 -0.015714470365449564 -0.0082514860071448235 0 -0.015575492999356687 -0.0085670404502953702 0 -0.015507859805545227 -0.0080229557920083704 0 -0.01545908301808583 -0.0083190835179533084 0 -0.015313467135427727 -0.0080511876161160987 0 -0.015966515447955496 -0.008456131588986629 0 -0.015714470365449564 -0.0082514860071448235 0 -0.015749376283074611 -0.0086402107499620392 0 -0.015714470365449564 -0.0082514860071448235 0 -0.015749376283074611 -0.0086402107499620392 0 -0.015575492999356687 -0.0085670404502953702 0 -0.015749376283074611 -0.0086402107499620392 0 -0.015575492999356687 -0.0085670404502953702 0 -0.015559826532947319 -0.0088798770335616738 0 -0.015575492999356687 -0.0085670404502953702 0 -0.015559826532947319 -0.0088798770335616738 0 -0.015399798628182314 -0.0087020162088640475 0 -0.01545908301808583 -0.0083190835179533084 0 -0.015575492999356687 -0.0085670404502953702 0 -0.015399798628182314 -0.0087020162088640475 0 -0.015559826532947319 -0.0088798770335616738 0 -0.015369060329469948 -0.0089341803427826858 0 -0.015399798628182314 -0.0087020162088640475 0 -0.015672899786426987 -0.0090978315660566172 0 -0.015559826532947319 -0.0088798770335616738 0 -0.015769612366571161 -0.0088902499338155694 0 -0.015672899786426987 -0.0090978315660566172 0 -0.015843298492280507 -0.0091636365670952503 0 -0.015769612366571161 -0.0088902499338155694 0 -0.015749376283074611 -0.0086402107499620392 0 -0.015559826532947319 -0.0088798770335616738 0 -0.015769612366571161 -0.0088902499338155694 0 -0.015914968570236811 -0.0087369708402376661 0 -0.015749376283074611 -0.0086402107499620392 0 -0.015769612366571161 -0.0088902499338155694 0 -0.01499992902896506 -0.0096484764217434557 0 -0.014999889008134714 -0.0089195282777093307 0 -0.01533028154716163 -0.0093440779691730015 0 -0.015274735491903913 -0.0088380906178645632 0 -0.014999889008134714 -0.0089195282777093307 0 -0.01533028154716163 -0.0093440779691730015 0 -0.015302287155876263 -0.008864283745017177 0 -0.015588365037142816 -0.0091213692472657277 0 -0.015274735491903913 -0.0088380906178645632 0 -0.015369060329469948 -0.0089341803427826858 0 -0.015399798628182314 -0.0087020162088640475 0 -0.015274735491903913 -0.0088380906178645632 0 -0.01533028154716163 -0.0093440779691730015 0 -0.015835877504134212 -0.0093068959617519584 0 -0.01545908301808583 -0.0083190835179533084 0 -0.015399798628182314 -0.0087020162088640475 0 -0.015247778181790775 -0.0084077409955008106 0 -0.015274735491903913 -0.0088380906178645632 0 -0.015399798628182314 -0.0087020162088640475 0 -0.015247778181790775 -0.0084077409955008106 0 -0.015274735491903913 -0.0088380906178645632 0 -0.014999889008134714 -0.0089195282777093307 0 -0.015247778181790775 -0.0084077409955008106 0 -0.014999889008134714 -0.0089195282777093307 0 -0.015247778181790775 -0.0084077409955008106 0 -0.014999819535651838 -0.0081908727924561945 0 -0.015247778181790775 -0.0084077409955008106 0 -0.014999819535651838 -0.0081908727924561945 0 -0.01513264884698879 -0.007849171304179137 0 -0.01545908301808583 -0.0083190835179533084 0 -0.015247778181790775 -0.0084077409955008106 0 -0.015313467135427727 -0.0080511876161160987 0 -0.015247778181790775 -0.0084077409955008106 0 -0.015313467135427727 -0.0080511876161160987 0 -0.01513264884698879 -0.007849171304179137 0 -0.015507859805545227 -0.0080229557920083704 0 -0.015313467135427727 -0.0080511876161160987 0 -0.015229209327715159 -0.0076099894292888728 0 -0.015313467135427727 -0.0080511876161160987 0 -0.015229209327715159 -0.0076099894292888728 0 -0.01513264884698879 -0.007849171304179137 0 -0.015229209327715159 -0.0076099894292888728 0 -0.01513264884698879 -0.007849171304179137 0 -0.015103177095089003 -0.0074737742685882505 0 -0.014999819535651838 -0.0081908727924561945 0 -0.01513264884698879 -0.007849171304179137 0 -0.0149996388616815 -0.0074626606779608752 0 -0.01513264884698879 -0.007849171304179137 0 -0.0149996388616815 -0.0074626606779608752 0 -0.015103177095089003 -0.0074737742685882505 0 -0.015000017795579986 -0.0074621583295364797 0 -0.015204869942853231 -0.0070334529194444051 0 -0.0149996388616815 -0.0074626606779608752 0 -0.015103177095089003 -0.0074737742685882505 0 -0.015046669681022466 -0.0072331178936439651 0 -0.014999806460355066 -0.0072053952721628069 0 -0.015000135195617527 -0.0074623119011439833 0 -0.015392417957569396 -0.0068617514033130376 0 -0.015229209327715159 -0.0076099894292888728 0 -0.015103177095089003 -0.0074737742685882505 0 -0.015134492273409121 -0.0073212956569536783 0 -0.015229209327715159 -0.0076099894292888728 0 -0.015134492273409121 -0.0073212956569536783 0 -0.015218758444907632 -0.0072122064707682131 0 -0.015134492273409121 -0.0073212956569536783 0 -0.015046669681022466 -0.0072331178936439651 0 -0.015125104241630246 -0.0071005299761505167 0 -0.015134492273409121 -0.0073212956569536783 0 -0.015125104241630246 -0.0071005299761505167 0 -0.015218758444907632 -0.0072122064707682131 0 -0.015103177095089003 -0.0074737742685882505 0 -0.015134492273409121 -0.0073212956569536783 0 -0.015046669681022466 -0.0072331178936439651 0 -0.015046669681022466 -0.0072331178936439651 0 -0.015125104241630246 -0.0071005299761505167 0 -0.015081131418374005 -0.0067529183555769916 0 -0.015392417957569396 -0.0068617514033130376 0 -0.015382283367412878 -0.0066300092635603854 0 -0.015569178752493178 -0.0061993408990133544 0 -0.015373693840632158 -0.0066053802102321512 0 -0.01557731938703418 -0.0061292886505105561 0 -0.015204869942853231 -0.0070334529194444051 0 -0.015317117001406831 -0.0064775744841523075 0 -0.015382283367412878 -0.0066300092635603854 0 -0.015569178752493178 -0.0061993408990133544 0 -0.015552651805006305 -0.0060432508365845699 0 -0.015388785889578954 -0.0066148031069169092 0 -0.015209190045969233 -0.0064638180793923578 0 -0.015385823579967319 -0.0062501471600918514 0 -0.014999806460355066 -0.0072053952721628069 0 -0.015392417957569396 -0.0068617514033130376 0 -0.015382283367412878 -0.0066300092635603854 0 -0.015000052936898437 -0.0072053952940727426 0 -0.015373693840632158 -0.0066053802102321512 0 -0.014999969882727282 -0.0072053547727747528 0 -0.015209190045969233 -0.0064638180793923578 0 -0.014999814542061351 -0.0063604477593758209 0 -0.014999969882727282 -0.0072053547727747528 0 -0.015388785889578954 -0.0066148031069169092 0 -0.015209190045969233 -0.0064638180793923578 0 -0.015392393312998952 -0.007409249836795884 0 -0.015258511884150328 -0.006942348310661076 0 -0.015455796592200585 -0.0067336539050713694 0 -0.015392393312998952 -0.007409249836795884 0 -0.015218758444907632 -0.0072122064707682131 0 -0.015258511884150328 -0.006942348310661076 0 -0.015392393312998952 -0.007409249836795884 0 -0.015229209327715159 -0.0076099894292888728 0 -0.015218758444907632 -0.0072122064707682131 0 -0.015125104241630246 -0.0071005299761505167 0 -0.015218758444907632 -0.0072122064707682131 0 -0.015170803745742442 -0.0070040956150062145 0 -0.015125104241630246 -0.0071005299761505167 0 -0.015170803745742442 -0.0070040956150062145 0 -0.015081131418374005 -0.0067529183555769916 0 -0.015170803745742442 -0.0070040956150062145 0 -0.015258511884150328 -0.006942348310661076 0 -0.015081131418374005 -0.0067529183555769916 0 -0.015258511884150328 -0.006942348310661076 0 -0.015249871253440636 -0.0066422794378480036 0 -0.015081131418374005 -0.0067529183555769916 0 -0.015218758444907632 -0.0072122064707682131 0 -0.015170803745742442 -0.0070040956150062145 0 -0.015258511884150328 -0.006942348310661076 0 -0.015258511884150328 -0.006942348310661076 0 -0.015455796592200585 -0.0067336539050713694 0 -0.015249871253440636 -0.0066422794378480036 0 -0.015455796592200585 -0.0067336539050713694 0 -0.015249871253440636 -0.0066422794378480036 0 -0.01522875529934201 -0.0061117876558813471 0 -0.015317117001406831 -0.0064775744841523075 0 -0.015384790610081899 -0.0058888884065892945 0 -0.015569178752493178 -0.0061993408990133544 0 -0.015552651805006305 -0.0060432508365845699 0 -0.015510216497892037 -0.0056725158714196807 0 -0.015249871253440636 -0.0066422794378480036 0 -0.015081131418374005 -0.0067529183555769916 0 -0.01522875529934201 -0.0061117876558813471 0 -0.015552651805006305 -0.0060432508365845699 0 -0.015487926393605817 -0.0057265301960236848 0 -0.015510216497892037 -0.0056725158714196807 0 -0.015552651805006305 -0.0060432508365845699 0 -0.015485372017780084 -0.0058691881895128672 0 -0.015435840836428939 -0.0059902726168500646 0 -0.015552651805006305 -0.0060432508365845699 0 -0.015485372017780084 -0.0058691881895128672 0 -0.015487926393605817 -0.0057265301960236848 0 -0.015485372017780084 -0.0058691881895128672 0 -0.015451136735065372 -0.005733486040268871 0 -0.015435840836428939 -0.0059902726168500646 0 -0.015449906220334441 -0.0054902849003622264 0 -0.015487926393605817 -0.0057265301960236848 0 -0.015292120088861489 -0.0053107901105069449 0 -0.015485372017780084 -0.0058691881895128672 0 -0.015451136735065372 -0.005733486040268871 0 -0.015487926393605817 -0.0057265301960236848 0 -0.015451136735065372 -0.005733486040268871 0 -0.015449906220334441 -0.0054902849003622264 0 -0.015487926393605817 -0.0057265301960236848 0 -0.015451136735065372 -0.005733486040268871 0 -0.015449906220334441 -0.0054902849003622264 0 -0.015426985437710499 -0.0054716548104282161 0 -0.015510216497892037 -0.0056725158714196807 0 -0.015292120088861489 -0.0053107901105069449 0 -0.015269791487388024 -0.0050701626286820366 0 -0.015487926393605817 -0.0057265301960236848 0 -0.015510216497892037 -0.0056725158714196807 0 -0.015292120088861489 -0.0053107901105069449 0 -0.015510216497892037 -0.0056725158714196807 0 -0.015269791487388024 -0.0050701626286820366 0 -0.015564197182395805 -0.0053362967931301084 0 -0.015209190045969233 -0.0064638180793923578 0 -0.014999814542061351 -0.0063604477593758209 0 -0.015290894160470567 -0.0061648273273014224 0 -0.014999814542061351 -0.0063604477593758209 0 -0.015290894160470567 -0.0061648273273014224 0 -0.015338160412808605 -0.0057851119757434399 0 -0.015385823579967319 -0.0062501471600918514 0 -0.015435840836428939 -0.0059902726168500646 0 -0.015290894160470567 -0.0061648273273014224 0 -0.015209190045969233 -0.0064638180793923578 0 -0.015385823579967319 -0.0062501471600918514 0 -0.015290894160470567 -0.0061648273273014224 0 -0.015388785889578954 -0.0066148031069169092 0 -0.015552651805006305 -0.0060432508365845699 0 -0.015385823579967319 -0.0062501471600918514 0 -0.015552651805006305 -0.0060432508365845699 0 -0.015385823579967319 -0.0062501471600918514 0 -0.015435840836428939 -0.0059902726168500646 0 -0.015435840836428939 -0.0059902726168500646 0 -0.015290894160470567 -0.0061648273273014224 0 -0.015338160412808605 -0.0057851119757434399 0 -0.015451136735065372 -0.005733486040268871 0 -0.015435840836428939 -0.0059902726168500646 0 -0.015338160412808605 -0.0057851119757434399 0 -0.015451136735065372 -0.005733486040268871 0 -0.015338160412808605 -0.0057851119757434399 0 -0.015426985437710499 -0.0054716548104282161 0 -0.015338160412808605 -0.0057851119757434399 0 -0.014999891233768924 -0.0055159219321512121 0 -0.015426985437710499 -0.0054716548104282161 0 -0.014999814542061351 -0.0063604477593758209 0 -0.015338160412808605 -0.0057851119757434399 0 -0.014999891233768924 -0.0055159219321512121 0 -0.014999891233768924 -0.0055159219321512121 0 -0.015289321677725152 -0.0048391454803190376 0 -0.01539687587433025 -0.0051976497259788755 0 -0.014999891233768924 -0.0055159219321512121 0 -0.015289321677725152 -0.0048391454803190376 0 -0.014999846869387273 -0.0046713015240422533 0 -0.015289321677725152 -0.0048391454803190376 0 -0.015543189702338705 -0.0049566245066190503 0 -0.015500459827844034 -0.0045256260305627256 0 -0.015289321677725152 -0.0048391454803190376 0 -0.015543189702338705 -0.0049566245066190503 0 -0.01539687587433025 -0.0051976497259788755 0 -0.015543189702338705 -0.0049566245066190503 0 -0.01539687587433025 -0.0051976497259788755 0 -0.015528006919022981 -0.005299571986675875 0 -0.01539687587433025 -0.0051976497259788755 0 -0.015426985437710499 -0.0054716548104282161 0 -0.015528006919022981 -0.005299571986675875 0 -0.014999891233768924 -0.0055159219321512121 0 -0.01539687587433025 -0.0051976497259788755 0 -0.015426985437710499 -0.0054716548104282161 0 -0.015449906220334441 -0.0054902849003622264 0 -0.015426985437710499 -0.0054716548104282161 0 -0.015528006919022981 -0.005299571986675875 0 -0.015292120088861489 -0.0053107901105069449 0 -0.015610791958743904 -0.0051775521381893239 0 -0.015730990518128617 -0.0050970258778568244 0 -0.015449906220334441 -0.0054902849003622264 0 -0.015528006919022981 -0.005299571986675875 0 -0.015292120088861489 -0.0053107901105069449 0 -0.015528006919022981 -0.005299571986675875 0 -0.015292120088861489 -0.0053107901105069449 0 -0.015610791958743904 -0.0051775521381893239 0 -0.015292120088861489 -0.0053107901105069449 0 -0.015269791487388024 -0.0050701626286820366 0 -0.014900543480227514 -0.0046969312350644025 0 -0.015269791487388024 -0.0050701626286820366 0 -0.014900543480227514 -0.0046969312350644025 0 -0.015206126435222221 -0.0045770090640609327 0 -0.015292120088861489 -0.0053107901105069449 0 -0.014900543480227514 -0.0046969312350644025 0 -0.014188023787414098 -0.0041974119562986391 0 -0.014900543480227514 -0.0046969312350644025 0 -0.014696374994424324 -0.0043055069539512511 0 -0.015206126435222221 -0.0045770090640609327 0 -0.014696374994424324 -0.0043055069539512511 0 -0.014188023787414098 -0.0041974119562986391 0 -0.014520515912211908 -0.003951121238612609 0 -0.014900543480227514 -0.0046969312350644025 0 -0.014696374994424324 -0.0043055069539512511 0 -0.014188023787414098 -0.0041974119562986391 0 -0.014696374994424324 -0.0043055069539512511 0 -0.014818222494833042 -0.0040007378746016765 0 -0.014520515912211908 -0.003951121238612609 0 -0.014696374994424324 -0.0043055069539512511 0 -0.014818222494833042 -0.0040007378746016765 0 -0.015206126435222221 -0.0045770090640609327 0 -0.015156875442981084 -0.0052030137026171496 0 -0.015431439089245909 -0.0044963267486730846 0 -0.015292120088861489 -0.0053107901105069449 0 -0.015730990518128617 -0.0050970258778568244 0 -0.015859866920080026 -0.0050353243299621929 0 -0.015543189702338705 -0.0049566245066190503 0 -0.015610791958743904 -0.0051775521381893239 0 -0.015676197661612084 -0.0049862153883012874 0 -0.015543189702338705 -0.0049566245066190503 0 -0.015528006919022981 -0.005299571986675875 0 -0.015610791958743904 -0.0051775521381893239 0 -0.015610791958743904 -0.0051775521381893239 0 -0.015730990518128617 -0.0050970258778568244 0 -0.015676197661612084 -0.0049862153883012874 0 -0.015730990518128617 -0.0050970258778568244 0 -0.015855438322635335 -0.0049041777097065357 0 -0.015676197661612084 -0.0049862153883012874 0 -0.015855438322635335 -0.0049041777097065357 0 -0.015683839259708652 -0.0048130516323059988 0 -0.015676197661612084 -0.0049862153883012874 0 -0.015520980628939697 -0.0048757484453278883 0 -0.015431439089245909 -0.0044963267486730846 0 -0.015543189702338705 -0.0049566245066190503 0 -0.015683839259708652 -0.0048130516323059988 0 -0.015676197661612084 -0.0049862153883012874 0 -0.015543189702338705 -0.0049566245066190503 0 -0.015683839259708652 -0.0048130516323059988 0 -0.015625903422925396 -0.0046720334082187061 0 -0.015431439089245909 -0.0044963267486730846 0 -0.015948881763460404 -0.0038378687030867177 0 -0.015918841551919957 -0.0042386217470211625 0 -0.015946224036942583 -0.0036995561650850443 0 -0.015842482714453984 -0.0036620100774613328 0 -0.015855438322635335 -0.0049041777097065357 0 -0.015683839259708652 -0.0048130516323059988 0 -0.015744208782049914 -0.00459022985892179 0 -0.014188023787414098 -0.0041974119562986391 0 -0.014325878426091804 -0.0035452414497303903 0 -0.013896707706718222 -0.0027683856249148681 0 -0.015431439089245909 -0.0044963267486730846 0 -0.014894309531548182 -0.0031695418755185263 0 -0.015855438322635335 -0.0049041777097065357 0 -0.015796952178515129 -0.0043685445518875888 0 -0.015946210778351847 -0.0039855583848118978 0 -0.015855438322635335 -0.0049041777097065357 0 -0.015744208782049914 -0.00459022985892179 0 -0.015796952178515129 -0.0043685445518875888 0 -0.015683839259708652 -0.0048130516323059988 0 -0.015625903422925396 -0.0046720334082187061 0 -0.015744208782049914 -0.00459022985892179 0 -0.015625903422925396 -0.0046720334082187061 0 -0.015744208782049914 -0.00459022985892179 0 -0.015663209900373638 -0.0044596370937099051 0 -0.015796952178515129 -0.0043685445518875888 0 -0.015663209900373638 -0.0044596370937099051 0 -0.01563308826068173 -0.0041969244327334397 0 -0.015744208782049914 -0.00459022985892179 0 -0.015796952178515129 -0.0043685445518875888 0 -0.015663209900373638 -0.0044596370937099051 0 -0.014818222494833042 -0.0040007378746016765 0 -0.014771387155709456 -0.0034921027829502671 0 -0.01521650469340417 -0.0038966470403124912 0 -0.014818222494833042 -0.0040007378746016765 0 -0.014585741035779358 -0.0036202240918203018 0 -0.014771387155709456 -0.0034921027829502671 0 -0.014188023787414098 -0.0041974119562986391 0 -0.014520515912211908 -0.003951121238612609 0 -0.014325878426091804 -0.0035452414497303903 0 -0.014585741035779358 -0.0036202240918203018 0 -0.014520515912211908 -0.003951121238612609 0 -0.014325878426091804 -0.0035452414497303903 0 -0.014818222494833042 -0.0040007378746016765 0 -0.014585741035779358 -0.0036202240918203018 0 -0.014520515912211908 -0.003951121238612609 0 -0.014585741035779358 -0.0036202240918203018 0 -0.014325878426091804 -0.0035452414497303903 0 -0.014499363314179017 -0.0031158931522651638 0 -0.014771387155709456 -0.0034921027829502671 0 -0.014499363314179017 -0.0031158931522651638 0 -0.015072005131319118 -0.0030548586176225765 0 -0.014585741035779358 -0.0036202240918203018 0 -0.014771387155709456 -0.0034921027829502671 0 -0.014499363314179017 -0.0031158931522651638 0 -0.014499363314179017 -0.0031158931522651638 0 -0.014565640599709695 -0.0025729679891726264 0 -0.015072005131319118 -0.0030548586176225765 0 -0.014499363314179017 -0.0031158931522651638 0 -0.014289258067541137 -0.002678861072607017 0 -0.013896707706718222 -0.0027683856249148681 0 -0.014325878426091804 -0.0035452414497303903 0 -0.014499363314179017 -0.0031158931522651638 0 -0.013896707706718222 -0.0027683856249148681 0 -0.014289258067541137 -0.002678861072607017 0 -0.013896707706718222 -0.0027683856249148681 0 -0.014185219716917118 -0.002285892214412358 0 -0.014289258067541137 -0.002678861072607017 0 -0.014565640599709695 -0.0025729679891726264 0 -0.014185219716917118 -0.002285892214412358 0 -0.014499363314179017 -0.0031158931522651638 0 -0.014289258067541137 -0.002678861072607017 0 -0.014565640599709695 -0.0025729679891726264 0 -0.015796952178515129 -0.0043685445518875888 0 -0.015946210778351847 -0.0039855583848118978 0 -0.01563308826068173 -0.0041969244327334397 0 -0.015946210778351847 -0.0039855583848118978 0 -0.015613583688584079 -0.0038268857142489945 0 -0.01563308826068173 -0.0041969244327334397 0 -0.015613583688584079 -0.0038268857142489945 0 -0.01563308826068173 -0.0041969244327334397 0 -0.015304823242281586 -0.0042060428265950217 0 -0.015613583688584079 -0.0038268857142489945 0 -0.015334504633695664 -0.0037974236595054523 0 -0.015304823242281586 -0.0042060428265950217 0 -0.015334504633695664 -0.0037974236595054523 0 -0.014999901189790913 -0.0038264305656155319 0 -0.015304823242281586 -0.0042060428265950217 0 -0.015289321677725152 -0.0048391454803190376 0 -0.015304823242281586 -0.0042060428265950217 0 -0.014999846869387273 -0.0046713015240422533 0 -0.014999901189790913 -0.0038264305656155319 0 -0.015304823242281586 -0.0042060428265950217 0 -0.014999846869387273 -0.0046713015240422533 0 -0.015289321677725152 -0.0048391454803190376 0 -0.015304823242281586 -0.0042060428265950217 0 -0.015500459827844034 -0.0045256260305627256 0 -0.015543189702338705 -0.0049566245066190503 0 -0.015625903422925396 -0.0046720334082187061 0 -0.015500459827844034 -0.0045256260305627256 0 -0.015625903422925396 -0.0046720334082187061 0 -0.015663209900373638 -0.0044596370937099051 0 -0.015500459827844034 -0.0045256260305627256 0 -0.015663209900373638 -0.0044596370937099051 0 -0.01563308826068173 -0.0041969244327334397 0 -0.015500459827844034 -0.0045256260305627256 0 -0.01563308826068173 -0.0041969244327334397 0 -0.015304823242281586 -0.0042060428265950217 0 -0.015500459827844034 -0.0045256260305627256 0 -0.016101554824430871 -0.0037252198051649643 0 -0.016535974537662226 -0.0032568397138051752 0 -0.015826815956414386 -0.0029130928287646944 0 -0.016101554824430871 -0.0037252198051649643 0 -0.016535974537662226 -0.0032568397138051752 0 -0.016608343050011781 -0.0042218035755022349 0 -0.016535974537662226 -0.0032568397138051752 0 -0.016894830271323973 -0.0027293442932618955 0 -0.017223672977304684 -0.0034658838201842962 0 -0.016535974537662226 -0.0032568397138051752 0 -0.016608343050011781 -0.0042218035755022349 0 -0.017223672977304684 -0.0034658838201842962 0 -0.016535974537662226 -0.0032568397138051752 0 -0.016894830271323973 -0.0027293442932618955 0 -0.016355597974398436 -0.0026117507745187524 0 -0.016894830271323973 -0.0027293442932618955 0 -0.016355597974398436 -0.0026117507745187524 0 -0.016539817102417139 -0.0019725252263943197 0 -0.016355597974398436 -0.0026117507745187524 0 -0.015826815956414386 -0.0029130928287646944 0 -0.015908885183379233 -0.0020795781388937159 0 -0.016535974537662226 -0.0032568397138051752 0 -0.016355597974398436 -0.0026117507745187524 0 -0.015826815956414386 -0.0029130928287646944 0 -0.015826815956414386 -0.0029130928287646944 0 -0.015072005131319118 -0.0030548586176225765 0 -0.015568618697984309 -0.003473917374084705 0 -0.015826815956414386 -0.0029130928287646944 0 -0.015072005131319118 -0.0030548586176225765 0 -0.015130719497339722 -0.0021541647729212462 0 -0.014565640599709695 -0.0025729679891726264 0 -0.015072005131319118 -0.0030548586176225765 0 -0.015130719497339722 -0.0021541647729212462 0 -0.01521650469340417 -0.0038966470403124912 0 -0.015568618697984309 -0.003473917374084705 0 -0.015783397997318482 -0.0043964072169718621 0 -0.014771387155709456 -0.0034921027829502671 0 -0.015072005131319118 -0.0030548586176225765 0 -0.01521650469340417 -0.0038966470403124912 0 -0.015072005131319118 -0.0030548586176225765 0 -0.01521650469340417 -0.0038966470403124912 0 -0.015568618697984309 -0.003473917374084705 0 -0.016101554824430871 -0.0037252198051649643 0 -0.015568618697984309 -0.003473917374084705 0 -0.015783397997318482 -0.0043964072169718621 0 -0.016101554824430871 -0.0037252198051649643 0 -0.015826815956414386 -0.0029130928287646944 0 -0.015568618697984309 -0.003473917374084705 0 -0.01521650469340417 -0.0038966470403124912 0 -0.015783397997318482 -0.0043964072169718621 0 -0.015206126435222221 -0.0045770090640609327 0 -0.014818222494833042 -0.0040007378746016765 0 -0.01521650469340417 -0.0038966470403124912 0 -0.015206126435222221 -0.0045770090640609327 0 -0.015269791487388024 -0.0050701626286820366 0 -0.015206126435222221 -0.0045770090640609327 0 -0.015564197182395805 -0.0053362967931301084 0 -0.015783397997318482 -0.0043964072169718621 0 -0.015206126435222221 -0.0045770090640609327 0 -0.015564197182395805 -0.0053362967931301084 0 -0.015783397997318482 -0.0043964072169718621 0 -0.01621215773772992 -0.0050190830695415268 0 -0.015564197182395805 -0.0053362967931301084 0 -0.01621215773772992 -0.0050190830695415268 0 -0.016608343050011781 -0.0042218035755022349 0 -0.016840178641541869 -0.0052106441102691917 0 -0.015783397997318482 -0.0043964072169718621 0 -0.01621215773772992 -0.0050190830695415268 0 -0.016608343050011781 -0.0042218035755022349 0 -0.016101554824430871 -0.0037252198051649643 0 -0.015783397997318482 -0.0043964072169718621 0 -0.016608343050011781 -0.0042218035755022349 0 -0.016608343050011781 -0.0042218035755022349 0 -0.017616774620509531 -0.0041875221752133932 0 -0.017223672977304684 -0.0034658838201842962 0 -0.016608343050011781 -0.0042218035755022349 0 -0.016840178641541869 -0.0052106441102691917 0 -0.017616774620509531 -0.0041875221752133932 0 -0.016840178641541869 -0.0052106441102691917 0 -0.016334449146619179 -0.0058736722534243127 0 -0.017300350641176309 -0.0064796652039860961 0 -0.016840178641541869 -0.0052106441102691917 0 -0.017300350641176309 -0.0064796652039860961 0 -0.017522800870052691 -0.0054173498275532249 0 -0.01621215773772992 -0.0050190830695415268 0 -0.016840178641541869 -0.0052106441102691917 0 -0.016334449146619179 -0.0058736722534243127 0 -0.016334449146619179 -0.0058736722534243127 0 -0.017300350641176309 -0.0064796652039860961 0 -0.01657020506435098 -0.0068170150473994568 0 -0.015384790610081899 -0.0058888884065892945 0 -0.01558422189539606 -0.0054006491480199795 0 -0.01522875529934201 -0.0061117876558813471 0 -0.015564197182395805 -0.0053362967931301084 0 -0.015783413409819716 -0.0062404757189600257 0 -0.01621215773772992 -0.0050190830695415268 0 -0.016334449146619179 -0.0058736722534243127 0 -0.015564197182395805 -0.0053362967931301084 0 -0.016334449146619179 -0.0058736722534243127 0 -0.015564197182395805 -0.0053362967931301084 0 -0.015783413409819716 -0.0062404757189600257 0 -0.016334449146619179 -0.0058736722534243127 0 -0.015783413409819716 -0.0062404757189600257 0 -0.01657020506435098 -0.0068170150473994568 0 -0.015455796592200585 -0.0067336539050713694 0 -0.01522875529934201 -0.0061117876558813471 0 -0.015783413409819716 -0.0062404757189600257 0 -0.015455796592200585 -0.0067336539050713694 0 -0.015783413409819716 -0.0062404757189600257 0 -0.015891345109733227 -0.0068927332811829656 0 -0.015783413409819716 -0.0062404757189600257 0 -0.015891345109733227 -0.0068927332811829656 0 -0.01657020506435098 -0.0068170150473994568 0 -0.015972714012619262 -0.007440309595073369 0 -0.015891345109733227 -0.0068927332811829656 0 -0.01657020506435098 -0.0068170150473994568 0 -0.015392393312998952 -0.007409249836795884 0 -0.015455796592200585 -0.0067336539050713694 0 -0.015891345109733227 -0.0068927332811829656 0 -0.015972714012619262 -0.007440309595073369 0 -0.015392393312998952 -0.007409249836795884 0 -0.015891345109733227 -0.0068927332811829656 0 -0.017042312446363582 -0.0061788641627688124 0 -0.016835986759468582 -0.0072359631799714351 0 -0.017323912235564082 -0.0067987334314287213 0 -0.017300350641176309 -0.0064796652039860961 0 -0.01657020506435098 -0.0068170150473994568 0 -0.017043932268799588 -0.0074265267540476465 0 -0.017171963241853733 -0.0063287131785709329 0 -0.016941996471495926 -0.0073300953900912449 0 -0.016804081273089664 -0.0075533299596573259 0 -0.015972714012619262 -0.007440309595073369 0 -0.01657020506435098 -0.0068170150473994568 0 -0.016804081273089664 -0.0075533299596573259 0 -0.01657020506435098 -0.0068170150473994568 0 -0.017043932268799588 -0.0074265267540476465 0 -0.017161243373724443 -0.0074778908911677352 0 -0.016835986759468582 -0.0072359631799714351 0 -0.017290126043233708 -0.0072125944164405827 0 -0.016835986759468582 -0.0072359631799714351 0 -0.017290126043233708 -0.0072125944164405827 0 -0.017323912235564082 -0.0067987334314287213 0 -0.017665332853094788 -0.0070751580867786318 0 -0.017323912235564082 -0.0067987334314287213 0 -0.018005109527231354 -0.0067782109797712362 0 -0.017460511786856012 -0.0074662439797802474 0 -0.017290126043233708 -0.0072125944164405827 0 -0.017665332853094788 -0.0070751580867786318 0 -0.017290126043233708 -0.0072125944164405827 0 -0.017665332853094788 -0.0070751580867786318 0 -0.017323912235564082 -0.0067987334314287213 0 -0.017323912235564082 -0.0067987334314287213 0 -0.017790952134482309 -0.0062803306928101155 0 -0.018005109527231354 -0.0067782109797712362 0 -0.017042312446363582 -0.0061788641627688124 0 -0.017323912235564082 -0.0067987334314287213 0 -0.017790952134482309 -0.0062803306928101155 0 -0.018301772052705074 -0.0063449833893633673 0 -0.017790952134482309 -0.0062803306928101155 0 -0.018335089964855781 -0.0059371948404354884 0 -0.018301772052705074 -0.0063449833893633673 0 -0.017790952134482309 -0.0062803306928101155 0 -0.018005109527231354 -0.0067782109797712362 0 -0.018005109527231354 -0.0067782109797712362 0 -0.018052717182619058 -0.0072753572810823341 0 -0.018633966452569432 -0.0064136210128175955 0 -0.017460511786856012 -0.0074662439797802474 0 -0.017665332853094788 -0.0070751580867786318 0 -0.018052717182619058 -0.0072753572810823341 0 -0.017665332853094788 -0.0070751580867786318 0 -0.018005109527231354 -0.0067782109797712362 0 -0.018052717182619058 -0.0072753572810823341 0 -0.013136607223566103 -0.0091321024412990854 0 -0.016234654154435677 -0.0074065827773493915 0 -0.016553089426032112 -0.0088892858622812727 0 -0.016552837790876584 -0.0088916189641425024 0 -0.016550656105830914 -0.0088237238078963821 0 -0.017506297626355416 -0.0080551902458250446 0 -0.016234654154435677 -0.0074065827773493915 0 -0.011964029146420982 -0.0081843668876900866 0 -0.012599417496802965 -0.0073101141516119447 0 -0.012025938587426805 -0.0072968338054676726 0 -0.0091270312583013342 -0.0092291269322029371 0 -0.0085423135281425099 -0.0093096098988972153 0 -0.0086355127504079334 -0.0096704487143603798 0 -0.013136607223566103 -0.0091321024412990854 0 -0.009967388970679239 -0.0086406333934869323 0 -0.012599417496802965 -0.0073101141516119447 0 -0.012025938587426805 -0.0072968338054676726 0 -0.012425626919416245 -0.006833822602743493 0 -0.018301772052705074 -0.0063449833893633673 0 -0.018005109527231354 -0.0067782109797712362 0 -0.018633966452569432 -0.0064136210128175955 0 -0.018633086827080952 -0.0064129178198397427 0 -0.018638799568511565 -0.0063376504707842694 0 -0.01914443438390024 -0.0056259927677121862 0 -0.016234654154435677 -0.0074065827773493915 0 -0.016330409140871582 -0.0072489531917047708 0 -0.018301772052705074 -0.0063449833893633673 0 -0.018638799568511565 -0.0063376504707842694 0 -0.018335089964855781 -0.0059371948404354884 0 -0.018301772052705074 -0.0063449833893633673 0 -0.018633966452569432 -0.0064136210128175955 0 -0.018638799568511565 -0.0063376504707842694 0 -0.018638799568511565 -0.0063376504707842694 0 -0.018335089964855781 -0.0059371948404354884 0 -0.01914443438390024 -0.0056259927677121862 0 -0.018335089964855781 -0.0059371948404354884 0 -0.01914443438390024 -0.0056259927677121862 0 -0.018449355422612113 -0.0053756913220507716 0 -0.012425626919416245 -0.006833822602743493 0 -0.012519722375168284 -0.0065469170227052068 0 -0.013347952140296682 -0.0064000400312315478 0 -0.012599417496802965 -0.0073101141516119447 0 -0.012425626919416245 -0.006833822602743493 0 -0.01317051474945834 -0.0065348390136220789 0 -0.012025938587426805 -0.0072968338054676726 0 -0.012425626919416245 -0.006833822602743493 0 -0.012519722375168284 -0.0065469170227052068 0 -0.016234654154435677 -0.0074065827773493915 0 -0.015741482914188275 -0.0060332265044797133 0 -0.01914443438390024 -0.0056259927677121862 0 -0.019653257883368209 -0.0048375574580678711 0 -0.018895126605176563 -0.0048504689598771241 0 -0.015741482914188275 -0.0060332265044797133 0 -0.016341161420259011 -0.0052667316216112453 0 -0.01914443438390024 -0.0056259927677121862 0 -0.018449355422612113 -0.0053756913220507716 0 -0.018895126605176563 -0.0048504689598771241 0 -0.018449355422612113 -0.0053756913220507716 0 -0.018034025580172943 -0.0048088452191380289 0 -0.018895126605176563 -0.0048504689598771241 0 -0.018449355422612113 -0.0053756913220507716 0 -0.017831022949427813 -0.0056146377510103707 0 -0.018034025580172943 -0.0048088452191380289 0 -0.017307887857120844 -0.0051324834280301046 0 -0.017831022949427813 -0.0056146377510103707 0 -0.018034025580172943 -0.0048088452191380289 0 -0.017042312446363582 -0.0061788641627688124 0 -0.017307887857120844 -0.0051324834280301046 0 -0.017831022949427813 -0.0056146377510103707 0 -0.017171963241853733 -0.0063287131785709329 0 -0.017411322718527762 -0.005268170151943201 0 -0.017042312446363582 -0.0061788641627688124 0 -0.017790952134482309 -0.0062803306928101155 0 -0.017831022949427813 -0.0056146377510103707 0 -0.018335089964855781 -0.0059371948404354884 0 -0.018449355422612113 -0.0053756913220507716 0 -0.017831022949427813 -0.0056146377510103707 0 -0.017790952134482309 -0.0062803306928101155 0 -0.018335089964855781 -0.0059371948404354884 0 -0.017831022949427813 -0.0056146377510103707 0 -0.0055925189330257342 -0.0074244137734535065 0 -0.0055103428247109372 -0.007340667770467422 0 -0.0055876988997036921 -0.0073667454537381027 0 -0.0075344198400487464 -0.0092404005666413477 0 -0.0077028141350360844 -0.0097175049478616625 0 -0.0081152943495119995 -0.0095514331748204756 0 -0.0066038417860666016 -0.0082127337635062043 0 -0.0062826503340181151 -0.0090158681606184871 0 -0.008209350833976007 -0.0090868318229497622 0 -0.0075344198400487464 -0.0092404005666413477 0 -0.0081152943495119995 -0.0095514331748204756 0 -0.0077028141350360844 -0.0097175049478616625 0 -0.0081152943495119995 -0.0095514331748204756 0 -0.0082715810777563015 -0.010010072920648058 0 -0.0085423135281425099 -0.0093096098988972153 0 -0.0086355127504079334 -0.0096704487143603798 0 -0.0081152943495119995 -0.0095514331748204756 0 -0.008209350833976007 -0.0090868318229497622 0 -0.0085423135281425099 -0.0093096098988972153 0 -0.0081152943495119995 -0.0095514331748204756 0 -0.0086355127504079334 -0.0096704487143603798 0 -0.0081152943495119995 -0.0095514331748204756 0 -0.0082715810777563015 -0.010010072920648058 0 -0.009967388970679239 -0.0086406333934869323 0 -0.011901969683536948 -0.007799868479448642 0 -0.013089406101739429 -0.006379298599844296 0 -0.011901969683536948 -0.007799868479448642 0 -0.012519722375168284 -0.0065469170227052068 0 -0.013347952140296682 -0.0064000400312315478 0 -0.013138717504743507 -0.0061147057086861287 0 -0.012519722375168284 -0.0065469170227052068 0 -0.013138717504743507 -0.0061147057086861287 0 -0.013050734060425877 -0.0056704835613984022 0 -0.013138717504743507 -0.0061147057086861287 0 -0.01344908050880134 -0.0058225372489672722 0 -0.013050734060425877 -0.0056704835613984022 0 -0.013138717504743507 -0.0061147057086861287 0 -0.01344908050880134 -0.0058225372489672722 0 -0.013457852394614464 -0.0062608032440814049 0 -0.013347952140296682 -0.0064000400312315478 0 -0.013138717504743507 -0.0061147057086861287 0 -0.013457852394614464 -0.0062608032440814049 0 -0.011901969683536948 -0.007799868479448642 0 -0.012586193971934282 -0.0070129698286301367 0 -0.013340878431945029 -0.0064085222109888079 0 -0.013457852394614464 -0.0062608032440814049 0 -0.014502277984380408 -0.0058981066656826637 0 -0.013457852394614464 -0.0062608032440814049 0 -0.014502277984380408 -0.0058981066656826637 0 -0.01379301007473176 -0.0055522653938277411 0 -0.01344908050880134 -0.0058225372489672722 0 -0.013457852394614464 -0.0062608032440814049 0 -0.01379301007473176 -0.0055522653938277411 0 -0.011901969683536948 -0.007799868479448642 0 -0.0090369372759033315 -0.0063841100087628656 0 -0.0077028141350360844 -0.0097175049478616625 0 -0.0082715810777563015 -0.010010072920648058 0 -0.007822854574055323 -0.010149215129210614 0 -0.0062826503340181151 -0.0090158681606184871 0 -0.0090369372759033315 -0.0063841100087628656 0 -0.0054720970628853753 -0.0071614269085792008 0 -0.0055768197925845503 -0.0070519501783586312 0 -0.0055850851283562987 -0.0072474099840885587 0 -0.0055103428247109372 -0.007340667770467422 0 -0.0054720970628853753 -0.0071614269085792008 0 -0.0055850851283562987 -0.0072474099840885587 0 -0.009293036063964288 -0.0020650031038622701 0 -0.009282043824328479 -0.0020394905745355074 0 -0.0092426692732385136 -0.0020245892307738807 0 -0.0090369372759033315 -0.0063841100087628656 0 -0.0070518422679769644 -0.0048951617735527326 0 -0.014502277984380408 -0.0058981066656826637 0 -0.014406877255903229 -0.004883793284756118 0 -0.01379301007473176 -0.0055522653938277411 0 -0.0090369372759033315 -0.0063841100087628656 0 -0.011698394349979829 -0.0029283583697222687 0 -0.009293036063964288 -0.0020650031038622701 0 -0.009282043824328479 -0.0020394905745355074 0 -0.0093135664548472958 -0.0020521779059114358 0 -0.0093135664548472958 -0.0020521779059114358 0 -0.0093185789714967417 -0.0020500425003798267 0 -0.009357793820672259 -0.002056026376924485 0 -0.009282043824328479 -0.0020394905745355074 0 -0.0093135664548472958 -0.0020521779059114358 0 -0.0093185789714967417 -0.0020500425003798267 0 -0.011698394349979829 -0.0029283583697222687 0 -0.016109926286328423 -0.003162811779663619 0 -0.014406877255903229 -0.004883793284756118 0 -0.013646230417560549 -0.0047621936093640268 0 -0.014292379830874976 -0.0038398323209131412 0 -0.017059596003755364 -0.0043918971701739848 0 -0.016109926286328423 -0.003162811779663619 0 -0.014406877255903229 -0.004883793284756118 0 -0.013646230417560549 -0.0047621936093640268 0 -0.01379301007473176 -0.0055522653938277411 0 -0.013646230417560549 -0.0047621936093640268 0 -0.01379301007473176 -0.0055522653938277411 0 -0.013050734060425877 -0.0056704835613984022 0 -0.01344908050880134 -0.0058225372489672722 0 -0.01379301007473176 -0.0055522653938277411 0 -0.013050734060425877 -0.0056704835613984022 0 -0.0201509486094711 -0.0040327941783543392 0 -0.019653257883368209 -0.0048375574580678711 0 -0.019318697698939482 -0.0040550521411324919 0 -0.017059596003755364 -0.0043918971701739848 0 -0.016341161420259011 -0.0052667316216112453 0 -0.0201509486094711 -0.0040327941783543392 0 -0.019708212481569638 -0.0031921781901605127 0 -0.019318697698939482 -0.0040550521411324919 0 -0.019708212481569638 -0.0031921781901605127 0 -0.020041897135691631 -0.0027377645743888036 0 -0.020203321594021061 -0.0030816807581994904 0 -0.019526944739478701 -0.002473072331748457 0 -0.020041897135691631 -0.0027377645743888036 0 -0.020206765551222618 -0.002169725694660968 0 -0.019708212481569638 -0.0031921781901605127 0 -0.019526944739478701 -0.002473072331748457 0 -0.020041897135691631 -0.0027377645743888036 0 -0.020041897135691631 -0.0027377645743888036 0 -0.020517092815645049 -0.0027851445974854581 0 -0.020206765551222618 -0.002169725694660968 0 -0.020041897135691631 -0.0027377645743888036 0 -0.020203321594021061 -0.0030816807581994904 0 -0.020517092815645049 -0.0027851445974854581 0 -0.0201509486094711 -0.0040327941783543392 0 -0.019708212481569638 -0.0031921781901605127 0 -0.020203321594021061 -0.0030816807581994904 0 -0.0201509486094711 -0.0040327941783543392 0 -0.020203321594021061 -0.0030816807581994904 0 -0.020619721306822141 -0.0032310897398050323 0 -0.020203321594021061 -0.0030816807581994904 0 -0.020619721306822141 -0.0032310897398050323 0 -0.020517092815645049 -0.0027851445974854581 0 -0.0093185789714967417 -0.0020500425003798267 0 -0.009357793820672259 -0.002056026376924485 0 -0.0093495618973763687 -0.0020628006509076677 0 -0.016109926286328423 -0.003162811779663619 0 -0.012902131633265788 0.00082089902455490546 0 -0.016109926286328423 -0.003162811779663619 0 -0.01917161794030451 -0.003172752304463258 0 -0.020517092815645049 -0.0027851445974854581 0 -0.020817195171401199 -0.0027100421327712759 0 -0.020206765551222618 -0.002169725694660968 0 -0.012902131633265788 0.00082089902455490546 0 -0.017382730477971075 0.00059633488402277806 0 -0.020527737459830313 -0.0030848744094981845 0 -0.020517092815645049 -0.0027851445974854581 0 -0.020817195171401199 -0.0027100421327712759 0 -0.010589986226925387 0.004575457921890725 0 -0.010358476195721722 0.0054762068919777789 0 -0.0096880473875044556 0.0043963593404107541 0 -0.012902131633265788 0.00082089902455490546 0 -0.0094294640698156466 0.0019006734294748104 0 -0.011520572393381657 0.0046604273363264571 0 -0.010589986226925387 0.004575457921890725 0 -0.010358476195721722 0.0054762068919777789 0 -0.010589986226925387 0.004575457921890725 0 -0.010815753430153055 0.0036786333731791037 0 -0.0096880473875044556 0.0043963593404107541 0 -0.012902131633265788 0.00082089902455490546 0 -0.011113701200760748 0.0040764931999351809 0 -0.011520572393381657 0.0046604273363264571 0 -0.010589986226925387 0.004575457921890725 0 -0.010815753430153055 0.0036786333731791037 0 -0.009282043824328479 -0.0020394905745355074 0 -0.0093185789714967417 -0.0020500425003798267 0 -0.0092805962277254933 -0.0020530249187150937 0 -0.0093185789714967417 -0.0020500425003798267 0 -0.0093495618973763687 -0.0020628006509076677 0 -0.0092805962277254933 -0.0020530249187150937 0 -0.017616774620509531 -0.0041875221752133932 0 -0.018558442149638463 -0.0042073540313516729 0 -0.018053650295586147 -0.0034371228978271229 0 -0.017411322718527762 -0.005268170151943201 0 -0.017609925498700232 -0.0042615377942991804 0 -0.017307887857120844 -0.0051324834280301046 0 -0.017616774620509531 -0.0041875221752133932 0 -0.018034025580172943 -0.0048088452191380289 0 -0.016840178641541869 -0.0052106441102691917 0 -0.017522800870052691 -0.0054173498275532249 0 -0.017616774620509531 -0.0041875221752133932 0 -0.017616774620509531 -0.0041875221752133932 0 -0.018034025580172943 -0.0048088452191380289 0 -0.018558442149638463 -0.0042073540313516729 0 -0.018034025580172943 -0.0048088452191380289 0 -0.018895126605176563 -0.0048504689598771241 0 -0.018558442149638463 -0.0042073540313516729 0 -0.018895126605176563 -0.0048504689598771241 0 -0.019318697698939482 -0.0040550521411324919 0 -0.018558442149638463 -0.0042073540313516729 0 -0.019653257883368209 -0.0048375574580678711 0 -0.018895126605176563 -0.0048504689598771241 0 -0.019318697698939482 -0.0040550521411324919 0 -0.019318697698939482 -0.0040550521411324919 0 -0.018558442149638463 -0.0042073540313516729 0 -0.018853484217105889 -0.0031279108924700252 0 -0.018558442149638463 -0.0042073540313516729 0 -0.018853484217105889 -0.0031279108924700252 0 -0.018053650295586147 -0.0034371228978271229 0 -0.019708212481569638 -0.0031921781901605127 0 -0.019318697698939482 -0.0040550521411324919 0 -0.018853484217105889 -0.0031279108924700252 0 -0.019708212481569638 -0.0031921781901605127 0 -0.019526944739478701 -0.002473072331748457 0 -0.018853484217105889 -0.0031279108924700252 0 -0.019526944739478701 -0.002473072331748457 0 -0.018853484217105889 -0.0031279108924700252 0 -0.018694876801734952 -0.0022100584862578161 0 -0.018853484217105889 -0.0031279108924700252 0 -0.017996225080570763 -0.0023696497671007034 0 -0.018694876801734952 -0.0022100584862578161 0 -0.017996225080570763 -0.0023696497671007034 0 -0.018053650295586147 -0.0034371228978271229 0 -0.017536947362676244 -0.0028465519057779285 0 -0.018853484217105889 -0.0031279108924700252 0 -0.017996225080570763 -0.0023696497671007034 0 -0.018053650295586147 -0.0034371228978271229 0 -0.018053650295586147 -0.0034371228978271229 0 -0.017223672977304684 -0.0034658838201842962 0 -0.017536947362676244 -0.0028465519057779285 0 -0.017616774620509531 -0.0041875221752133932 0 -0.018053650295586147 -0.0034371228978271229 0 -0.017223672977304684 -0.0034658838201842962 0 -0.016894830271323973 -0.0027293442932618955 0 -0.017223672977304684 -0.0034658838201842962 0 -0.017536947362676244 -0.0028465519057779285 0 -0.017996225080570763 -0.0023696497671007034 0 -0.017536947362676244 -0.0028465519057779285 0 -0.017153669093017569 -0.0021666822153744115 0 -0.016894830271323973 -0.0027293442932618955 0 -0.017536947362676244 -0.0028465519057779285 0 -0.017153669093017569 -0.0021666822153744115 0 -0.017996225080570763 -0.0023696497671007034 0 -0.017153669093017569 -0.0021666822153744115 0 -0.017339512933828963 -0.0014003056254130821 0 -0.017339512933828963 -0.0014003056254130821 0 -0.017024758785027839 -0.00069250354597712703 0 -0.016724032167677753 -0.0012213777406654923 0 -0.017339512933828963 -0.0014003056254130821 0 -0.017024758785027839 -0.00069250354597712703 0 -0.017591026029080921 -0.00066780904937291136 0 -0.017153669093017569 -0.0021666822153744115 0 -0.017339512933828963 -0.0014003056254130821 0 -0.016724032167677753 -0.0012213777406654923 0 -0.018058108898012754 -0.0014655929869961954 0 -0.018738755842801373 -0.00052648499732761136 0 -0.017591026029080921 -0.00066780904937291136 0 -0.017339512933828963 -0.0014003056254130821 0 -0.018058108898012754 -0.0014655929869961954 0 -0.017591026029080921 -0.00066780904937291136 0 -0.017996225080570763 -0.0023696497671007034 0 -0.017339512933828963 -0.0014003056254130821 0 -0.018058108898012754 -0.0014655929869961954 0 -0.017996225080570763 -0.0023696497671007034 0 -0.018058108898012754 -0.0014655929869961954 0 -0.018694876801734952 -0.0022100584862578161 0 -0.018058108898012754 -0.0014655929869961954 0 -0.018694876801734952 -0.0022100584862578161 0 -0.018721019083657912 -0.0015198673593763848 0 -0.018694876801734952 -0.0022100584862578161 0 -0.018721019083657912 -0.0015198673593763848 0 -0.019459473200831821 -0.0015257729009487194 0 -0.019526944739478701 -0.002473072331748457 0 -0.018694876801734952 -0.0022100584862578161 0 -0.019459473200831821 -0.0015257729009487194 0 -0.018721019083657912 -0.0015198673593763848 0 -0.018655721752836224 -0.00090003587410668958 0 -0.019459473200831821 -0.0015257729009487194 0 -0.017626826780087465 0.00027232114939939456 0 -0.016899509042066718 0.0006240905695553625 0 -0.018058108898012754 -0.0014655929869961954 0 -0.018721019083657912 -0.0015198673593763848 0 -0.018655721752836224 -0.00090003587410668958 0 -0.018260013772545207 -0.0015728057969611891 0 -0.017626826780087465 0.00027232114939939456 0 -0.017626826780087465 0.00027232114939939456 0 -0.017855368456854166 5.7056988638372601e-05 0 -0.016060253588238899 0.0016401087458328459 0 -0.014696799149573911 0.0026141815953555519 0 -0.01440716201248074 0.0014881911003463222 0 -0.016060253588238899 0.0016401087458328459 0 -0.014881476410919799 0.00047154539455983768 0 -0.01440716201248074 0.0014881911003463222 0 -0.017626826780087465 0.00027232114939939456 0 -0.015667310702383887 0.00052056057535765084 0 -0.017226406210727848 0.00060762607773573571 0 -0.016716766733848854 0.00040715587456745294 0 -0.017212945758854643 0.0001820519524619092 0 -0.017226406210727848 0.00060762607773573571 0 -0.017212945758854643 0.0001820519524619092 0 -0.01769640565626935 0.00013885862840054333 0 -0.017212945758854643 0.0001820519524619092 0 -0.01769640565626935 0.00013885862840054333 0 -0.017450286098593441 0.00016521709912919528 0 -0.01769640565626935 0.00013885862840054333 0 -0.017411147621642305 0.00016286174381870423 0 -0.017450286098593441 0.00016521709912919528 0 -0.017118796769778722 0.00014754716793101121 0 -0.017419841557940623 0.00027054597259310308 0 -0.016642954926581181 0.00036455706334825205 0 -0.01769640565626935 0.00013885862840054333 0 -0.017411147621642305 0.00016286174381870423 0 -0.017250461240889161 -0.00015805984894674594 0 -0.017411147621642305 0.00016286174381870423 0 -0.017118796769778722 0.00014754716793101121 0 -0.017419841557940623 0.00027054597259310308 0 -0.017411147621642305 0.00016286174381870423 0 -0.017118796769778722 0.00014754716793101121 0 -0.017250461240889161 -0.00015805984894674594 0 -0.017118796769778722 0.00014754716793101121 0 -0.017250461240889161 -0.00015805984894674594 0 -0.01675433820245896 -0.00014095855856972021 0 -0.017250461240889161 -0.00015805984894674594 0 -0.017024758785027839 -0.00069250354597712703 0 -0.017591026029080921 -0.00066780904937291136 0 -0.01769640565626935 0.00013885862840054333 0 -0.017250461240889161 -0.00015805984894674594 0 -0.017591026029080921 -0.00066780904937291136 0 -0.018738755842801373 -0.00052648499732761136 0 -0.01769640565626935 0.00013885862840054333 0 -0.017591026029080921 -0.00066780904937291136 0 -0.011284906980957479 0.0022506827850251937 0 -0.011030559325859524 0.0037106901007318074 0 -0.010157980805386962 0.0026676468326420504 0 -0.011284906980957479 0.0022506827850251937 0 -0.011030559325859524 0.0037106901007318074 0 -0.01220027427020272 0.0028830709521744519 0 -0.011284906980957479 0.0022506827850251937 0 -0.010651205683959468 0.001363837554982094 0 -0.010157980805386962 0.0026676468326420504 0 -0.011113701200760748 0.0040764931999351809 0 -0.010146882666362775 0.0026323599607314717 0 -0.011030559325859524 0.0037106901007318074 0 -0.012091823381783969 0.0037390096483057599 0 -0.01220027427020272 0.0028830709521744519 0 -0.012091823381783969 0.0037390096483057599 0 -0.01220027427020272 0.0028830709521744519 0 -0.013302468828925298 0.0036471222867576537 0 -0.011815039619005518 0.0047094508885389295 0 -0.012091823381783969 0.0037390096483057599 0 -0.013302468828925298 0.0036471222867576537 0 -0.011815039619005518 0.0047094508885389295 0 -0.011030559325859524 0.0037106901007318074 0 -0.012091823381783969 0.0037390096483057599 0 -0.011284906980957479 0.0022506827850251937 0 -0.01220027427020272 0.0028830709521744519 0 -0.012197947279483713 0.0015568559646473368 0 -0.01220027427020272 0.0028830709521744519 0 -0.013337898049629277 0.0021209545787538378 0 -0.012197947279483713 0.0015568559646473368 0 -0.01220027427020272 0.0028830709521744519 0 -0.013337898049629277 0.0021209545787538378 0 -0.013302468828925298 0.0036471222867576537 0 -0.017382730477971075 0.00059633488402277806 0 -0.016899509042066718 0.0006240905695553625 0 -0.019526944739478701 -0.002473072331748457 0 -0.020206765551222618 -0.002169725694660968 0 -0.019459473200831821 -0.0015257729009487194 0 -0.013337898049629277 0.0021209545787538378 0 -0.014696799149573911 0.0026141815953555519 0 -0.01440716201248074 0.0014881911003463222 0 -0.013337898049629277 0.0021209545787538378 0 -0.013302468828925298 0.0036471222867576537 0 -0.014696799149573911 0.0026141815953555519 0 -0.014881476410919799 0.00047154539455983768 0 -0.01440716201248074 0.0014881911003463222 0 -0.013261811731752593 0.00066887719632599465 0 -0.014881476410919799 0.00047154539455983768 0 -0.013261811731752593 0.00066887719632599465 0 -0.013713315643454585 -0.00062388401513660248 0 -0.013337898049629277 0.0021209545787538378 0 -0.013261811731752593 0.00066887719632599465 0 -0.012197947279483713 0.0015568559646473368 0 -0.013337898049629277 0.0021209545787538378 0 -0.01440716201248074 0.0014881911003463222 0 -0.013261811731752593 0.00066887719632599465 0 -0.012176590708081584 0.0014967452470032979 0 -0.011662393269270955 0.0001533373379783989 0 -0.013261811731752593 0.00066887719632599465 0 -0.011806191321159742 0.00038075381150341417 0 -0.01265131936430228 -0.00057078436513075643 0 -0.013261811731752593 0.00066887719632599465 0 -0.012197947279483713 0.0015568559646473368 0 -0.011806191321159742 0.00038075381150341417 0 -0.011549209696401825 0.00011204032500431134 0 -0.010651205683959468 0.001363837554982094 0 -0.0095317232002127689 -0.0002324715734075381 0 -0.011284906980957479 0.0022506827850251937 0 -0.012197947279483713 0.0015568559646473368 0 -0.010651205683959468 0.001363837554982094 0 -0.012197947279483713 0.0015568559646473368 0 -0.011549209696401825 0.00011204032500431134 0 -0.010651205683959468 0.001363837554982094 0 -0.011878932806776443 -0.0016409329575106789 0 -0.011574503368394336 -0.00081171692360500149 0 -0.011208201532281767 -0.0016993771578476403 0 -0.011878932806776443 -0.0016409329575106789 0 -0.011574503368394336 -0.00081171692360500149 0 -0.01230053705783829 -0.001375623824658122 0 -0.011048187102214349 -0.00032285882988450923 0 -0.010543446781504729 0.00057190838407149215 0 -0.011806191321159742 0.00038075381150341417 0 -0.011390571009578732 -0.00073555113561290424 0 -0.012065009466704173 -0.00077055605628708159 0 -0.011549209696401825 0.00011204032500431134 0 -0.010946601405835482 -0.0012977555255359837 0 -0.0095317232002127689 -0.0002324715734075381 0 -0.011662393269270955 0.0001533373379783989 0 -0.011048187102214349 -0.00032285882988450923 0 -0.011806191321159742 0.00038075381150341417 0 -0.012065009466704173 -0.00077055605628708159 0 -0.01265131936430228 -0.00057078436513075643 0 -0.012065009466704173 -0.00077055605628708159 0 -0.01265131936430228 -0.00057078436513075643 0 -0.01230053705783829 -0.001375623824658122 0 -0.01265131936430228 -0.00057078436513075643 0 -0.01230053705783829 -0.001375623824658122 0 -0.012641134381971935 -0.0015966260702535667 0 -0.011878932806776443 -0.0016409329575106789 0 -0.01230053705783829 -0.001375623824658122 0 -0.012641134381971935 -0.0015966260702535667 0 -0.011390571009578732 -0.00073555113561290424 0 -0.012065009466704173 -0.00077055605628708159 0 -0.01230053705783829 -0.001375623824658122 0 -0.011048187102214349 -0.00032285882988450923 0 -0.012397129076794217 -0.0014631083096644205 0 -0.013776163152274175 -0.001092202571237235 0 -0.014875509000959332 -0.00022687877776347696 0 -0.01500525913567013 -0.00029337295372856706 0 -0.015727459466948538 -0.0003696672730068436 0 -0.016011523472458551 0.0001567954077005624 0 -0.01265131936430228 -0.00057078436513075643 0 -0.012641134381971935 -0.0015966260702535667 0 -0.013713315643454585 -0.00062388401513660248 0 -0.01500525913567013 -0.00029337295372856706 0 -0.015727459466948538 -0.0003696672730068436 0 -0.015329916767524607 -0.0005542869373148789 0 -0.013261811731752593 0.00066887719632599465 0 -0.01265131936430228 -0.00057078436513075643 0 -0.013713315643454585 -0.00062388401513660248 0 -0.016716766733848854 0.00040715587456745294 0 -0.016011523472458551 0.0001567954077005624 0 -0.016720882473152534 -5.2358260023132158e-05 0 -0.015667310702383887 0.00052056057535765084 0 -0.014875509000959332 -0.00022687877776347696 0 -0.015727459466948538 -0.0003696672730068436 0 -0.016011523472458551 0.0001567954077005624 0 -0.016225474953020975 -0.00033077760578026838 0 -0.016011523472458551 0.0001567954077005624 0 -0.016225474953020975 -0.00033077760578026838 0 -0.016720882473152534 -5.2358260023132158e-05 0 -0.011707554629316384 0.002183505191757612 0 -0.011971215270267593 0.0022120069963409536 0 -0.01158741265655555 0.0020078790066032481 0 -0.015988182914985109 -0.00087746625156986588 0 -0.015706652049074087 -0.0011419851808833351 0 -0.016626468313149356 -0.00062969987061493751 0 -0.013588369030840094 0.00082026104637903904 0 -0.014149941896952551 0.00066225290520138466 0 -0.016225474953020975 -0.00033077760578026838 0 -0.015988182914985109 -0.00087746625156986588 0 -0.016626468313149356 -0.00062969987061493751 0 -0.015727459466948538 -0.0003696672730068436 0 -0.016225474953020975 -0.00033077760578026838 0 -0.015988182914985109 -0.00087746625156986588 0 -0.015075528710786499 -9.0063174774643822e-05 0 -0.013588369030840094 0.00082026104637903904 0 -0.011707554629316384 0.002183505191757612 0 -0.011857521496184232 0.0024840363054533235 0 -0.011971215270267593 0.0022120069963409536 0 -0.011707554629316384 0.002183505191757612 0 -0.011857521496184232 0.0024840363054533235 0 -0.01164987593954149 0.0022698059664252664 0 -0.011857521496184232 0.0024840363054533235 0 -0.01164987593954149 0.0022698059664252664 0 -0.01162835476733802 0.0026606650007541242 0 -0.011971215270267593 0.0022120069963409536 0 -0.012028960704174283 0.0025672607738041341 0 -0.012208081793383735 0.0027397669205483683 0 -0.015672081058289357 -0.0012107578421379206 0 -0.01497298693059366 -0.0013270360492861157 0 -0.014431745891547243 -0.0019807840370199589 0 -0.013588369030840094 0.00082026104637903904 0 -0.013088008682675085 0.00041444063247492006 0 -0.013588369030840094 0.00082026104637903904 0 -0.011739713366572022 0.0029583884987284853 0 -0.011857521496184232 0.0024840363054533235 0 -0.011971215270267593 0.0022120069963409536 0 -0.012028960704174283 0.0025672607738041341 0 -0.015672081058289357 -0.0012107578421379206 0 -0.01497298693059366 -0.0013270360492861157 0 -0.015225583261240258 -0.00084204609326367721 0 -0.01497298693059366 -0.0013270360492861157 0 -0.015225583261240258 -0.00084204609326367721 0 -0.014758229223373127 -0.0010528607002410165 0 -0.015225583261240258 -0.00084204609326367721 0 -0.014889268994200023 -0.00082192304600193383 0 -0.014758229223373127 -0.0010528607002410165 0 -0.015988182914985109 -0.00087746625156986588 0 -0.015672081058289357 -0.0012107578421379206 0 -0.015603446322186659 -0.00073877516595598648 0 -0.015672081058289357 -0.0012107578421379206 0 -0.015225583261240258 -0.00084204609326367721 0 -0.015603446322186659 -0.00073877516595598648 0 -0.015727459466948538 -0.0003696672730068436 0 -0.015603446322186659 -0.00073877516595598648 0 -0.015329916767524607 -0.0005542869373148789 0 -0.015727459466948538 -0.0003696672730068436 0 -0.015988182914985109 -0.00087746625156986588 0 -0.015603446322186659 -0.00073877516595598648 0 -0.01500525913567013 -0.00029337295372856706 0 -0.015329916767524607 -0.0005542869373148789 0 -0.01504279594602807 -0.0005972148665094627 0 -0.015225583261240258 -0.00084204609326367721 0 -0.01504279594602807 -0.0005972148665094627 0 -0.014889268994200023 -0.00082192304600193383 0 -0.015225583261240258 -0.00084204609326367721 0 -0.015329916767524607 -0.0005542869373148789 0 -0.01504279594602807 -0.0005972148665094627 0 -0.015225583261240258 -0.00084204609326367721 0 -0.015603446322186659 -0.00073877516595598648 0 -0.015329916767524607 -0.0005542869373148789 0 -0.013776163152274175 -0.001092202571237235 0 -0.012624215586539689 -0.00095694725142336562 0 -0.01500525913567013 -0.00029337295372856706 0 -0.014485310589081006 -0.00083713242226858943 0 -0.013625350891947552 -0.001086749077937625 0 -0.011878932806776443 -0.0016409329575106789 0 -0.012641134381971935 -0.0015966260702535667 0 -0.0117885302243719 -0.0024121505588627478 0 -0.01500525913567013 -0.00029337295372856706 0 -0.01504279594602807 -0.0005972148665094627 0 -0.014485310589081006 -0.00083713242226858943 0 -0.01504279594602807 -0.0005972148665094627 0 -0.014485310589081006 -0.00083713242226858943 0 -0.014889268994200023 -0.00082192304600193383 0 -0.01408557394215665 -0.0010403097887694245 0 -0.014485310589081006 -0.00083713242226858943 0 -0.013625350891947552 -0.001086749077937625 0 -0.01408557394215665 -0.0010403097887694245 0 -0.014411104086507885 -0.001066521533356145 0 -0.014485310589081006 -0.00083713242226858943 0 -0.014411104086507885 -0.001066521533356145 0 -0.014758229223373127 -0.0010528607002410165 0 -0.014516681752047013 -0.0013321191374398526 0 -0.014411104086507885 -0.001066521533356145 0 -0.014485310589081006 -0.00083713242226858943 0 -0.014758229223373127 -0.0010528607002410165 0 -0.014485310589081006 -0.00083713242226858943 0 -0.014889268994200023 -0.00082192304600193383 0 -0.014758229223373127 -0.0010528607002410165 0 -0.011685313793696488 0.0026671015027086215 0 -0.011736687422111534 0.0027895463841877311 0 -0.011718479163680594 0.0028375719932257717 0 -0.01497298693059366 -0.0013270360492861157 0 -0.014516681752047013 -0.0013321191374398526 0 -0.014527753234707983 -0.0015478211050810294 0 -0.01497298693059366 -0.0013270360492861157 0 -0.014758229223373127 -0.0010528607002410165 0 -0.014516681752047013 -0.0013321191374398526 0 -0.01497298693059366 -0.0013270360492861157 0 -0.014527753234707983 -0.0015478211050810294 0 -0.014431745891547243 -0.0019807840370199589 0 -0.014516681752047013 -0.0013321191374398526 0 -0.014527753234707983 -0.0015478211050810294 0 -0.014143093294442048 -0.0015472807581967481 0 -0.014431745891547243 -0.0019807840370199589 0 -0.014143093294442048 -0.0015472807581967481 0 -0.013408007007334135 -0.0019539226215962379 0 -0.014527753234707983 -0.0015478211050810294 0 -0.014431745891547243 -0.0019807840370199589 0 -0.014143093294442048 -0.0015472807581967481 0 -0.014143093294442048 -0.0015472807581967481 0 -0.013706290577573341 -0.0012608279023505367 0 -0.013408007007334135 -0.0019539226215962379 0 -0.014143093294442048 -0.0015472807581967481 0 -0.01411468135932595 -0.0012478312805061784 0 -0.013706290577573341 -0.0012608279023505367 0 -0.014516681752047013 -0.0013321191374398526 0 -0.014143093294442048 -0.0015472807581967481 0 -0.01411468135932595 -0.0012478312805061784 0 -0.014411104086507885 -0.001066521533356145 0 -0.014516681752047013 -0.0013321191374398526 0 -0.01411468135932595 -0.0012478312805061784 0 -0.01408557394215665 -0.0010403097887694245 0 -0.014411104086507885 -0.001066521533356145 0 -0.01411468135932595 -0.0012478312805061784 0 -0.01408557394215665 -0.0010403097887694245 0 -0.013872855616682528 -0.0011526318907971358 0 -0.013625350891947552 -0.001086749077937625 0 -0.01411468135932595 -0.0012478312805061784 0 -0.013872855616682528 -0.0011526318907971358 0 -0.013706290577573341 -0.0012608279023505367 0 -0.01408557394215665 -0.0010403097887694245 0 -0.01411468135932595 -0.0012478312805061784 0 -0.013872855616682528 -0.0011526318907971358 0 -0.012624215586539689 -0.00095694725142336562 0 -0.010884637293948117 -0.0020300565005363334 0 -0.013385798289805455 -0.00083937329697278504 0 -0.013706290577573341 -0.0012608279023505367 0 -0.012885156888738069 -0.0017312784808605703 0 -0.012343143025194105 0.00022802218170857403 0 -0.0099633008417337552 0.00027284141971683639 0 -0.010447109836049882 -0.0017910628786495378 0 -0.013385798289805455 -0.00083937329697278504 0 -0.012885156888738069 -0.0017312784808605703 0 -0.011332656086662875 -0.0023219307241967475 0 -0.013872855616682528 -0.0011526318907971358 0 -0.013625350891947552 -0.001086749077937625 0 -0.013706290577573341 -0.0012608279023505367 0 -0.012624215586539689 -0.00095694725142336562 0 -0.012969147283822568 -0.0012047330918128149 0 -0.013706290577573341 -0.0012608279023505367 0 -0.013408007007334135 -0.0019539226215962379 0 -0.012885156888738069 -0.0017312784808605703 0 -0.013408007007334135 -0.0019539226215962379 0 -0.012885156888738069 -0.0017312784808605703 0 -0.012540367783142105 -0.0022826630076366616 0 -0.012885156888738069 -0.0017312784808605703 0 -0.012540367783142105 -0.0022826630076366616 0 -0.011332656086662875 -0.0023219307241967475 0 -0.012624215586539689 -0.00095694725142336562 0 -0.010543446781504729 0.00057190838407149215 0 -0.011878932806776443 -0.0016409329575106789 0 -0.0117885302243719 -0.0024121505588627478 0 -0.011208201532281767 -0.0016993771578476403 0 -0.012343143025194105 0.00022802218170857403 0 -0.010763433638590511 0.0021632334308869629 0 -0.0099633008417337552 0.00027284141971683639 0 -0.012700165227440073 0.0020421488802162447 0 -0.011906928176156928 0.0021052943849384194 0 -0.012201665796901597 0.0019101046593188301 0 -0.012601243261065282 0.0017586291247828063 0 -0.012700165227440073 0.0020421488802162447 0 -0.01318333888350099 0.0017535469025713023 0 -0.012601243261065282 0.0017586291247828063 0 -0.012700165227440073 0.0020421488802162447 0 -0.012201665796901597 0.0019101046593188301 0 -0.017411147621642305 0.00016286174381870423 0 -0.017419841557940623 0.00027054597259310308 0 -0.017450286098593441 0.00016521709912919528 0 -0.017419841557940623 0.00027054597259310308 0 -0.017450286098593441 0.00016521709912919528 0 -0.017294087074188232 -0.00016867712574723326 0 -0.015020027899465414 0.0011296221655233531 0 -0.014576420685822681 0.00095530501089416636 0 -0.017212945758854643 0.0001820519524619092 0 -0.017450286098593441 0.00016521709912919528 0 -0.017294087074188232 -0.00016867712574723326 0 -0.017212945758854643 0.0001820519524619092 0 -0.016720882473152534 -5.2358260023132158e-05 0 -0.017294087074188232 -0.00016867712574723326 0 -0.016716766733848854 0.00040715587456745294 0 -0.017212945758854643 0.0001820519524619092 0 -0.016720882473152534 -5.2358260023132158e-05 0 -0.016720882473152534 -5.2358260023132158e-05 0 -0.017294087074188232 -0.00016867712574723326 0 -0.016626468313149356 -0.00062969987061493751 0 -0.016225474953020975 -0.00033077760578026838 0 -0.016720882473152534 -5.2358260023132158e-05 0 -0.016626468313149356 -0.00062969987061493751 0 -0.014576420685822681 0.00095530501089416636 0 -0.014149941896952551 0.00066225290520138466 0 -0.011906928176156928 0.0021052943849384194 0 -0.01168578742137618 0.0019849214652990469 0 -0.012201665796901597 0.0019101046593188301 0 -0.011906928176156928 0.0021052943849384194 0 -0.01168578742137618 0.0019849214652990469 0 -0.01158741265655555 0.0020078790066032481 0 -0.01168578742137618 0.0019849214652990469 0 -0.01158741265655555 0.0020078790066032481 0 -0.011553105965840775 0.0020444745143422286 0 -0.011707554629316384 0.002183505191757612 0 -0.01158741265655555 0.0020078790066032481 0 -0.011553105965840775 0.0020444745143422286 0 -0.011553105965840775 0.0020444745143422286 0 -0.01164987593954149 0.0022698059664252664 0 -0.011273569115699638 0.0019902458539624518 0 -0.01164987593954149 0.0022698059664252664 0 -0.011273569115699638 0.0019902458539624518 0 -0.01162835476733802 0.0026606650007541242 0 -0.011707554629316384 0.002183505191757612 0 -0.011553105965840775 0.0020444745143422286 0 -0.01164987593954149 0.0022698059664252664 0 -0.01168578742137618 0.0019849214652990469 0 -0.011553105965840775 0.0020444745143422286 0 -0.011273569115699638 0.0019902458539624518 0 -0.01168578742137618 0.0019849214652990469 0 -0.011273569115699638 0.0019902458539624518 0 -0.011861829341824814 0.0017746442896389141 0 -0.01168578742137618 0.0019849214652990469 0 -0.012021266612507854 0.0018660241212757503 0 -0.011861829341824814 0.0017746442896389141 0 -0.012021266612507854 0.0018660241212757503 0 -0.012315180182119426 0.001833362601425848 0 -0.012269125561248465 0.0014278598599454721 0 -0.012021266612507854 0.0018660241212757503 0 -0.011861829341824814 0.0017746442896389141 0 -0.012269125561248465 0.0014278598599454721 0 -0.01168578742137618 0.0019849214652990469 0 -0.012021266612507854 0.0018660241212757503 0 -0.012201665796901597 0.0019101046593188301 0 -0.012021266612507854 0.0018660241212757503 0 -0.012201665796901597 0.0019101046593188301 0 -0.012315180182119426 0.001833362601425848 0 -0.012601243261065282 0.0017586291247828063 0 -0.012315180182119426 0.001833362601425848 0 -0.012539903535740232 0.0018204043801973101 0 -0.012601243261065282 0.0017586291247828063 0 -0.012201665796901597 0.0019101046593188301 0 -0.012315180182119426 0.001833362601425848 0 -0.013015274694626253 0.0022059293718679662 0 -0.013002779066020239 0.0017264660791379747 0 -0.012269125561248465 0.0014278598599454721 0 -0.012315180182119426 0.001833362601425848 0 -0.012539903535740232 0.0018204043801973101 0 -0.012269125561248465 0.0014278598599454721 0 -0.012647768780541083 0.0020742769359895536 0 -0.012331614075468468 0.0014207887071338999 0 -0.013015274694626253 0.0022059293718679662 0 -0.013002779066020239 0.0017264660791379747 0 -0.01359522450327715 0.0019299179423206828 0 -0.013002779066020239 0.0017264660791379747 0 -0.01359522450327715 0.0019299179423206828 0 -0.013276057996377977 0.0014236208591360459 0 -0.01359522450327715 0.0019299179423206828 0 -0.013276057996377977 0.0014236208591360459 0 -0.013669699130826198 0.0014666851039415946 0 -0.01359522450327715 0.0019299179423206828 0 -0.01427048332928608 0.002105622973853537 0 -0.014120153686554188 0.0013641158407946843 0 -0.01359522450327715 0.0019299179423206828 0 -0.013669699130826198 0.0014666851039415946 0 -0.014120153686554188 0.0013641158407946843 0 -0.01359522450327715 0.0019299179423206828 0 -0.013931536571071221 0.0025312638387043388 0 -0.01427048332928608 0.002105622973853537 0 -0.01359522450327715 0.0019299179423206828 0 -0.013532392680674037 0.0024024727160044052 0 -0.013931536571071221 0.0025312638387043388 0 -0.013015274694626253 0.0022059293718679662 0 -0.01359522450327715 0.0019299179423206828 0 -0.013532392680674037 0.0024024727160044052 0 -0.013015274694626253 0.0022059293718679662 0 -0.013532392680674037 0.0024024727160044052 0 -0.013587184877401801 0.0029210117540517605 0 -0.012601243261065282 0.0017586291247828063 0 -0.01369187081487701 0.0014854137056386052 0 -0.01318333888350099 0.0017535469025713023 0 -0.012601243261065282 0.0017586291247828063 0 -0.012539903535740232 0.0018204043801973101 0 -0.012524112244120568 0.0017137138701095506 0 -0.012405371503183566 0.0016169233269416501 0 -0.01383245525639811 0.0018075198238376978 0 -0.012647768780541083 0.0020742769359895536 0 -0.01383245525639811 0.0018075198238376978 0 -0.013587184877401801 0.0029210117540517605 0 -0.014095455764641839 0.0031299304873980121 0 -0.014094986590815135 0.0028256747559231824 0 -0.013532392680674037 0.0024024727160044052 0 -0.013587184877401801 0.0029210117540517605 0 -0.013931536571071221 0.0025312638387043388 0 -0.013587184877401801 0.0029210117540517605 0 -0.013931536571071221 0.0025312638387043388 0 -0.014094986590815135 0.0028256747559231824 0 -0.01383245525639811 0.0018075198238376978 0 -0.014939867292201066 0.0010274609203038264 0 -0.01383245525639811 0.0018075198238376978 0 -0.014830711267149025 0.0021840871536948918 0 -0.01369187081487701 0.0014854137056386052 0 -0.014264755780243138 0.0013973218844811736 0 -0.013877324930272007 0.0017490021522805607 0 -0.015623404498069034 0.0011340398699655277 0 -0.01538778021496303 0.00070902166889659772 0 -0.015236194254214378 0.00091677630881539687 0 -0.012700165227440073 0.0020421488802162447 0 -0.01318333888350099 0.0017535469025713023 0 -0.013877324930272007 0.0017490021522805607 0 -0.015020027899465414 0.0011296221655233531 0 -0.015190524915276907 0.00095174640385729098 0 -0.01369187081487701 0.0014854137056386052 0 -0.01318333888350099 0.0017535469025713023 0 -0.013877324930272007 0.0017490021522805607 0 -0.016340601645425116 -0.0011969409214471589 0 -0.016441295382207521 -0.0012996344449080078 0 -0.016431860728790156 -0.00097816671280254782 0 -0.014957271335968752 0.0011313493198171743 0 -0.015479564814761176 0.0001825883561868989 0 -0.016340601645425116 -0.0011969409214471589 0 -0.016266108679088762 -0.0013296702521872785 0 -0.016225345527040625 -0.0011761734103589393 0 -0.016340601645425116 -0.0011969409214471589 0 -0.016266108679088762 -0.0013296702521872785 0 -0.016441295382207521 -0.0012996344449080078 0 -0.016266108679088762 -0.0013296702521872785 0 -0.016441295382207521 -0.0012996344449080078 0 -0.016424063123816834 -0.0013537467730746339 0 -0.014957271335968752 0.0011313493198171743 0 -0.014820739824591991 0.00066355820144688767 0 -0.014542150061474999 0.0032508090116711193 0 -0.014095455764641839 0.0031299304873980121 0 -0.014286477445296861 0.0029861654900508608 0 -0.014830711267149025 0.0021840871536948918 0 -0.014820739824591991 0.00066355820144688767 0 -0.014957271335968752 0.0011313493198171743 0 -0.014415718915349445 0.0024663408616557615 0 -0.014542150061474999 0.0032508090116711193 0 -0.014286477445296861 0.0029861654900508608 0 -0.014402579958232469 0.0027288686081960011 0 -0.015126229779069121 0.00071898900634748901 0 -0.015236194254214378 0.00091677630881539687 0 -0.014730564124838953 0.00067946491039608985 0 -0.014542150061474999 0.0032508090116711193 0 -0.014095455764641839 0.0031299304873980121 0 -0.014570975792476099 0.0033363539166307711 0 -0.01538778021496303 0.00070902166889659772 0 -0.015126229779069121 0.00071898900634748901 0 -0.015236194254214378 0.00091677630881539687 0 -0.014095455764641839 0.0031299304873980121 0 -0.014286477445296861 0.0029861654900508608 0 -0.014094986590815135 0.0028256747559231824 0 -0.013931536571071221 0.0025312638387043388 0 -0.014094986590815135 0.0028256747559231824 0 -0.014402579958232469 0.0027288686081960011 0 -0.014286477445296861 0.0029861654900508608 0 -0.014094986590815135 0.0028256747559231824 0 -0.014402579958232469 0.0027288686081960011 0 -0.014433414862538116 0.001750328608407802 0 -0.014406311371372327 0.0017228527402357746 0 -0.014435466582084111 0.0017174489845008954 0 -0.014406311371372327 0.0017228527402357746 0 -0.014435466582084111 0.0017174489845008954 0 -0.014408710431644925 0.0016512187571218516 0 -0.016340601645425116 -0.0011969409214471589 0 -0.016431860728790156 -0.00097816671280254782 0 -0.016225345527040625 -0.0011761734103589393 0 -0.016431860728790156 -0.00097816671280254782 0 -0.016413744021437266 -0.00062519648351876361 0 -0.01609419077759738 -0.00081213144762329412 0 -0.014435466582084111 0.0017174489845008954 0 -0.014482066608803882 0.0015769585487047399 0 -0.014408710431644925 0.0016512187571218516 0 -0.015479564814761176 0.0001825883561868989 0 -0.015447109066231221 0.00050528466020871305 0 -0.014482066608803882 0.0015769585487047399 0 -0.014307974863110678 0.0015970617016522499 0 -0.014408710431644925 0.0016512187571218516 0 -0.013931536571071221 0.0025312638387043388 0 -0.014402579958232469 0.0027288686081960011 0 -0.01427048332928608 0.002105622973853537 0 -0.014415718915349445 0.0024663408616557615 0 -0.014270043175739164 0.0017823595602646047 0 -0.014406311371372327 0.0017228527402357746 0 -0.014307974863110678 0.0015970617016522499 0 -0.014408710431644925 0.0016512187571218516 0 -0.014307974863110678 0.0015970617016522499 0 -0.014372036655974281 0.0014366554338549877 0 -0.014120153686554188 0.0013641158407946843 0 -0.014270043175739164 0.0017823595602646047 0 -0.014140400323621578 0.0014120567895241772 0 -0.014482066608803882 0.0015769585487047399 0 -0.014307974863110678 0.0015970617016522499 0 -0.014372036655974281 0.0014366554338549877 0 -0.015447109066231221 0.00050528466020871305 0 -0.01540463668151917 0.00051912804422918574 0 -0.014482066608803882 0.0015769585487047399 0 -0.014372036655974281 0.0014366554338549877 0 -0.014558007762719854 0.0012967279851951699 0 -0.016413744021437266 -0.00062519648351876361 0 -0.016018501389152433 -0.00042480801758653871 0 -0.016376663084648881 -0.00027024881281968233 0 -0.016018501389152433 -0.00042480801758653871 0 -0.015858858544785921 -0.00075037811749521105 0 -0.015599771128373968 -0.00054828627552234608 0 -0.015730553581840542 -3.359213790883956e-05 0 -0.015458067219125241 -0.00032470622946505657 0 -0.016018501389152433 -0.00042480801758653871 0 -0.015858858544785921 -0.00075037811749521105 0 -0.01609419077759738 -0.00081213144762329412 0 -0.015858858544785921 -0.00075037811749521105 0 -0.01609419077759738 -0.00081213144762329412 0 -0.015760090092293583 -0.0010534297065405546 0 -0.016413744021437266 -0.00062519648351876361 0 -0.016018501389152433 -0.00042480801758653871 0 -0.01609419077759738 -0.00081213144762329412 0 -0.015407895655906324 -8.4240900513667398e-05 0 -0.015368781567397726 0.00026352951547487056 0 -0.0149999970847066 8.2448655086359623e-05 0 -0.015407895655906324 -8.4240900513667398e-05 0 -0.014999849660948372 -0.00069585593247814927 0 -0.0149999970847066 8.2448655086359623e-05 0 -0.015405899056742707 0.00042916111252561747 0 -0.015407895655906324 -8.4240900513667398e-05 0 -0.015368781567397726 0.00026352951547487056 0 -0.015858858544785921 -0.00075037811749521105 0 -0.015409759501775411 -0.00094807861140588316 0 -0.015760090092293583 -0.0010534297065405546 0 -0.015858858544785921 -0.00075037811749521105 0 -0.015599771128373968 -0.00054828627552234608 0 -0.015409759501775411 -0.00094807861140588316 0 -0.015458067219125241 -0.00032470622946505657 0 -0.015000035522247558 -0.00069627153633451601 0 -0.015599771128373968 -0.00054828627552234608 0 -0.015000062333401776 -0.00069647141777033834 0 -0.015409759501775411 -0.00094807861140588316 0 -0.015000062333401776 -0.00069647141777033834 0 -0.015409759501775411 -0.00094807861140588316 0 -0.01499994707225959 -0.0014580070046436161 0 -0.015409759501775411 -0.00094807861140588316 0 -0.015462777215996551 -0.0014174905460828211 0 -0.01499994707225959 -0.0014580070046436161 0 -0.015409759501775411 -0.00094807861140588316 0 -0.015760090092293583 -0.0010534297065405546 0 -0.015462777215996551 -0.0014174905460828211 0 -0.015760090092293583 -0.0010534297065405546 0 -0.015462777215996551 -0.0014174905460828211 0 -0.015821245667255179 -0.0017470734826918869 0 -0.015769097674905325 -0.0011085855033698688 0 -0.01579133096306647 -0.0015061539389843791 0 -0.015462777215996551 -0.0014174905460828211 0 -0.015821245667255179 -0.0017470734826918869 0 -0.015411038172015669 -0.0019882256117754096 0 -0.015462777215996551 -0.0014174905460828211 0 -0.01499994707225959 -0.0014580070046436161 0 -0.015411038172015669 -0.0019882256117754096 0 -0.016431860728790156 -0.00097816671280254782 0 -0.016062899124556142 -0.0010685880560057134 0 -0.016225345527040625 -0.0011761734103589393 0 -0.016431860728790156 -0.00097816671280254782 0 -0.01609419077759738 -0.00081213144762329412 0 -0.016062899124556142 -0.0010685880560057134 0 -0.015760090092293583 -0.0010534297065405546 0 -0.016062899124556142 -0.0010685880560057134 0 -0.015969590414367504 -0.0012542112339573026 0 -0.01609419077759738 -0.00081213144762329412 0 -0.015760090092293583 -0.0010534297065405546 0 -0.016062899124556142 -0.0010685880560057134 0 -0.015969590414367504 -0.0012542112339573026 0 -0.015892947286092984 -0.0013787112334033519 0 -0.015978234899975484 -0.0015018202411397638 0 -0.015968734423741963 -0.0012666989269008338 0 -0.015917499757869213 -0.0015415569887870389 0 -0.015760090092293583 -0.0010534297065405546 0 -0.015758129625188865 -0.0013316363705717304 0 -0.015969590414367504 -0.0012542112339573026 0 -0.015758129625188865 -0.0013316363705717304 0 -0.015969590414367504 -0.0012542112339573026 0 -0.015892947286092984 -0.0013787112334033519 0 -0.015969590414367504 -0.0012542112339573026 0 -0.01610751443639067 -0.0012655822445587993 0 -0.016082046220000815 -0.0013994642849748128 0 -0.016062899124556142 -0.0010685880560057134 0 -0.01610751443639067 -0.0012655822445587993 0 -0.016225345527040625 -0.0011761734103589393 0 -0.016062899124556142 -0.0010685880560057134 0 -0.015969590414367504 -0.0012542112339573026 0 -0.01610751443639067 -0.0012655822445587993 0 -0.016266108679088762 -0.0013296702521872785 0 -0.01610751443639067 -0.0012655822445587993 0 -0.016082046220000815 -0.0013994642849748128 0 -0.016266108679088762 -0.0013296702521872785 0 -0.01610751443639067 -0.0012655822445587993 0 -0.016225345527040625 -0.0011761734103589393 0 -0.016266108679088762 -0.0013296702521872785 0 -0.01619547554080308 -0.0014819492253433492 0 -0.016082046220000815 -0.0013994642849748128 0 -0.015272899386435919 -0.00097240487400767283 0 -0.015531675928517584 -0.0017722600120442574 0 -0.01619547554080308 -0.0014819492253433492 0 -0.015961270685903455 -0.0014788770783846902 0 -0.015960318778334356 -0.0016058505264757398 0 -0.016058270452031266 -0.0014291256475467522 0 -0.015917499757869213 -0.0015415569887870389 0 -0.01619547554080308 -0.0014819492253433492 0 -0.016082046220000815 -0.0013994642849748128 0 -0.015961270685903455 -0.0014788770783846902 0 -0.015892947286092984 -0.0013787112334033519 0 -0.015978234899975484 -0.0015018202411397638 0 -0.01574224774755276 -0.0016637955730537141 0 -0.015758129625188865 -0.0013316363705717304 0 -0.015892947286092984 -0.0013787112334033519 0 -0.01574224774755276 -0.0016637955730537141 0 -0.015969590414367504 -0.0012542112339573026 0 -0.016082046220000815 -0.0013994642849748128 0 -0.01597520758748203 -0.0014715685129518617 0 -0.015917499757869213 -0.0015415569887870389 0 -0.015681342047544761 -0.0021707122016495764 0 -0.01589041837827988 -0.0018077585267722166 0 -0.015892039132232225 -0.0020042224259972079 0 -0.015528325184860085 -0.0020555704970817729 0 -0.015917499757869213 -0.0015415569887870389 0 -0.015531675928517584 -0.0017722600120442574 0 -0.015892039132232225 -0.0020042224259972079 0 -0.015528325184860085 -0.0020555704970817729 0 -0.015524002848925742 -0.0021975092807385438 0 -0.015531675928517584 -0.0017722600120442574 0 -0.014847322872767545 -0.0023847492095828643 0 -0.015985281131551506 -0.0025449367756755813 0 -0.015619923439294985 -0.0027295543080859408 0 -0.01574873113979643 -0.0030932760294358039 0 -0.015531675928517584 -0.0017722600120442574 0 -0.015628041192891975 -0.0025940745150261489 0 -0.01387215836368717 -0.00071817578406415013 0 -0.014146357449389574 -0.0011718154404188263 0 -0.013859535588121676 -0.0016347472352926905 0 -0.014396137085473413 -0.00043861699195941729 0 -0.01387215836368717 -0.00071817578406415013 0 -0.014146357449389574 -0.0011718154404188263 0 -0.014396137085473413 -0.00043861699195941729 0 -0.014146357449389574 -0.0011718154404188263 0 -0.014669089823121749 -0.0010236282128518914 0 -0.014146357449389574 -0.0011718154404188263 0 -0.01427019759347525 -0.0014277656945565224 0 -0.014669089823121749 -0.0010236282128518914 0 -0.01499994707225959 -0.0014580070046436161 0 -0.014999988227848033 -0.002219831282594275 0 -0.015411038172015669 -0.0019882256117754096 0 -0.014999988227848033 -0.002219831282594275 0 -0.015411038172015669 -0.0019882256117754096 0 -0.015404908171397879 -0.0026941181865034838 0 -0.015821245667255179 -0.0017470734826918869 0 -0.015411038172015669 -0.0019882256117754096 0 -0.015813468718578753 -0.0024081762131220193 0 -0.01579133096306647 -0.0015061539389843791 0 -0.015681342047544761 -0.0021707122016495764 0 -0.015729384393636817 -0.0026664528055686805 0 -0.015267014359046586 -0.0029072271989720954 0 -0.015571775515953507 -0.002937230867160264 0 -0.015665506832178135 -0.0027047177950760429 0 -0.015340678282311832 -0.0027848172508661644 0 -0.015267014359046586 -0.0029072271989720954 0 -0.015628041192891975 -0.0025940745150261489 0 -0.015317668334554016 -0.0028879243479459876 0 -0.015411038172015669 -0.0019882256117754096 0 -0.015813468718578753 -0.0024081762131220193 0 -0.015404908171397879 -0.0026941181865034838 0 -0.015681342047544761 -0.0021707122016495764 0 -0.015628041192891975 -0.0025940745150261489 0 -0.015669924959149255 -0.0025604201533028326 0 -0.015665506832178135 -0.0027047177950760429 0 -0.015340678282311832 -0.0027848172508661644 0 -0.015681342047544761 -0.0021707122016495764 0 -0.015351170889066885 -0.002747202593109504 0 -0.014999988227848033 -0.002219831282594275 0 -0.015404908171397879 -0.0026941181865034838 0 -0.014999995259957936 -0.0029815615185820469 0 -0.014999939314836236 -0.0029817439940369506 0 -0.015243575214773203 -0.0030914518596966358 0 -0.015269713431972561 -0.0033997965960948229 0 -0.015351170889066885 -0.002747202593109504 0 -0.015000118956346524 -0.0029815049193619215 0 -0.014999939314836236 -0.0029817439940369506 0 -0.015267014359046586 -0.0029072271989720954 0 -0.015243575214773203 -0.0030914518596966358 0 -0.015340678282311832 -0.0027848172508661644 0 -0.014999939314836236 -0.0029817439940369506 0 -0.015267014359046586 -0.0029072271989720954 0 -0.015267014359046586 -0.0029072271989720954 0 -0.015243575214773203 -0.0030914518596966358 0 -0.015398281288980268 -0.0030471622740897496 0 -0.015393285950884742 -0.0031736155436816091 0 -0.015243575214773203 -0.0030914518596966358 0 -0.015269713431972561 -0.0033997965960948229 0 -0.015393285950884742 -0.0031736155436816091 0 -0.015243575214773203 -0.0030914518596966358 0 -0.015398281288980268 -0.0030471622740897496 0 -0.015393285950884742 -0.0031736155436816091 0 -0.015504867972939314 -0.0033011038903715184 0 -0.015269713431972561 -0.0033997965960948229 0 -0.015729384393636817 -0.0026664528055686805 0 -0.015571775515953507 -0.002937230867160264 0 -0.015716647029047844 -0.0032233906466685998 0 -0.015619923439294985 -0.0027295543080859408 0 -0.015594452675532408 -0.0032268293895539616 0 -0.01574873113979643 -0.0030932760294358039 0 -0.015628041192891975 -0.0025940745150261489 0 -0.015653301041069156 -0.0032563728288142455 0 -0.015524726696655255 -0.0031240468555088149 0 -0.015571775515953507 -0.002937230867160264 0 -0.015716647029047844 -0.0032233906466685998 0 -0.015504867972939314 -0.0033011038903715184 0 -0.015524726696655255 -0.0031240468555088149 0 -0.015716647029047844 -0.0032233906466685998 0 -0.015393285950884742 -0.0031736155436816091 0 -0.015504867972939314 -0.0033011038903715184 0 -0.015524726696655255 -0.0031240468555088149 0 -0.015393285950884742 -0.0031736155436816091 0 -0.015524726696655255 -0.0031240468555088149 0 -0.015398281288980268 -0.0030471622740897496 0 -0.015267014359046586 -0.0029072271989720954 0 -0.015398281288980268 -0.0030471622740897496 0 -0.015571775515953507 -0.002937230867160264 0 -0.015524726696655255 -0.0031240468555088149 0 -0.015398281288980268 -0.0030471622740897496 0 -0.015571775515953507 -0.002937230867160264 0 -0.015622646187807274 -0.0037508580317229608 0 -0.015653301041069156 -0.0032563728288142455 0 -0.015613583688584079 -0.0038268857142489945 0 -0.015716647029047844 -0.0032233906466685998 0 -0.015508689095594254 -0.0035178168322349333 0 -0.015946210778351847 -0.0039855583848118978 0 -0.015613583688584079 -0.0038268857142489945 0 -0.015594452675532408 -0.0032268293895539616 0 -0.015613583688584079 -0.0038268857142489945 0 -0.015334504633695664 -0.0037974236595054523 0 -0.015508689095594254 -0.0035178168322349333 0 -0.015504867972939314 -0.0033011038903715184 0 -0.015716647029047844 -0.0032233906466685998 0 -0.015508689095594254 -0.0035178168322349333 0 -0.015504867972939314 -0.0033011038903715184 0 -0.015508689095594254 -0.0035178168322349333 0 -0.015269713431972561 -0.0033997965960948229 0 -0.014999901189790913 -0.0038264305656155319 0 -0.014999939314836236 -0.0029817439940369506 0 -0.015269713431972561 -0.0033997965960948229 0 -0.015334504633695664 -0.0037974236595054523 0 -0.014999901189790913 -0.0038264305656155319 0 -0.015269713431972561 -0.0033997965960948229 0 -0.015334504633695664 -0.0037974236595054523 0 -0.015508689095594254 -0.0035178168322349333 0 -0.015269713431972561 -0.0033997965960948229 0 -0.01427019759347525 -0.0014277656945565224 0 -0.013859535588121676 -0.0016347472352926905 0 -0.014405170803719686 -0.0018811919221131896 0 -0.01427019759347525 -0.0014277656945565224 0 -0.014405170803719686 -0.0018811919221131896 0 -0.014669089823121749 -0.0010236282128518914 0 -0.014146357449389574 -0.0011718154404188263 0 -0.01427019759347525 -0.0014277656945565224 0 -0.013859535588121676 -0.0016347472352926905 0 -0.015985281131551506 -0.0025449367756755813 0 -0.01574873113979643 -0.0030932760294358039 0 -0.015971768524148899 -0.0031688724441882592 0 -0.015948881763460404 -0.0038378687030867177 0 -0.015739397541844169 -0.0031182294307454685 0 -0.015842482714453984 -0.0036620100774613328 0 -0.01574873113979643 -0.0030932760294358039 0 -0.015971768524148899 -0.0031688724441882592 0 -0.015946210778351847 -0.0039855583848118978 0 -0.015594452675532408 -0.0032268293895539616 0 -0.01574873113979643 -0.0030932760294358039 0 -0.015946224036942583 -0.0036995561650850443 0 -0.015842482714453984 -0.0036620100774613328 0 -0.015971768524148899 -0.0031688724441882592 0 -0.014894309531548182 -0.0031695418755185263 0 -0.014847322872767545 -0.0023847492095828643 0 -0.013896707706718222 -0.0027683856249148681 0 -0.013859535588121676 -0.0016347472352926905 0 -0.014185219716917118 -0.002285892214412358 0 -0.013859535588121676 -0.0016347472352926905 0 -0.014185219716917118 -0.002285892214412358 0 -0.014405170803719686 -0.0018811919221131896 0 -0.014565640599709695 -0.0025729679891726264 0 -0.014185219716917118 -0.002285892214412358 0 -0.014405170803719686 -0.0018811919221131896 0 -0.014405170803719686 -0.0018811919221131896 0 -0.015130719497339722 -0.0021541647729212462 0 -0.014881147518720999 -0.0013214989735806767 0 -0.014565640599709695 -0.0025729679891726264 0 -0.014405170803719686 -0.0018811919221131896 0 -0.015130719497339722 -0.0021541647729212462 0 -0.014405170803719686 -0.0018811919221131896 0 -0.014881147518720999 -0.0013214989735806767 0 -0.014371332782177965 -0.00043834558162515654 0 -0.014396397948086214 -0.0017520494820180259 0 -0.014525011951443923 -0.00080958456241995037 0 -0.014881147518720999 -0.0013214989735806767 0 -0.014371332782177965 -0.00043834558162515654 0 -0.015077682138272135 -0.00062568037261569946 0 -0.015130719497339722 -0.0021541647729212462 0 -0.014881147518720999 -0.0013214989735806767 0 -0.015420841899042992 -0.0014249561618045591 0 -0.015420841899042992 -0.0014249561618045591 0 -0.015718881339436132 -0.00076970233490857888 0 -0.015077682138272135 -0.00062568037261569946 0 -0.014881147518720999 -0.0013214989735806767 0 -0.015420841899042992 -0.0014249561618045591 0 -0.015077682138272135 -0.00062568037261569946 0 -0.015826815956414386 -0.0029130928287646944 0 -0.015130719497339722 -0.0021541647729212462 0 -0.015908885183379233 -0.0020795781388937159 0 -0.015130719497339722 -0.0021541647729212462 0 -0.015420841899042992 -0.0014249561618045591 0 -0.015908885183379233 -0.0020795781388937159 0 -0.016355597974398436 -0.0026117507745187524 0 -0.015908885183379233 -0.0020795781388937159 0 -0.016539817102417139 -0.0019725252263943197 0 -0.015908885183379233 -0.0020795781388937159 0 -0.016539817102417139 -0.0019725252263943197 0 -0.01612547977715054 -0.0013254679962738797 0 -0.017153669093017569 -0.0021666822153744115 0 -0.016539817102417139 -0.0019725252263943197 0 -0.016724032167677753 -0.0012213777406654923 0 -0.016894830271323973 -0.0027293442932618955 0 -0.017153669093017569 -0.0021666822153744115 0 -0.016539817102417139 -0.0019725252263943197 0 -0.017024758785027839 -0.00069250354597712703 0 -0.016724032167677753 -0.0012213777406654923 0 -0.016361144752636367 -0.00063477656598751161 0 -0.016539817102417139 -0.0019725252263943197 0 -0.016724032167677753 -0.0012213777406654923 0 -0.01612547977715054 -0.0013254679962738797 0 -0.015420841899042992 -0.0014249561618045591 0 -0.01612547977715054 -0.0013254679962738797 0 -0.015718881339436132 -0.00076970233490857888 0 -0.015420841899042992 -0.0014249561618045591 0 -0.015908885183379233 -0.0020795781388937159 0 -0.01612547977715054 -0.0013254679962738797 0 -0.01612547977715054 -0.0013254679962738797 0 -0.015718881339436132 -0.00076970233490857888 0 -0.016361144752636367 -0.00063477656598751161 0 -0.016724032167677753 -0.0012213777406654923 0 -0.01612547977715054 -0.0013254679962738797 0 -0.016361144752636367 -0.00063477656598751161 0 -0.015718881339436132 -0.00076970233490857888 0 -0.015801720986214164 -0.00034304336671743242 0 -0.015361936768507702 -0.00032665828852769177 0 -0.015718881339436132 -0.00076970233490857888 0 -0.016361144752636367 -0.00063477656598751161 0 -0.015801720986214164 -0.00034304336671743242 0 -0.016361144752636367 -0.00063477656598751161 0 -0.016176991240760313 -8.782879388258978e-05 0 -0.015801720986214164 -0.00034304336671743242 0 -0.016176991240760313 -8.782879388258978e-05 0 -0.015801720986214164 -0.00034304336671743242 0 -0.0151744170770301 0.00023480630514627869 0 -0.017024758785027839 -0.00069250354597712703 0 -0.016361144752636367 -0.00063477656598751161 0 -0.01675433820245896 -0.00014095855856972021 0 -0.016361144752636367 -0.00063477656598751161 0 -0.016176991240760313 -8.782879388258978e-05 0 -0.01675433820245896 -0.00014095855856972021 0 -0.017250461240889161 -0.00015805984894674594 0 -0.017024758785027839 -0.00069250354597712703 0 -0.01675433820245896 -0.00014095855856972021 0 -0.017118796769778722 0.00014754716793101121 0 -0.01675433820245896 -0.00014095855856972021 0 -0.016642954926581181 0.00036455706334825205 0 -0.016176991240760313 -8.782879388258978e-05 0 -0.01675433820245896 -0.00014095855856972021 0 -0.016642954926581181 0.00036455706334825205 0 -0.016176991240760313 -8.782879388258978e-05 0 -0.016642954926581181 0.00036455706334825205 0 -0.0151744170770301 0.00023480630514627869 0 -0.014264755780243138 0.0013973218844811736 0 -0.013877324930272007 0.0017490021522805607 0 -0.0151744170770301 0.00023480630514627869 0 -0.015190524915276907 0.00095174640385729098 0 -0.01502390046658259 0.00030243457994824706 0 -0.01538778021496303 0.00070902166889659772 0 -0.015126229779069121 0.00071898900634748901 0 -0.015088578538607362 0.00056278276222444172 0 -0.014939867292201066 0.0010274609203038264 0 -0.015043261708905235 0.00047286400613815566 0 -0.01538778021496303 0.00070902166889659772 0 -0.015088578538607362 0.00056278276222444172 0 -0.015134572914518607 0.00024541632486920661 0 -0.014264755780243138 0.0013973218844811736 0 -0.015134572914518607 0.00024541632486920661 0 -0.0151744170770301 0.00023480630514627869 0 -0.015088578538607362 0.00056278276222444172 0 -0.015052544308704693 0.0003693049732082149 0 -0.015134572914518607 0.00024541632486920661 0 -0.014989545183590736 0.00021787177776323989 0 -0.014771076083053558 0.00046236903942614298 0 -0.014838736112052883 -5.1266574659969472e-05 0 -0.014989545183590736 0.00021787177776323989 0 -0.015052544308704693 0.0003693049732082149 0 -0.015134572914518607 0.00024541632486920661 0 -0.014989545183590736 0.00021787177776323989 0 -0.015052544308704693 0.0003693049732082149 0 -0.014973312628144296 0.00043316181943139421 0 -0.014989545183590736 0.00021787177776323989 0 -0.014973312628144296 0.00043316181943139421 0 -0.014771076083053558 0.00046236903942614298 0 -0.015126229779069121 0.00071898900634748901 0 -0.015088578538607362 0.00056278276222444172 0 -0.014730564124838953 0.00067946491039608985 0 -0.014973312628144296 0.00043316181943139421 0 -0.014902164786235361 0.00054243438968262227 0 -0.014771076083053558 0.00046236903942614298 0 -0.015088578538607362 0.00056278276222444172 0 -0.014902164786235361 0.00054243438968262227 0 -0.014730564124838953 0.00067946491039608985 0 -0.015088578538607362 0.00056278276222444172 0 -0.015052544308704693 0.0003693049732082149 0 -0.014973312628144296 0.00043316181943139421 0 -0.015088578538607362 0.00056278276222444172 0 -0.014973312628144296 0.00043316181943139421 0 -0.014902164786235361 0.00054243438968262227 0 -0.014820739824591991 0.00066355820144688767 0 -0.014525011951443923 -0.00080958456241995037 0 -0.014645184696752935 0.00084615898192685174 0 -0.014771076083053558 0.00046236903942614298 0 -0.014371332782177965 -0.00043834558162515654 0 -0.014396137085473413 -0.00043861699195941729 0 -0.014928351979166981 -0.0001580502002096347 0 -0.014669089823121749 -0.0010236282128518914 0 -0.014820739824591991 0.00066355820144688767 0 -0.014798652707106456 0.00057799276730191433 0 -0.014902164786235361 0.00054243438968262227 0 -0.014730564124838953 0.00067946491039608985 0 -0.014771076083053558 0.00046236903942614298 0 -0.016266108679088762 -0.0013296702521872785 0 -0.01619547554080308 -0.0014819492253433492 0 -0.016424063123816834 -0.0013537467730746339 0 -0.015272899386435919 -0.00097240487400767283 0 -0.014820739824591991 0.00066355820144688767 0 -0.014771076083053558 0.00046236903942614298 0 -0.014838736112052883 -5.1266574659969472e-05 0 -0.014371332782177965 -0.00043834558162515654 0 -0.014838736112052883 -5.1266574659969472e-05 0 -0.014371332782177965 -0.00043834558162515654 0 -0.015077682138272135 -0.00062568037261569946 0 -0.015077682138272135 -0.00062568037261569946 0 -0.015361936768507702 -0.00032665828852769177 0 -0.015090583265642324 -3.5268222615996277e-05 0 -0.015718881339436132 -0.00076970233490857888 0 -0.015077682138272135 -0.00062568037261569946 0 -0.015361936768507702 -0.00032665828852769177 0 -0.015801720986214164 -0.00034304336671743242 0 -0.015361936768507702 -0.00032665828852769177 0 -0.0151744170770301 0.00023480630514627869 0 -0.015361936768507702 -0.00032665828852769177 0 -0.0151744170770301 0.00023480630514627869 0 -0.015090583265642324 -3.5268222615996277e-05 0 -0.015134572914518607 0.00024541632486920661 0 -0.0151744170770301 0.00023480630514627869 0 -0.015090583265642324 -3.5268222615996277e-05 0 -0.014989545183590736 0.00021787177776323989 0 -0.015134572914518607 0.00024541632486920661 0 -0.015090583265642324 -3.5268222615996277e-05 0 -0.014838736112052883 -5.1266574659969472e-05 0 -0.015077682138272135 -0.00062568037261569946 0 -0.015090583265642324 -3.5268222615996277e-05 0 -0.014989545183590736 0.00021787177776323989 0 -0.014838736112052883 -5.1266574659969472e-05 0 -0.015090583265642324 -3.5268222615996277e-05 0 5.8229406559570211e-05 0.010593867145216759 0 1.5260904223821899e-05 0.010679880393196697 0 7.2959046650606681e-05 0.010669942581374865 0 0.001630375400662608 0.0095234832050425967 0 0.001455485876213721 0.0097327821428161397 0 0.0027625443922425774 0.0087530812116289099 0 0.0031164214733961997 0.0086907270311570532 0 0.0029596632917837139 0.0079059753834731482 0 0.0044212941126732051 0.007721222367496363 0 0.0041843193116114568 0.0070089215570425922 0 0.0027625443922425774 0.0087530812116289099 0 0.0029596632917837139 0.0079059753834731482 0 0.0026646276959695707 0.0078903904010106732 0 0.0055145954096111746 0.0064046578195675512 0 0.0058355275860805288 0.0069412960706864328 0 0.0057309995165485753 0.0059661190453071502 0 0.0055145954096111746 0.0064046578195675512 0 0.0057309995165485753 0.0059661190453071502 0 0.0053798888148142978 0.0060875357790427641 0 0.0055145954096111746 0.0064046578195675512 0 0.0058355275860805288 0.0069412960706864328 0 0.0055923441825858778 0.0069268735840243732 0 0.0055923441825858778 0.0069268735840243732 0 0.0056184427276244845 0.007155629081092546 0 0.0053805898832458817 0.0072682488842077562 0 0.0058355275860805288 0.0069412960706864328 0 0.0056184427276244845 0.007155629081092546 0 0.0056664290609951791 0.0074856120197321812 0 0.0058355275860805288 0.0069412960706864328 0 0.0055923441825858778 0.0069268735840243732 0 0.0056184427276244845 0.007155629081092546 0 5.8229406559570211e-05 0.010593867145216759 0 -2.2590946424947695e-05 0.010583988806595975 0 3.7223155449716805e-05 0.010505939240600922 0 0.0027625443922425774 0.0087530812116289099 0 0.0031164214733961997 0.0086907270311570532 0 0.0030031161963000341 0.009107608424062056 0 5.8229406559570211e-05 0.010593867145216759 0 -2.2590946424947695e-05 0.010583988806595975 0 -4.2979094578614352e-05 0.010658387736767923 0 -2.2590946424947695e-05 0.010583988806595975 0 -0.00014628863361526887 0.010638760533043169 0 -4.2979094578614352e-05 0.010658387736767923 0 -0.00014628863361526887 0.010638760533043169 0 -5.6487160503001219e-05 0.010553773260906943 0 -0.00031148396170779758 0.010611139782010653 0 -2.2590946424947695e-05 0.010583988806595975 0 -0.00014628863361526887 0.010638760533043169 0 -5.6487160503001219e-05 0.010553773260906943 0 -0.00014628863361526887 0.010638760533043169 0 -0.00018821878402765192 0.010755013722849358 0 -0.00028725945453348517 0.010682561962315431 0 -0.00014628863361526887 0.010638760533043169 0 -4.2979094578614352e-05 0.010658387736767923 0 -0.00018821878402765192 0.010755013722849358 0 5.8229406559570211e-05 0.010593867145216759 0 -4.2979094578614352e-05 0.010658387736767923 0 1.5260904223821899e-05 0.010679880393196697 0 -4.2979094578614352e-05 0.010658387736767923 0 2.6294551125702346e-06 0.010723730199531984 0 1.5260904223821899e-05 0.010679880393196697 0 -4.2979094578614352e-05 0.010658387736767923 0 2.6294551125702346e-06 0.010723730199531984 0 -0.00018821878402765192 0.010755013722849358 0 0.0027696504298831844 0.0030682109385380225 0 0.0019072329900135022 0.0029284951541481978 0 0.0019358999209155164 0.0033769915438662699 0 0.0012737985024688081 0.0069504122012504187 0 0.0010815331014553838 0.0068849420965343142 0 0.0027696504298831844 0.0030682109385380225 0 0.0019358999209155164 0.0033769915438662699 0 0.0023790064749435024 0.0035232182045487432 0 0.0019358999209155164 0.0033769915438662699 0 0.0023790064749435024 0.0035232182045487432 0 0.00213176381342319 0.003679929835022939 0 0.0027696504298831844 0.0030682109385380225 0 0.0023790064749435024 0.0035232182045487432 0 0.0033134600449687664 0.003658752612627738 0 0.0027696504298831844 0.0030682109385380225 0 0.0033134600449687664 0.003658752612627738 0 0.0042023015691176205 0.0035205979833313073 0 0.0012737985024688081 0.0069504122012504187 0 0.002598132277209766 0.0065908557327552866 0 0.0033134600449687664 0.003658752612627738 0 0.0042023015691176205 0.0035205979833313073 0 0.0037435032761198297 0.003906085009142561 0 2.6294551125702346e-06 0.010723730199531984 0 7.2959046650606681e-05 0.010669942581374865 0 0.00010262997844199871 0.01068813660252064 0 2.6294551125702346e-06 0.010723730199531984 0 1.5260904223821899e-05 0.010679880393196697 0 7.2959046650606681e-05 0.010669942581374865 0 0.0029596632917837139 0.0079059753834731482 0 0.0026646276959695707 0.0078903904010106732 0 0.0027916435861742258 0.0070583171825964958 0 0.001455485876213721 0.0097327821428161397 0 0.002598132277209766 0.0065908557327552866 0 0.0057309995165485753 0.0059661190453071502 0 0.0055922142949480242 0.0052431813521024023 0 0.0053676122239551573 0.0055534039246627658 0 0.0026646276959695707 0.0078903904010106732 0 0.0027916435861742258 0.0070583171825964958 0 0.0025673151175974267 0.0069604163264516024 0 0.0041843193116114568 0.0070089215570425922 0 0.0040962900987620045 0.0058560354383641903 0 0.002598132277209766 0.0065908557327552866 0 0.0040962900987620045 0.0058560354383641903 0 0.0055922142949480242 0.0052431813521024023 0 0.0053676122239551573 0.0055534039246627658 0 0.0052590507011052515 0.0053363819341613475 0 0.0055922142949480242 0.0052431813521024023 0 0.0052590507011052515 0.0053363819341613475 0 0.0052177313569091955 0.0051251308353643015 0 0.0053676122239551573 0.0055534039246627658 0 0.0051822406450730473 0.0055582413450838055 0 0.0052590507011052515 0.0053363819341613475 0 0.0051822406450730473 0.0055582413450838055 0 0.0052590507011052515 0.0053363819341613475 0 0.0050789991742830097 0.0053662199924400852 0 0.0051822406450730473 0.0055582413450838055 0 0.0050789991742830097 0.0053662199924400852 0 0.0050387397691433345 0.0055128429960903296 0 0.0052590507011052515 0.0053363819341613475 0 0.0050789991742830097 0.0053662199924400852 0 0.0052177313569091955 0.0051251308353643015 0 0.0049750287657924688 0.0052284788833003703 0 0.0050789991742830097 0.0053662199924400852 0 0.0052177313569091955 0.0051251308353643015 0 0.0049750287657924688 0.0052284788833003703 0 0.0050789991742830097 0.0053662199924400852 0 0.0049507455520951659 0.005382660890146454 0 0.0049750287657924688 0.0052284788833003703 0 0.0048856740883899581 0.0053091557958449649 0 0.0049507455520951659 0.005382660890146454 0 0.0049750287657924688 0.0052284788833003703 0 0.0048856740883899581 0.0053091557958449649 0 0.0048614878347349655 0.0051983005636035045 0 0.0048856740883899581 0.0053091557958449649 0 0.0048070015922026159 0.0053731955008018461 0 0.0048614878347349655 0.0051983005636035045 0 0.0048597131554291252 0.0053994521819445175 0 0.0047915914227391653 0.0054373881006263254 0 0.004971496631895324 0.0055837684450339709 0 0.0048856740883899581 0.0053091557958449649 0 0.0048070015922026159 0.0053731955008018461 0 0.0048597131554291252 0.0053994521819445175 0 0.0048492153064668923 0.0057808534439718791 0 0.0048643368777826941 0.0058428585168844834 0 0.0048070015922026159 0.0053731955008018461 0 0.0048597131554291252 0.0053994521819445175 0 0.0047915914227391653 0.0054373881006263254 0 0.0048856740883899581 0.0053091557958449649 0 0.0048597131554291252 0.0053994521819445175 0 0.0049507455520951659 0.005382660890146454 0 0.0050789991742830097 0.0053662199924400852 0 0.0049507455520951659 0.005382660890146454 0 0.0050387397691433345 0.0055128429960903296 0 0.0048597131554291252 0.0053994521819445175 0 0.0049507455520951659 0.005382660890146454 0 0.004971496631895324 0.0055837684450339709 0 0.0049507455520951659 0.005382660890146454 0 0.0050387397691433345 0.0055128429960903296 0 0.004971496631895324 0.0055837684450339709 0 0.0054911359836709722 0.0064953242300086148 0 0.0053712371895056586 0.0068219315180476749 0 0.0054241935827794721 0.0072376032010893808 0 0.0050387397691433345 0.0055128429960903296 0 0.004971496631895324 0.0055837684450339709 0 0.0050896221678822934 0.005713713368368201 0 0.0044023651439130621 0.0055963043741577697 0 0.0049401710011175446 0.0062327424620978187 0 0.0046122532604697649 0.0063736387470200787 0 0.0047915914227391653 0.0054373881006263254 0 0.004971496631895324 0.0055837684450339709 0 0.0050882147098165586 0.0060990106498672409 0 0.0048643368777826941 0.0058428585168844834 0 0.0049719976037048089 0.0061091179612343671 0 0.004971496631895324 0.0055837684450339709 0 0.0050896221678822934 0.005713713368368201 0 0.0050882147098165586 0.0060990106498672409 0 0.0048643368777826941 0.0058428585168844834 0 0.0050153847712460196 0.0068607614129174085 0 0.0053712371895056586 0.0068219315180476749 0 0.005302480674936761 0.0069745618946278429 0 0.0054241935827794721 0.0072376032010893808 0 0.0052794008716637178 0.0058357350082048273 0 0.0053798888148142978 0.0060875357790427641 0 0.0050882147098165586 0.0060990106498672409 0 0.0052794008716637178 0.0058357350082048273 0 0.0050896221678822934 0.005713713368368201 0 0.0050882147098165586 0.0060990106498672409 0 0.0057309995165485753 0.0059661190453071502 0 0.0052794008716637178 0.0058357350082048273 0 0.0053798888148142978 0.0060875357790427641 0 0.0053676122239551573 0.0055534039246627658 0 0.0051822406450730473 0.0055582413450838055 0 0.0052794008716637178 0.0058357350082048273 0 0.0057309995165485753 0.0059661190453071502 0 0.0053676122239551573 0.0055534039246627658 0 0.0052794008716637178 0.0058357350082048273 0 0.0051822406450730473 0.0055582413450838055 0 0.0052794008716637178 0.0058357350082048273 0 0.0050896221678822934 0.005713713368368201 0 0.0051822406450730473 0.0055582413450838055 0 0.0050387397691433345 0.0055128429960903296 0 0.0050896221678822934 0.005713713368368201 0 0.0050430751324081159 0.0063044896991738108 0 0.0048036347208575024 0.0065218538004080629 0 0.0048212538921531085 0.0059533244314071646 0 0.0050430751324081159 0.0063044896991738108 0 0.0048212538921531085 0.0059533244314071646 0 0.0052867163573116719 0.0060122190745975287 0 0.0050430751324081159 0.0063044896991738108 0 0.0051528632256062747 0.0065264769850603924 0 0.004987436920220821 0.0066708333325996103 0 0.0050430751324081159 0.0063044896991738108 0 0.004987436920220821 0.0066708333325996103 0 0.0048036347208575024 0.0065218538004080629 0 0.0050430751324081159 0.0063044896991738108 0 0.0051528632256062747 0.0065264769850603924 0 0.0052518354553564104 0.0063522308530382177 0 0.0051528632256062747 0.0065264769850603924 0 0.0052518354553564104 0.0063522308530382177 0 0.0052995114361055569 0.0065434343069884987 0 0.0050430751324081159 0.0063044896991738108 0 0.0052518354553564104 0.0063522308530382177 0 0.0052867163573116719 0.0060122190745975287 0 0.0048070015922026159 0.0053731955008018461 0 0.0047981948566617003 0.0053961801808204467 0 0.0048529580621971694 0.0051933088850566146 0 0.0048070015922026159 0.0053731955008018461 0 0.0048529580621971694 0.0051933088850566146 0 0.0048614878347349655 0.0051983005636035045 0 0.0054911359836709722 0.0064953242300086148 0 0.0052518354553564104 0.0063522308530382177 0 0.0052867163573116719 0.0060122190745975287 0 0.0048643368777826941 0.0058428585168844834 0 0.0050850024358111761 0.0056460983315964964 0 0.0054911359836709722 0.0064953242300086148 0 0.0052518354553564104 0.0063522308530382177 0 0.0052995114361055569 0.0065434343069884987 0 0.0054911359836709722 0.0064953242300086148 0 0.0052995114361055569 0.0065434343069884987 0 0.0053506716359126034 0.0066418051065768122 0 0.0054911359836709722 0.0064953242300086148 0 0.0053712371895056586 0.0068219315180476749 0 0.0053506716359126034 0.0066418051065768122 0 0.0052995114361055569 0.0065434343069884987 0 0.0053506716359126034 0.0066418051065768122 0 0.0052887369007482334 0.006650081614408534 0 0.0053506716359126034 0.0066418051065768122 0 0.0052887369007482334 0.006650081614408534 0 0.0052826500201601772 0.0067582013423605905 0 0.0052995114361055569 0.0065434343069884987 0 0.0052887369007482334 0.006650081614408534 0 0.0052223881030370647 0.0066553027564999236 0 0.0052887369007482334 0.006650081614408534 0 0.0052826500201601772 0.0067582013423605905 0 0.0052223881030370647 0.0066553027564999236 0 0.0053712371895056586 0.0068219315180476749 0 0.0053506716359126034 0.0066418051065768122 0 0.0052826500201601772 0.0067582013423605905 0 0.0053712371895056586 0.0068219315180476749 0 0.0052826500201601772 0.0067582013423605905 0 0.005302480674936761 0.0069745618946278429 0 0.005302480674936761 0.0069745618946278429 0 0.005200845610054872 0.0069526737722682679 0 0.005226625714910782 0.0071614782932970678 0 0.0052826500201601772 0.0067582013423605905 0 0.005302480674936761 0.0069745618946278429 0 0.005200845610054872 0.0069526737722682679 0 0.0052826500201601772 0.0067582013423605905 0 0.005200845610054872 0.0069526737722682679 0 0.0051249625458309302 0.0067645386918304008 0 0.005200845610054872 0.0069526737722682679 0 0.0050771703525421142 0.0070126101527513869 0 0.0051249625458309302 0.0067645386918304008 0 0.0050771703525421142 0.0070126101527513869 0 0.0051249625458309302 0.0067645386918304008 0 0.0049928057412508119 0.0068816708385156045 0 0.005200845610054872 0.0069526737722682679 0 0.0050771703525421142 0.0070126101527513869 0 0.0051404000721827232 0.0071127914244858651 0 0.0052826500201601772 0.0067582013423605905 0 0.0051249625458309302 0.0067645386918304008 0 0.0052223881030370647 0.0066553027564999236 0 0.0051528632256062747 0.0065264769850603924 0 0.0052995114361055569 0.0065434343069884987 0 0.0052223881030370647 0.0066553027564999236 0 0.0051528632256062747 0.0065264769850603924 0 0.0051249625458309302 0.0067645386918304008 0 0.0052223881030370647 0.0066553027564999236 0 0.0051528632256062747 0.0065264769850603924 0 0.0051249625458309302 0.0067645386918304008 0 0.004987436920220821 0.0066708333325996103 0 0.0051249625458309302 0.0067645386918304008 0 0.004987436920220821 0.0066708333325996103 0 0.0049928057412508119 0.0068816708385156045 0 0.0049928057412508119 0.0068816708385156045 0 0.0048662599245910959 0.0068439839956547874 0 0.0049104663642381609 0.0071062958459541838 0 0.0050771703525421142 0.0070126101527513869 0 0.0049928057412508119 0.0068816708385156045 0 0.0049104663642381609 0.0071062958459541838 0 0.004987436920220821 0.0066708333325996103 0 0.0049928057412508119 0.0068816708385156045 0 0.0048662599245910959 0.0068439839956547874 0 0.0048662599245910959 0.0068439839956547874 0 0.0047148173058175783 0.0068476042273338264 0 0.0047008243201405106 0.007100899796831199 0 0.0048662599245910959 0.0068439839956547874 0 0.0048036347208575024 0.0065218538004080629 0 0.0047148173058175783 0.0068476042273338264 0 0.004987436920220821 0.0066708333325996103 0 0.0048662599245910959 0.0068439839956547874 0 0.0048036347208575024 0.0065218538004080629 0 0.0048662599245910959 0.0068439839956547874 0 0.0049104663642381609 0.0071062958459541838 0 0.0047008243201405106 0.007100899796831199 0 0.0047636522901568145 0.0073753554797766942 0 0.0049104663642381609 0.0071062958459541838 0 0.0047008243201405106 0.007100899796831199 0 0.0049104663642381609 0.0071062958459541838 0 0.0048999277166316023 0.0073759843038339696 0 0.0050620985475290058 0.0072613129472712994 0 0.0047636522901568145 0.0073753554797766942 0 0.0049104663642381609 0.0071062958459541838 0 0.0048999277166316023 0.0073759843038339696 0 0.0048999277166316023 0.0073759843038339696 0 0.0050620985475290058 0.0072613129472712994 0 0.0049753270681119881 0.0075860183068027966 0 0.0050771703525421142 0.0070126101527513869 0 0.0050620985475290058 0.0072613129472712994 0 0.0051404000721827232 0.0071127914244858651 0 0.0050771703525421142 0.0070126101527513869 0 0.0049104663642381609 0.0071062958459541838 0 0.0050620985475290058 0.0072613129472712994 0 0.0050620985475290058 0.0072613129472712994 0 0.0051404000721827232 0.0071127914244858651 0 0.005226625714910782 0.0071614782932970678 0 0.005200845610054872 0.0069526737722682679 0 0.0051404000721827232 0.0071127914244858651 0 0.005226625714910782 0.0071614782932970678 0 0.0050620985475290058 0.0072613129472712994 0 0.0049753270681119881 0.0075860183068027966 0 0.0051622531577593363 0.0074994912281444899 0 0.0050620985475290058 0.0072613129472712994 0 0.005226625714910782 0.0071614782932970678 0 0.0051622531577593363 0.0074994912281444899 0 0.0049979457450796197 0.0078164655729602971 0 0.0049753270681119881 0.0075860183068027966 0 0.0051622531577593363 0.0074994912281444899 0 0.0049979457450796197 0.0078164655729602971 0 0.0049753270681119881 0.0075860183068027966 0 0.0048756584453680356 0.0078751603205224965 0 0.0049753270681119881 0.0075860183068027966 0 0.0048236011402023101 0.0076632853934978703 0 0.0048756584453680356 0.0078751603205224965 0 0.0048236011402023101 0.0076632853934978703 0 0.0047634091251985266 0.0080120441298333102 0 0.0046644934855962763 0.0076723438378033621 0 0.0048999277166316023 0.0073759843038339696 0 0.0049753270681119881 0.0075860183068027966 0 0.0048236011402023101 0.0076632853934978703 0 0.0047636522901568145 0.0073753554797766942 0 0.0048999277166316023 0.0073759843038339696 0 0.0048236011402023101 0.0076632853934978703 0 0.0047636522901568145 0.0073753554797766942 0 0.0048236011402023101 0.0076632853934978703 0 0.0046644934855962763 0.0076723438378033621 0 0.0055949753725110995 0.006918955230290365 0 0.0049719976037048089 0.0061091179612343671 0 0.0055923441825858778 0.0069268735840243732 0 0.0049401710011175446 0.0062327424620978187 0 0.0050678267668356905 0.00675711936155865 0 0.0055145954096111746 0.0064046578195675512 0 0.0055923441825858778 0.0069268735840243732 0 0.0050882147098165586 0.0060990106498672409 0 0.004864951663940624 0.0066522661184322757 0 0.0049401710011175446 0.0062327424620978187 0 0.0050678267668356905 0.00675711936155865 0 0.0055145954096111746 0.0064046578195675512 0 0.0053798888148142978 0.0060875357790427641 0 0.0050882147098165586 0.0060990106498672409 0 0.004864951663940624 0.0066522661184322757 0 0.0049401710011175446 0.0062327424620978187 0 0.0046122532604697649 0.0063736387470200787 0 0.005302480674936761 0.0069745618946278429 0 0.005226625714910782 0.0071614782932970678 0 0.0054241935827794721 0.0072376032010893808 0 0.005226625714910782 0.0071614782932970678 0 0.0054241935827794721 0.0072376032010893808 0 0.0051622531577593363 0.0074994912281444899 0 0.0050153847712460196 0.0068607614129174085 0 0.0050776946014062753 0.007417735322039775 0 0.004864951663940624 0.0066522661184322757 0 0.0046122532604697649 0.0063736387470200787 0 0.0048194933809974768 0.0072687785302899943 0 0.0054241935827794721 0.0072376032010893808 0 0.0051622531577593363 0.0074994912281444899 0 0.0051903165592859547 0.0078857163786096064 0 0.0049979457450796197 0.0078164655729602971 0 0.0051622531577593363 0.0074994912281444899 0 0.0051903165592859547 0.0078857163786096064 0 0.0048194933809974768 0.0072687785302899943 0 0.0050678267668356905 0.00675711936155865 0 0.0052441084968360323 0.0070045113281160219 0 0.004864951663940624 0.0066522661184322757 0 0.0048194933809974768 0.0072687785302899943 0 0.0050678267668356905 0.00675711936155865 0 0.0055923441825858778 0.0069268735840243732 0 0.0050678267668356905 0.00675711936155865 0 0.0052441084968360323 0.0070045113281160219 0 0.0048194933809974768 0.0072687785302899943 0 0.0052441084968360323 0.0070045113281160219 0 0.0053805898832458817 0.0072682488842077562 0 0.0055923441825858778 0.0069268735840243732 0 0.0052441084968360323 0.0070045113281160219 0 0.0053805898832458817 0.0072682488842077562 0 0.0048194933809974768 0.0072687785302899943 0 0.0053805898832458817 0.0072682488842077562 0 0.0053050921325596429 0.0076240195464105914 0 0.0048194933809974768 0.0072687785302899943 0 0.0053050921325596429 0.0076240195464105914 0 0.0050631745107052178 0.0082526054479620213 0 0.0050776946014062753 0.007417735322039775 0 0.0041414939151567806 0.0090577361605490153 0 0.0053050921325596429 0.0076240195464105914 0 0.0050631745107052178 0.0082526054479620213 0 0.0054923855511191345 0.0078347462056696689 0 0.0051903165592859547 0.0078857163786096064 0 0.0048142994718662069 0.0081614570100845031 0 0.0049046408446247591 0.0084231818360845732 0 0.0049979457450796197 0.0078164655729602971 0 0.0051903165592859547 0.0078857163786096064 0 0.0048142994718662069 0.0081614570100845031 0 0.0048142994718662069 0.0081614570100845031 0 0.0045080007701825279 0.0085536717866561696 0 0.0049046408446247591 0.0084231818360845732 0 0.0048142994718662069 0.0081614570100845031 0 0.0045080007701825279 0.0085536717866561696 0 0.0047465202054062438 0.0083063246362949684 0 0.0046280671588583514 0.0086038330979252686 0 0.0041414939151567806 0.0090577361605490153 0 0.0045080007701825279 0.0085536717866561696 0 0.0040641012150588272 0.0086671998063680041 0 0.0040431463368440935 0.0085150202931177799 0 0.0048236011402023101 0.0076632853934978703 0 0.0047634091251985266 0.0080120441298333102 0 0.0048756584453680356 0.0078751603205224965 0 0.0047634091251985266 0.0080120441298333102 0 0.004690944676166247 0.0082692766765147668 0 0.0046342671695468012 0.0079535157866386756 0 0.0047634091251985266 0.0080120441298333102 0 0.0046644934855962763 0.0076723438378033621 0 0.0046342671695468012 0.0079535157866386756 0 0.0048142994718662069 0.0081614570100845031 0 0.0047634091251985266 0.0080120441298333102 0 0.0047465202054062438 0.0083063246362949684 0 0.0048142994718662069 0.0081614570100845031 0 0.0047634091251985266 0.0080120441298333102 0 0.0048756584453680356 0.0078751603205224965 0 0.0049979457450796197 0.0078164655729602971 0 0.0048142994718662069 0.0081614570100845031 0 0.0048756584453680356 0.0078751603205224965 0 0.0047634091251985266 0.0080120441298333102 0 0.0047465202054062438 0.0083063246362949684 0 0.004690944676166247 0.0082692766765147668 0 0.004690944676166247 0.0082692766765147668 0 0.0047628269373510314 0.0083137249528218021 0 0.0046512869968725265 0.0084567043496377586 0 0.0045080007701825279 0.0085536717866561696 0 0.0047465202054062438 0.0083063246362949684 0 0.0047628269373510314 0.0083137249528218021 0 0.0047465202054062438 0.0083063246362949684 0 0.004690944676166247 0.0082692766765147668 0 0.0047628269373510314 0.0083137249528218021 0 0.003775624257275372 0.0086960636809313169 0 0.0037802333320952198 0.0085697102934548033 0 0.0041445372529077523 0.0086845171146914396 0 0.003775624257275372 0.0086960636809313169 0 0.0037802333320952198 0.0085697102934548033 0 0.0037050820105019827 0.008657474523142434 0 0.0042661523406276767 0.0085097694186846342 0 0.0043955186213473782 0.0085657420996432688 0 0.0040641012150588272 0.0086671998063680041 0 0.0040431463368440935 0.0085150202931177799 0 0.003532545863898695 0.00863958860739545 0 0.0026571580362574261 0.010467775739931035 0 0.0023679728296863004 0.0094640973309686703 0 0.0020883838980836986 0.010007635774403585 0 0.0041414939151567806 0.0090577361605490153 0 0.0028320945137968933 0.0090929144895502637 0 0.0040431463368440935 0.0085150202931177799 0 0.0036488184346316075 0.0086221735103909243 0 0.003532545863898695 0.00863958860739545 0 0.0042661523406276767 0.0085097694186846342 0 0.0040648600336114686 0.0085177988608911692 0 0.003775624257275372 0.0086960636809313169 0 0.0040431463368440935 0.0085150202931177799 0 0.0037050820105019827 0.008657474523142434 0 0.0045080007701825279 0.0085536717866561696 0 0.0047628269373510314 0.0083137249528218021 0 0.0040431463368440935 0.0085150202931177799 0 0.0040431463368440935 0.0085150202931177799 0 0.0037050820105019827 0.008657474523142434 0 0.0036488184346316075 0.0086221735103909243 0 0.0037050820105019827 0.008657474523142434 0 0.0036488184346316075 0.0086221735103909243 0 0.003286166745924665 0.0085845763003161261 0 0.0036488184346316075 0.0086221735103909243 0 0.003532545863898695 0.00863958860739545 0 0.003286166745924665 0.0085845763003161261 0 0.0023679728296863004 0.0094640973309686703 0 0.0018845901730609024 0.0091475240834875127 0 0.0016237441805256943 0.0096708507049670586 0 0.0023679728296863004 0.0094640973309686703 0 0.0018845901730609024 0.0091475240834875127 0 0.0024303257373245149 0.008482913004081008 0 0.0016237441805256943 0.0096708507049670586 0 0.00061773233041445715 0.009383287104985736 0 0.0010388139223956108 0.0088860743778359993 0 0.0018845901730609024 0.0091475240834875127 0 0.0016237441805256943 0.0096708507049670586 0 0.0010388139223956108 0.0088860743778359993 0 0.0016237441805256943 0.0096708507049670586 0 0.0016877440958277753 0.010423779907634625 0 0.0013110064389578549 0.010184012876642877 0 0.0016237441805256943 0.0096708507049670586 0 0.00079570436494321546 0.0099505120499817235 0 0.00061773233041445715 0.009383287104985736 0 0.0016237441805256943 0.0096708507049670586 0 0.0013110064389578549 0.010184012876642877 0 0.00079570436494321546 0.0099505120499817235 0 0.0023679728296863004 0.0094640973309686703 0 0.0016237441805256943 0.0096708507049670586 0 0.0020883838980836986 0.010007635774403585 0 0.0016237441805256943 0.0096708507049670586 0 0.0020883838980836986 0.010007635774403585 0 0.0016877440958277753 0.010423779907634625 0 0.0026571580362574261 0.010467775739931035 0 0.0017363091719350037 0.010769501157486606 0 0.0016877440958277753 0.010423779907634625 0 0.0050631745107052178 0.0082526054479620213 0 0.0059353374047124404 0.0079763583094979683 0 0.0054923855511191345 0.0078347462056696689 0 0.0026571580362574261 0.010467775739931035 0 0.0020883838980836986 0.010007635774403585 0 0.0016877440958277753 0.010423779907634625 0 0.0041414939151567806 0.0090577361605490153 0 0.0032597765250727754 0.009356662347329129 0 0.0032597765250727754 0.009356662347329129 0 0.0025458288017119065 0.010451766031667404 0 0.0016877440958277753 0.010423779907634625 0 0.0013110064389578549 0.010184012876642877 0 0.0013213265638735497 0.010626768084246764 0 0.0011172401244536015 0.01018574402729653 0 0.00079435331171201354 0.010216962616164291 0 0.0013213265638735497 0.010626768084246764 0 0.0010743546826394988 0.011086248320428656 0 0.00079570436494321546 0.0099505120499817235 0 0.0013110064389578549 0.010184012876642877 0 0.0013213265638735497 0.010626768084246764 0 0.00079570436494321546 0.0099505120499817235 0 0.0017497411233675095 0.01085536599530736 0 0.0016877440958277753 0.010423779907634625 0 0.0013213265638735497 0.010626768084246764 0 0.0017497411233675095 0.01085536599530736 0 0.0013213265638735497 0.010626768084246764 0 0.0010743546826394988 0.011086248320428656 0 0.0031164214733961997 0.0086907270311570532 0 0.0032665709008513951 0.009438016248230232 0 0.0030031161963000341 0.009107608424062056 0 0.0028555326064288599 0.0095707963244552625 0 0.0032665709008513951 0.009438016248230232 0 0.0030031161963000341 0.009107608424062056 0 0.001630375400662608 0.0095234832050425967 0 0.0011172401244536015 0.01018574402729653 0 0.0032597765250727754 0.009356662347329129 0 0.0011172401244536015 0.01018574402729653 0 0.0027625443922425774 0.0087530812116289099 0 0.0028555326064288599 0.0095707963244552625 0 0.0030031161963000341 0.009107608424062056 0 0.0044212941126732051 0.007721222367496363 0 0.0032597765250727754 0.009356662347329129 0 0.0058355275860805288 0.0069412960706864328 0 0.0059353374047124404 0.0079763583094979683 0 0.0056664290609951791 0.0074856120197321812 0 0.0053805898832458817 0.0072682488842077562 0 0.0053050921325596429 0.0076240195464105914 0 0.0056664290609951791 0.0074856120197321812 0 0.0056184427276244845 0.007155629081092546 0 0.0053805898832458817 0.0072682488842077562 0 0.0056664290609951791 0.0074856120197321812 0 0.0053050921325596429 0.0076240195464105914 0 0.0056664290609951791 0.0074856120197321812 0 0.0054923855511191345 0.0078347462056696689 0 0.0059353374047124404 0.0079763583094979683 0 0.0056664290609951791 0.0074856120197321812 0 0.0054923855511191345 0.0078347462056696689 0 -5.6487160503001219e-05 0.010553773260906943 0 0.00020796749537340298 0.010203441295097031 0 -0.00040230946727742362 0.010230782011242733 0 0.0011172401244536015 0.01018574402729653 0 -0.00032670760845012511 0.010674401239457785 0 0.00078941133639672803 0.010470061363688887 0 -5.6487160503001219e-05 0.010553773260906943 0 0.00020796749537340298 0.010203441295097031 0 -2.2590946424947695e-05 0.010583988806595975 0 3.7223155449716805e-05 0.010505939240600922 0 -5.6487160503001219e-05 0.010553773260906943 0 0.00078941133639672803 0.010470061363688887 0 0.00020796749537340298 0.010203441295097031 0 0.00079570436494321546 0.0099505120499817235 0 0.00020796749537340298 0.010203441295097031 0 -4.1186653482372539e-05 0.0096988958117636866 0 -0.00040230946727742362 0.010230782011242733 0 -4.1186653482372539e-05 0.0096988958117636866 0 0.00079570436494321546 0.0099505120499817235 0 0.00061773233041445715 0.009383287104985736 0 0.00020796749537340298 0.010203441295097031 0 -4.1186653482372539e-05 0.0096988958117636866 0 0.00079570436494321546 0.0099505120499817235 0 0.00061773233041445715 0.009383287104985736 0 3.6245525776472628e-05 0.0089547291995433192 0 0.0010388139223956108 0.0088860743778359993 0 -4.1186653482372539e-05 0.0096988958117636866 0 3.6245525776472628e-05 0.0089547291995433192 0 -0.00054170621633281113 0.0091214374799653102 0 -4.1186653482372539e-05 0.0096988958117636866 0 0.00061773233041445715 0.009383287104985736 0 3.6245525776472628e-05 0.0089547291995433192 0 -4.1186653482372539e-05 0.0096988958117636866 0 -0.00054170621633281113 0.0091214374799653102 0 -0.00097206273042393259 0.0098615445854250104 0 -0.0021001078629247819 0.007261698919124952 0 -0.0012918541140428642 0.007794398913474998 0 -0.0013498515507788711 0.0085546794157902051 0 -0.00054170621633281113 0.0091214374799653102 0 -0.00097206273042393259 0.0098615445854250104 0 -0.0013498515507788711 0.0085546794157902051 0 -0.0015316950254725234 0.008313508919819447 0 -0.0013795648304758496 0.0085987430021690625 0 -0.0012918541140428642 0.007794398913474998 0 -0.0013015136474962411 0.0083922600319077043 0 -0.0013498515507788711 0.0085546794157902051 0 -0.0010030538926568179 0.0082391160772762612 0 -0.0012918541140428642 0.007794398913474998 0 -0.0013015136474962411 0.0083922600319077043 0 -0.001289895115723759 0.0086697146801013678 0 -0.0018249288512243152 0.0058689246926486097 0 -0.0005909339671872143 0.0073530173541413706 0 -0.0012918541140428642 0.007794398913474998 0 -0.001028202032922866 0.0067188017583719849 0 -0.0010030538926568179 0.0082391160772762612 0 -0.0005909339671872143 0.0073530173541413706 0 -0.0012918541140428642 0.007794398913474998 0 -0.0016611322741368242 0.0083189030461837746 0 -0.001701074306165632 0.0082968935658270706 0 -0.0017031463960162181 0.0083136971698700053 0 -0.0021001078629247819 0.007261698919124952 0 -0.0012918541140428642 0.007794398913474998 0 -0.0017265624621141749 0.0066909432314551463 0 -0.0012918541140428642 0.007794398913474998 0 -0.001028202032922866 0.0067188017583719849 0 -0.0017265624621141749 0.0066909432314551463 0 -0.001561566981685068 0.0061385088808609432 0 -0.0017902217598252169 0.0059274837595328055 0 -0.001028202032922866 0.0067188017583719849 0 -0.0017265624621141749 0.0066909432314551463 0 -0.0017906277981096243 0.0059489183409042953 0 -0.0018249288512243152 0.0058689246926486097 0 -0.0024111296327241137 0.0045846644695967942 0 -0.0023485151507160401 0.0052516272282910241 0 -0.0021878289602640915 0.0054109158147097958 0 -0.0025002460769120889 0.0054858191578240614 0 -0.0018249288512243152 0.0058689246926486097 0 -0.001561566981685068 0.0061385088808609432 0 -0.0021878289602640915 0.0054109158147097958 0 -0.0021868655791926466 0.0058635813819476867 0 -0.0025002460769120889 0.0054858191578240614 0 -0.0021878289602640915 0.0054109158147097958 0 -0.0017906277981096243 0.0059489183409042953 0 -0.0021868655791926466 0.0058635813819476867 0 -0.0017906277981096243 0.0059489183409042953 0 -0.0021868655791926466 0.0058635813819476867 0 -0.0019619365282780095 0.0059027788319779024 0 -0.0017906277981096243 0.0059489183409042953 0 -0.0019619365282780095 0.0059027788319779024 0 -0.0020834868480029182 0.0058358814160139839 0 -0.0017265624621141749 0.0066909432314551463 0 -0.0017906277981096243 0.0059489183409042953 0 -0.0020834868480029182 0.0058358814160139839 0 -0.00060852622654860515 0.01050444308463535 0 -0.00035449913414626 0.010482564089476312 0 -0.00043551124555122331 0.010554698256962721 0 -0.00060852622654860515 0.01050444308463535 0 -0.00035449913414626 0.010482564089476312 0 -0.00040230946727742362 0.010230782011242733 0 -5.6487160503001219e-05 0.010553773260906943 0 -0.00035449913414626 0.010482564089476312 0 -0.00040230946727742362 0.010230782011242733 0 -4.1186653482372539e-05 0.0096988958117636866 0 -0.00097206273042393259 0.0098615445854250104 0 -0.00040230946727742362 0.010230782011242733 0 -0.00097206273042393259 0.0098615445854250104 0 -0.00060852622654860515 0.01050444308463535 0 -0.00040230946727742362 0.010230782011242733 0 -0.0021001078629247819 0.007261698919124952 0 -0.0017265624621141749 0.0066909432314551463 0 -0.0020834868480029182 0.0058358814160139839 0 -0.0015316950254725234 0.008313508919819447 0 -0.0011179516774195355 0.0089966261772660983 0 -0.01035663822554903 0.0022558396301456183 0 -0.0096976173708653891 0.00040790462807261047 0 -0.008041832118553742 0.0015949068365527013 0 -0.010543446781504729 0.00057190838407149215 0 -0.0099158389389425641 0.00050360885442046744 0 -0.0099633008417337552 0.00027284141971683639 0 -0.010447109836049882 -0.0017910628786495378 0 -0.0090734720216733636 -0.0016739887858847277 0 -0.0096976173708653891 0.00040790462807261047 0 -0.0077592729578977388 -0.00091383852830375875 0 -0.008041832118553742 0.0015949068365527013 0 -0.0099158389389425641 0.00050360885442046744 0 -0.0091160018055313746 -0.0015027258523847298 0 -0.0096976173708653891 0.00040790462807261047 0 -0.0077592729578977388 -0.00091383852830375875 0 -0.0090734720216733636 -0.0016739887858847277 0 -0.0077592729578977388 -0.00091383852830375875 0 -0.008041832118553742 0.0015949068365527013 0 -0.0062895705870218447 -0.00020345728747478005 0 -0.0077592729578977388 -0.00091383852830375875 0 -0.0090734720216733636 -0.0016739887858847277 0 -0.0083183880074312495 -0.0021671547073140915 0 -0.0077592729578977388 -0.00091383852830375875 0 -0.0068630317449289375 -0.0013660051953441235 0 -0.0074876404389387172 -0.0022144476122477599 0 -0.0077592729578977388 -0.00091383852830375875 0 -0.0068630317449289375 -0.0013660051953441235 0 -0.0062895705870218447 -0.00020345728747478005 0 -0.0068630317449289375 -0.0013660051953441235 0 -0.0062895705870218447 -0.00020345728747478005 0 -0.0059027268170733869 -0.0021568974660461262 0 -0.008041832118553742 0.0015949068365527013 0 -0.0062895705870218447 -0.00020345728747478005 0 -0.0058891436122203052 0.0030309259302314403 0 -0.0062895705870218447 -0.00020345728747478005 0 -0.0035491910450943507 0.00027106610188132796 0 -0.0034480360801385718 0.0025260881292223916 0 -0.0062895705870218447 -0.00020345728747478005 0 -0.0034480360801385718 0.0025260881292223916 0 -0.0049874681985048359 0.0036758999336443761 0 -0.0062336089515718732 -1.2852755098107556e-05 0 -0.0054681830861870468 0.0031789120955395848 0 -0.0042664079342351292 0.0031084187505867763 0 -0.0057169307428465189 0.00085228436071414196 0 -0.0062895705870218447 -0.00020345728747478005 0 -0.0035491910450943507 0.00027106610188132796 0 -0.0059027268170733869 -0.0021568974660461262 0 -0.004618943403983021 0.0054138204806705621 0 -0.0050740484118108487 0.0041433975647193763 0 -0.0058443533781208585 0.0042571469161464016 0 -0.001718066071740231 0.0083024378833641468 0 -0.0017031463960162181 0.0083136971698700053 0 -0.0017975912542496767 0.0082894185040321786 0 -0.004618943403983021 0.0054138204806705621 0 -0.0042076794332383495 0.0058009835111594169 0 -0.0050740484118108487 0.0041433975647193763 0 -0.0028767838215011414 0.0055094175150286282 0 -0.0031297890679295092 0.0064922390701221255 0 -0.0042664079342351292 0.0031084187505867763 0 -0.0028767838215011414 0.0055094175150286282 0 -0.0016611322741368242 0.0083189030461837746 0 -0.001718066071740231 0.0083024378833641468 0 -0.0017031463960162181 0.0083136971698700053 0 -0.0035491910450943507 0.00027106610188132796 0 -0.0028017674876793614 0.0011021772392456588 0 -0.0034480360801385718 0.0025260881292223916 0 -0.0015928965081489241 0.0026044768244448523 0 -0.0028017674876793614 0.0011021772392456588 0 -0.0034480360801385718 0.0025260881292223916 0 -0.0018249288512243152 0.0058689246926486097 0 -0.0028767838215011414 0.0055094175150286282 0 -0.0015928965081489241 0.0026044768244448523 0 -0.0033339136333482666 0.0042342055664848274 0 -0.0025002460769120889 0.0054858191578240614 0 -0.0015928965081489241 0.0026044768244448523 0 -0.0034480360801385718 0.0025260881292223916 0 -0.0033339136333482666 0.0042342055664848274 0 -0.0033339136333482666 0.0042342055664848274 0 -0.0025002460769120889 0.0054858191578240614 0 -0.0035896057498722993 0.0059565756479602718 0 -0.0054681830861870468 0.0031789120955395848 0 -0.0043431440247936673 0.0061775334534670788 0 -0.0058891436122203052 0.0030309259302314403 0 -0.006683568662920341 0.0050829467965621588 0 -0.0054199814810410567 0.0059426006537601243 0 -0.0033339136333482666 0.0042342055664848274 0 -0.0049874681985048359 0.0036758999336443761 0 -0.0035896057498722993 0.0059565756479602718 0 -0.0034480360801385718 0.0025260881292223916 0 -0.0033339136333482666 0.0042342055664848274 0 -0.0049874681985048359 0.0036758999336443761 0 -0.008041832118553742 0.0015949068365527013 0 -0.0058891436122203052 0.0030309259302314403 0 -0.0083242800429883558 0.0045690642918557586 0 -0.0058891436122203052 0.0030309259302314403 0 -0.0083242800429883558 0.0045690642918557586 0 -0.006683568662920341 0.0050829467965621588 0 -0.0084585992789461811 0.0031641435897424748 0 -0.0069196232677660599 0.0050533835160454189 0 -0.0083242800429883558 0.0045690642918557586 0 -0.006683568662920341 0.0050829467965621588 0 -0.006474375493885018 0.0066147078972781451 0 -0.0087219453822760407 0.0016033304159915249 0 -0.0091714049332385309 0.0027660849027980852 0 -0.0072810968131021376 0.0033641876386225366 0 -0.011048187102214349 -0.00032285882988450923 0 -0.0092704949512983012 0.0013595251811907866 0 -0.01082671799970986 0.0015020518339973771 0 -0.0087219453822760407 0.0016033304159915249 0 -0.0091714049332385309 0.0027660849027980852 0 -0.010543446781504729 0.00057190838407149215 0 -0.0084585992789461811 0.0031641435897424748 0 -0.01035663822554903 0.0022558396301456183 0 -0.008041832118553742 0.0015949068365527013 0 -0.0083242800429883558 0.0045690642918557586 0 -0.01082671799970986 0.0015020518339973771 0 -0.010138588763567217 -0.00013901398492697511 0 -0.0087219453822760407 0.0016033304159915249 0 -0.010651205683959468 0.001363837554982094 0 -0.0093106274214422111 0.0017772086094996369 0 -0.0095317232002127689 -0.0002324715734075381 0 -0.0092704949512983012 0.0013595251811907866 0 -0.0079590784084092522 0.0023162398945969884 0 -0.0091714049332385309 0.0027660849027980852 0 -0.0074896702888129878 0.004044740404071376 0 -0.0072810968131021376 0.0033641876386225366 0 -0.0093106274214422111 0.0017772086094996369 0 -0.0095317232002127689 -0.0002324715734075381 0 -0.0081223440815416607 0.00085182739573405847 0 -0.0093106274214422111 0.0017772086094996369 0 -0.0081223440815416607 0.00085182739573405847 0 -0.0083727251310526871 0.0023884350075641142 0 -0.0081223440815416607 0.00085182739573405847 0 -0.0067500980229474048 0.0019431019582180106 0 -0.0074728632467354738 0.0024060930654107044 0 -0.0081223440815416607 0.00085182739573405847 0 -0.0074728632467354738 0.0024060930654107044 0 -0.0083727251310526871 0.0023884350075641142 0 -0.0074896702888129878 0.004044740404071376 0 -0.0058081854698878391 0.0051469380783108086 0 -0.0057688551164416556 0.0053289601187429892 0 -0.0079590784084092522 0.0023162398945969884 0 -0.0056459763857729722 0.0042437371564217298 0 -0.0074896702888129878 0.004044740404071376 0 -0.0072810968131021376 0.0033641876386225366 0 -0.0058081854698878391 0.0051469380783108086 0 -0.0069196232677660599 0.0050533835160454189 0 -0.0050548304038513063 0.0062398384636599812 0 -0.0043431440247936673 0.0061775334534670788 0 -0.0050548304038513063 0.0062398384636599812 0 -0.006474375493885018 0.0066147078972781451 0 -0.0054199814810410567 0.0059426006537601243 0 -0.0049119645127053725 0.0084822254896053523 0 -0.006683568662920341 0.0050829467965621588 0 -0.006474375493885018 0.0066147078972781451 0 -0.0054199814810410567 0.0059426006537601243 0 -0.0035896057498722993 0.0059565756479602718 0 -0.002813581540731518 0.0061557956156132135 0 -0.0028212826306552143 0.0063609565668677655 0 -0.0025002460769120889 0.0054858191578240614 0 -0.0035896057498722993 0.0059565756479602718 0 -0.002813581540731518 0.0061557956156132135 0 -0.002813581540731518 0.0061557956156132135 0 -0.0027565022491631793 0.0062593051774423609 0 -0.0028212826306552143 0.0063609565668677655 0 -0.0027565022491631793 0.0062593051774423609 0 -0.0028212826306552143 0.0063609565668677655 0 -0.002704481070300655 0.0062734579646463919 0 -0.0028212826306552143 0.0063609565668677655 0 -0.002791606364690277 0.0063504956150017061 0 -0.002704481070300655 0.0062734579646463919 0 -0.0050548304038513063 0.0062398384636599812 0 -0.0056459763857729722 0.0042437371564217298 0 -0.0027565022491631793 0.0062593051774423609 0 -0.002704481070300655 0.0062734579646463919 0 -0.0026103391654577293 0.0062285197006190229 0 -0.002791606364690277 0.0063504956150017061 0 -0.002704481070300655 0.0062734579646463919 0 -0.0025122679000986335 0.0060006903338611145 0 -0.0056459763857729722 0.0042437371564217298 0 -0.0037812381095670639 0.0046208423118299178 0 -0.0068893321579449702 0.0017115147234567764 0 -0.0058410226709575512 0.0031307463876684371 0 -0.005173625654234815 0.0031433554860967336 0 -0.0056459763857729722 0.0042437371564217298 0 -0.0065090316783776815 0.0021355271175544847 0 -0.0068893321579449702 0.0017115147234567764 0 -0.0066234547589986868 0.0027310767864643331 0 -0.0058410226709575512 0.0031307463876684371 0 -0.0066234547589986868 0.0027310767864643331 0 -0.0064445250468788736 0.0034374562166448806 0 -0.0071234924304780407 0.0031415483464021688 0 -0.0066234547589986868 0.0027310767864643331 0 -0.0058410226709575512 0.0031307463876684371 0 -0.0064445250468788736 0.0034374562166448806 0 -0.0059542465595331063 0.0034711229476922538 0 -0.0058792348767395209 0.0037531173520664778 0 -0.0064445250468788736 0.0034374562166448806 0 -0.0058410226709575512 0.0031307463876684371 0 -0.0059542465595331063 0.0034711229476922538 0 -0.0064445250468788736 0.0034374562166448806 0 -0.0058792348767395209 0.0037531173520664778 0 -0.0064445250468788736 0.0034374562166448806 0 -0.0066754014868790441 0.0041505591405375354 0 -0.0064445250468788736 0.0034374562166448806 0 -0.0072738968281905372 0.0038367871940641405 0 -0.0066754014868790441 0.0041505591405375354 0 -0.0071234924304780407 0.0031415483464021688 0 -0.0072738968281905372 0.0038367871940641405 0 -0.0079139273787822758 0.0033016926222970036 0 -0.0064445250468788736 0.0034374562166448806 0 -0.0071234924304780407 0.0031415483464021688 0 -0.0072738968281905372 0.0038367871940641405 0 -0.0072738968281905372 0.0038367871940641405 0 -0.0079139273787822758 0.0033016926222970036 0 -0.0083215955280046272 0.0041444724502192679 0 -0.0071234924304780407 0.0031415483464021688 0 -0.0079139273787822758 0.0033016926222970036 0 -0.0074728632467354738 0.0024060930654107044 0 -0.0079139273787822758 0.0033016926222970036 0 -0.0074728632467354738 0.0024060930654107044 0 -0.0083727251310526871 0.0023884350075641142 0 -0.0066234547589986868 0.0027310767864643331 0 -0.0071234924304780407 0.0031415483464021688 0 -0.0074728632467354738 0.0024060930654107044 0 -0.0067500980229474048 0.0019431019582180106 0 -0.0066234547589986868 0.0027310767864643331 0 -0.0074728632467354738 0.0024060930654107044 0 -0.0093106274214422111 0.0017772086094996369 0 -0.0083727251310526871 0.0023884350075641142 0 -0.0092408448338208351 0.0033488818754584784 0 -0.0079139273787822758 0.0033016926222970036 0 -0.0083727251310526871 0.0023884350075641142 0 -0.0092408448338208351 0.0033488818754584784 0 -0.0079139273787822758 0.0033016926222970036 0 -0.0092408448338208351 0.0033488818754584784 0 -0.0083215955280046272 0.0041444724502192679 0 -0.0092408448338208351 0.0033488818754584784 0 -0.0096880473875044556 0.0043963593404107541 0 -0.0083215955280046272 0.0041444724502192679 0 -0.010815753430153055 0.0036786333731791037 0 -0.0092408448338208351 0.0033488818754584784 0 -0.010157980805386962 0.0026676468326420504 0 -0.010815753430153055 0.0036786333731791037 0 -0.0092408448338208351 0.0033488818754584784 0 -0.0096880473875044556 0.0043963593404107541 0 -0.010651205683959468 0.001363837554982094 0 -0.0093106274214422111 0.0017772086094996369 0 -0.010157980805386962 0.0026676468326420504 0 -0.0093106274214422111 0.0017772086094996369 0 -0.0092408448338208351 0.0033488818754584784 0 -0.010157980805386962 0.0026676468326420504 0 -0.00043448147259418727 0.010680089068254453 0 -0.00037415212483538529 0.010657299862317402 0 -0.00043216381866969427 0.010604222736593007 0 -0.00018821878402765192 0.010755013722849358 0 -0.00043448147259418727 0.010680089068254453 0 -0.00028725945453348517 0.010682561962315431 0 -0.00018821878402765192 0.010755013722849358 0 -0.00052407522907293677 0.010690750332677983 0 -0.00043448147259418727 0.010680089068254453 0 0.0010815331014553838 0.0068849420965343142 0 -0.00051737861944531902 0.0065965806175485647 0 -0.00014628863361526887 0.010638760533043169 0 -0.00028725945453348517 0.010682561962315431 0 -0.00031148396170779758 0.010611139782010653 0 -0.00028725945453348517 0.010682561962315431 0 -0.00037415212483538529 0.010657299862317402 0 -0.00031148396170779758 0.010611139782010653 0 -0.00043448147259418727 0.010680089068254453 0 -0.00028725945453348517 0.010682561962315431 0 -0.00037415212483538529 0.010657299862317402 0 -0.00043216381866969427 0.010604222736593007 0 -0.00031148396170779758 0.010611139782010653 0 -0.00043551124555122331 0.010554698256962721 0 -0.00037415212483538529 0.010657299862317402 0 -0.00043216381866969427 0.010604222736593007 0 -0.00031148396170779758 0.010611139782010653 0 -5.6487160503001219e-05 0.010553773260906943 0 -0.00035449913414626 0.010482564089476312 0 -0.00031148396170779758 0.010611139782010653 0 -0.00035449913414626 0.010482564089476312 0 -0.00031148396170779758 0.010611139782010653 0 -0.00043551124555122331 0.010554698256962721 0 -0.0011179516774195355 0.0089966261772660983 0 -0.00051737861944531902 0.0065965806175485647 0 -0.00060852622654860515 0.01050444308463535 0 -0.00043216381866969427 0.010604222736593007 0 -0.00043551124555122331 0.010554698256962721 0 -0.00060852622654860515 0.01050444308463535 0 -0.00043448147259418727 0.010680089068254453 0 -0.00043216381866969427 0.010604222736593007 0 -0.0020834868480029182 0.0058358814160139839 0 -0.0018680231019457822 0.006264368784852082 0 -0.0020209684079677622 0.0060122922612945691 0 -0.00051362669208786455 0.0099305492308037549 0 -0.00052407522907293677 0.010690750332677983 0 -0.00043448147259418727 0.010680089068254453 0 -0.0011179516774195355 0.0089966261772660983 0 -0.00028872258321335195 0.011188828434772109 0 -0.0019619365282780095 0.0059027788319779024 0 -0.0020834868480029182 0.0058358814160139839 0 -0.0020209684079677622 0.0060122922612945691 0 -0.0021868655791926466 0.0058635813819476867 0 -0.0019619365282780095 0.0059027788319779024 0 -0.0020209684079677622 0.0060122922612945691 0 -0.0021868655791926466 0.0058635813819476867 0 -0.0020209684079677622 0.0060122922612945691 0 -0.0024200068611922535 0.0061734201674747066 0 -0.0021868655791926466 0.0058635813819476867 0 -0.002813581540731518 0.0061557956156132135 0 -0.0024200068611922535 0.0061734201674747066 0 -0.0021868655791926466 0.0058635813819476867 0 -0.0025002460769120889 0.0054858191578240614 0 -0.002813581540731518 0.0061557956156132135 0 -0.002813581540731518 0.0061557956156132135 0 -0.0027565022491631793 0.0062593051774423609 0 -0.0024200068611922535 0.0061734201674747066 0 -0.0027565022491631793 0.0062593051774423609 0 -0.0024200068611922535 0.0061734201674747066 0 -0.0026103391654577293 0.0062285197006190229 0 -0.0024200068611922535 0.0061734201674747066 0 -0.00256348776295025 0.006181172956149646 0 -0.0026103391654577293 0.0062285197006190229 0 -0.002704481070300655 0.0062734579646463919 0 -0.0026103391654577293 0.0062285197006190229 0 -0.0026061237521132156 0.00618480656110204 0 -0.00256348776295025 0.006181172956149646 0 -0.0026103391654577293 0.0062285197006190229 0 -0.0026061237521132156 0.00618480656110204 0 -0.0018680231019457822 0.006264368784852082 0 -0.0020209684079677622 0.0060122922612945691 0 -0.0024200068611922535 0.0061734201674747066 0 -0.00051737861944531902 0.0065965806175485647 0 -0.0031296283152329723 0.0059505600666897931 0 -0.0026675868279618558 0.0061694670113014109 0 -0.0024200068611922535 0.0061734201674747066 0 -0.0025767620052983809 0.0061431334649614125 0 -0.0024200068611922535 0.0061734201674747066 0 -0.00256348776295025 0.006181172956149646 0 -0.0025767620052983809 0.0061431334649614125 0 -0.00256348776295025 0.006181172956149646 0 -0.0025767620052983809 0.0061431334649614125 0 -0.0026225609526605615 0.0061086516831635376 0 -0.0026675868279618558 0.0061694670113014109 0 -0.0025767620052983809 0.0061431334649614125 0 -0.002619156480742187 0.0061031600244745125 0 -0.0026225609526605615 0.0061086516831635376 0 -0.0026222395800746625 0.0060915942669420619 0 -0.0026934498203116664 0.0061033480072200958 0 -0.0025767620052983809 0.0061431334649614125 0 -0.002619156480742187 0.0061031600244745125 0 -0.0026225609526605615 0.0061086516831635376 0 -0.002619156480742187 0.0061031600244745125 0 -0.0026225609526605615 0.0061086516831635376 0 -0.0026222395800746625 0.0060915942669420619 0 -0.0026251261413382104 0.0060831624047750837 0 -0.0026934498203116664 0.0061033480072200958 0 -0.0026001135595646661 0.0060610338658050366 0 -0.0026222395800746625 0.0060915942669420619 0 -0.0026251261413382104 0.0060831624047750837 0 -0.0026934498203116664 0.0061033480072200958 0 -0.0027403347988144374 0.0059604129575663327 0 -0.002650147817431496 0.0059083674489392689 0 -0.0026222395800746625 0.0060915942669420619 0 -0.0026251261413382104 0.0060831624047750837 0 -0.0026211084124295129 0.0060723962555021696 0 -0.002619156480742187 0.0061031600244745125 0 -0.0026222395800746625 0.0060915942669420619 0 -0.0026211084124295129 0.0060723962555021696 0 -0.002619156480742187 0.0061031600244745125 0 -0.0026211084124295129 0.0060723962555021696 0 -0.00264552355697291 0.0060714509141648297 0 -0.0026934498203116664 0.0061033480072200958 0 -0.0025122679000986335 0.0060006903338611145 0 -0.0030793275893301127 0.0052945041844013581 0 -0.002704481070300655 0.0062734579646463919 0 -0.0026061237521132156 0.00618480656110204 0 -0.0025122679000986335 0.0060006903338611145 0 -0.0026061237521132156 0.00618480656110204 0 -0.0026934498203116664 0.0061033480072200958 0 -0.0025122679000986335 0.0060006903338611145 0 -0.00256348776295025 0.006181172956149646 0 -0.0026061237521132156 0.00618480656110204 0 -0.0026934498203116664 0.0061033480072200958 0 -0.00256348776295025 0.006181172956149646 0 -0.0026225609526605615 0.0061086516831635376 0 -0.0026934498203116664 0.0061033480072200958 0 -0.0025122679000986335 0.0060006903338611145 0 -0.0030793275893301127 0.0052945041844013581 0 -0.0030855106835988269 0.0053335620362227948 0 -0.005173625654234815 0.0031433554860967336 0 -0.0038102582543998341 0.0051682974966455915 0 -0.0030855106835988269 0.0053335620362227948 0 -0.0037812381095670639 0.0046208423118299178 0 -0.0031957309219190783 0.0052028773303100032 0 -0.0058410226709575512 0.0031307463876684371 0 -0.005173625654234815 0.0031433554860967336 0 -0.0038102582543998341 0.0051682974966455915 0 -0.0058410226709575512 0.0031307463876684371 0 -0.0057728862197318149 0.0035643494709114388 0 -0.0056281202492202437 0.0036793817518111908 0 -0.0056590126118059971 0.0033922816855597327 0 -0.0050552488348548025 0.00424241020832719 0 -0.0058410226709575512 0.0031307463876684371 0 -0.0059542465595331063 0.0034711229476922538 0 -0.0057728862197318149 0.0035643494709114388 0 -0.0059542465595331063 0.0034711229476922538 0 -0.0058792348767395209 0.0037531173520664778 0 -0.0057728862197318149 0.0035643494709114388 0 -0.0056281202492202437 0.0036793817518111908 0 -0.005719178124725605 0.0037155188524656043 0 -0.0056801849749956281 0.0037302598572993713 0 -0.0057728862197318149 0.0035643494709114388 0 -0.0056281202492202437 0.0036793817518111908 0 -0.005719178124725605 0.0037155188524656043 0 -0.0058792348767395209 0.0037531173520664778 0 -0.0057728862197318149 0.0035643494709114388 0 -0.005719178124725605 0.0037155188524656043 0 -0.0038102582543998341 0.0051682974966455915 0 -0.0030855106835988269 0.0053335620362227948 0 -0.001977016128197093 0.0062275225822533307 0 -0.0026211084124295129 0.0060723962555021696 0 -0.00264552355697291 0.0060714509141648297 0 -0.0026283714837669822 0.0059715967344882021 0 -0.0050552488348548025 0.00424241020832719 0 -0.0012484551719394812 0.0040083307903928805 0 -0.0026211084124295129 0.0060723962555021696 0 -0.0026001135595646661 0.0060610338658050366 0 -0.0026283714837669822 0.0059715967344882021 0 -0.0026251261413382104 0.0060831624047750837 0 -0.0026211084124295129 0.0060723962555021696 0 -0.0026001135595646661 0.0060610338658050366 0 -0.0030793275893301127 0.0052945041844013581 0 -0.0030855106835988269 0.0053335620362227948 0 -0.001977016128197093 0.0062275225822533307 0 -0.002650147817431496 0.0059083674489392689 0 -0.0012484551719394812 0.0040083307903928805 0 0.001571387387320274 0.0034381829943058782 0 0.0013133128679038385 0.0031979691897315752 0 0.001274347493189853 0.0036083272467866772 0 -0.00061545977709832607 0.0043774158943100609 0 -0.0012484551719394812 0.0040083307903928805 0 0.001571387387320274 0.0034381829943058782 0 0.0013133128679038385 0.0031979691897315752 0 0.0016979001866578647 0.0032261540934718281 0 -0.00051737861944531902 0.0065965806175485647 0 -0.00061545977709832607 0.0043774158943100609 0 0.0013507000439810586 0.0028104336140935145 0 0.0013133128679038385 0.0031979691897315752 0 0.0015611605624289942 0.0030415086040978079 0 -0.0026675868279618558 0.0061694670113014109 0 -0.002619156480742187 0.0061031600244745125 0 -0.00264552355697291 0.0060714509141648297 0 0.0013133128679038385 0.0031979691897315752 0 0.0015611605624289942 0.0030415086040978079 0 0.0016979001866578647 0.0032261540934718281 0 0.0019072329900135022 0.0029284951541481978 0 0.0013507000439810586 0.0028104336140935145 0 0.0015611605624289942 0.0030415086040978079 0 0.0019072329900135022 0.0029284951541481978 0 0.0015611605624289942 0.0030415086040978079 0 0.0016979001866578647 0.0032261540934718281 0 0.0019072329900135022 0.0029284951541481978 0 0.0019358999209155164 0.0033769915438662699 0 0.0016979001866578647 0.0032261540934718281 0 0.0019358999209155164 0.0033769915438662699 0 0.001571387387320274 0.0034381829943058782 0 0.0016979001866578647 0.0032261540934718281 0 0.0019358999209155164 0.0033769915438662699 0 0.001571387387320274 0.0034381829943058782 0 0.0017094392413406836 0.0036172641848447131 0 0.0017094392413406836 0.0036172641848447131 0 0.0016146766208349139 0.0037821013095477871 0 0.0019034095952078999 0.0036798084380552654 0 0.0019358999209155164 0.0033769915438662699 0 0.0017094392413406836 0.0036172641848447131 0 0.0019034095952078999 0.0036798084380552654 0 0.001571387387320274 0.0034381829943058782 0 0.0017094392413406836 0.0036172641848447131 0 0.0015440111044302072 0.0036134884826111787 0 0.0017094392413406836 0.0036172641848447131 0 0.0016146766208349139 0.0037821013095477871 0 0.0015440111044302072 0.0036134884826111787 0 0.0018396174122534672 0.0038490426459329053 0 0.0016146766208349139 0.0037821013095477871 0 0.0019034095952078999 0.0036798084380552654 0 0.0018396174122534672 0.0038490426459329053 0 0.001598677253105062 0.0038596934886253203 0 0.0018086882466740273 0.0039605074717133882 0 0.0017083891678431387 0.0037666990294469541 0 0.0018936608821626347 0.0038563516922273128 0 0.0018396174122534672 0.0038490426459329053 0 0.001598677253105062 0.0038596934886253203 0 0.0015804928745559565 0.0036225348778762797 0 0.00029226191440587419 0.0028087650791639137 0 4.0428024185134601e-05 0.001848646495366405 0 -0.000110548421198154 0.0030235400312890797 0 0.00029226191440587419 0.0028087650791639137 0 0.00082153450738683205 0.0029339501528967858 0 4.0428024185134601e-05 0.001848646495366405 0 0.0014530035335925413 0.003216390183487463 0 -0.0012484551719394812 0.0040083307903928805 0 0.00029226191440587419 0.0028087650791639137 0 -0.000110548421198154 0.0030235400312890797 0 0.00041974101637344205 0.0034559005406860303 0 0.00029226191440587419 0.0028087650791639137 0 0.00082153450738683205 0.0029339501528967858 0 0.00041974101637344205 0.0034559005406860303 0 0.0018936608821626347 0.0038563516922273128 0 -0.0012484551719394812 0.0040083307903928805 0 0.001598677253105062 0.0038596934886253203 0 0.0015804928745559565 0.0036225348778762797 0 0.0012238629761503368 0.0034205559292507771 0 0.0016146766208349139 0.0037821013095477871 0 0.0015440111044302072 0.0036134884826111787 0 0.001274347493189853 0.0036083272467866772 0 0.001571387387320274 0.0034381829943058782 0 0.0015440111044302072 0.0036134884826111787 0 0.001274347493189853 0.0036083272467866772 0 -0.0056281202492202437 0.0036793817518111908 0 -0.0057042510987921693 0.003760982643581717 0 -0.0056801849749956281 0.0037302598572993713 0 -0.0057042510987921693 0.003760982643581717 0 -0.0056801849749956281 0.0037302598572993713 0 -0.0056910868760581268 0.0037146966167939297 0 -0.0058792348767395209 0.0037531173520664778 0 -0.005719178124725605 0.0037155188524656043 0 -0.0057302333384160326 0.003742160616453358 0 -0.005719178124725605 0.0037155188524656043 0 -0.0056801849749956281 0.0037302598572993713 0 -0.0057302333384160326 0.003742160616453358 0 -0.0056801849749956281 0.0037302598572993713 0 -0.0056910868760581268 0.0037146966167939297 0 -0.0057302333384160326 0.003742160616453358 0 -0.0056910868760581268 0.0037146966167939297 0 -0.0057302333384160326 0.003742160616453358 0 -0.0057052133628436022 0.0037087294091895286 0 -0.0057302333384160326 0.003742160616453358 0 -0.0057052133628436022 0.0037087294091895286 0 -0.0057326115681201953 0.0037244700653312002 0 -0.0056910868760581268 0.0037146966167939297 0 -0.0057052133628436022 0.0037087294091895286 0 -0.0056564758734199399 0.0036584803948467516 0 -0.0056564758734199399 0.0036584803948467516 0 -0.0055007770195371949 0.0033953003456432852 0 -0.0052258347099303649 0.0034812839667783296 0 -0.0057052133628436022 0.0037087294091895286 0 -0.0056564758734199399 0.0036584803948467516 0 -0.0057169273975022075 0.0037395421222602095 0 -0.0057014203686333257 0.0036876299457211563 0 -0.0052684845778676395 0.0035167868455772845 0 -0.0057042510987921693 0.003760982643581717 0 -0.0056910868760581268 0.0037146966167939297 0 -0.0058302640586859224 0.0035815320957287571 0 -0.0012484551719394812 0.0040083307903928805 0 -0.0032331189810590618 0.003022606904717002 0 -0.0056910868760581268 0.0037146966167939297 0 -0.0056564758734199399 0.0036584803948467516 0 -0.0058302640586859224 0.0035815320957287571 0 -0.0058302640586859224 0.0035815320957287571 0 -0.0056643224357441147 0.0032803946167750805 0 -0.0058298482840560221 0.0029166886219731147 0 -0.0032331189810590618 0.003022606904717002 0 -0.0020000992973183674 0.0038568624426715209 0 -0.000110548421198154 0.0030235400312890797 0 -0.0003132302583936272 0.0042710805109177526 0 0.00041974101637344205 0.0034559005406860303 0 -0.0020000992973183674 0.0038568624426715209 0 0.00071026872051874494 0.0034057743843250313 0 -0.0056564758734199399 0.0036584803948467516 0 -0.0058302640586859224 0.0035815320957287571 0 -0.0056643224357441147 0.0032803946167750805 0 -0.0054398466141237171 0.0030534717161349078 0 -0.0052258347099303649 0.0034812839667783296 0 -0.0050664000437833263 0.0030604647475683021 0 -0.0055007770195371949 0.0033953003456432852 0 -0.0054398466141237171 0.0030534717161349078 0 -0.0052258347099303649 0.0034812839667783296 0 -0.0056564758734199399 0.0036584803948467516 0 -0.0056643224357441147 0.0032803946167750805 0 -0.0055007770195371949 0.0033953003456432852 0 -0.0056643224357441147 0.0032803946167750805 0 -0.0054398466141237171 0.0030534717161349078 0 -0.0056369526750570925 0.0030397599017781877 0 -0.0056643224357441147 0.0032803946167750805 0 -0.0055007770195371949 0.0033953003456432852 0 -0.0054398466141237171 0.0030534717161349078 0 -0.0054398466141237171 0.0030534717161349078 0 -0.0050523789863595467 0.0026694335115454628 0 -0.0056343357935761092 0.0026704432798734532 0 -0.0052219074848197178 -0.0025455822032873243 0 -0.0039389089164494915 -6.4799017599210352e-05 0 -0.0054398466141237171 0.0030534717161349078 0 -0.0056369526750570925 0.0030397599017781877 0 -0.0056338159862930025 0.0029202577448863916 0 -0.0054398466141237171 0.0030534717161349078 0 -0.0056338159862930025 0.0029202577448863916 0 -0.0056343357935761092 0.0026704432798734532 0 0.00012817990311048664 0.004304793651911323 0 0.00074455534688672295 0.0047351264700834185 0 -0.00072092020559140556 0.004661064509656262 0 -0.00031879262531040044 0.0043084505016096489 0 0.00012817990311048664 0.004304793651911323 0 -0.00072092020559140556 0.004661064509656262 0 -0.00030102709853609854 0.0042279737720456777 0 0.00012817990311048664 0.004304793651911323 0 0.00032788686182723886 0.0039771237219423114 0 -0.0056643224357441147 0.0032803946167750805 0 -0.0058298482840560221 0.0029166886219731147 0 -0.0056369526750570925 0.0030397599017781877 0 -0.0058298482840560221 0.0029166886219731147 0 -0.0056369526750570925 0.0030397599017781877 0 -0.0056338159862930025 0.0029202577448863916 0 -0.0020000992973183674 0.0038568624426715209 0 -0.0039389089164494915 -6.4799017599210352e-05 0 -0.0058298482840560221 0.0029166886219731147 0 -0.0056338159862930025 0.0029202577448863916 0 -0.0056343357935761092 0.0026704432798734532 0 -0.0003059441483351251 0.0042235152535496966 0 -0.00031879262531040044 0.0043084505016096489 0 -0.00072092020559140556 0.004661064509656262 0 -0.00030102709853609854 0.0042279737720456777 0 -0.00031879262531040044 0.0043084505016096489 0 0.00012817990311048664 0.004304793651911323 0 -0.0020000992973183674 0.0038568624426715209 0 -0.0019566089528238548 0.0038830908916974317 0 -0.00030102709853609854 0.0042279737720456777 0 0.00032788686182723886 0.0039771237219423114 0 0.00041974101637344205 0.0034559005406860303 0 0.00012817990311048664 0.004304793651911323 0 0.00032788686182723886 0.0039771237219423114 0 0.00091323489597908245 0.0040092009516651227 0 0.00012817990311048664 0.004304793651911323 0 0.00091323489597908245 0.0040092009516651227 0 0.00074455534688672295 0.0047351264700834185 0 0.001665484073369477 0.0041381929539499474 0 0.00091323489597908245 0.0040092009516651227 0 0.00074455534688672295 0.0047351264700834185 0 0.001665484073369477 0.0041381929539499474 0 0.00074455534688672295 0.0047351264700834185 0 0.0020123496735919267 0.0046928161556138281 0 0.001598677253105062 0.0038596934886253203 0 0.001665484073369477 0.0041381929539499474 0 0.0018086882466740273 0.0039605074717133882 0 0.0014530035335925413 0.003216390183487463 0 0.0015916439610437652 0.0041578211740436336 0 0.00082153450738683205 0.0029339501528967858 0 0.001665484073369477 0.0041381929539499474 0 0.00091323489597908245 0.0040092009516651227 0 0.00082153450738683205 0.0029339501528967858 0 0.00091323489597908245 0.0040092009516651227 0 0.00041974101637344205 0.0034559005406860303 0 0.00032788686182723886 0.0039771237219423114 0 0.00091323489597908245 0.0040092009516651227 0 0.00041974101637344205 0.0034559005406860303 0 -0.010358476195721722 0.0054762068919777789 0 -0.0090334841030099994 0.0051835533390043268 0 -0.0091721677041823307 0.0062721815938691344 0 -0.0094294640698156466 0.0019006734294748104 0 -0.009263704618455125 0.0022968162426715392 0 -0.010358476195721722 0.0054762068919777789 0 -0.0096880473875044556 0.0043963593404107541 0 -0.0090334841030099994 0.0051835533390043268 0 -0.0096880473875044556 0.0043963593404107541 0 -0.0083215955280046272 0.0041444724502192679 0 -0.0090334841030099994 0.0051835533390043268 0 -0.0083215955280046272 0.0041444724502192679 0 -0.0090334841030099994 0.0051835533390043268 0 -0.0079625050080277572 0.0053845044693654606 0 -0.0090334841030099994 0.0051835533390043268 0 -0.0079625050080277572 0.0053845044693654606 0 -0.0091721677041823307 0.0062721815938691344 0 -0.0079625050080277572 0.0053845044693654606 0 -0.0077055862023609053 0.0062100240115663778 0 -0.0091721677041823307 0.0062721815938691344 0 -0.0079625050080277572 0.0053845044693654606 0 -0.0064473578310216264 0.0052414079805143624 0 -0.0077055862023609053 0.0062100240115663778 0 -0.0064473578310216264 0.0052414079805143624 0 -0.0069511734137398477 0.0066119808158168029 0 -0.0077055862023609053 0.0062100240115663778 0 -0.0079625050080277572 0.0053845044693654606 0 -0.0073171156963815097 0.0045814021229749792 0 -0.0064473578310216264 0.0052414079805143624 0 -0.0083215955280046272 0.0041444724502192679 0 -0.0079625050080277572 0.0053845044693654606 0 -0.0073171156963815097 0.0045814021229749792 0 -0.0072738968281905372 0.0038367871940641405 0 -0.0083215955280046272 0.0041444724502192679 0 -0.0073171156963815097 0.0045814021229749792 0 -0.0072738968281905372 0.0038367871940641405 0 -0.0073171156963815097 0.0045814021229749792 0 -0.0066754014868790441 0.0041505591405375354 0 -0.0058644777175022459 0.0037090105324369517 0 -0.0061175715264282721 0.0046961654406519849 0 -0.0058792348767395209 0.0037531173520664778 0 -0.0057302333384160326 0.003742160616453358 0 -0.0057326115681201953 0.0037244700653312002 0 -0.0058792348767395209 0.0037531173520664778 0 -0.0066754014868790441 0.0041505591405375354 0 -0.0064473578310216264 0.0052414079805143624 0 -0.0073171156963815097 0.0045814021229749792 0 -0.0066754014868790441 0.0041505591405375354 0 -0.0064473578310216264 0.0052414079805143624 0 -0.0057052133628436022 0.0037087294091895286 0 -0.0057326115681201953 0.0037244700653312002 0 -0.0057169273975022075 0.0037395421222602095 0 -0.0057326115681201953 0.0037244700653312002 0 -0.0057169273975022075 0.0037395421222602095 0 -0.0057508752140576526 0.0037557896970652122 0 -0.0061175715264282721 0.0046961654406519849 0 -0.0065960595447478359 0.0039742002755100234 0 -0.0052684845778676395 0.0035167868455772845 0 -0.0065960595447478359 0.0039742002755100234 0 -0.0048388250080290849 0.0032987686977234152 0 -0.0050664000437833263 0.0030604647475683021 0 -0.0047173132989739098 0.0029016238280957407 0 -0.0052258347099303649 0.0034812839667783296 0 -0.0048388250080290849 0.0032987686977234152 0 -0.0050664000437833263 0.0030604647475683021 0 -0.0054398466141237171 0.0030534717161349078 0 -0.0050664000437833263 0.0030604647475683021 0 -0.0050523789863595467 0.0026694335115454628 0 -0.0052219074848197178 -0.0025455822032873243 0 -0.0051335995266756085 -0.0059242315498840813 0 -0.0052219074848197178 -0.0025455822032873243 0 -0.0057431547089800538 -0.0014966161575601872 0 -0.0050664000437833263 0.0030604647475683021 0 -0.0050523789863595467 0.0026694335115454628 0 -0.0047173132989739098 0.0029016238280957407 0 -0.0053941844148407518 -0.0033131909987558087 0 -0.005526980117257733 -0.0034057122470652584 0 -0.0055536527666934076 -0.0033282025162205964 0 -0.0057986888213216519 -0.0069811212775717493 0 -0.0057649715568056387 -0.0068753838744447984 0 -0.0057496657556922659 -0.007059578553003292 0 -0.0057431547089800538 -0.0014966161575601872 0 -0.0051335995266756085 -0.0059242315498840813 0 -0.0058691391227034973 -0.0069391152519116314 0 -0.0058375336890360355 -0.0070453866246249228 0 -0.0057986888213216519 -0.0069811212775717493 0 -0.0058375336890360355 -0.0070453866246249228 0 -0.0057986888213216519 -0.0069811212775717493 0 -0.0057496657556922659 -0.007059578553003292 0 -0.0057431547089800538 -0.0014966161575601872 0 -0.0072474707199938222 -0.00056158457093802273 0 -0.0058691391227034973 -0.0069391152519116314 0 -0.0057986888213216519 -0.0069811212775717493 0 -0.0057649715568056387 -0.0068753838744447984 0 -0.0070981217856530242 0.0013492787767045065 0 -0.006689231325580686 9.2594462524319058e-05 0 -0.0057420552872914886 0.00076104811540984472 0 -0.0065960595447478359 0.0039742002755100234 0 -0.0072474707199938222 -0.00056158457093802273 0 -0.0069511734137398477 0.0066119808158168029 0 -0.008007945598466017 0.00703749459659056 0 -0.0077055862023609053 0.0062100240115663778 0 -0.0065960595447478359 0.0039742002755100234 0 -0.0057431547089800538 -0.0014966161575601872 0 -0.0072474707199938222 -0.00056158457093802273 0 -0.009263704618455125 0.0022968162426715392 0 -0.0091462454112960501 -0.002005583933342556 0 -0.0092426692732385136 -0.0020245892307738807 0 -0.0092152281523582361 -0.0020378568481398463 0 -0.008007945598466017 0.00703749459659056 0 -0.0077055862023609053 0.0062100240115663778 0 -0.0091721677041823307 0.0062721815938691344 0 -0.0057649715568056387 -0.0068753838744447984 0 -0.0057496657556922659 -0.007059578553003292 0 -0.0056694544809853852 -0.0071156473910748783 0 -0.0057649715568056387 -0.0068753838744447984 0 -0.0055768197925845503 -0.0070519501783586312 0 -0.0056694544809853852 -0.0071156473910748783 0 -0.0072474707199938222 -0.00056158457093802273 0 -0.0070518422679769644 -0.0048951617735527326 0 -0.009282043824328479 -0.0020394905745355074 0 -0.0092426692732385136 -0.0020245892307738807 0 -0.0092152281523582361 -0.0020378568481398463 0 -0.009282043824328479 -0.0020394905745355074 0 -0.0092805962277254933 -0.0020530249187150937 0 -0.0092152281523582361 -0.0020378568481398463 0 -0.0055103428247109372 -0.007340667770467422 0 -0.0055850851283562987 -0.0072474099840885587 0 -0.0055876988997036921 -0.0073667454537381027 0 -0.0055768197925845503 -0.0070519501783586312 0 -0.0055850851283562987 -0.0072474099840885587 0 -0.0056694544809853852 -0.0071156473910748783 0 -0.0055850851283562987 -0.0072474099840885587 0 -0.0056694544809853852 -0.0071156473910748783 0 -0.0057283147674581326 -0.0072316212885565074 0 -0.0057496657556922659 -0.007059578553003292 0 -0.0056694544809853852 -0.0071156473910748783 0 -0.0057283147674581326 -0.0072316212885565074 0 -0.0055858153214942653 -0.0075315686084894843 0 -0.0056215948208634108 -0.007287826521559692 0 -0.0055850851283562987 -0.0072474099840885587 0 -0.0057283147674581326 -0.0072316212885565074 0 -0.0055930994812863838 -0.0073742723330071916 0 -0.0055058509227425348 -0.0074284873204677141 0 -0.005440374819131304 -0.0073934940232330245 0 -0.0055930994812863838 -0.0073742723330071916 0 -0.0055058509227425348 -0.0074284873204677141 0 -0.0054618584265451074 -0.0074174869263710598 0 -0.005440374819131304 -0.0073934940232330245 0 -0.0058375336890360355 -0.0070453866246249228 0 -0.0057496657556922659 -0.007059578553003292 0 -0.0057283147674581326 -0.0072316212885565074 0 -0.0054709840136797361 -0.007419930926467015 0 -0.0055058509227425348 -0.0074284873204677141 0 -0.0054618584265451074 -0.0074174869263710598 0 -0.0051335995266756085 -0.0059242315498840813 0 -0.0055858153214942653 -0.0075315686084894843 0 -0.0054517022263896337 -0.0074093745812118909 0 -0.0054709840136797361 -0.007419930926467015 0 -0.0054618584265451074 -0.0074174869263710598 0 -0.0054517022263896337 -0.0074093745812118909 0 -0.0054618584265451074 -0.0074174869263710598 0 -0.0054493994695136222 -0.0074104089754222727 0 -0.0054517022263896337 -0.0074093745812118909 0 -0.0054493994695136222 -0.0074104089754222727 0 -0.0054394052658311171 -0.0074052044969687512 0 -0.0054618584265451074 -0.0074174869263710598 0 -0.0054493994695136222 -0.0074104089754222727 0 -0.0054455700597113525 -0.0074044821253436942 0 -0.0054618584265451074 -0.0074174869263710598 0 -0.0054455700597113525 -0.0074044821253436942 0 -0.005440374819131304 -0.0073934940232330245 0 -0.0053467427161293006 -0.0074259846526685026 0 -0.0054459885145308421 -0.0073642059893603718 0 -0.005335675785319815 -0.0073698919861810794 0 -0.005440374819131304 -0.0073934940232330245 0 -0.0053426877572223678 -0.0073675091111931705 0 -0.005440374819131304 -0.0073934940232330245 0 -0.0053778035993771248 -0.0073755405680493635 0 -0.0054747216526672597 -0.0073826577790246537 0 -0.005440374819131304 -0.0073934940232330245 0 -0.0053778035993771248 -0.0073755405680493635 0 -0.0053426877572223678 -0.0073675091111931705 0 -0.0053778035993771248 -0.0073755405680493635 0 -0.0054747216526672597 -0.0073826577790246537 0 -0.0054423873994493182 -0.0073903539093456974 0 -0.0053778035993771248 -0.0073755405680493635 0 -0.0053214403129350947 -0.0073847934421135252 0 -0.0054423873994493182 -0.0073903539093456974 0 -0.0054747216526672597 -0.0073826577790246537 0 -0.0055511695961973631 -0.007391640981712114 0 -0.0054423873994493182 -0.0073903539093456974 0 -0.0054747216526672597 -0.0073826577790246537 0 -0.0055930994812863838 -0.0073742723330071916 0 -0.0055511695961973631 -0.007391640981712114 0 -0.005440374819131304 -0.0073934940232330245 0 -0.0054747216526672597 -0.0073826577790246537 0 -0.0055930994812863838 -0.0073742723330071916 0 -0.0055930994812863838 -0.0073742723330071916 0 -0.0055511695961973631 -0.007391640981712114 0 -0.0055876988997036921 -0.0073667454537381027 0 -0.0055511695961973631 -0.007391640981712114 0 -0.0055933511261803083 -0.0074023015342318411 0 -0.0055452638040436311 -0.0074062614465009655 0 -0.0055511695961973631 -0.007391640981712114 0 -0.0055933511261803083 -0.0074023015342318411 0 -0.0055876988997036921 -0.0073667454537381027 0 -0.0055925189330257342 -0.0074244137734535065 0 -0.0055933511261803083 -0.0074023015342318411 0 -0.0055876988997036921 -0.0073667454537381027 0 -0.0055850851283562987 -0.0072474099840885587 0 -0.0055930994812863838 -0.0073742723330071916 0 -0.0055876988997036921 -0.0073667454537381027 0 -0.00522351975791487 -0.0072145575760867546 0 -0.0052305148638098174 -0.0072713945037310357 0 -0.0052210788594796807 -0.0072061015900785706 0 -0.0051851534643369453 -0.0071811013102462155 0 -0.0051742925852978142 -0.0071827005791968747 0 -0.0052210788594796807 -0.0072061015900785706 0 -0.0052538972408496462 -0.0073085423625828469 0 -0.0052934977240064887 -0.0073593801905299863 0 -0.0052210788594796807 -0.0072061015900785706 0 -0.0051851534643369453 -0.0071811013102462155 0 -0.0051666815556872456 -0.007149595729846565 0 -0.0051851534643369453 -0.0071811013102462155 0 -0.0051914082842974231 -0.0071798797568664151 0 -0.0052057246653078957 -0.0071607938752757221 0 -0.0051851534643369453 -0.0071811013102462155 0 -0.0051666815556872456 -0.007149595729846565 0 -0.0052057246653078957 -0.0071607938752757221 0 -0.005651971704347853 -0.0075730803097673665 0 -0.003726014593905922 -0.005543740486774246 0 -0.004678254259421517 -0.0070486787442799867 0 -0.0051666815556872456 -0.007149595729846565 0 -0.004347213781053105 -0.0066175720117043601 0 -0.0020881056043832906 -0.0015297246077435021 0 -0.00069738693758742711 -0.000486128543569082 0 -0.004678254259421517 -0.0070486787442799867 0 -0.0051537966098683342 -0.0072991493064899372 0 -0.0042354580738452156 -0.0072793834717287944 0 -0.004678254259421517 -0.0070486787442799867 0 -0.0051537966098683342 -0.0072991493064899372 0 -0.0051666815556872456 -0.007149595729846565 0 -0.0051537966098683342 -0.0072991493064899372 0 -0.0052142091179394837 -0.0072033920041460449 0 -0.005236646182891002 -0.0072242719073874074 0 -0.0051537966098683342 -0.0072991493064899372 0 -0.0051666815556872456 -0.007149595729846565 0 -0.0052142091179394837 -0.0072033920041460449 0 -0.0052210788594796807 -0.0072061015900785706 0 -0.0052142091179394837 -0.0072033920041460449 0 -0.0052392300715282036 -0.0072432195374692353 0 -0.0052210788594796807 -0.0072061015900785706 0 -0.0051666815556872456 -0.007149595729846565 0 -0.0052142091179394837 -0.0072033920041460449 0 -0.0020881056043832906 -0.0015297246077435021 0 -0.0039389089164494915 -6.4799017599210352e-05 0 -0.005236646182891002 -0.0072242719073874074 0 -0.0052512597466645716 -0.0071958480601798701 0 -0.005251826604330611 -0.007284799264375451 0 -0.0051537966098683342 -0.0072991493064899372 0 -0.005236646182891002 -0.0072242719073874074 0 -0.0052512597466645716 -0.0071958480601798701 0 -0.005236646182891002 -0.0072242719073874074 0 -0.0052392300715282036 -0.0072432195374692353 0 -0.005251826604330611 -0.007284799264375451 0 -0.0052142091179394837 -0.0072033920041460449 0 -0.005236646182891002 -0.0072242719073874074 0 -0.0052392300715282036 -0.0072432195374692353 0 -0.0052512597466645716 -0.0071958480601798701 0 -0.0052096958427537352 -0.0072378524566133664 0 -0.005251826604330611 -0.007284799264375451 0 -0.0048098516402269717 -0.0027214198004779323 0 -0.0046944955010674886 -0.0027081784084164225 0 -0.0047360419192831044 -0.002676577089925098 0 -0.0052219074848197178 -0.0025455822032873243 0 -0.0050288231160926693 -0.0065706878758557208 0 -0.0039389089164494915 -6.4799017599210352e-05 0 -0.0050288231160926693 -0.0065706878758557208 0 -0.0050288231160926693 -0.0065706878758557208 0 -0.0054206411168376259 -0.0073231772633919421 0 -0.0054493994695136222 -0.0074104089754222727 0 -0.0054455700597113525 -0.0074044821253436942 0 -0.0054394052658311171 -0.0074052044969687512 0 -0.005291204968677056 -0.0073452365153485648 0 -0.0052933979456782562 -0.0073357638580343843 0 -0.005251826604330611 -0.007284799264375451 0 -0.005335675785319815 -0.0073698919861810794 0 -0.005291204968677056 -0.0073452365153485648 0 -0.0052933979456782562 -0.0073357638580343843 0 -0.0053467427161293006 -0.0074259846526685026 0 -0.0050288231160926693 -0.0065706878758557208 0 -0.005335675785319815 -0.0073698919861810794 0 -0.0052933979456782562 -0.0073357638580343843 0 -0.0053426877572223678 -0.0073675091111931705 0 -0.0052392300715282036 -0.0072432195374692353 0 -0.005251826604330611 -0.007284799264375451 0 -0.0052538972408496462 -0.0073085423625828469 0 -0.0052933979456782562 -0.0073357638580343843 0 -0.005251826604330611 -0.007284799264375451 0 -0.0052538972408496462 -0.0073085423625828469 0 -0.0052210788594796807 -0.0072061015900785706 0 -0.0052392300715282036 -0.0072432195374692353 0 -0.0052538972408496462 -0.0073085423625828469 0 -0.0052933979456782562 -0.0073357638580343843 0 -0.0052538972408496462 -0.0073085423625828469 0 -0.0053019394869790555 -0.0073603034775088999 0 -0.0052538972408496462 -0.0073085423625828469 0 -0.0053019394869790555 -0.0073603034775088999 0 -0.0052784742211069106 -0.007368481360692669 0 -0.0052933979456782562 -0.0073357638580343843 0 -0.0053426877572223678 -0.0073675091111931705 0 -0.0053019394869790555 -0.0073603034775088999 0 -0.0053778035993771248 -0.0073755405680493635 0 -0.0053426877572223678 -0.0073675091111931705 0 -0.0053019394869790555 -0.0073603034775088999 0 -0.0053778035993771248 -0.0073755405680493635 0 -0.0053019394869790555 -0.0073603034775088999 0 -0.0053214403129350947 -0.0073847934421135252 0 -0.0053019394869790555 -0.0073603034775088999 0 -0.0053214403129350947 -0.0073847934421135252 0 -0.0052784742211069106 -0.007368481360692669 0 -0.0053214403129350947 -0.0073847934421135252 0 -0.0052784742211069106 -0.007368481360692669 0 -0.00526015281451614 -0.0073882911460943111 0 -0.0052305148638098174 -0.0072713945037310357 0 -0.0052079676057889051 -0.0073237897303574384 0 -0.0052934977240064887 -0.0073593801905299863 0 -0.00526015281451614 -0.0073882911460943111 0 -0.0052423755151521818 -0.0073886123643014043 0 -0.0052784742211069106 -0.007368481360692669 0 -0.0052934977240064887 -0.0073593801905299863 0 -0.00526015281451614 -0.0073882911460943111 0 -0.0052538972408496462 -0.0073085423625828469 0 -0.0052784742211069106 -0.007368481360692669 0 -0.0052934977240064887 -0.0073593801905299863 0 -0.0051742925852978142 -0.0071827005791968747 0 -0.0051914082842974231 -0.0071798797568664151 0 -0.0052137839739239272 -0.0072013054169690503 0 -0.0051914082842974231 -0.0071798797568664151 0 -0.0052137839739239272 -0.0072013054169690503 0 -0.0052057246653078957 -0.0071607938752757221 0 -0.0051851534643369453 -0.0071811013102462155 0 -0.0051742925852978142 -0.0071827005791968747 0 -0.0051914082842974231 -0.0071798797568664151 0 -0.0051742925852978142 -0.0071827005791968747 0 -0.0052137839739239272 -0.0072013054169690503 0 -0.0051724643710417762 -0.0072643128131230621 0 -0.0052601157787436304 -0.0064476005203904178 0 -0.0054551276794224174 -0.00646319746207438 0 -0.0053252690784840948 -0.0066271820853948862 0 -0.0052601157787436304 -0.0064476005203904178 0 -0.0054551276794224174 -0.00646319746207438 0 -0.0053568895682112845 -0.0063880131656066227 0 -0.0054551276794224174 -0.00646319746207438 0 -0.0053568895682112845 -0.0063880131656066227 0 -0.0053881164057357116 -0.0064105971997759498 0 -0.0053568895682112845 -0.0063880131656066227 0 -0.0053881164057357116 -0.0064105971997759498 0 -0.0053848869454019678 -0.0064092393081179328 0 -0.0052601157787436304 -0.0064476005203904178 0 -0.0053568895682112845 -0.0063880131656066227 0 -0.0053133167511597136 -0.0063085213728496055 0 -0.0054257432770602959 -0.0070770543066119634 0 -0.003726014593905922 -0.005543740486774246 0 -0.0060120160298675002 -0.0065269061456346153 0 -0.0031531745837655657 -0.0061306107304496104 0 -0.0013794880951620103 -0.0031146071003911196 0 -0.0031531745837655657 -0.0061306107304496104 0 -0.0053240591224154822 -0.0063182781449765326 0 -0.0051928556903044695 -0.0064074507589693417 0 -0.0051169802947853803 -0.006259934381238598 0 -0.0054551276794224174 -0.00646319746207438 0 -0.0057895956142153815 -0.0065782777763448014 0 -0.0057327383639436446 -0.0066751057292738893 0 -0.0052758280480746057 -0.0064247292124787981 0 -0.0060120160298675002 -0.0065269061456346153 0 -0.0054551276794224174 -0.00646319746207438 0 -0.0053881164057357116 -0.0064105971997759498 0 -0.0053240591224154822 -0.0063182781449765326 0 -0.0053881164057357116 -0.0064105971997759498 0 -0.0053240591224154822 -0.0063182781449765326 0 -0.0051928556903044695 -0.0064074507589693417 0 -0.0053881164057357116 -0.0064105971997759498 0 -0.0053848869454019678 -0.0064092393081179328 0 -0.0051928556903044695 -0.0064074507589693417 0 -0.0033349645017621285 -0.0039468883341712679 0 -0.0013794880951620103 -0.0031146071003911196 0 -0.00089687465728857153 -0.0016162927013011147 0 -0.0011237633691445178 -0.0017455373370545745 0 -0.0010174723238799094 -0.0014806061131752101 0 0.0025423911745280935 -0.00028349367868458781 0 0.0026169696381262413 -7.6107745079487238e-05 0 0.002516873279808274 -0.00016047709649074393 0 -0.0013794880951620103 -0.0031146071003911196 0 0.0015128032697305682 0.00057367646481499006 0 0.0026169696381262413 -7.6107745079487238e-05 0 0.0025076079286891657 -4.7376650789312436e-05 0 0.002516873279808274 -0.00016047709649074393 0 0.0015128032697305682 0.00057367646481499006 0 0.0035528933536308652 0.0028176953417854327 0 -0.00089687465728857153 -0.0016162927013011147 0 -0.0010174723238799094 -0.0014806061131752101 0 -0.00081257226975882022 -0.0015320404273823738 0 0.0015128032697305682 0.00057367646481499006 0 -0.0017776465109664501 -0.0020269204167288292 0 -0.00070410777897665134 -0.0014515066654230422 0 -0.0007128083472713137 -0.0014799860766218538 0 -0.00077318583184287075 -0.0015013690404856431 0 0.002030960346669046 0.0035861276912829837 0 0.00062054569362677756 0.0011592053111466928 0 0.0015128032697305682 0.00057367646481499006 0 0.002030960346669046 0.0035861276912829837 0 0.002030960346669046 0.0035861276912829837 0 0.0047825420876250902 0.0055484847912467159 0 0.0040640644022129861 0.0056802461309064583 0 0.0041784855928383756 0.0056029977921257081 0 0.0042390285048476157 0.0056678437944426485 0 0.0040640644022129861 0.0056802461309064583 0 0.0040075970482599697 0.0055553579204331641 0 0.0041784855928383756 0.0056029977921257081 0 -0.00075084400626018472 -0.0015332414166393826 0 -0.00081257226975882022 -0.0015320404273823738 0 -0.0007812085517099654 -0.0015116561944113012 0 -0.0053568895682112845 -0.0063880131656066227 0 -0.0053848869454019678 -0.0064092393081179328 0 -0.0053133167511597136 -0.0063085213728496055 0 -0.00089687465728857153 -0.0016162927013011147 0 -0.00075084400626018472 -0.0015332414166393826 0 -0.00081257226975882022 -0.0015320404273823738 0 -0.0033349645017621285 -0.0039468883341712679 0 -0.003726014593905922 -0.005543740486774246 0 -0.00070410777897665134 -0.0014515066654230422 0 -0.00081257226975882022 -0.0015320404273823738 0 -0.00077318583184287075 -0.0015013690404856431 0 -0.00077318583184287075 -0.0015013690404856431 0 -0.00077683818192025812 -0.0014960257140573694 0 -0.0007812085517099654 -0.0015116561944113012 0 0.00062054569362677756 0.0011592053111466928 0 -0.00069738693758742711 -0.000486128543569082 0 -0.00081257226975882022 -0.0015320404273823738 0 -0.00077318583184287075 -0.0015013690404856431 0 -0.0007812085517099654 -0.0015116561944113012 0 -0.004678254259421517 -0.0070486787442799867 0 -0.004347213781053105 -0.0066175720117043601 0 -0.0042354580738452156 -0.0072793834717287944 0 -0.00075084400626018472 -0.0015332414166393826 0 -0.00077683818192025812 -0.0014960257140573694 0 -0.0007812085517099654 -0.0015116561944113012 0 -0.003726014593905922 -0.005543740486774246 0 -0.00069738693758742711 -0.000486128543569082 0 0.001665484073369477 0.0041381929539499474 0 0.0020123496735919267 0.0046928161556138281 0 0.0020084859031237112 0.0041411977825515835 0 -0.00069738693758742711 -0.000486128543569082 0 0.0018248566697959244 0.0046617382971037647 0 0.0020714189197498902 0.0037960655596906015 0 0.0020755816529041777 0.0038658458267877087 0 0.0020505769321232346 0.0038552778238136109 0 0.001665484073369477 0.0041381929539499474 0 0.0020084859031237112 0.0041411977825515835 0 0.0018086882466740273 0.0039605074717133882 0 0.0020755816529041777 0.0038658458267877087 0 0.0020426967219758611 0.0039025011413695576 0 0.0020616512981172495 0.0038955720536416058 0 0.0020084859031237112 0.0041411977825515835 0 0.0020426967219758611 0.0039025011413695576 0 0.0018086882466740273 0.0039605074717133882 0 0.0018248566697959244 0.0046617382971037647 0 0.0020708180408383014 0.00370903700079998 0 0.0018396174122534672 0.0038490426459329053 0 0.0020426967219758611 0.0039025011413695576 0 0.0018086882466740273 0.0039605074717133882 0 0.0020616512981172495 0.0038955720536416058 0 0.0020476578438889999 0.0038935940148636431 0 0.0021565565825260508 0.0038328833305370704 0 0.0020616512981172495 0.0038955720536416058 0 0.0020505769321232346 0.0038552778238136109 0 0.0020476578438889999 0.0038935940148636431 0 0.0019916492817679166 0.0038080189189558938 0 0.0020381571448212623 0.0038065623427819772 0 0.0020505769321232346 0.0038552778238136109 0 0.0020381571448212623 0.0038065623427819772 0 0.0020714189197498902 0.0037960655596906015 0 0.0020505769321232346 0.0038552778238136109 0 0.0020755816529041777 0.0038658458267877087 0 0.0020616512981172495 0.0038955720536416058 0 0.0020505769321232346 0.0038552778238136109 0 0.0039643399949628524 0.005675793670997133 0 0.0041124808393643861 0.0054830977912254334 0 0.0036641781998895304 0.0053910744837984796 0 0.002030960346669046 0.0035861276912829837 0 0.0029987789997420085 0.0048928385244875888 0 0.0019916492817679166 0.0038080189189558938 0 0.0020505769321232346 0.0038552778238136109 0 0.0020476578438889999 0.0038935940148636431 0 0.0039643399949628524 0.005675793670997133 0 0.0041784855928383756 0.0056029977921257081 0 0.0041124808393643861 0.0054830977912254334 0 0.0041784855928383756 0.0056029977921257081 0 0.0041124808393643861 0.0054830977912254334 0 0.0042951867626884205 0.0055093047058492224 0 0.0041124808393643861 0.0054830977912254334 0 0.0042735935781246098 0.0051740636847914072 0 0.0042951867626884205 0.0055093047058492224 0 0.0042042405996303009 0.005030963108806491 0 0.0047376498326929745 0.0055881441316601851 0 0.0042735935781246098 0.0051740636847914072 0 0.0036641781998895304 0.0053910744837984796 0 0.0038313242940815882 0.0048401562077980357 0 0.0041124808393643861 0.0054830977912254334 0 0.0042735935781246098 0.0051740636847914072 0 0.0036641781998895304 0.0053910744837984796 0 0.0036641781998895304 0.0053910744837984796 0 0.0038313242940815882 0.0048401562077980357 0 0.0030512666941000985 0.0046836461824776437 0 0.0038313242940815882 0.0048401562077980357 0 0.0034244825396507516 0.0042535298459306405 0 0.0030512666941000985 0.0046836461824776437 0 0.0042735935781246098 0.0051740636847914072 0 0.0044843830581985404 0.004845079296925554 0 0.0046735818292805483 0.0050064796900398311 0 0.0042735935781246098 0.0051740636847914072 0 0.0038313242940815882 0.0048401562077980357 0 0.0044843830581985404 0.004845079296925554 0 0.0038313242940815882 0.0048401562077980357 0 0.0044843830581985404 0.004845079296925554 0 0.0039488411360575505 0.0042994470415744571 0 0.002598132277209766 0.0065908557327552866 0 0.0048571082479676141 0.003878039896265307 0 0.0045568285188520401 0.0048704338105103736 0 0.0044843830581985404 0.004845079296925554 0 0.004530490556476246 0.0048523505752130951 0 0.0042023015691176205 0.0035205979833313073 0 0.0044843830581985404 0.004845079296925554 0 0.0039488411360575505 0.0042994470415744571 0 0.0040962900987620045 0.0058560354383641903 0 0.0043427429006897209 0.0047003784354535455 0 0.0045568285188520401 0.0048704338105103736 0 0.0045396912068154261 0.0048699338705078688 0 0.004530490556476246 0.0048523505752130951 0 0.0042023015691176205 0.0035205979833313073 0 0.0039488411360575505 0.0042994470415744571 0 0.0037435032761198297 0.003906085009142561 0 0.0038313242940815882 0.0048401562077980357 0 0.0034244825396507516 0.0042535298459306405 0 0.0039488411360575505 0.0042994470415744571 0 0.0034244825396507516 0.0042535298459306405 0 0.0039488411360575505 0.0042994470415744571 0 0.0037435032761198297 0.003906085009142561 0 0.0033134600449687664 0.003658752612627738 0 0.0034244825396507516 0.0042535298459306405 0 0.0037435032761198297 0.003906085009142561 0 0.0023875620183407935 0.0035754601464616123 0 0.0025741408659111322 0.004147297466553645 0 0.0023790064749435024 0.0035232182045487432 0 0.0034244825396507516 0.0042535298459306405 0 0.0030512666941000985 0.0046836461824776437 0 0.0023790064749435024 0.0035232182045487432 0 0.00213176381342319 0.003679929835022939 0 0.0021565565825260508 0.0038328833305370704 0 0.0023790064749435024 0.0035232182045487432 0 0.0033134600449687664 0.003658752612627738 0 0.0034244825396507516 0.0042535298459306405 0 0.0019358999209155164 0.0033769915438662699 0 0.00213176381342319 0.003679929835022939 0 0.0019034095952078999 0.0036798084380552654 0 0.00213176381342319 0.003679929835022939 0 0.0019034095952078999 0.0036798084380552654 0 0.0020391876209293631 0.0037975395444453663 0 0.00213176381342319 0.003679929835022939 0 0.0020391876209293631 0.0037975395444453663 0 0.0021565565825260508 0.0038328833305370704 0 0.0018396174122534672 0.0038490426459329053 0 0.0019034095952078999 0.0036798084380552654 0 0.0020391876209293631 0.0037975395444453663 0 0.0018396174122534672 0.0038490426459329053 0 0.0020426967219758611 0.0039025011413695576 0 0.0020391876209293631 0.0037975395444453663 0 0.0020426967219758611 0.0039025011413695576 0 0.0020616512981172495 0.0038955720536416058 0 0.0021565565825260508 0.0038328833305370704 0 0.0029987789997420085 0.0048928385244875888 0 0.0025741408659111322 0.004147297466553645 0 0.0020426967219758611 0.0039025011413695576 0 0.0020391876209293631 0.0037975395444453663 0 0.0021565565825260508 0.0038328833305370704 0 0.0049356787940837048 0.005206469606234246 0 0.0049416599065680135 0.0053996523887217306 0 0.0048911772433654728 0.0051699614152344447 0 0.0049190635562841338 0.0051333558853079286 0 0.0049356787940837048 0.005206469606234246 0 0.0048911772433654728 0.0051699614152344447 0 0.0048140848382056565 0.0052790286261795126 0 0.0049416599065680135 0.0053996523887217306 0 0.0046385586560046847 0.0056841091425333641 0 0.0049356787940837048 0.005206469606234246 0 0.0048140848382056565 0.0052790286261795126 0 0.0049416599065680135 0.0053996523887217306 0 0.0049416599065680135 0.0053996523887217306 0 0.0048212538921531085 0.0059533244314071646 0 0.0052867163573116719 0.0060122190745975287 0 0.0049416599065680135 0.0053996523887217306 0 0.0048212538921531085 0.0059533244314071646 0 0.0046385586560046847 0.0056841091425333641 0 0.0049285623953553128 0.0053982157621259019 0 0.0050850024358111761 0.0056460983315964964 0 0.0049416599065680135 0.0053996523887217306 0 0.0048529580621971694 0.0051933088850566146 0 0.0048911772433654728 0.0051699614152344447 0 0.0048529580621971694 0.0051933088850566146 0 0.0048911772433654728 0.0051699614152344447 0 0.0048614878347349655 0.0051983005636035045 0 0.0048911772433654728 0.0051699614152344447 0 0.0048614878347349655 0.0051983005636035045 0 0.0048989798947374139 0.0050529435732006482 0 0.0049750287657924688 0.0052284788833003703 0 0.0048614878347349655 0.0051983005636035045 0 0.0048989798947374139 0.0050529435732006482 0 0.0049750287657924688 0.0052284788833003703 0 0.0048989798947374139 0.0050529435732006482 0 0.0052177313569091955 0.0051251308353643015 0 0.0048838538959595484 0.0050120791471969101 0 0.0050214866659499448 0.0050660455504410989 0 0.0048911772433654728 0.0051699614152344447 0 0.0048989798947374139 0.0050529435732006482 0 0.0048718022853951526 0.0050604568906322377 0 0.004517745216534288 0.0047286987387629639 0 0.004530490556476246 0.0048523505752130951 0 0.0047121230889361296 0.0048287743539014065 0 0.0040962900987620045 0.0058560354383641903 0 0.0050214866659499448 0.0050660455504410989 0 0.0048989798947374139 0.0050529435732006482 0 0.0047121230889361296 0.0048287743539014065 0 0.0047288254825025083 0.0049639037742524516 0 0.004530490556476246 0.0048523505752130951 0 0.0047121230889361296 0.0048287743539014065 0 0.0047288254825025083 0.0049639037742524516 0 0.0044843830581985404 0.004845079296925554 0 0.0047288254825025083 0.0049639037742524516 0 0.0046735818292805483 0.0050064796900398311 0 0.0044843830581985404 0.004845079296925554 0 0.004530490556476246 0.0048523505752130951 0 0.0047288254825025083 0.0049639037742524516 0 0.0047288254825025083 0.0049639037742524516 0 0.0046735818292805483 0.0050064796900398311 0 0.004828307743079685 0.005063400702357476 0 0.0047288254825025083 0.0049639037742524516 0 0.0048718022853951526 0.0050604568906322377 0 0.004828307743079685 0.005063400702357476 0 0.0048718022853951526 0.0050604568906322377 0 0.0049260374394813969 0.0050888089102199587 0 0.004828307743079685 0.005063400702357476 0 0.0049190635562841338 0.0051333558853079286 0 0.0048718022853951526 0.0050604568906322377 0 0.0049260374394813969 0.0050888089102199587 0 0.0049190635562841338 0.0051333558853079286 0 0.0048911772433654728 0.0051699614152344447 0 0.0048718022853951526 0.0050604568906322377 0 0.0048989798947374139 0.0050529435732006482 0 0.0047288254825025083 0.0049639037742524516 0 0.0048718022853951526 0.0050604568906322377 0 0.0049260374394813969 0.0050888089102199587 0 0.0048868926369771745 0.0050947548323587496 0 0.0049674330653035432 0.0050248232260551333 0 0.0049260374394813969 0.0050888089102199587 0 0.0049674330653035432 0.0050248232260551333 0 0.0049607324098997268 0.0050683851272273987 0 0.0049260374394813969 0.0050888089102199587 0 0.0048868926369771745 0.0050947548323587496 0 0.004828307743079685 0.005063400702357476 0 0.0048868926369771745 0.0050947548323587496 0 0.0047384263464602091 0.0051092512618826505 0 0.0048651128983880076 0.0051495166367201512 0 0.0042735935781246098 0.0051740636847914072 0 0.0046735818292805483 0.0050064796900398311 0 0.0047384263464602091 0.0051092512618826505 0 0.0042735935781246098 0.0051740636847914072 0 0.0047384263464602091 0.0051092512618826505 0 0.0048651128983880076 0.0051495166367201512 0 0.0048868926369771745 0.0050947548323587496 0 0.0047384263464602091 0.0051092512618826505 0 0.004828307743079685 0.005063400702357476 0 0.0046735818292805483 0.0050064796900398311 0 0.0047384263464602091 0.0051092512618826505 0 0.004828307743079685 0.005063400702357476 0 0.0048868926369771745 0.0050947548323587496 0 0.0048651128983880076 0.0051495166367201512 0 0.0049674330653035432 0.0050248232260551333 0 0.0048651128983880076 0.0051495166367201512 0 0.0049674330653035432 0.0050248232260551333 0 0.0050248597556163035 0.0049027408352983063 0 0.0049674330653035432 0.0050248232260551333 0 0.00501709565581023 0.0049059432885791565 0 0.0049607324098997268 0.0050683851272273987 0 0.00501709565581023 0.0049059432885791565 0 0.004917049681069049 0.0049051365361373733 0 0.0050925189680333643 0.0047343617120988585 0 0.00501709565581023 0.0049059432885791565 0 0.0049607324098997268 0.0050683851272273987 0 0.004917049681069049 0.0049051365361373733 0 0.0049190635562841338 0.0051333558853079286 0 0.0049356787940837048 0.005206469606234246 0 0.0049607324098997268 0.0050683851272273987 0 0.0049190635562841338 0.0051333558853079286 0 0.0049260374394813969 0.0050888089102199587 0 0.0049607324098997268 0.0050683851272273987 0 0.0049356787940837048 0.005206469606234246 0 0.0049607324098997268 0.0050683851272273987 0 0.0048536099481610306 0.0050718338626355702 0 0.0049607324098997268 0.0050683851272273987 0 0.0048536099481610306 0.0050718338626355702 0 0.004917049681069049 0.0049051365361373733 0 0.0048140848382056565 0.0052790286261795126 0 0.0048536099481610306 0.0050718338626355702 0 0.0046825477455265194 0.0050577219890605724 0 0.0049356787940837048 0.005206469606234246 0 0.0048140848382056565 0.0052790286261795126 0 0.0048536099481610306 0.0050718338626355702 0 0.004917049681069049 0.0049051365361373733 0 0.0048200614127328545 0.0046663526667395745 0 0.0047143503702892801 0.0048879018126627106 0 0.0048536099481610306 0.0050718338626355702 0 0.004917049681069049 0.0049051365361373733 0 0.0047143503702892801 0.0048879018126627106 0 0.0048200614127328545 0.0046663526667395745 0 0.0050925189680333643 0.0047343617120988585 0 0.0050417102817350646 0.0043777243444908642 0 0.004917049681069049 0.0049051365361373733 0 0.0048200614127328545 0.0046663526667395745 0 0.0050925189680333643 0.0047343617120988585 0 0.0048200614127328545 0.0046663526667395745 0 0.0050417102817350646 0.0043777243444908642 0 0.0047740573438745486 0.0043682745020583447 0 0.0050925189680333643 0.0047343617120988585 0 0.0050417102817350646 0.0043777243444908642 0 0.0055777390537320925 0.0046210834712464878 0 0.00501709565581023 0.0049059432885791565 0 0.0050925189680333643 0.0047343617120988585 0 0.0050248597556163035 0.0049027408352983063 0 0.0050417102817350646 0.0043777243444908642 0 0.0048513880045597266 0.0040832033663612812 0 0.0052453257863041306 0.0040175265185824274 0 0.0050417102817350646 0.0043777243444908642 0 0.0055777390537320925 0.0046210834712464878 0 0.0052453257863041306 0.0040175265185824274 0 0.0048513880045597266 0.0040832033663612812 0 0.0047740573438745486 0.0043682745020583447 0 0.0045985164271639158 0.0042074322144366868 0 0.0050417102817350646 0.0043777243444908642 0 0.0048513880045597266 0.0040832033663612812 0 0.0047740573438745486 0.0043682745020583447 0 0.0035528933536308652 0.0028176953417854327 0 0.0040143929582016702 0.0039168371612081721 0 0.0041784855928383756 0.0056029977921257081 0 0.0042951867626884205 0.0055093047058492224 0 0.0042390285048476157 0.0056678437944426485 0 0.0047376498326929745 0.0055881441316601851 0 0.0040143929582016702 0.0039168371612081721 0 0.0042951867626884205 0.0055093047058492224 0 0.0042390285048476157 0.0056678437944426485 0 0.0043714178567713586 0.0056310661843050509 0 0.005461952384479273 0.0046783097525788042 0 0.0040143929582016702 0.0039168371612081721 0 0.0049674330653035432 0.0050248232260551333 0 0.00501709565581023 0.0049059432885791565 0 0.0050248597556163035 0.0049027408352983063 0 0.0023976590097530429 -7.8538940502887981e-06 0 0.0024350291988480492 -0.00014990909137128108 0 0.0022846904604974087 -0.00016392406163010594 0 0.0040143929582016702 0.0039168371612081721 0 0.0036438900888183011 0.0015384579054165035 0 0.0025076079286891657 -4.7376650789312436e-05 0 0.0023976590097530429 -7.8538940502887981e-06 0 0.0024350291988480492 -0.00014990909137128108 0 0.0025076079286891657 -4.7376650789312436e-05 0 0.0024350291988480492 -0.00014990909137128108 0 0.002516873279808274 -0.00016047709649074393 0 0.0025423911745280935 -0.00028349367868458781 0 0.002516873279808274 -0.00016047709649074393 0 0.0024705998158760689 -0.00023628689670843748 0 0.0025423911745280935 -0.00028349367868458781 0 0.0024705998158760689 -0.00023628689670843748 0 0.0024601375995949334 -0.00032324559216049777 0 0.0024350291988480492 -0.00014990909137128108 0 0.002516873279808274 -0.00016047709649074393 0 0.0024705998158760689 -0.00023628689670843748 0 0.0024350291988480492 -0.00014990909137128108 0 0.0024705998158760689 -0.00023628689670843748 0 0.0023962118772809203 -0.00025972826051838354 0 0.0024705998158760689 -0.00023628689670843748 0 0.0023962118772809203 -0.00025972826051838354 0 0.0024601375995949334 -0.00032324559216049777 0 0.0024350291988480492 -0.00014990909137128108 0 0.0023962118772809203 -0.00025972826051838354 0 0.0022846904604974087 -0.00016392406163010594 0 0.0023962118772809203 -0.00025972826051838354 0 0.0023764323754783294 -0.00036986161204819444 0 0.0023211156343682835 -0.00028609024022514139 0 0.0018302078845759142 -0.0020460143680802621 0 0.00017960255457023252 -0.00584489091851922 0 0.0018302078845759142 -0.0020460143680802621 0 0.0016059695634959262 -0.0019846678940684541 0 0.0023962118772809203 -0.00025972826051838354 0 0.0023764323754783294 -0.00036986161204819444 0 0.0024601375995949334 -0.00032324559216049777 0 -0.001034831411504151 -0.0044649945536461722 0 0.0001084893441820831 -0.003948802328864953 0 -0.00056228098256060955 -0.0031796227281905283 0 0.0012631248458227062 -0.003417727221679549 0 0.0001084893441820831 -0.003948802328864953 0 0.0001014175698615907 -0.0030641832907658969 0 0.0001084893441820831 -0.003948802328864953 0 0.0001014175698615907 -0.0030641832907658969 0 -0.00056228098256060955 -0.0031796227281905283 0 -0.0013794880951620103 -0.0031146071003911196 0 0.0016059695634959262 -0.0019846678940684541 0 0.0022846904604974087 -0.00016392406163010594 0 0.0021501514366703612 -0.00035906566236528891 0 0.0022215845515155689 -0.00034072543701385268 0 0.0048513880045597266 0.0040832033663612812 0 0.0048778226614092047 0.0035560463203574751 0 0.0052453257863041306 0.0040175265185824274 0 0.0036438900888183011 0.0015384579054165035 0 0.0036337172924301216 0.001890656574170615 0 0.0048778226614092047 0.0035560463203574751 0 0.0052453257863041306 0.0040175265185824274 0 0.0048886744190668602 0.0031865946577216702 0 0.0048513880045597266 0.0040832033663612812 0 0.0048778226614092047 0.0035560463203574751 0 0.0046007397033148312 0.0038833475633934253 0 0.0022846904604974087 -0.00016392406163010594 0 0.0023211156343682835 -0.00028609024022514139 0 0.0022215845515155689 -0.00034072543701385268 0 0.0023962118772809203 -0.00025972826051838354 0 0.0022846904604974087 -0.00016392406163010594 0 0.0023211156343682835 -0.00028609024022514139 0 0.0023764323754783294 -0.00036986161204819444 0 0.0023211156343682835 -0.00028609024022514139 0 0.0022215845515155689 -0.00034072543701385268 0 0.0018302078845759142 -0.0020460143680802621 0 0.0023630319913834777 -1.4820218606607336e-05 0 0.0024638222763124873 -0.00045275455127109641 0 0.0022215845515155689 -0.00034072543701385268 0 0.0022217745232582515 -0.00055670909094871596 0 0.0021501514366703612 -0.00035906566236528891 0 0.0022215845515155689 -0.00034072543701385268 0 0.0022217745232582515 -0.00055670909094871596 0 0.0021442676786140812 -0.0050449663469632772 0 0.0023377027907761972 -0.005030846199121513 0 0.0022780789214751941 -0.0050036230941255967 0 0.0017320452521737515 -0.0046774459440074734 0 0.0013247098056221802 -0.007013810903157028 0 0.0021501514366703612 -0.00035906566236528891 0 0.0022217745232582515 -0.00055670909094871596 0 0.0019867514636312841 -0.00060668125259662512 0 0.0017320452521737515 -0.0046774459440074734 0 0.0032112908206850498 -0.0016229675218271159 0 0.0017320452521737515 -0.0046774459440074734 0 0.0011305333313200525 -0.0068349111083776566 0 0.0018302078845759142 -0.0020460143680802621 0 0.0017320452521737515 -0.0046774459440074734 0 0.0011840555653529091 -0.0049829363625074809 0 0.0018379592199930434 -0.0046869033842854837 0 0.0013122237396095402 -0.0047732924668280911 0 0.00097878659734298296 -0.0086640863287453206 0 0.0009645590616686315 -0.0086664107695491079 0 0.00095806013920164495 -0.0086618358988942885 0 0.0009645590616686315 -0.0086664107695491079 0 0.00096094226878881239 -0.0086732992107511429 0 0.0009764927245014453 -0.0086766427121131758 0 0.00097878659734298296 -0.0086640863287453206 0 0.0009645590616686315 -0.0086664107695491079 0 0.0009764927245014453 -0.0086766427121131758 0 0.00097878659734298296 -0.0086640863287453206 0 0.0009764927245014453 -0.0086766427121131758 0 0.00099101602518411429 -0.0086747466933389979 0 0.0009764927245014453 -0.0086766427121131758 0 0.00099101602518411429 -0.0086747466933389979 0 0.00099152408935122968 -0.0086854066137260957 0 0.00097852955822500822 -0.0086860945852228269 0 0.00098561770004392565 -0.0086924252566868507 0 0.00099152408935122968 -0.0086854066137260957 0 0.0009764927245014453 -0.0086766427121131758 0 0.00097852955822500822 -0.0086860945852228269 0 0.00099152408935122968 -0.0086854066137260957 0 0.00097852955822500822 -0.0086860945852228269 0 0.00097305984923771213 -0.0086913120621284722 0 0.00098561770004392565 -0.0086924252566868507 0 0.00097852955822500822 -0.0086860945852228269 0 0.00096708427770366117 -0.0086835277529089365 0 0.00097305984923771213 -0.0086913120621284722 0 0.0009764927245014453 -0.0086766427121131758 0 0.00097852955822500822 -0.0086860945852228269 0 0.00096708427770366117 -0.0086835277529089365 0 0.00096094226878881239 -0.0086732992107511429 0 0.0009764927245014453 -0.0086766427121131758 0 0.00096708427770366117 -0.0086835277529089365 0 0.00096094226878881239 -0.0086732992107511429 0 0.00096708427770366117 -0.0086835277529089365 0 0.00095769575038014121 -0.0086829054258039089 0 0.00096708427770366117 -0.0086835277529089365 0 0.00096309746477738953 -0.0086933405342827022 0 0.00095769575038014121 -0.0086829054258039089 0 0.00096309746477738953 -0.0086933405342827022 0 0.00095542195965511007 -0.0086992580620580788 0 0.00095769575038014121 -0.0086829054258039089 0 0.00096708427770366117 -0.0086835277529089365 0 0.00096309746477738953 -0.0086933405342827022 0 0.00097305984923771213 -0.0086913120621284722 0 0.00096309746477738953 -0.0086933405342827022 0 0.00095542195965511007 -0.0086992580620580788 0 0.00096340084604621811 -0.0086996072266116945 0 0.00096309746477738953 -0.0086933405342827022 0 0.00096929581100990854 -0.0086952989377536514 0 0.00096340084604621811 -0.0086996072266116945 0 0.00096929581100990854 -0.0086952989377536514 0 0.00097898140254809802 -0.0086947117769453647 0 0.00097305984923771213 -0.0086913120621284722 0 0.00097898140254809802 -0.0086947117769453647 0 0.00097650650833558427 -0.0086951943386768607 0 0.00098711093041387466 -0.0086961334171271019 0 0.00096929581100990854 -0.0086952989377536514 0 0.00097898140254809802 -0.0086947117769453647 0 0.00097650650833558427 -0.0086951943386768607 0 0.00097898140254809802 -0.0086947117769453647 0 0.00097305984923771213 -0.0086913120621284722 0 0.00098561770004392565 -0.0086924252566868507 0 0.00096309746477738953 -0.0086933405342827022 0 0.00096929581100990854 -0.0086952989377536514 0 0.00097305984923771213 -0.0086913120621284722 0 -0.006587135598086255 -0.0075784155977807041 0 -0.0062588515492061894 -0.0075779808484645033 0 -0.0064949168275556151 -0.007812272734086181 0 -0.0032518221135411085 -0.0079408866693642787 0 -0.0032717129616757828 -0.00793456008152966 0 -0.0032786237606993464 -0.0080820713336019114 0 0.00095542195965511007 -0.0086992580620580788 0 0.00095346698913471406 -0.0086875369508805558 0 0.00095769575038014121 -0.0086829054258039089 0 0.00095542195965511007 -0.0086992580620580788 0 0.00095346698913471406 -0.0086875369508805558 0 0.00092990992540283642 -0.0087039783608418072 0 -0.0010194697407796013 -0.0081397507990510973 0 -0.002283188931052605 -0.0088882963377745153 0 0.00095346698913471406 -0.0086875369508805558 0 0.00095769575038014121 -0.0086829054258039089 0 0.00094425446406482395 -0.0086632956217187491 0 0.00096094226878881239 -0.0086732992107511429 0 0.00095769575038014121 -0.0086829054258039089 0 0.00094425446406482395 -0.0086632956217187491 0 -0.0052727840119700456 -0.0077329156778286412 0 -0.0046530855195734064 -0.0074671488278180076 0 -0.0032518221135411085 -0.0079408866693642787 0 -0.0032295189237033645 -0.0078425620447104012 0 -0.0032544791523208732 -0.0078342204202354639 0 -0.0032518221135411085 -0.0079408866693642787 0 -0.0032717129616757828 -0.00793456008152966 0 -0.0032544791523208732 -0.0078342204202354639 0 -0.0010194697407796013 -0.0081397507990510973 0 -0.0010617630251661585 -0.0084511031250574849 0 -0.006587135598086255 -0.0075784155977807041 0 -0.0063647288078155315 -0.0071418233456651452 0 -0.0062588515492061894 -0.0075779808484645033 0 -0.0032295189237033645 -0.0078425620447104012 0 -0.0032544791523208732 -0.0078342204202354639 0 -0.0032408600672760796 -0.0077662604580913007 0 0.00096094226878881239 -0.0086732992107511429 0 0.00094425446406482395 -0.0086632956217187491 0 0.00094511253694179985 -0.0086586387391178292 0 0.0009645590616686315 -0.0086664107695491079 0 0.00096094226878881239 -0.0086732992107511429 0 0.00094511253694179985 -0.0086586387391178292 0 0.0011840555653529091 -0.0049829363625074809 0 0.0013122237396095402 -0.0047732924668280911 0 0.00078050225298271136 -0.0048641773932366203 0 0.0011305333313200525 -0.0068349111083776566 0 0.00017960255457023252 -0.00584489091851922 0 0.00095806013920164495 -0.0086618358988942885 0 0.00094511253694179985 -0.0086586387391178292 0 0.00093027985736555898 -0.0086535515174890713 0 0.0009645590616686315 -0.0086664107695491079 0 0.00095806013920164495 -0.0086618358988942885 0 0.00094511253694179985 -0.0086586387391178292 0 -0.0010617630251661585 -0.0084511031250574849 0 -0.002486318520236406 -0.0071384744152448599 0 0.00094425446406482395 -0.0086632956217187491 0 0.00094511253694179985 -0.0086586387391178292 0 0.00092036441946258306 -0.0086489963169099834 0 0.00094511253694179985 -0.0086586387391178292 0 0.00093027985736555898 -0.0086535515174890713 0 0.00092036441946258306 -0.0086489963169099834 0 0.00017960255457023252 -0.00584489091851922 0 -0.0031531745837655657 -0.0061306107304496104 0 0.00017960255457023252 -0.00584489091851922 0 -0.002486318520236406 -0.0071384744152448599 0 -0.00066131753343761919 -0.0061393418846531107 0 -0.0024291498969388615 -0.005580495274627134 0 -0.0027617219626391038 -0.006490292853145346 0 -0.002486318520236406 -0.0071384744152448599 0 -0.0031531745837655657 -0.0061306107304496104 0 -0.002486318520236406 -0.0071384744152448599 0 -0.0053619494723265316 -0.0071347472913856754 0 -0.0057895956142153815 -0.0065782777763448014 0 -0.0058169763933846076 -0.0066363981110570992 0 -0.0058045406731293131 -0.0066570386658653218 0 -0.0032295189237033645 -0.0078425620447104012 0 -0.0032408600672760796 -0.0077662604580913007 0 -0.0032147943082816688 -0.0077778599112698129 0 -0.0058145238358797225 -0.0066423755235238101 0 -0.0058169763933846076 -0.0066363981110570992 0 -0.0058044561783296223 -0.0066589566047591938 0 -0.0053619494723265316 -0.0071347472913856754 0 -0.0053694913272847424 -0.0071043654564127189 0 -0.0058169763933846076 -0.0066363981110570992 0 -0.0058044561783296223 -0.0066589566047591938 0 -0.0058045406731293131 -0.0066570386658653218 0 -0.0053619494723265316 -0.0071347472913856754 0 -0.00594200872015166 -0.0066984649882383673 0 -0.0057895956142153815 -0.0065782777763448014 0 -0.0058045406731293131 -0.0066570386658653218 0 -0.0057327383639436446 -0.0066751057292738893 0 -0.0058135517724034989 -0.0066692848221390393 0 -0.0056974210208435069 -0.0067999384356464097 0 -0.0057327383639436446 -0.0066751057292738893 0 -0.0058135517724034989 -0.0066692848221390393 0 -0.0058045406731293131 -0.0066570386658653218 0 -0.0057327383639436446 -0.0066751057292738893 0 -0.0056974210208435069 -0.0067999384356464097 0 -0.0059795173693413424 -0.0069990806479899494 0 -0.005699728945060413 -0.0071519993568691098 0 -0.0059795173693413424 -0.0069990806479899494 0 -0.005699728945060413 -0.0071519993568691098 0 -0.0060492784853602762 -0.0072478631031451793 0 -0.0060870804047992262 -0.0066829802189608935 0 -0.0056974210208435069 -0.0067999384356464097 0 -0.0059795173693413424 -0.0069990806479899494 0 -0.0063647288078155315 -0.0071418233456651452 0 -0.0060870804047992262 -0.0066829802189608935 0 -0.0059795173693413424 -0.0069990806479899494 0 -0.0046530855195734064 -0.0074671488278180076 0 -0.0053619494723265316 -0.0071347472913856754 0 -0.0063647288078155315 -0.0071418233456651452 0 -0.0059795173693413424 -0.0069990806479899494 0 -0.0060492784853602762 -0.0072478631031451793 0 -0.0054551276794224174 -0.00646319746207438 0 -0.0053252690784840948 -0.0066271820853948862 0 -0.0054215366781866529 -0.0068112152262213453 0 -0.0053252690784840948 -0.0066271820853948862 0 -0.0054215366781866529 -0.0068112152262213453 0 -0.005155222315201843 -0.0068189782532661909 0 -0.0052601157787436304 -0.0064476005203904178 0 -0.0053252690784840948 -0.0066271820853948862 0 -0.005155222315201843 -0.0068189782532661909 0 -0.0054551276794224174 -0.00646319746207438 0 -0.0056974210208435069 -0.0067999384356464097 0 -0.0054215366781866529 -0.0068112152262213453 0 -0.0054551276794224174 -0.00646319746207438 0 -0.0056974210208435069 -0.0067999384356464097 0 -0.0057327383639436446 -0.0066751057292738893 0 -0.0055347220810203369 -0.0069874365085298784 0 -0.0054200214426164328 -0.0071361878250265753 0 -0.005699728945060413 -0.0071519993568691098 0 -0.0056974210208435069 -0.0067999384356464097 0 -0.0054215366781866529 -0.0068112152262213453 0 -0.0055347220810203369 -0.0069874365085298784 0 -0.0056974210208435069 -0.0067999384356464097 0 -0.0055347220810203369 -0.0069874365085298784 0 -0.005699728945060413 -0.0071519993568691098 0 -0.0054215366781866529 -0.0068112152262213453 0 -0.0053568873539403946 -0.0069856443682936396 0 -0.005155222315201843 -0.0068189782532661909 0 -0.0053568873539403946 -0.0069856443682936396 0 -0.0052561001612703023 -0.0071778672958112332 0 -0.005155222315201843 -0.0068189782532661909 0 -0.0054215366781866529 -0.0068112152262213453 0 -0.0055347220810203369 -0.0069874365085298784 0 -0.0053568873539403946 -0.0069856443682936396 0 -0.0055347220810203369 -0.0069874365085298784 0 -0.0053568873539403946 -0.0069856443682936396 0 -0.0054200214426164328 -0.0071361878250265753 0 -0.0053568873539403946 -0.0069856443682936396 0 -0.0052561001612703023 -0.0071778672958112332 0 -0.0054200214426164328 -0.0071361878250265753 0 -0.005355087088977549 -0.0073627261356042925 0 -0.0052561001612703023 -0.0071778672958112332 0 -0.0051312211234617756 -0.0073366678826223249 0 -0.005355087088977549 -0.0073627261356042925 0 -0.0052561001612703023 -0.0071778672958112332 0 -0.0054200214426164328 -0.0071361878250265753 0 -0.005355087088977549 -0.0073627261356042925 0 -0.0054200214426164328 -0.0071361878250265753 0 -0.0055396949753558295 -0.0073058703969281465 0 -0.0054200214426164328 -0.0071361878250265753 0 -0.0055396949753558295 -0.0073058703969281465 0 -0.005699728945060413 -0.0071519993568691098 0 -0.005699728945060413 -0.0071519993568691098 0 -0.0056908406049749694 -0.0074034360396465554 0 -0.0059058717503470042 -0.0074368565675118157 0 -0.0055396949753558295 -0.0073058703969281465 0 -0.005699728945060413 -0.0071519993568691098 0 -0.0056908406049749694 -0.0074034360396465554 0 -0.0056908406049749694 -0.0074034360396465554 0 -0.0055690331524830029 -0.0075541345092242215 0 -0.0058007339447368649 -0.0076256729950812873 0 -0.0055690331524830029 -0.0075541345092242215 0 -0.0058007339447368649 -0.0076256729950812873 0 -0.0057077409230757523 -0.007807643905242868 0 -0.0055396949753558295 -0.0073058703969281465 0 -0.0056908406049749694 -0.0074034360396465554 0 -0.0055690331524830029 -0.0075541345092242215 0 -0.005355087088977549 -0.0073627261356042925 0 -0.0055690331524830029 -0.0075541345092242215 0 -0.005370673038173979 -0.0075778866739153313 0 -0.005355087088977549 -0.0073627261356042925 0 -0.0055396949753558295 -0.0073058703969281465 0 -0.0055690331524830029 -0.0075541345092242215 0 -0.0055690331524830029 -0.0075541345092242215 0 -0.005370673038173979 -0.0075778866739153313 0 -0.0055254347475944526 -0.0078016144203618019 0 -0.005370673038173979 -0.0075778866739153313 0 -0.0052306688975105077 -0.0074827105342066295 0 -0.0052664136135275362 -0.0076468805706265651 0 -0.005355087088977549 -0.0073627261356042925 0 -0.005370673038173979 -0.0075778866739153313 0 -0.0052306688975105077 -0.0074827105342066295 0 -0.0063647288078155315 -0.0071418233456651452 0 -0.0060492784853602762 -0.0072478631031451793 0 -0.0062588515492061894 -0.0075779808484645033 0 -0.0060492784853602762 -0.0072478631031451793 0 -0.0059058717503470042 -0.0074368565675118157 0 -0.0062588515492061894 -0.0075779808484645033 0 -0.005699728945060413 -0.0071519993568691098 0 -0.0060492784853602762 -0.0072478631031451793 0 -0.0059058717503470042 -0.0074368565675118157 0 -0.0059058717503470042 -0.0074368565675118157 0 -0.0060187261760906918 -0.0076443559319609253 0 -0.0062588515492061894 -0.0075779808484645033 0 -0.0056908406049749694 -0.0074034360396465554 0 -0.0059058717503470042 -0.0074368565675118157 0 -0.0058007339447368649 -0.0076256729950812873 0 -0.0059058717503470042 -0.0074368565675118157 0 -0.0058007339447368649 -0.0076256729950812873 0 -0.0060187261760906918 -0.0076443559319609253 0 -0.0058007339447368649 -0.0076256729950812873 0 -0.0060187261760906918 -0.0076443559319609253 0 -0.0059013583979546881 -0.0078676229719017148 0 -0.0060187261760906918 -0.0076443559319609253 0 -0.0062588515492061894 -0.0075779808484645033 0 -0.0061297486046732255 -0.0078065927675609569 0 -0.0062588515492061894 -0.0075779808484645033 0 -0.0063367447328739578 -0.0078586347604537761 0 -0.0064949168275556151 -0.007812272734086181 0 -0.0063367447328739578 -0.0078586347604537761 0 -0.0060993136113253136 -0.0080446520167087223 0 -0.0063306326910601901 -0.0081774535996518277 0 -0.0062588515492061894 -0.0075779808484645033 0 -0.0063367447328739578 -0.0078586347604537761 0 -0.0061297486046732255 -0.0078065927675609569 0 -0.0063367447328739578 -0.0078586347604537761 0 -0.0060993136113253136 -0.0080446520167087223 0 -0.0061297486046732255 -0.0078065927675609569 0 -0.0060187261760906918 -0.0076443559319609253 0 -0.0061297486046732255 -0.0078065927675609569 0 -0.0059013583979546881 -0.0078676229719017148 0 -0.0060993136113253136 -0.0080446520167087223 0 -0.0061297486046732255 -0.0078065927675609569 0 -0.0059013583979546881 -0.0078676229719017148 0 -0.0060910327773252585 -0.0080596200078201629 0 -0.0056094489147779101 -0.0083973627094160105 0 -0.0060993136113253136 -0.0080446520167087223 0 -0.0059377761090576723 -0.008522441505467479 0 -0.0054960075410065059 -0.0086007836332298269 0 -0.0060993136113253136 -0.0080446520167087223 0 -0.0059013583979546881 -0.0078676229719017148 0 -0.0056959129303080008 -0.0081967283046561184 0 -0.0060993136113253136 -0.0080446520167087223 0 -0.0059377761090576723 -0.008522441505467479 0 -0.0061916305923695059 -0.0082615941215426134 0 -0.0059377761090576723 -0.008522441505467479 0 -0.0061971795051829516 -0.0084752576190687736 0 -0.0061916305923695059 -0.0082615941215426134 0 -0.0061971795051829516 -0.0084752576190687736 0 -0.0062918210004420348 -0.0084123401240737087 0 -0.0063306326910601901 -0.0081774535996518277 0 -0.0062918210004420348 -0.0084123401240737087 0 -0.0063306326910601901 -0.0081774535996518277 0 -0.006782703231734701 -0.0082498819566049191 0 -0.0060985490612559153 -0.0090572908074755317 0 -0.0056983999117365429 -0.0093342532471141753 0 -0.0061971795051829516 -0.0084752576190687736 0 -0.0063306326910601901 -0.0081774535996518277 0 -0.0061916305923695059 -0.0082615941215426134 0 -0.0060993136113253136 -0.0080446520167087223 0 -0.0063306326910601901 -0.0081774535996518277 0 -0.0061916305923695059 -0.0082615941215426134 0 -0.0053760288838428094 -0.0077397761941159753 0 -0.005422685486981999 -0.0079426023475338958 0 -0.0052640081523922851 -0.0077959206982577325 0 -0.0053760288838428094 -0.0077397761941159753 0 -0.0052640081523922851 -0.0077959206982577325 0 -0.0052664136135275362 -0.0076468805706265651 0 -0.005370673038173979 -0.0075778866739153313 0 -0.0053760288838428094 -0.0077397761941159753 0 -0.0052664136135275362 -0.0076468805706265651 0 -0.005370673038173979 -0.0075778866739153313 0 -0.0053760288838428094 -0.0077397761941159753 0 -0.0055254347475944526 -0.0078016144203618019 0 -0.0053760288838428094 -0.0077397761941159753 0 -0.0055254347475944526 -0.0078016144203618019 0 -0.005422685486981999 -0.0079426023475338958 0 -0.0055254347475944526 -0.0078016144203618019 0 -0.0057077409230757523 -0.007807643905242868 0 -0.0056959129303080008 -0.0081967283046561184 0 -0.0059013583979546881 -0.0078676229719017148 0 -0.0057077409230757523 -0.007807643905242868 0 -0.0056959129303080008 -0.0081967283046561184 0 -0.0055690331524830029 -0.0075541345092242215 0 -0.0055254347475944526 -0.0078016144203618019 0 -0.0057077409230757523 -0.007807643905242868 0 -0.0058007339447368649 -0.0076256729950812873 0 -0.0059013583979546881 -0.0078676229719017148 0 -0.0057077409230757523 -0.007807643905242868 0 -0.0056959129303080008 -0.0081967283046561184 0 -0.005422685486981999 -0.0079426023475338958 0 -0.0052512738877940751 -0.0086547655944221192 0 -0.0055254347475944526 -0.0078016144203618019 0 -0.0056959129303080008 -0.0081967283046561184 0 -0.005422685486981999 -0.0079426023475338958 0 -0.0056094489147779101 -0.0083973627094160105 0 -0.0050418337845861919 -0.0088673310755350444 0 -0.0054960075410065059 -0.0086007836332298269 0 -0.0053994951858190683 -0.0091296219737168026 0 -0.0048790019301863542 -0.0090647084454635891 0 -0.0054960075410065059 -0.0086007836332298269 0 -0.0053994951858190683 -0.0091296219737168026 0 -0.0058650988170508393 -0.0090488112226517411 0 -0.0053994951858190683 -0.0091296219737168026 0 -0.0058650988170508393 -0.0090488112226517411 0 -0.0054305529383968515 -0.0096418364561303756 0 -0.0054332079877822776 -0.009821046922349053 0 -0.0052107032329529986 -0.010037066000988424 0 -0.0053994951858190683 -0.0091296219737168026 0 -0.0048837992087591327 -0.0095499744589910458 0 -0.0054305529383968515 -0.0096418364561303756 0 -0.0053994951858190683 -0.0091296219737168026 0 -0.0048790019301863542 -0.0090647084454635891 0 -0.0048837992087591327 -0.0095499744589910458 0 -0.0050051655055519751 -0.010552124935217755 0 -0.0049485845612524454 -0.010580528969185128 0 -0.0049742128296873809 -0.010594680594559253 0 -0.0050060712665942362 -0.010607443145332856 0 -0.0050051655055519751 -0.010552124935217755 0 -0.0049742128296873809 -0.010594680594559253 0 -0.0050060712665942362 -0.010607443145332856 0 -0.0050051655055519751 -0.010552124935217755 0 -0.0050451728549644834 -0.010516833269038349 0 -0.0061971795051829516 -0.0084752576190687736 0 -0.0063159406215758055 -0.0084212454451804159 0 -0.0058650988170508393 -0.0090488112226517411 0 -0.0059377761090576723 -0.008522441505467479 0 -0.0054960075410065059 -0.0086007836332298269 0 -0.0058650988170508393 -0.0090488112226517411 0 -0.0056983999117365429 -0.0093342532471141753 0 -0.0054332079877822776 -0.009821046922349053 0 -0.0059377761090576723 -0.008522441505467479 0 -0.0061971795051829516 -0.0084752576190687736 0 -0.0058650988170508393 -0.0090488112226517411 0 -0.0050051655055519751 -0.010552124935217755 0 -0.0050451728549644834 -0.010516833269038349 0 -0.0050107881772069292 -0.010523591277637266 0 -0.0050451728549644834 -0.010516833269038349 0 -0.0050345027318047441 -0.010496201528043543 0 -0.0050107881772069292 -0.010523591277637266 0 -0.0050451728549644834 -0.010516833269038349 0 -0.0050345027318047441 -0.010496201528043543 0 -0.0050175181409609065 -0.010426958353088815 0 -0.0050345027318047441 -0.010496201528043543 0 -0.0050107881772069292 -0.010523591277637266 0 -0.0049967451995639213 -0.01050686920285062 0 -0.0050051655055519751 -0.010552124935217755 0 -0.0050107881772069292 -0.010523591277637266 0 -0.0049674261147105081 -0.010537804717873151 0 -0.0050107881772069292 -0.010523591277637266 0 -0.0049674261147105081 -0.010537804717873151 0 -0.0049967451995639213 -0.01050686920285062 0 -0.0049674261147105081 -0.010537804717873151 0 -0.0049485845612524454 -0.010580528969185128 0 -0.0048961163995307694 -0.010562005208942543 0 -0.0049674261147105081 -0.010537804717873151 0 -0.0048961163995307694 -0.010562005208942543 0 -0.0049287305912653605 -0.010515948875043148 0 -0.0049674261147105081 -0.010537804717873151 0 -0.0049287305912653605 -0.010515948875043148 0 -0.0049967451995639213 -0.01050686920285062 0 -0.0050051655055519751 -0.010552124935217755 0 -0.0049674261147105081 -0.010537804717873151 0 -0.0049485845612524454 -0.010580528969185128 0 -0.0048733324713999722 -0.010610503839684125 0 -0.0048961163995307694 -0.010562005208942543 0 -0.0047994786749954417 -0.010583344794794445 0 -0.0049485845612524454 -0.010580528969185128 0 -0.0048733324713999722 -0.010610503839684125 0 -0.0048961163995307694 -0.010562005208942543 0 -0.0048961163995307694 -0.010562005208942543 0 -0.0048488760026949062 -0.010541330736708614 0 -0.0049287305912653605 -0.010515948875043148 0 -0.0048961163995307694 -0.010562005208942543 0 -0.0048488760026949062 -0.010541330736708614 0 -0.0047994786749954417 -0.010583344794794445 0 -0.0048488760026949062 -0.010541330736708614 0 -0.0047735705328258386 -0.010543396592634606 0 -0.0047994786749954417 -0.010583344794794445 0 -0.0023179904884955758 -0.012327182708280886 0 -0.0020070108947600057 -0.01193879015817185 0 -0.0016333504461645068 -0.012758962359426243 0 -0.0014924798831575381 -0.012363459127707735 0 -0.0017921435889829559 -0.01264677580933342 0 -0.0020070108947600057 -0.01193879015817185 0 2.8297018544284679e-05 -0.013309881977301707 0 0.0013066738491515656 -0.013914453633000833 0 0.0012901633075631054 -0.013907546581041597 0 0.0013119250040846166 -0.013903295946045616 0 0.0013066738491515656 -0.013914453633000833 0 0.0012901633075631054 -0.013907546581041597 0 0.00129693939625738 -0.013907110743376099 0 -0.0023179904884955758 -0.012327182708280886 0 2.8297018544284679e-05 -0.013309881977301707 0 0.0012898845824752029 -0.013894181147799743 0 0.0012861754115774467 -0.013899749436138224 0 0.0012817144254874562 -0.013893355911215686 0 0.0012898845824752029 -0.013894181147799743 0 0.0012834915530268701 -0.013899394640836912 0 0.0012861754115774467 -0.013899749436138224 0 0.0012861754115774467 -0.013899749436138224 0 0.00129693939625738 -0.013907110743376099 0 0.0012992252000441297 -0.013905983906164236 0 0.0012834915530268701 -0.013899394640836912 0 0.0012861754115774467 -0.013899749436138224 0 0.00129693939625738 -0.013907110743376099 0 2.8297018544284679e-05 -0.013309881977301707 0 0.00098718477033464189 -0.013883670703870914 0 0.0013066738491515656 -0.013914453633000833 0 0.00129693939625738 -0.013907110743376099 0 0.0013116844930920256 -0.013918312927216493 0 0.00129693939625738 -0.013907110743376099 0 0.0012992252000441297 -0.013905983906164236 0 0.0013116844930920256 -0.013918312927216493 0 0.0012992252000441297 -0.013905983906164236 0 0.0013144523300692025 -0.013915832577678033 0 0.0013116844930920256 -0.013918312927216493 0 0.0012992252000441297 -0.013905983906164236 0 0.0013017903014294944 -0.013905180289922979 0 0.0013144523300692025 -0.013915832577678033 0 0.0012992252000441297 -0.013905983906164236 0 0.0012817144254874562 -0.013893355911215686 0 0.0013017903014294944 -0.013905180289922979 0 0.0012861754115774467 -0.013899749436138224 0 0.0012992252000441297 -0.013905983906164236 0 0.0012817144254874562 -0.013893355911215686 0 0.0012974199374085821 -0.01389920634958043 0 0.0013017903014294944 -0.013905180289922979 0 0.0013101856457524966 -0.013904182512020588 0 0.0012817144254874562 -0.013893355911215686 0 0.0012974199374085821 -0.01389920634958043 0 0.0013017903014294944 -0.013905180289922979 0 0.0013017903014294944 -0.013905180289922979 0 0.0013101856457524966 -0.013904182512020588 0 0.0013144523300692025 -0.013915832577678033 0 -0.0020070108947600057 -0.01193879015817185 0 -0.00083725855680007741 -0.012646937063603678 0 -0.0030219315894790435 -0.011118941275467304 0 -0.0027704763448800976 -0.010926985821689888 0 -0.0028724166878215671 -0.011167490504552822 0 0.0012898845824752029 -0.013894181147799743 0 0.0012860043125461802 -0.013826311098657519 0 0.0013172384914507294 -0.013765124920638139 0 -0.0039880859179640014 -0.010912242689665012 0 -0.0020070108947600057 -0.01193879015817185 0 0.0012898845824752029 -0.013894181147799743 0 0.0012817144254874562 -0.013893355911215686 0 0.0012860043125461802 -0.013826311098657519 0 0.0012981121209551093 -0.013841138102211829 0 0.0012492140898469277 -0.013922979250583887 0 0.0012817144254874562 -0.013893355911215686 0 0.0012974199374085821 -0.01389920634958043 0 0.0012963620970989488 -0.013891755221928382 0 0.0012817144254874562 -0.013893355911215686 0 0.0012860043125461802 -0.013826311098657519 0 0.0012629579633698148 -0.01374251252388865 0 0.0012860043125461802 -0.013826311098657519 0 0.0013172384914507294 -0.013765124920638139 0 0.0012629579633698148 -0.01374251252388865 0 0.0012936433301854956 -0.013887318121887064 0 0.0013009830709132305 -0.013893758407744192 0 0.0013075088885033533 -0.013894113102331856 0 0.0013172384914507294 -0.013765124920638139 0 0.0012629579633698148 -0.01374251252388865 0 0.00135514414036985 -0.013467375953329745 0 -0.00083725855680007741 -0.012646937063603678 0 -0.0012468212504338941 -0.011094976449026009 0 0.0012963620970989488 -0.013891755221928382 0 0.0012936433301854956 -0.013887318121887064 0 0.0013009830709132305 -0.013893758407744192 0 0.0012974199374085821 -0.01389920634958043 0 0.0012963620970989488 -0.013891755221928382 0 0.0013009830709132305 -0.013893758407744192 0 0.0012492140898469277 -0.013922979250583887 0 -0.0012468212504338941 -0.011094976449026009 0 0.0012963620970989488 -0.013891755221928382 0 0.0012936433301854956 -0.013887318121887064 0 0.0012738014786563476 -0.013876509430295928 0 0.0013009830709132305 -0.013893758407744192 0 0.0013125624721429428 -0.013897390120089774 0 0.0013075088885033533 -0.013894113102331856 0 0.0013101856457524966 -0.013904182512020588 0 0.0013009830709132305 -0.013893758407744192 0 0.0013125624721429428 -0.013897390120089774 0 0.0012974199374085821 -0.01389920634958043 0 0.0013101856457524966 -0.013904182512020588 0 0.0013009830709132305 -0.013893758407744192 0 0.0013101856457524966 -0.013904182512020588 0 0.0013125624721429428 -0.013897390120089774 0 0.0013271883797915465 -0.013900465180332488 0 0.00098339823581870887 -0.0087510735984453018 0 0.0011345271343262276 -0.010478776595846935 0 0.00096814405308426376 -0.0086930730553289315 0 0.00097650650833558427 -0.0086951943386768607 0 0.00099290283579137289 -0.0086944119479901421 0 0.0013125624721429428 -0.013897390120089774 0 0.0013075088885033533 -0.013894113102331856 0 0.0013271883797915465 -0.013900465180332488 0 0.0010861481383116103 -0.0088354015171705925 0 0.0011104857342324602 -0.0088736414331865576 0 0.0012680565502642554 -0.0090496983893133976 0 0.0017004128546913985 -0.011535282169707077 0 0.0011345271343262276 -0.010478776595846935 0 0.00096929581100990854 -0.0086952989377536514 0 0.00096606415739883494 -0.0086985567578715117 0 0.0009692854924654539 -0.008695456001952314 0 0.00096929581100990854 -0.0086952989377536514 0 0.0009692854924654539 -0.008695456001952314 0 0.00097650650833558427 -0.0086951943386768607 0 0.00096606415739883494 -0.0086985567578715117 0 0.0009692854924654539 -0.008695456001952314 0 0.00096814405308426376 -0.0086930730553289315 0 0.0009692854924654539 -0.008695456001952314 0 0.00096814405308426376 -0.0086930730553289315 0 0.00097650650833558427 -0.0086951943386768607 0 0.0017004128546913985 -0.011535282169707077 0 -0.0012468212504338941 -0.011094976449026009 0 0.0010861481383116103 -0.0088354015171705925 0 0.00096749041049494261 -0.0087208772489356604 0 0.00091780946323806033 -0.0086595767000953641 0 0.0010861481383116103 -0.0088354015171705925 0 0.0011104857342324602 -0.0088736414331865576 0 0.00096749041049494261 -0.0087208772489356604 0 0.00096606415739883494 -0.0086985567578715117 0 0.00096814405308426376 -0.0086930730553289315 0 0.00096749041049494261 -0.0087208772489356604 0 0.00098339823581870887 -0.0087510735984453018 0 0.0010059841380373454 -0.0087450975742668757 0 0.0012936433301854956 -0.013887318121887064 0 0.0013075088885033533 -0.013894113102331856 0 0.0012738014786563476 -0.013876509430295928 0 0.00096929581100990854 -0.0086952989377536514 0 0.00096606415739883494 -0.0086985567578715117 0 0.00096340084604621811 -0.0086996072266116945 0 0.00096606415739883494 -0.0086985567578715117 0 0.00096749041049494261 -0.0087208772489356604 0 0.00096340084604621811 -0.0086996072266116945 0 0.00095542195965511007 -0.0086992580620580788 0 0.00096749041049494261 -0.0087208772489356604 0 0.00096340084604621811 -0.0086996072266116945 0 0.00095542195965511007 -0.0086992580620580788 0 0.00096749041049494261 -0.0087208772489356604 0 0.00092990992540283642 -0.0087039783608418072 0 -0.0067092437664032049 -0.0079310138035879781 0 -0.0067180865502232678 -0.0079788345296866806 0 -0.0065120500283619605 -0.0080377248355912555 0 -0.0052727840119700456 -0.0077329156778286412 0 -0.002283188931052605 -0.0088882963377745153 0 -0.006587135598086255 -0.0075784155977807041 0 -0.0067092437664032049 -0.0079310138035879781 0 -0.0064949168275556151 -0.007812272734086181 0 -0.0067092437664032049 -0.0079310138035879781 0 -0.0064949168275556151 -0.007812272734086181 0 -0.0065120500283619605 -0.0080377248355912555 0 0.00096749041049494261 -0.0087208772489356604 0 0.00092990992540283642 -0.0087039783608418072 0 0.00091780946323806033 -0.0086595767000953641 0 -0.002283188931052605 -0.0088882963377745153 0 -0.0012468212504338941 -0.011094976449026009 0 -0.0063367447328739578 -0.0078586347604537761 0 -0.0063306326910601901 -0.0081774535996518277 0 -0.006782703231734701 -0.0082498819566049191 0 -0.0063367447328739578 -0.0078586347604537761 0 -0.0064949168275556151 -0.007812272734086181 0 -0.0065120500283619605 -0.0080377248355912555 0 -0.0064154866697788311 -0.0076930113991468202 0 -0.0057463847116196705 -0.0094780304814191876 0 -0.0050060712665942362 -0.010607443145332856 0 -0.0049742128296873809 -0.010594680594559253 0 -0.0049381960759186244 -0.010637883355767978 0 -0.0049485845612524454 -0.010580528969185128 0 -0.0049742128296873809 -0.010594680594559253 0 -0.0049381960759186244 -0.010637883355767978 0 -0.0056983999117365429 -0.0093342532471141753 0 -0.0057463847116196705 -0.0094780304814191876 0 -0.0049485845612524454 -0.010580528969185128 0 -0.0048733324713999722 -0.010610503839684125 0 -0.0049381960759186244 -0.010637883355767978 0 -0.0012468212504338941 -0.011094976449026009 0 -0.0057463847116196705 -0.0094780304814191876 0 -0.0039880859179640014 -0.010912242689665012 0 -0.0057463847116196705 -0.0094780304814191876 0 -0.0030219315894790435 -0.011118941275467304 0 -0.0029697325339685956 -0.011431093796330187 0 -0.0032927890628438559 -0.011332468006715182 0 -0.0030219315894790435 -0.011118941275467304 0 -0.0028724166878215671 -0.011167490504552822 0 -0.0029697325339685956 -0.011431093796330187 0 -0.0057508072322697834 -0.007347463849530991 0 -0.0055872580053230696 -0.0073422065014647573 0 -0.0056916892225651709 -0.0072397481220658876 0 -0.0055872580053230696 -0.0073422065014647573 0 -0.0056305352374322456 -0.0073994244280238368 0 -0.0055069250874097558 -0.0073909816460016016 0 -0.0057508072322697834 -0.007347463849530991 0 -0.0055872580053230696 -0.0073422065014647573 0 -0.0056305352374322456 -0.0073994244280238368 0 -0.0057210715396100653 -0.0074157883881506917 0 -0.0057508072322697834 -0.007347463849530991 0 -0.0056305352374322456 -0.0073994244280238368 0 -0.0057210715396100653 -0.0074157883881506917 0 -0.0056305352374322456 -0.0073994244280238368 0 -0.0056266471525963759 -0.0074182159700717535 0 -0.0055925189330257342 -0.0074244137734535065 0 -0.0055933511261803083 -0.0074023015342318411 0 -0.0056266471525963759 -0.0074182159700717535 0 -0.0055933511261803083 -0.0074023015342318411 0 -0.0056266471525963759 -0.0074182159700717535 0 -0.0055452638040436311 -0.0074062614465009655 0 -0.0056305352374322456 -0.0073994244280238368 0 -0.0056266471525963759 -0.0074182159700717535 0 -0.0055452638040436311 -0.0074062614465009655 0 -0.0056305352374322456 -0.0073994244280238368 0 -0.0055452638040436311 -0.0074062614465009655 0 -0.0055069250874097558 -0.0073909816460016016 0 -0.0055452638040436311 -0.0074062614465009655 0 -0.0054532935296236935 -0.0073987078701778794 0 -0.0055069250874097558 -0.0073909816460016016 0 -0.0055511695961973631 -0.007391640981712114 0 -0.0055452638040436311 -0.0074062614465009655 0 -0.0054423873994493182 -0.0073903539093456974 0 -0.0055452638040436311 -0.0074062614465009655 0 -0.0054532935296236935 -0.0073987078701778794 0 -0.0054423873994493182 -0.0073903539093456974 0 -0.0054532935296236935 -0.0073987078701778794 0 -0.0053743196714074511 -0.0073943649816135062 0 -0.0054423873994493182 -0.0073903539093456974 0 -0.0053214403129350947 -0.0073847934421135252 0 -0.0053743196714074511 -0.0073943649816135062 0 -0.0054423873994493182 -0.0073903539093456974 0 -0.0054532935296236935 -0.0073987078701778794 0 -0.0053651072141627969 -0.0073934161700555901 0 -0.0055069250874097558 -0.0073909816460016016 0 -0.0054532935296236935 -0.0073987078701778794 0 -0.0053743196714074511 -0.0073943649816135062 0 -0.0053651072141627969 -0.0073934161700555901 0 -0.0053651072141627969 -0.0073934161700555901 0 -0.0054289211028930107 -0.007348257429304967 0 -0.0052654202247160234 -0.0073728933335075785 0 -0.0053651072141627969 -0.0073934161700555901 0 -0.0055069250874097558 -0.0073909816460016016 0 -0.0054289211028930107 -0.007348257429304967 0 -0.0055872580053230696 -0.0073422065014647573 0 -0.0055069250874097558 -0.0073909816460016016 0 -0.0054289211028930107 -0.007348257429304967 0 -0.0055872580053230696 -0.0073422065014647573 0 -0.0054289211028930107 -0.007348257429304967 0 -0.0055158246027968176 -0.0072273727180098158 0 -0.0054289211028930107 -0.007348257429304967 0 -0.0052654202247160234 -0.0073728933335075785 0 -0.0053560382837547198 -0.0072690589227645515 0 -0.0054289211028930107 -0.007348257429304967 0 -0.0053560382837547198 -0.0072690589227645515 0 -0.0055158246027968176 -0.0072273727180098158 0 -0.0052654202247160234 -0.0073728933335075785 0 -0.0052325569656931376 -0.0073005052807163335 0 -0.0053560382837547198 -0.0072690589227645515 0 -0.0052654202247160234 -0.0073728933335075785 0 -0.0051052912748581697 -0.0074264879530289074 0 -0.0052325569656931376 -0.0073005052807163335 0 -0.0052654202247160234 -0.0073728933335075785 0 -0.0051052912748581697 -0.0074264879530289074 0 -0.0051649061827375537 -0.0074101485172221437 0 -0.0051052912748581697 -0.0074264879530289074 0 -0.0051649061827375537 -0.0074101485172221437 0 -0.005092922538926228 -0.0074367155153649981 0 -0.0052654202247160234 -0.0073728933335075785 0 -0.0051649061827375537 -0.0074101485172221437 0 -0.005252295920486239 -0.0073970642320543949 0 -0.0051649061827375537 -0.0074101485172221437 0 -0.0051992206568181243 -0.007393873475080171 0 -0.005252295920486239 -0.0073970642320543949 0 -0.0053651072141627969 -0.0073934161700555901 0 -0.0052654202247160234 -0.0073728933335075785 0 -0.005252295920486239 -0.0073970642320543949 0 -0.0053651072141627969 -0.0073934161700555901 0 -0.005252295920486239 -0.0073970642320543949 0 -0.0052824045494543059 -0.0073961914946820435 0 -0.0053743196714074511 -0.0073943649816135062 0 -0.0053651072141627969 -0.0073934161700555901 0 -0.0052824045494543059 -0.0073961914946820435 0 -0.0053214403129350947 -0.0073847934421135252 0 -0.0053743196714074511 -0.0073943649816135062 0 -0.0052824045494543059 -0.0073961914946820435 0 -0.0053214403129350947 -0.0073847934421135252 0 -0.00526015281451614 -0.0073882911460943111 0 -0.0052824045494543059 -0.0073961914946820435 0 -0.00526015281451614 -0.0073882911460943111 0 -0.0052824045494543059 -0.0073961914946820435 0 -0.0052300545816933788 -0.0073875034672977666 0 -0.0051992206568181243 -0.007393873475080171 0 -0.0052824045494543059 -0.0073961914946820435 0 -0.0052300545816933788 -0.0073875034672977666 0 -0.0051992206568181243 -0.007393873475080171 0 -0.005252295920486239 -0.0073970642320543949 0 -0.0052824045494543059 -0.0073961914946820435 0 -0.0051992206568181243 -0.007393873475080171 0 -0.0051983019972743072 -0.0073811675942232228 0 -0.0052300545816933788 -0.0073875034672977666 0 -0.0051983019972743072 -0.0073811675942232228 0 -0.0052244346994093915 -0.0073822060571994358 0 -0.0051892218960383815 -0.0073567865763669608 0 -0.0051983019972743072 -0.0073811675942232228 0 -0.0052244346994093915 -0.0073822060571994358 0 -0.0052300545816933788 -0.0073875034672977666 0 -0.00526015281451614 -0.0073882911460943111 0 -0.0052244346994093915 -0.0073822060571994358 0 -0.0052423755151521818 -0.0073886123643014043 0 -0.00526015281451614 -0.0073882911460943111 0 -0.0052244346994093915 -0.0073822060571994358 0 -0.0052300545816933788 -0.0073875034672977666 0 -0.0054257432770602959 -0.0070770543066119634 0 -0.0051643925040896193 -0.0070054944507278935 0 -0.0052137839739239272 -0.0072013054169690503 0 -0.0051724643710417762 -0.0072643128131230621 0 -0.0052101079175082676 -0.0072966354724571265 0 -0.0052101079175082676 -0.0072966354724571265 0 -0.0051931567065780729 -0.007382986318584187 0 -0.0051892218960383815 -0.0073567865763669608 0 -0.0052079676057889051 -0.0073237897303574384 0 -0.0051924462539040079 -0.0073529680693331517 0 -0.0051724643710417762 -0.0072643128131230621 0 -0.0052101079175082676 -0.0072966354724571265 0 -0.0051892218960383815 -0.0073567865763669608 0 -0.0052244346994093915 -0.0073822060571994358 0 -0.0052423755151521818 -0.0073886123643014043 0 -0.0051892218960383815 -0.0073567865763669608 0 -0.0052561001612703023 -0.0071778672958112332 0 -0.005155222315201843 -0.0068189782532661909 0 -0.0051312211234617756 -0.0073366678826223249 0 -0.0051643925040896193 -0.0070054944507278935 0 -0.0051606545362627345 -0.0073714159777796464 0 -0.0051931567065780729 -0.007382986318584187 0 -0.0051892218960383815 -0.0073567865763669608 0 -0.0051427738404126724 -0.0074019109060126159 0 -0.0051892218960383815 -0.0073567865763669608 0 -0.0051625799778604519 -0.0073907664939121534 0 -0.0051427738404126724 -0.0074019109060126159 0 -0.0051983019972743072 -0.0073811675942232228 0 -0.0051892218960383815 -0.0073567865763669608 0 -0.0051625799778604519 -0.0073907664939121534 0 -0.0051649061827375537 -0.0074101485172221437 0 -0.0051992206568181243 -0.007393873475080171 0 -0.0051625799778604519 -0.0073907664939121534 0 -0.0051992206568181243 -0.007393873475080171 0 -0.0051983019972743072 -0.0073811675942232228 0 -0.0051625799778604519 -0.0073907664939121534 0 -0.0051649061827375537 -0.0074101485172221437 0 -0.0051625799778604519 -0.0073907664939121534 0 -0.005092922538926228 -0.0074367155153649981 0 -0.0051625799778604519 -0.0073907664939121534 0 -0.0051427738404126724 -0.0074019109060126159 0 -0.005092922538926228 -0.0074367155153649981 0 -0.0051427738404126724 -0.0074019109060126159 0 -0.005092922538926228 -0.0074367155153649981 0 -0.0050752808829695687 -0.0074737855283281592 0 -0.0051052912748581697 -0.0074264879530289074 0 -0.005092922538926228 -0.0074367155153649981 0 -0.0050345744675332083 -0.0074674701654556287 0 -0.0050345744675332083 -0.0074674701654556287 0 -0.0050752808829695687 -0.0074737855283281592 0 -0.0049211966867475452 -0.0075145634333222454 0 -0.005092922538926228 -0.0074367155153649981 0 -0.0050345744675332083 -0.0074674701654556287 0 -0.0050752808829695687 -0.0074737855283281592 0 -0.0051606545362627345 -0.0073714159777796464 0 -0.0051092336261639934 -0.0076399050316100173 0 -0.0051931567065780729 -0.007382986318584187 0 -0.0050752808829695687 -0.0074737855283281592 0 -0.0051040346051566699 -0.0076626205580003839 0 -0.0051312211234617756 -0.0073366678826223249 0 -0.0052306688975105077 -0.0074827105342066295 0 -0.0051040346051566699 -0.0076626205580003839 0 -0.005355087088977549 -0.0073627261356042925 0 -0.0051312211234617756 -0.0073366678826223249 0 -0.0052306688975105077 -0.0074827105342066295 0 -0.0051931567065780729 -0.007382986318584187 0 -0.0051427738404126724 -0.0074019109060126159 0 -0.0050752808829695687 -0.0074737855283281592 0 -0.0052306688975105077 -0.0074827105342066295 0 -0.0051040346051566699 -0.0076626205580003839 0 -0.0052664136135275362 -0.0076468805706265651 0 -0.0051040346051566699 -0.0076626205580003839 0 -0.0052640081523922851 -0.0077959206982577325 0 -0.0051726010940131746 -0.00808347989216689 0 -0.0051040346051566699 -0.0076626205580003839 0 -0.0052640081523922851 -0.0077959206982577325 0 -0.0052664136135275362 -0.0076468805706265651 0 -0.0050752808829695687 -0.0074737855283281592 0 -0.0051040346051566699 -0.0076626205580003839 0 -0.0049211966867475452 -0.0075145634333222454 0 -0.0048828845574593605 -0.0075041030710783297 0 -0.0046529238086323145 -0.0076001935766289823 0 -0.0051040346051566699 -0.0076626205580003839 0 -0.0049211966867475452 -0.0075145634333222454 0 -0.0048138482077145035 -0.0081142684553463119 0 -0.0051052912748581697 -0.0074264879530289074 0 -0.0050345744675332083 -0.0074674701654556287 0 -0.0049211966867475452 -0.0075145634333222454 0 -0.0049211966867475452 -0.0075145634333222454 0 -0.0048138482077145035 -0.0081142684553463119 0 -0.0041227453701496415 -0.0079821380777381455 0 -0.0048138482077145035 -0.0081142684553463119 0 -0.0051726010940131746 -0.00808347989216689 0 -0.0052512738877940751 -0.0086547655944221192 0 -0.005422685486981999 -0.0079426023475338958 0 -0.0051726010940131746 -0.00808347989216689 0 -0.0052512738877940751 -0.0086547655944221192 0 -0.0051040346051566699 -0.0076626205580003839 0 -0.0048138482077145035 -0.0081142684553463119 0 -0.0051726010940131746 -0.00808347989216689 0 -0.005422685486981999 -0.0079426023475338958 0 -0.0052640081523922851 -0.0077959206982577325 0 -0.0051726010940131746 -0.00808347989216689 0 -0.0048138482077145035 -0.0081142684553463119 0 -0.0052512738877940751 -0.0086547655944221192 0 -0.0041207642813223472 -0.0088476323809599158 0 -0.0052512738877940751 -0.0086547655944221192 0 -0.0041207642813223472 -0.0088476323809599158 0 -0.0042714728397727376 -0.0093804971272779709 0 -0.0048790019301863542 -0.0090647084454635891 0 -0.0048837992087591327 -0.0095499744589910458 0 -0.0042714728397727376 -0.0093804971272779709 0 -0.0050418337845861919 -0.0088673310755350444 0 -0.0042993845643395168 -0.0093531275440360741 0 -0.0048837992087591327 -0.0095499744589910458 0 -0.0042714728397727376 -0.0093804971272779709 0 -0.0044488228051114331 -0.0098206818790532446 0 -0.0041207642813223472 -0.0088476323809599158 0 -0.0035384386121751462 -0.0084723287178849038 0 -0.0041227453701496415 -0.0079821380777381455 0 -0.0041206733309294974 -0.0095465457758318155 0 -0.0042974125176287424 -0.0097753956425569426 0 -0.0041207642813223472 -0.0088476323809599158 0 -0.0042714728397727376 -0.0093804971272779709 0 -0.0036952889100254627 -0.0093763110217867061 0 -0.0042714728397727376 -0.0093804971272779709 0 -0.0036952889100254627 -0.0093763110217867061 0 -0.0044488228051114331 -0.0098206818790532446 0 -0.004063371358531207 -0.0089124261409403872 0 -0.0041206733309294974 -0.0095465457758318155 0 -0.0041206733309294974 -0.0095465457758318155 0 -0.0051777595060627521 -0.0089263575745288787 0 -0.0037736932289392251 -0.0092362661982893501 0 -0.0035384386121751462 -0.0084723287178849038 0 -0.0030384695480689958 -0.0088720970280517595 0 -0.0041207642813223472 -0.0088476323809599158 0 -0.0037736932289392251 -0.0092362661982893501 0 -0.0035384386121751462 -0.0084723287178849038 0 -0.0043354163090116235 -0.0077014381617959479 0 -0.0046529238086323145 -0.0076001935766289823 0 -0.0052855638281315599 -0.0070484548180658061 0 -0.0052904763759353494 -0.0071878635388936312 0 -0.0054130136138074627 -0.0071313723973565248 0 -0.0052855638281315599 -0.0070484548180658061 0 -0.0052904763759353494 -0.0071878635388936312 0 -0.0051332401807215374 -0.0071973992901468963 0 -0.0048138482077145035 -0.0081142684553463119 0 -0.0041207642813223472 -0.0088476323809599158 0 -0.0041227453701496415 -0.0079821380777381455 0 -0.0051052912748581697 -0.0074264879530289074 0 -0.0049211966867475452 -0.0075145634333222454 0 -0.0051332401807215374 -0.0071973992901468963 0 -0.0051052912748581697 -0.0074264879530289074 0 -0.0051332401807215374 -0.0071973992901468963 0 -0.0052325569656931376 -0.0073005052807163335 0 -0.0052904763759353494 -0.0071878635388936312 0 -0.0051332401807215374 -0.0071973992901468963 0 -0.0052325569656931376 -0.0073005052807163335 0 -0.0052904763759353494 -0.0071878635388936312 0 -0.0052325569656931376 -0.0073005052807163335 0 -0.0053560382837547198 -0.0072690589227645515 0 -0.0052904763759353494 -0.0071878635388936312 0 -0.0053560382837547198 -0.0072690589227645515 0 -0.0054130136138074627 -0.0071313723973565248 0 -0.0053560382837547198 -0.0072690589227645515 0 -0.0055158246027968176 -0.0072273727180098158 0 -0.0054130136138074627 -0.0071313723973565248 0 -0.0055406276044512705 -0.0070505794181461067 0 -0.0054513050699552274 -0.0070334663089058752 0 -0.0055620853351868145 -0.0069976405755456904 0 -0.0055158246027968176 -0.0072273727180098158 0 -0.0055406276044512705 -0.0070505794181461067 0 -0.0054130136138074627 -0.0071313723973565248 0 -0.0055158246027968176 -0.0072273727180098158 0 -0.0055406276044512705 -0.0070505794181461067 0 -0.0056724679201614475 -0.0070855857039628291 0 -0.0055406276044512705 -0.0070505794181461067 0 -0.0054130136138074627 -0.0071313723973565248 0 -0.0054513050699552274 -0.0070334663089058752 0 -0.0056151590832577954 -0.006965710355581755 0 -0.0055814036772743186 -0.007384571230224686 0 -0.0052855638281315599 -0.0070484548180658061 0 -0.0054130136138074627 -0.0071313723973565248 0 -0.0054513050699552274 -0.0070334663089058752 0 -0.0052855638281315599 -0.0070484548180658061 0 -0.0054513050699552274 -0.0070334663089058752 0 -0.0054261171881220416 -0.0069449134697061668 0 -0.0043354163090116235 -0.0077014381617959479 0 -0.0051777595060627521 -0.0089263575745288787 0 -0.0055633387817172249 -0.0097272380926924015 0 -0.0057219841520820625 -0.0097218793688305539 0 -0.0056883857460420769 -0.0096809750172196143 0 -0.0055633387817172249 -0.0097272380926924015 0 -0.0057085600703582692 -0.0097836161715744215 0 -0.0057219841520820625 -0.0097218793688305539 0 -0.0057877052765203949 -0.0097123013637034905 0 -0.0057670640581996583 -0.0096916596763503577 0 -0.0057574287270349897 -0.009584341846232412 0 -0.0057877052765203949 -0.0097123013637034905 0 -0.0057908193542082357 -0.0097163011685368079 0 -0.0057670640581996583 -0.0096916596763503577 0 -0.0057877052765203949 -0.0097123013637034905 0 -0.0057908193542082357 -0.0097163011685368079 0 -0.0057717104525099195 -0.0097013185719382038 0 -0.0057219841520820625 -0.0097218793688305539 0 -0.0057877052765203949 -0.0097123013637034905 0 -0.0057717104525099195 -0.0097013185719382038 0 -0.0057219841520820625 -0.0097218793688305539 0 -0.0057717104525099195 -0.0097013185719382038 0 -0.005745652512975913 -0.0096729911498671974 0 -0.0057085600703582692 -0.0097836161715744215 0 -0.0057219841520820625 -0.0097218793688305539 0 -0.0057877052765203949 -0.0097123013637034905 0 -0.0051777595060627521 -0.0089263575745288787 0 -0.0057657861216215325 -0.0096765335591631526 0 -0.0058681174048281813 -0.0096408902156164215 0 -0.0057877052765203949 -0.0097123013637034905 0 -0.0057574287270349897 -0.009584341846232412 0 -0.0054513050699552274 -0.0070334663089058752 0 -0.0054261171881220416 -0.0069449134697061668 0 -0.0055620853351868145 -0.0069976405755456904 0 -0.0051777595060627521 -0.0089263575745288787 0 -0.0055814036772743186 -0.007384571230224686 0 -0.0055814036772743186 -0.007384571230224686 0 -0.0056638141003829334 -0.0069109444250767841 0 -0.0054829075157539955 -0.0067532356673229935 0 -0.0057507221378643196 -0.0066480389620182613 0 -0.0056449853585335231 -0.0063580976250961875 0 -0.0055814036772743186 -0.007384571230224686 0 -0.0064178182076876922 -0.0094465455938647254 0 -0.0057507221378643196 -0.0066480389620182613 0 -0.0056449853585335231 -0.0063580976250961875 0 -0.0061057471893601637 -0.0065829960282742751 0 -0.0054829075157539955 -0.0067532356673229935 0 -0.0057507221378643196 -0.0066480389620182613 0 -0.0057865915421104943 -0.0069150277773916639 0 -0.0057908193542082357 -0.0097163011685368079 0 -0.0058404722015979842 -0.0097499995108703743 0 -0.0058808399364176905 -0.0096665166969481294 0 -0.0057670640581996583 -0.0096916596763503577 0 -0.0057574287270349897 -0.009584341846232412 0 -0.0057353509863345637 -0.0097041339945471237 0 -0.0059272968575841472 -0.0094889302936981799 0 -0.0064178182076876922 -0.0094465455938647254 0 -0.0057908193542082357 -0.0097163011685368079 0 -0.0057670640581996583 -0.0096916596763503577 0 -0.0057353509863345637 -0.0097041339945471237 0 -0.0081713156674913384 -0.0109216985932661 0 -0.0074613236626264361 -0.011114561268955721 0 -0.0074976675770659961 -0.010473698430925495 0 -0.0081713156674913384 -0.0109216985932661 0 -0.0074613236626264361 -0.011114561268955721 0 -0.0077119585794893615 -0.011381043713784643 0 -0.0071704795804940717 -0.010851199706140326 0 -0.0074613236626264361 -0.011114561268955721 0 -0.0074976675770659961 -0.010473698430925495 0 -0.0064178182076876922 -0.0094465455938647254 0 -0.0068616763430568292 -0.0084431655439577129 0 -0.006317433148946108 -0.0069772077986271818 0 -0.0061057471893601637 -0.0065829960282742751 0 -0.0057865915421104943 -0.0069150277773916639 0 -0.0057507221378643196 -0.0066480389620182613 0 -0.0061057471893601637 -0.0065829960282742751 0 -0.0057865915421104943 -0.0069150277773916639 0 -0.006317433148946108 -0.0069772077986271818 0 -0.0057865915421104943 -0.0069150277773916639 0 -0.0058688932332043734 -0.0071969197408846674 0 -0.0057865915421104943 -0.0069150277773916639 0 -0.0056724679201614475 -0.0070855857039628291 0 -0.0058688932332043734 -0.0071969197408846674 0 -0.005588797772935015 -0.0068709067879733562 0 -0.0057865915421104943 -0.0069150277773916639 0 -0.0056724679201614475 -0.0070855857039628291 0 -0.0055406276044512705 -0.0070505794181461067 0 -0.005588797772935015 -0.0068709067879733562 0 -0.0056724679201614475 -0.0070855857039628291 0 -0.0056724679201614475 -0.0070855857039628291 0 -0.0056916892225651709 -0.0072397481220658876 0 -0.0058688932332043734 -0.0071969197408846674 0 -0.0055158246027968176 -0.0072273727180098158 0 -0.0056724679201614475 -0.0070855857039628291 0 -0.0056916892225651709 -0.0072397481220658876 0 -0.0055872580053230696 -0.0073422065014647573 0 -0.0055158246027968176 -0.0072273727180098158 0 -0.0056916892225651709 -0.0072397481220658876 0 -0.0059116240203069765 -0.0073236605621257445 0 -0.0057508072322697834 -0.007347463849530991 0 -0.0058688932332043734 -0.0071969197408846674 0 -0.0057508072322697834 -0.007347463849530991 0 -0.0056916892225651709 -0.0072397481220658876 0 -0.0058688932332043734 -0.0071969197408846674 0 -0.006317433148946108 -0.0069772077986271818 0 -0.0059116240203069765 -0.0073236605621257445 0 -0.0058688932332043734 -0.0071969197408846674 0 -0.0079862273699234411 -0.013554675544142553 0 -0.0073498806558646296 -0.012849534079952783 0 -0.007222884795238557 -0.012860826566614168 0 -0.0073625787130300645 -0.013212539507443001 0 -0.0077605490023275473 -0.013180105081291348 0 -0.0070540308657196203 -0.012701871668883889 0 -0.0077605490023275473 -0.013180105081291348 0 -0.0077521712852003325 -0.012808247627409116 0 -0.0065061562857266358 -0.01598976418987701 0 -0.0063188700709771017 -0.016020121882490673 0 -0.0063659440872418736 -0.015927626423266551 0 -0.0071984754769585024 -0.014401025180552376 0 -0.0073687576325898747 -0.014618404977337381 0 -0.0078930403051082031 -0.013126070605490965 0 -0.0077521712852003325 -0.012808247627409116 0 -0.0082281637498556569 -0.012612913765442669 0 -0.0077605490023275473 -0.013180105081291348 0 -0.0078930403051082031 -0.013126070605490965 0 -0.0077521712852003325 -0.012808247627409116 0 -0.0077521712852003325 -0.012808247627409116 0 -0.0079179648098265405 -0.012343325386571177 0 -0.0082281637498556569 -0.012612913765442669 0 -0.0070540308657196203 -0.012701871668883889 0 -0.0076048818407038372 -0.012537697639467629 0 -0.0077521712852003325 -0.012808247627409116 0 -0.0076048818407038372 -0.012537697639467629 0 -0.0077521712852003325 -0.012808247627409116 0 -0.0079179648098265405 -0.012343325386571177 0 -0.0076048818407038372 -0.012537697639467629 0 -0.007527723720068681 -0.011886992201420409 0 -0.0080416741880550788 -0.011484750013728048 0 -0.0077786771857096476 -0.012749793286643519 0 -0.0072927109006457489 -0.011052511956211229 0 -0.0072362696883455794 -0.012224492000072149 0 -0.0076048818407038372 -0.012537697639467629 0 -0.007527723720068681 -0.011886992201420409 0 -0.0072048170874028841 -0.011803884896753601 0 -0.007527723720068681 -0.011886992201420409 0 -0.0074355943029762823 -0.011562079115681738 0 -0.007527723720068681 -0.011886992201420409 0 -0.0074355943029762823 -0.011562079115681738 0 -0.0077119585794893615 -0.011381043713784643 0 -0.007527723720068681 -0.011886992201420409 0 -0.0077119585794893615 -0.011381043713784643 0 -0.0080416741880550788 -0.011484750013728048 0 -0.0078503261056331944 -0.011329744605111908 0 -0.0072927109006457489 -0.011052511956211229 0 -0.0074613236626264361 -0.011114561268955721 0 -0.0074355943029762823 -0.011562079115681738 0 -0.0077119585794893615 -0.011381043713784643 0 -0.0071861718638430031 -0.011454954431145021 0 -0.0074613236626264361 -0.011114561268955721 0 -0.0074355943029762823 -0.011562079115681738 0 -0.0072927109006457489 -0.011052511956211229 0 -0.0070373270668497682 -0.010857014657467948 0 -0.0064178182076876922 -0.0094465455938647254 0 -0.0072927109006457489 -0.011052511956211229 0 -0.0058808399364176905 -0.0096665166969481294 0 -0.0057869038459815074 -0.0096405347908891034 0 -0.0057908479668111633 -0.0096790961771372561 0 -0.0081713156674913384 -0.0109216985932661 0 -0.0077119585794893615 -0.011381043713784643 0 -0.007984089933803111 -0.011460989255411398 0 -0.0057908193542082357 -0.0097163011685368079 0 -0.0058808399364176905 -0.0096665166969481294 0 -0.0057908479668111633 -0.0096790961771372561 0 -0.0076048818407038372 -0.012537697639467629 0 -0.007827858546875871 -0.01195891736475729 0 -0.0079179648098265405 -0.012343325386571177 0 -0.007827858546875871 -0.01195891736475729 0 -0.0079179648098265405 -0.012343325386571177 0 -0.0081860588455594727 -0.012079435022565083 0 -0.0059741304525304318 -0.01196829722479527 0 -0.0073687576325898747 -0.014618404977337381 0 -0.0079179648098265405 -0.012343325386571177 0 -0.0081860588455594727 -0.012079435022565083 0 -0.0082281637498556569 -0.012612913765442669 0 -0.0081860588455594727 -0.012079435022565083 0 -0.0085288886416781725 -0.012201649491279991 0 -0.0082281637498556569 -0.012612913765442669 0 -0.0070373270668497682 -0.010857014657467948 0 -0.0059741304525304318 -0.01196829722479527 0 -0.0057869038459815074 -0.0096405347908891034 0 -0.005745652512975913 -0.0096729911498671974 0 -0.0057026949358724641 -0.0096155360379333778 0 -0.0057869038459815074 -0.0096405347908891034 0 -0.005745652512975913 -0.0096729911498671974 0 -0.0057908479668111633 -0.0096790961771372561 0 -0.0057717104525099195 -0.0097013185719382038 0 -0.005745652512975913 -0.0096729911498671974 0 -0.0057908479668111633 -0.0096790961771372561 0 -0.0057908193542082357 -0.0097163011685368079 0 -0.0057717104525099195 -0.0097013185719382038 0 -0.0057908479668111633 -0.0096790961771372561 0 -0.0056883857460420769 -0.0096809750172196143 0 -0.0057026949358724641 -0.0096155360379333778 0 -0.005635627323429291 -0.0096636966249217526 0 -0.005745652512975913 -0.0096729911498671974 0 -0.0056883857460420769 -0.0096809750172196143 0 -0.0057026949358724641 -0.0096155360379333778 0 -0.0057219841520820625 -0.0097218793688305539 0 -0.005745652512975913 -0.0096729911498671974 0 -0.0056883857460420769 -0.0096809750172196143 0 -0.0059741304525304318 -0.01196829722479527 0 -0.004765331128465165 -0.0096861901382708452 0 -0.0034620288288496077 -0.010210532167329978 0 -0.0036768601196413907 -0.010118325846173443 0 -0.0036745775362265593 -0.0099241162260295668 0 -0.0059741304525304318 -0.01196829722479527 0 -0.0046792626002724403 -0.012200707521114866 0 -0.0062236921028313236 -0.016014184385983388 0 -0.0062166267058767462 -0.015991466799336211 0 -0.0061751146133727777 -0.015996257755565024 0 -0.0034620288288496077 -0.010210532167329978 0 -0.0037535941568768208 -0.010259636773568894 0 -0.0036768601196413907 -0.010118325846173443 0 -0.0062166267058767462 -0.015991466799336211 0 -0.0062279212427374889 -0.015956041408592664 0 -0.0061540968645978373 -0.015957394967450318 0 -0.0062166267058767462 -0.015991466799336211 0 -0.0063188700709771017 -0.016020121882490673 0 -0.0062279212427374889 -0.015956041408592664 0 -0.0062236921028313236 -0.016014184385983388 0 -0.0062166267058767462 -0.015991466799336211 0 -0.0063188700709771017 -0.016020121882490673 0 -0.0063188700709771017 -0.016020121882490673 0 -0.0062279212427374889 -0.015956041408592664 0 -0.0063659440872418736 -0.015927626423266551 0 -0.0062279212427374889 -0.015956041408592664 0 -0.0061540968645978373 -0.015957394967450318 0 -0.0061799032153456628 -0.015904926468468941 0 -0.0050443482687663214 -0.013595315984448761 0 -0.0049875350505972325 -0.013389518527779651 0 -0.0061540968645978373 -0.015957394967450318 0 -0.0061211212395971618 -0.015893548385024756 0 -0.0061799032153456628 -0.015904926468468941 0 -0.004277832854408606 -0.010882566682283535 0 -0.0038523008578444586 -0.010789138901205645 0 -0.0038964598441317898 -0.011229161578273472 0 -0.004277832854408606 -0.010882566682283535 0 -0.00438793449689518 -0.011301490327058574 0 -0.0038964598441317898 -0.011229161578273472 0 -0.004277832854408606 -0.010882566682283535 0 -0.0042670009424267937 -0.010501637461421251 0 -0.0038523008578444586 -0.010789138901205645 0 -0.0042670009424267937 -0.010501637461421251 0 -0.0038523008578444586 -0.010789138901205645 0 -0.0038012830236192237 -0.01039317192620118 0 -0.0062166267058767462 -0.015991466799336211 0 -0.0061540968645978373 -0.015957394967450318 0 -0.0061751146133727777 -0.015996257755565024 0 -0.0050443482687663214 -0.013595315984448761 0 -0.0046792626002724403 -0.012200707521114866 0 -0.0037587398098979847 -0.010311186894616213 0 -0.0038214364945969338 -0.01007769800357647 0 -0.0040781623168179805 -0.01008743773551805 0 -0.0034620288288496077 -0.010210532167329978 0 -0.0037620731896977106 -0.010307327257157833 0 -0.0037535941568768208 -0.010259636773568894 0 -0.0037535941568768208 -0.010259636773568894 0 -0.0036768601196413907 -0.010118325846173443 0 -0.0038214364945969338 -0.01007769800357647 0 -0.0037587398098979847 -0.010311186894616213 0 -0.0037535941568768208 -0.010259636773568894 0 -0.0038214364945969338 -0.01007769800357647 0 -0.0046792626002724403 -0.012200707521114866 0 -0.0045854069619281346 -0.011818131985416293 0 -0.0036768601196413907 -0.010118325846173443 0 -0.0038214364945969338 -0.01007769800357647 0 -0.0036745775362265593 -0.0099241162260295668 0 -0.0055633387817172249 -0.0097272380926924015 0 -0.0056883857460420769 -0.0096809750172196143 0 -0.005635627323429291 -0.0096636966249217526 0 -0.0038214364945969338 -0.01007769800357647 0 -0.0036745775362265593 -0.0099241162260295668 0 -0.0039622744568671457 -0.0098934444778844971 0 -0.0038214364945969338 -0.01007769800357647 0 -0.0039622744568671457 -0.0098934444778844971 0 -0.0040781623168179805 -0.01008743773551805 0 -0.0039051033601940803 -0.0096372170887365598 0 -0.0036745775362265593 -0.0099241162260295668 0 -0.0039622744568671457 -0.0098934444778844971 0 -0.0041206733309294974 -0.0095465457758318155 0 -0.004765331128465165 -0.0096861901382708452 0 -0.0039622744568671457 -0.0098934444778844971 0 -0.0040781623168179805 -0.01008743773551805 0 -0.0044488228051114331 -0.0098206818790532446 0 -0.0039051033601940803 -0.0096372170887365598 0 -0.0039622744568671457 -0.0098934444778844971 0 -0.0044488228051114331 -0.0098206818790532446 0 -0.0042670009424267937 -0.010501637461421251 0 -0.0040781623168179805 -0.01008743773551805 0 -0.0044690304480372069 -0.010265916029546537 0 -0.0042670009424267937 -0.010501637461421251 0 -0.0037587398098979847 -0.010311186894616213 0 -0.0040781623168179805 -0.01008743773551805 0 -0.0037775688606398856 -0.010037093367044562 0 -0.0046792626002724403 -0.012200707521114866 0 -0.0042670009424267937 -0.010501637461421251 0 -0.0044690304480372069 -0.010265916029546537 0 -0.0046546033834312314 -0.010559249982776178 0 -0.0044690304480372069 -0.010265916029546537 0 -0.0044488228051114331 -0.0098206818790532446 0 -0.0048775492019426754 -0.010316918107319344 0 -0.0040781623168179805 -0.01008743773551805 0 -0.0044690304480372069 -0.010265916029546537 0 -0.0044488228051114331 -0.0098206818790532446 0 -0.0048837992087591327 -0.0095499744589910458 0 -0.0044488228051114331 -0.0098206818790532446 0 -0.0048775492019426754 -0.010316918107319344 0 -0.0044690304480372069 -0.010265916029546537 0 -0.0048775492019426754 -0.010316918107319344 0 -0.0046546033834312314 -0.010559249982776178 0 -0.0046546033834312314 -0.010559249982776178 0 -0.0047593639163402337 -0.010841271524114311 0 -0.004929962132463753 -0.010651512725973467 0 -0.0048775492019426754 -0.010316918107319344 0 -0.0046546033834312314 -0.010559249982776178 0 -0.004929962132463753 -0.010651512725973467 0 -0.004277832854408606 -0.010882566682283535 0 -0.0042670009424267937 -0.010501637461421251 0 -0.0046546033834312314 -0.010559249982776178 0 -0.004277832854408606 -0.010882566682283535 0 -0.0046546033834312314 -0.010559249982776178 0 -0.0047593639163402337 -0.010841271524114311 0 -0.004277832854408606 -0.010882566682283535 0 -0.0047593639163402337 -0.010841271524114311 0 -0.00438793449689518 -0.011301490327058574 0 -0.0048757151325514742 -0.010308737720549344 0 -0.0041862643716264695 -0.012669369170408227 0 -0.0047593639163402337 -0.010841271524114311 0 -0.0048928147451464277 -0.011507159727683156 0 -0.00438793449689518 -0.011301490327058574 0 -0.0047593639163402337 -0.010841271524114311 0 -0.0047874742579486589 -0.011056931428282492 0 -0.0049630182971206081 -0.010903207772790394 0 -0.0041862643716264695 -0.012669369170408227 0 -0.004589951190424899 -0.014340629363762167 0 -0.0048928147451464277 -0.011507159727683156 0 -0.00438793449689518 -0.011301490327058574 0 -0.0044091330356966201 -0.011866809325609783 0 -0.0041862643716264695 -0.012669369170408227 0 -0.0035328143016302737 -0.015150353069536117 0 -0.0042633819725808693 -0.013781453537565509 0 -0.0038659249332537453 -0.014069845511289071 0 -0.0043290573243602321 -0.014242090541164628 0 -0.0045430517806828111 -0.015985336342318811 0 -0.0038095415061405943 -0.015717372288776663 0 -0.0041483378416332702 -0.015485868799346931 0 -0.004589951190424899 -0.014340629363762167 0 -0.0035328143016302737 -0.015150353069536117 0 -0.0035328143016302737 -0.015150353069536117 0 -0.0034417060973804992 -0.015173688062093692 0 -0.0038095415061405943 -0.015717372288776663 0 -0.0041483378416332702 -0.015485868799346931 0 -0.0037409331719868762 -0.015264590559652331 0 -0.0041483378416332702 -0.015485868799346931 0 -0.0041612330376839552 -0.015000017964279456 0 -0.0037409331719868762 -0.015264590559652331 0 -0.0041612695382593377 -0.014999999640345287 0 -0.0036945564946342627 -0.014999998744422972 0 -0.0037348244900338935 -0.015269377588572207 0 -0.0041612794572593237 -0.014999983928337164 0 -0.0034417060973804992 -0.015173688062093692 0 -0.0041483378416332702 -0.015485868799346931 0 -0.0041612330376839552 -0.015000017964279456 0 -0.0044887511486945402 -0.015463793614428427 0 -0.0041612330376839552 -0.015000017964279456 0 -0.0044887511486945402 -0.015463793614428427 0 -0.0048397288244339687 -0.015329395457035148 0 -0.0044887511486945402 -0.015463793614428427 0 -0.004729720552718219 -0.015609326303279457 0 -0.0048397288244339687 -0.015329395457035148 0 -0.0045430517806828111 -0.015985336342318811 0 -0.0044887511486945402 -0.015463793614428427 0 -0.004729720552718219 -0.015609326303279457 0 -0.0045430517806828111 -0.015985336342318811 0 -0.0041483378416332702 -0.015485868799346931 0 -0.0044887511486945402 -0.015463793614428427 0 -0.0045430517806828111 -0.015985336342318811 0 -0.0050508412174271071 -0.015656478170564293 0 -0.004729720552718219 -0.015609326303279457 0 -0.005242740160528659 -0.015584439604897077 0 -0.0054483767412609567 -0.015531287769623309 0 -0.0054304051306654621 -0.015462201434002175 0 -0.004589951190424899 -0.014340629363762167 0 -0.0051884962186337716 -0.015666169195202258 0 -0.0050508412174271071 -0.015656478170564293 0 -0.004729720552718219 -0.015609326303279457 0 -0.0048397288244339687 -0.015329395457035148 0 -0.0050508412174271071 -0.015656478170564293 0 -0.0048397288244339687 -0.015329395457035148 0 -0.0056020989462481656 -0.015271714046338968 0 -0.0041612330376839552 -0.015000017964279456 0 -0.0050630937738783193 -0.014999943303700573 0 -0.0048397288244339687 -0.015329395457035148 0 -0.0050630937738783193 -0.014999943303700573 0 -0.0048397288244339687 -0.015329395457035148 0 -0.0056020989462481656 -0.015271714046338968 0 -0.0050630937738783193 -0.014999943303700573 0 -0.0056020989462481656 -0.015271714046338968 0 -0.0059649133873974419 -0.014999960413194621 0 -0.0054304051306654621 -0.015462201434002175 0 -0.0056020989462481656 -0.015271714046338968 0 -0.0055798378478603737 -0.015487063143887139 0 -0.0051884962186337716 -0.015666169195202258 0 -0.0056070850970713643 -0.01527084155022744 0 -0.0056020989462481656 -0.015271714046338968 0 -0.0055798378478603737 -0.015487063143887139 0 -0.0058512025740701341 -0.015555775420431669 0 -0.0054483767412609567 -0.015531287769623309 0 -0.0054304051306654621 -0.015462201434002175 0 -0.0055798378478603737 -0.015487063143887139 0 -0.0054483767412609567 -0.015531287769623309 0 -0.0055798378478603737 -0.015487063143887139 0 -0.0056298525479005308 -0.015647268740336034 0 -0.0055798378478603737 -0.015487063143887139 0 -0.0056298525479005308 -0.015647268740336034 0 -0.0058512025740701341 -0.015555775420431669 0 -0.0058201920981341701 -0.015886727674781793 0 -0.0056298525479005308 -0.015647268740336034 0 -0.0058512025740701341 -0.015555775420431669 0 -0.0058201920981341701 -0.015886727674781793 0 -0.0056298525479005308 -0.015647268740336034 0 -0.0054884084111685933 -0.015795087784874928 0 -0.006173173989018131 -0.015882301690064746 0 -0.0050287917952515689 -0.014458409821229368 0 -0.0054483767412609567 -0.015531287769623309 0 -0.0056298525479005308 -0.015647268740336034 0 -0.0054884084111685933 -0.015795087784874928 0 -0.004589951190424899 -0.014340629363762167 0 -0.0050287917952515689 -0.014458409821229368 0 -0.0054599812466290471 -0.015888909629459595 0 -0.0050287917952515689 -0.014458409821229368 0 -0.005242740160528659 -0.015584439604897077 0 -0.0054483767412609567 -0.015531287769623309 0 -0.00546516410691861 -0.015661593034892948 0 -0.00438793449689518 -0.011301490327058574 0 -0.0044091330356966201 -0.011866809325609783 0 -0.0039555114158596289 -0.011696316349355156 0 -0.00438793449689518 -0.011301490327058574 0 -0.0039555114158596289 -0.011696316349355156 0 -0.0038964598441317898 -0.011229161578273472 0 -0.0061628548133742453 -0.015846604707262863 0 -0.0060911420838608904 -0.015805679418038655 0 -0.0061211212395971618 -0.015893548385024756 0 -0.0050287917952515689 -0.014458409821229368 0 -0.0049875350505972325 -0.013389518527779651 0 -0.0061628548133742453 -0.015846604707262863 0 -0.0061211212395971618 -0.015893548385024756 0 -0.0061799032153456628 -0.015904926468468941 0 -0.0062279212427374889 -0.015956041408592664 0 -0.0061952110695032139 -0.015895613000364833 0 -0.0061799032153456628 -0.015904926468468941 0 -0.0061628548133742453 -0.015846604707262863 0 -0.0061952110695032139 -0.015895613000364833 0 -0.0061799032153456628 -0.015904926468468941 0 -0.006173173989018131 -0.015882301690064746 0 -0.0061009710226229514 -0.015874842476609967 0 -0.0062279212427374889 -0.015956041408592664 0 -0.0061952110695032139 -0.015895613000364833 0 -0.0063659440872418736 -0.015927626423266551 0 -0.0063659440872418736 -0.015927626423266551 0 -0.0062794960809095411 -0.015806399803915516 0 -0.0064606586664089699 -0.01578082883555175 0 -0.0061952110695032139 -0.015895613000364833 0 -0.0063659440872418736 -0.015927626423266551 0 -0.0062794960809095411 -0.015806399803915516 0 -0.0062794960809095411 -0.015806399803915516 0 -0.0060892774726717513 -0.015737021388256195 0 -0.0062469767644132354 -0.015590826528300039 0 -0.0062469767644132354 -0.015590826528300039 0 -0.006586649127019467 -0.015614222902266441 0 -0.0064606586664089699 -0.01578082883555175 0 -0.0062794960809095411 -0.015806399803915516 0 -0.0062469767644132354 -0.015590826528300039 0 -0.0064606586664089699 -0.01578082883555175 0 -0.0058201920981341701 -0.015886727674781793 0 -0.0060892774726717513 -0.015737021388256195 0 -0.0058512025740701341 -0.015555775420431669 0 -0.0061952110695032139 -0.015895613000364833 0 -0.0062794960809095411 -0.015806399803915516 0 -0.0060892774726717513 -0.015737021388256195 0 -0.0058201920981341701 -0.015886727674781793 0 -0.0061952110695032139 -0.015895613000364833 0 -0.0060892774726717513 -0.015737021388256195 0 -0.0058512025740701341 -0.015555775420431669 0 -0.0060155286818740286 -0.015367975441162666 0 -0.0062469767644132354 -0.015590826528300039 0 -0.0060892774726717513 -0.015737021388256195 0 -0.0058512025740701341 -0.015555775420431669 0 -0.0062469767644132354 -0.015590826528300039 0 -0.0056020989462481656 -0.015271714046338968 0 -0.0058512025740701341 -0.015555775420431669 0 -0.0060155286818740286 -0.015367975441162666 0 -0.0056020989462481656 -0.015271714046338968 0 -0.0060155286818740286 -0.015367975441162666 0 -0.0059649133873974419 -0.014999960413194621 0 -0.0059649133873974419 -0.014999960413194621 0 -0.0064194627603160713 -0.015345873457754266 0 -0.0068662075952267082 -0.014999938352483659 0 -0.0060155286818740286 -0.015367975441162666 0 -0.0059649133873974419 -0.014999960413194621 0 -0.0064194627603160713 -0.015345873457754266 0 -0.0064194627603160713 -0.015345873457754266 0 -0.0062469767644132354 -0.015590826528300039 0 -0.006586649127019467 -0.015614222902266441 0 -0.0060155286818740286 -0.015367975441162666 0 -0.0064194627603160713 -0.015345873457754266 0 -0.0062469767644132354 -0.015590826528300039 0 -0.006586649127019467 -0.015614222902266441 0 -0.006870994872134481 -0.015371010330907342 0 -0.006754774699789994 -0.015645320908273065 0 -0.0064194627603160713 -0.015345873457754266 0 -0.006586649127019467 -0.015614222902266441 0 -0.006870994872134481 -0.015371010330907342 0 -0.0064194627603160713 -0.015345873457754266 0 -0.006870994872134481 -0.015371010330907342 0 -0.0068662075952267082 -0.014999938352483659 0 -0.0077682273674026516 -0.014999985742770498 0 -0.0068662075952267082 -0.014999938352483659 0 -0.0074404719353130975 -0.01545234726517644 0 -0.006870994872134481 -0.015371010330907342 0 -0.0068662075952267082 -0.014999938352483659 0 -0.0074404719353130975 -0.01545234726517644 0 -0.006870994872134481 -0.015371010330907342 0 -0.0074404719353130975 -0.01545234726517644 0 -0.0071206546835634278 -0.015942843060314422 0 -0.0077905854103667502 -0.015985283000268729 0 -0.0074404719353130975 -0.01545234726517644 0 -0.0071206546835634278 -0.015942843060314422 0 -0.0068431026054002189 -0.0153712231615861 0 -0.0069569495907776486 -0.015869364157971889 0 -0.006754774699789994 -0.015645320908273065 0 -0.006603877233948092 -0.015801864561327147 0 -0.006761663205190763 -0.015841284381980025 0 -0.0077905854103667502 -0.015985283000268729 0 -0.0071206546835634278 -0.015942843060314422 0 -0.0073425872955418863 -0.01648537137822197 0 -0.0069569495907776486 -0.015869364157971889 0 -0.0074110378575614764 -0.015486663722560259 0 -0.006586649127019467 -0.015614222902266441 0 -0.006754774699789994 -0.015645320908273065 0 -0.006603877233948092 -0.015801864561327147 0 -0.006586649127019467 -0.015614222902266441 0 -0.0064606586664089699 -0.01578082883555175 0 -0.006603877233948092 -0.015801864561327147 0 -0.0065061562857266358 -0.01598976418987701 0 -0.0063659440872418736 -0.015927626423266551 0 -0.006603877233948092 -0.015801864561327147 0 -0.0063659440872418736 -0.015927626423266551 0 -0.0064606586664089699 -0.01578082883555175 0 -0.006603877233948092 -0.015801864561327147 0 -0.0073625787130300645 -0.013212539507443001 0 -0.0077605490023275473 -0.013180105081291348 0 -0.0075043912456678706 -0.013635972307251873 0 -0.0078448193620344591 -0.014776556128131521 0 -0.0074110378575614764 -0.015486663722560259 0 -0.0071984754769585024 -0.014401025180552376 0 -0.0074110378575614764 -0.015486663722560259 0 -0.0065061562857266358 -0.01598976418987701 0 -0.006603877233948092 -0.015801864561327147 0 -0.006761663205190763 -0.015841284381980025 0 -0.0077605490023275473 -0.013180105081291348 0 -0.0078930403051082031 -0.013126070605490965 0 -0.0075043912456678706 -0.013635972307251873 0 -0.0023489633209217301 -0.013528994235613455 0 -0.00229020112287811 -0.013716380188024848 0 -0.0023049751158536317 -0.01362362708107992 0 -0.0024664798413472897 -0.013558053799278899 0 -0.0023539310962602629 -0.013672438719839503 0 -0.0023049751158536317 -0.01362362708107992 0 -0.0022875713399484812 -0.013601131291249253 0 -0.0022483300043701525 -0.013656379621033101 0 -0.0023049751158536317 -0.01362362708107992 0 -0.0024664798413472897 -0.013558053799278899 0 -0.002426793016061763 -0.01339929611583336 0 -0.0024664798413472897 -0.013558053799278899 0 -0.0024585977038926315 -0.013695320892194947 0 -0.0026569386904321838 -0.013584015125834313 0 -0.00229020112287811 -0.013716380188024848 0 -0.0031994709907213824 -0.014164262375883238 0 -0.0024664798413472897 -0.013558053799278899 0 -0.002426793016061763 -0.01339929611583336 0 -0.0026145617222208843 -0.013321116784094712 0 -0.00229020112287811 -0.013716380188024848 0 -0.0021678156940131174 -0.013684589116175068 0 -0.0023049751158536317 -0.01362362708107992 0 -0.0023135464985954159 -0.013590453781611089 0 -0.0022875713399484812 -0.013601131291249253 0 -0.0019685157312834588 -0.013806705965988474 0 -0.0020892005083735341 -0.013745086765571093 0 -0.0020675851060282823 -0.013864812716294639 0 -0.0020892005083735341 -0.013745086765571093 0 -0.0020675851060282823 -0.013864812716294639 0 -0.0021804529696812856 -0.013910524621290291 0 -0.0020892005083735341 -0.013745086765571093 0 -0.0022035629339659506 -0.013680711303001213 0 -0.0021804529696812856 -0.013910524621290291 0 -0.0021792083379811819 -0.013784941013659601 0 -0.0021461897127833646 -0.01386972136177728 0 -0.0022184793226792034 -0.013708026814733156 0 -0.0022035629339659506 -0.013680711303001213 0 -0.0021804529696812856 -0.013910524621290291 0 -0.0022345968227783014 -0.013914680531891307 0 -0.0022184793226792034 -0.013708026814733156 0 -0.0019720296098364853 -0.014090507281657474 0 -0.0022345968227783014 -0.013914680531891307 0 -0.0022184793226792034 -0.013708026814733156 0 -0.002276388953218458 -0.013651784021304994 0 -0.0022345968227783014 -0.013914680531891307 0 -0.002276388953218458 -0.013651784021304994 0 -0.0024187141922208354 -0.013967903354682443 0 -0.0022184793226792034 -0.013708026814733156 0 -0.0022278864807883021 -0.013668987210446241 0 -0.002276388953218458 -0.013651784021304994 0 -0.0022184793226792034 -0.013708026814733156 0 -0.0022278864807883021 -0.013668987210446241 0 -0.0022035629339659506 -0.013680711303001213 0 -0.0022278864807883021 -0.013668987210446241 0 -0.002276388953218458 -0.013651784021304994 0 -0.0022302655828221065 -0.013664965722890736 0 -0.0021678156940131174 -0.013684589116175068 0 -0.0022126800361916975 -0.013672105037725573 0 -0.0022875713399484812 -0.013601131291249253 0 -0.0022035629339659506 -0.013680711303001213 0 -0.0022483300043701525 -0.013656379621033101 0 -0.0022278864807883021 -0.013668987210446241 0 -0.0022274025028384335 -0.013664312782545962 0 -0.0022302655828221065 -0.013664965722890736 0 -0.0022274025028384335 -0.013664312782545962 0 -0.0022483300043701525 -0.013656379621033101 0 -0.0022302655828221065 -0.013664965722890736 0 -0.0022035629339659506 -0.013680711303001213 0 -0.0022274025028384335 -0.013664312782545962 0 -0.0022483300043701525 -0.013656379621033101 0 -0.0022278864807883021 -0.013668987210446241 0 -0.0022035629339659506 -0.013680711303001213 0 -0.0022274025028384335 -0.013664312782545962 0 -0.0022769259936496573 -0.013688008440545484 0 -0.002217699832099216 -0.013715740826643501 0 -0.0022569337385927031 -0.013721212466705787 0 -0.0027544495604549871 -0.013520871602892122 0 -0.00091268290584796115 -0.013946132382699402 0 -0.0022302655828221065 -0.013664965722890736 0 -0.0022769259936496573 -0.013688008440545484 0 -0.0022144289671971514 -0.013678226326320332 0 -0.0022483300043701525 -0.013656379621033101 0 -0.0022302655828221065 -0.013664965722890736 0 -0.0022769259936496573 -0.013688008440545484 0 -0.00041549847741714953 -0.013944741080524074 0 -0.00091268290584796115 -0.013946132382699402 0 0.001488264274287433 -0.014444654894870295 0 0.0015029912852517003 -0.014391507001060094 0 0.001489909212781247 -0.014413940846968426 0 -0.002276388953218458 -0.013651784021304994 0 -0.0022302655828221065 -0.013664965722890736 0 -0.0022144289671971514 -0.013678226326320332 0 -0.0023179904884955758 -0.012327182708280886 0 -0.00091268290584796115 -0.013946132382699402 0 -0.00042363270360232941 -0.013468817319563174 0 -0.00033372944316748145 -0.013530869107213758 0 -0.00031527807701542301 -0.013184549594629483 0 -0.00033372944316748145 -0.013530869107213758 0 -0.00031527807701542301 -0.013184549594629483 0 -5.7236576443925835e-05 -0.01329256726130486 0 0.0015029912852517003 -0.014391507001060094 0 0.001496694115642467 -0.014375217253348234 0 0.001489909212781247 -0.014413940846968426 0 -0.00091268290584796115 -0.013946132382699402 0 0.0011678348522482908 -0.013908223056519207 0 2.8297018544284679e-05 -0.013309881977301707 0 0.0011678348522482908 -0.013908223056519207 0 -0.0022371857875450236 -0.013750691127429731 0 -0.0022569337385927031 -0.013721212466705787 0 -0.0023055413527344319 -0.013736047783903603 0 -0.0022371857875450236 -0.013750691127429731 0 -0.002217699832099216 -0.013715740826643501 0 -0.0022569337385927031 -0.013721212466705787 0 -0.0023179904884955758 -0.012327182708280886 0 -0.0038071718916465411 -0.012021427732238554 0 -0.0048488760026949062 -0.010541330736708614 0 -0.0047735705328258386 -0.010543396592634606 0 -0.0048657550734674945 -0.010492614899048352 0 -0.0022769259936496573 -0.013688008440545484 0 -0.0022569337385927031 -0.013721212466705787 0 -0.0023055413527344319 -0.013736047783903603 0 -0.0048488760026949062 -0.010541330736708614 0 -0.0048657550734674945 -0.010492614899048352 0 -0.0049287305912653605 -0.010515948875043148 0 -0.0048657550734674945 -0.010492614899048352 0 -0.00494961042817908 -0.010463444596100454 0 -0.0049287305912653605 -0.010515948875043148 0 -0.0022769259936496573 -0.013688008440545484 0 -0.0023055413527344319 -0.013736047783903603 0 -0.0023539310962602629 -0.013672438719839503 0 -0.0038071718916465411 -0.012021427732238554 0 -0.0036173038393546592 -0.012093815910046981 0 -0.0023055413527344319 -0.013736047783903603 0 -0.0023539310962602629 -0.013672438719839503 0 -0.0024585977038926315 -0.013695320892194947 0 -0.0023049751158536317 -0.01362362708107992 0 -0.0022483300043701525 -0.013656379621033101 0 -0.0022769259936496573 -0.013688008440545484 0 -0.0023049751158536317 -0.01362362708107992 0 -0.0022769259936496573 -0.013688008440545484 0 -0.0023539310962602629 -0.013672438719839503 0 -0.0024664798413472897 -0.013558053799278899 0 -0.0023539310962602629 -0.013672438719839503 0 -0.0024585977038926315 -0.013695320892194947 0 -0.00494961042817908 -0.010463444596100454 0 -0.0049287305912653605 -0.010515948875043148 0 -0.0049967451995639213 -0.01050686920285062 0 -0.0050345027318047441 -0.010496201528043543 0 -0.0049967451995639213 -0.01050686920285062 0 -0.0050531819450718952 -0.010487727334082634 0 -0.0050345027318047441 -0.010496201528043543 0 -0.0050444382507233822 -0.010481117229998628 0 -0.0050531819450718952 -0.010487727334082634 0 -0.0050444382507233822 -0.010481117229998628 0 -0.005071499331818787 -0.010539808286523769 0 -0.0050531819450718952 -0.010487727334082634 0 -0.005071499331818787 -0.010539808286523769 0 -0.0050531819450718952 -0.010487727334082634 0 -0.0051292854806637284 -0.010585001800231596 0 -0.0050064381279915108 -0.0099673243325380714 0 -0.004196331000823581 -0.012212230479667394 0 -0.0036173038393546592 -0.012093815910046981 0 -0.004196331000823581 -0.012212230479667394 0 -0.00494961042817908 -0.010463444596100454 0 -0.0049967451995639213 -0.01050686920285062 0 -0.0050531819450718952 -0.010487727334082634 0 -0.00494961042817908 -0.010463444596100454 0 -0.0050531819450718952 -0.010487727334082634 0 -0.0050276287318738672 -0.010432855550579215 0 -0.0048877637346262815 -0.010317051823703677 0 -0.0052107032329529986 -0.010037066000988424 0 -0.0048837992087591327 -0.0095499744589910458 0 -0.0048775492019426754 -0.010316918107319344 0 -0.0054305529383968515 -0.0096418364561303756 0 -0.0050444382507233822 -0.010481117229998628 0 -0.0050175181409609065 -0.010426958353088815 0 -0.0050216416450656817 -0.010496133487801887 0 -0.0050345027318047441 -0.010496201528043543 0 -0.0050444382507233822 -0.010481117229998628 0 -0.0050175181409609065 -0.010426958353088815 0 -0.0050444382507233822 -0.010481117229998628 0 -0.005071499331818787 -0.010539808286523769 0 -0.0050216416450656817 -0.010496133487801887 0 -0.0048775492019426754 -0.010316918107319344 0 -0.0050175181409609065 -0.010426958353088815 0 -0.0050216416450656817 -0.010496133487801887 0 -0.0048775492019426754 -0.010316918107319344 0 -0.0050216416450656817 -0.010496133487801887 0 -0.004929962132463753 -0.010651512725973467 0 -0.0050216416450656817 -0.010496133487801887 0 -0.004929962132463753 -0.010651512725973467 0 -0.0050845265472218917 -0.010707097763487706 0 -0.005071499331818787 -0.010539808286523769 0 -0.0050216416450656817 -0.010496133487801887 0 -0.0050845265472218917 -0.010707097763487706 0 -0.004929962132463753 -0.010651512725973467 0 -0.0050845265472218917 -0.010707097763487706 0 -0.0049630182971206081 -0.010903207772790394 0 -0.0043320587709243935 -0.012224845334676861 0 -0.003882970517380257 -0.012589044414708902 0 -0.0047593639163402337 -0.010841271524114311 0 -0.004929962132463753 -0.010651512725973467 0 -0.0049630182971206081 -0.010903207772790394 0 -0.005071499331818787 -0.010539808286523769 0 -0.0051292854806637284 -0.010585001800231596 0 -0.0050845265472218917 -0.010707097763487706 0 -0.004196331000823581 -0.012212230479667394 0 -0.0043320587709243935 -0.012224845334676861 0 -0.0039104605569493748 -0.013472012267865215 0 -0.0034205723270760002 -0.013835035387181208 0 -0.0040202721302101891 -0.014205990141495583 0 -0.004196331000823581 -0.012212230479667394 0 -0.0031994709907213824 -0.014164262375883238 0 -0.0024664798413472897 -0.013558053799278899 0 -0.0026569386904321838 -0.013584015125834313 0 -0.0026145617222208843 -0.013321116784094712 0 -0.0037213124229597844 -0.014350943985679248 0 -0.0035776005536434022 -0.014605765482004703 0 -0.0037690104725326477 -0.014605648865371959 0 -0.0031994709907213824 -0.014164262375883238 0 -0.0024602926545072958 -0.014220613121179735 0 -0.0037213124229597844 -0.014350943985679248 0 -0.0033864199246616471 -0.014477338886440842 0 -0.0035776005536434022 -0.014605765482004703 0 -0.0031994709907213824 -0.014164262375883238 0 -0.0036671635350067171 -0.014452825839811544 0 -0.0034205723270760002 -0.013835035387181208 0 -0.0040202721302101891 -0.014205990141495583 0 -0.0033864199246616471 -0.014477338886440842 0 -0.0035776005536434022 -0.014605765482004703 0 -0.0034072681365508442 -0.014724117659440841 0 -0.0035817080763692315 -0.014896961585221788 0 -0.0033864199246616471 -0.014477338886440842 0 -0.0035776005536434022 -0.014605765482004703 0 -0.0034072681365508442 -0.014724117659440841 0 -0.0024602926545072958 -0.014220613121179735 0 -0.002736919922887123 -0.014489448681703595 0 -0.0018760161603188271 -0.014051798876315741 0 -0.001819602702844412 -0.014153675961910063 0 -0.0018827335157449172 -0.01411372007027838 0 -0.0035776005536434022 -0.014605765482004703 0 -0.0037690104725326477 -0.014605648865371959 0 -0.0035817080763692315 -0.014896961585221788 0 -0.0024602926545072958 -0.014220613121179735 0 -0.0020134414920791122 -0.01401849436071775 0 -0.0026449752744971819 -0.014466055183749405 0 -0.0030042014711311555 -0.01418920863682625 0 -0.0029805606501325768 -0.014670176424587093 0 -0.0041862643716264695 -0.012669369170408227 0 -0.003882970517380257 -0.012589044414708902 0 -0.0034205723270760002 -0.013835035387181208 0 -0.0033864199246616471 -0.014477338886440842 0 -0.0030042014711311555 -0.01418920863682625 0 -0.0033864199246616471 -0.014477338886440842 0 -0.0030042014711311555 -0.01418920863682625 0 -0.0029805606501325768 -0.014670176424587093 0 -0.0033864199246616471 -0.014477338886440842 0 -0.0032573116288177029 -0.014708597232208732 0 -0.0029805606501325768 -0.014670176424587093 0 -0.0033864199246616471 -0.014477338886440842 0 -0.0034072681365508442 -0.014724117659440841 0 -0.0032573116288177029 -0.014708597232208732 0 -0.0034072681365508442 -0.014724117659440841 0 -0.0032573116288177029 -0.014708597232208732 0 -0.0032439556153234577 -0.014966615370417026 0 -0.0032573116288177029 -0.014708597232208732 0 -0.0029805606501325768 -0.014670176424587093 0 -0.0032439556153234577 -0.014966615370417026 0 -0.0026449752744971819 -0.014466055183749405 0 -0.0027220371706964518 -0.014953761545045831 0 -0.0029805606501325768 -0.014670176424587093 0 -0.003012564234658096 -0.015060210882764821 0 -0.0032439556153234577 -0.014966615370417026 0 -0.0027911020256578046 -0.015250571125171463 0 -0.0031607958633101726 -0.015008916629862003 0 -0.0034417060973804992 -0.015173688062093692 0 -0.0027220371706964518 -0.014953761545045831 0 -0.0029805606501325768 -0.014670176424587093 0 -0.003012564234658096 -0.015060210882764821 0 -0.0035328143016302737 -0.015150353069536117 0 -0.0027561543157926527 -0.014958644052502463 0 -0.0027541498809488646 -0.014968030063920813 0 -0.003012564234658096 -0.015060210882764821 0 -0.0027911020256578046 -0.015250571125171463 0 -0.0029805606501325768 -0.014670176424587093 0 -0.003012564234658096 -0.015060210882764821 0 -0.0032439556153234577 -0.014966615370417026 0 -0.0032439556153234577 -0.014966615370417026 0 -0.0032767921169515211 -0.015035756722162294 0 -0.0033784550668762383 -0.0150885372046459 0 -0.0031802619172391299 -0.01500000190354049 0 -0.0025668667513372534 -0.014825511256479261 0 -0.0031799435240714778 -0.015000002896444795 0 -0.0026198450691825954 -0.015215977703906845 0 -0.0027529066016334421 -0.014999993291299522 0 -0.0031808585936935942 -0.01500007615024215 0 -0.0032767921169515211 -0.015035756722162294 0 -0.0033784550668762383 -0.0150885372046459 0 -0.0031808585936935942 -0.01500007615024215 0 -0.0032767921169515211 -0.015035756722162294 0 -0.0034126751862436975 -0.015073672744531448 0 -0.0032767921169515211 -0.015035756722162294 0 -0.0034126751862436975 -0.015073672744531448 0 -0.0035515756785878339 -0.015145904652606752 0 -0.0032439556153234577 -0.014966615370417026 0 -0.0032767921169515211 -0.015035756722162294 0 -0.0035515756785878339 -0.015145904652606752 0 -0.0031808585936935942 -0.01500007615024215 0 -0.0034126751862436975 -0.015073672744531448 0 -0.0036936926559142085 -0.01499981938973274 0 -0.0036943268200866877 -0.015000106894631857 0 -0.0034417060973804992 -0.015173688062093692 0 -0.0034126751862436975 -0.015073672744531448 0 -0.0036936926559142085 -0.01499981938973274 0 -0.0035515756785878339 -0.015145904652606752 0 -0.001819602702844412 -0.014153675961910063 0 -0.0018827335157449172 -0.01411372007027838 0 -0.0019028706597506138 -0.014197387313380135 0 -0.001819602702844412 -0.014153675961910063 0 -0.0017709727968445571 -0.014256331724906273 0 -0.0019028706597506138 -0.014197387313380135 0 -0.0032439556153234577 -0.014966615370417026 0 -0.0035817080763692315 -0.014896961585221788 0 -0.0033784550668762383 -0.0150885372046459 0 -0.0034072681365508442 -0.014724117659440841 0 -0.0032439556153234577 -0.014966615370417026 0 -0.0035817080763692315 -0.014896961585221788 0 -0.002736919922887123 -0.014489448681703595 0 -0.0025668667513372534 -0.014825511256479261 0 -0.002618018835494367 -0.015215639641995777 0 -0.0027529047767337607 -0.015000000726405512 0 -0.0020665054362709111 -0.014999986917004847 0 -0.0025668667513372534 -0.014825511256479261 0 -0.0027526388974870087 -0.015000006337747347 0 -0.0025668667513372534 -0.014825511256479261 0 -0.0017778918830392326 -0.014865113859661707 0 -0.002618018835494367 -0.015215639641995777 0 -0.0020665054362709111 -0.014999986917004847 0 -0.0018151639903550287 -0.015514013036926897 0 -0.0013802037030288361 -0.015000000272634458 0 -0.0012200643070153785 -0.015401437139631258 0 -0.0018151639903550287 -0.015514013036926897 0 -0.0020665054362709111 -0.014999986917004847 0 -0.0013802037030288361 -0.015000000272634458 0 -0.0018151639903550287 -0.015514013036926897 0 -0.0010549346773501753 -0.015177844686719223 0 -0.0013801124988864783 -0.015000014012671748 0 -0.00062260652310364931 -0.014999969216179051 0 -0.0010549346773501753 -0.015177844686719223 0 -0.0013801124988864783 -0.015000014012671748 0 -0.0011718587782586286 -0.015347810824848913 0 -0.0013801281890747725 -0.01500002290770466 0 -0.0011538780879824908 -0.015496717075240132 0 -0.0010549346773501753 -0.015177844686719223 0 -0.0011718587782586286 -0.015347810824848913 0 -0.0010461266668476898 -0.015395839139796776 0 -0.0012200643070153785 -0.015401437139631258 0 -0.0010511246709438489 -0.015791189950328365 0 -0.0018151639903550287 -0.015514013036926897 0 -0.0011718587782586286 -0.015347810824848913 0 -0.0010461266668476898 -0.015395839139796776 0 -0.0010533319774685102 -0.015561191919107173 0 -0.0011538780879824908 -0.015496717075240132 0 -0.0016040299396057429 -0.014880480585612373 0 -0.0020929784652806869 -0.014129231029404346 0 -0.0019028706597506138 -0.014197387313380135 0 -0.0019679329827841587 -0.01409270245897604 0 -0.0016040299396057429 -0.014880480585612373 0 -0.0017778918830392326 -0.014865113859661707 0 -0.0018827335157449172 -0.01411372007027838 0 -0.0019028706597506138 -0.014197387313380135 0 -0.0019679329827841587 -0.01409270245897604 0 -0.0018591989597043401 -0.014016893273134819 0 -0.0018827335157449172 -0.01411372007027838 0 -0.0019679329827841587 -0.01409270245897604 0 -0.0018591989597043401 -0.014016893273134819 0 -0.0019679329827841587 -0.01409270245897604 0 -0.0020142752303936159 -0.013975549240548422 0 -0.0020929784652806869 -0.014129231029404346 0 -0.0020142752303936159 -0.013975549240548422 0 -0.0021804529696812856 -0.013910524621290291 0 -0.0020929784652806869 -0.014129231029404346 0 -0.0019679329827841587 -0.01409270245897604 0 -0.0020142752303936159 -0.013975549240548422 0 -0.0019685157312834588 -0.013806705965988474 0 -0.0020675851060282823 -0.013864812716294639 0 -0.0020142752303936159 -0.013975549240548422 0 -0.0020675851060282823 -0.013864812716294639 0 -0.0020142752303936159 -0.013975549240548422 0 -0.0021804529696812856 -0.013910524621290291 0 -0.0026280090449178929 -0.013979173326826203 0 -0.0025675005325472358 -0.014009129981116456 0 -0.0025769167348480186 -0.014070241505636976 0 -0.0019685157312834588 -0.013806705965988474 0 -0.0018591989597043401 -0.014016893273134819 0 -0.0020142752303936159 -0.013975549240548422 0 -0.00229020112287811 -0.013716380188024848 0 -0.0024602926545072958 -0.014220613121179735 0 -0.0022345968227783014 -0.013914680531891307 0 -0.0023017210563598565 -0.014170791609818307 0 -0.0024187141922208354 -0.013967903354682443 0 -0.0022345968227783014 -0.013914680531891307 0 -0.0023017210563598565 -0.014170791609818307 0 -0.0019720296098364853 -0.014090507281657474 0 -0.0016040299396057429 -0.014880480585612373 0 -0.0021461897127833646 -0.01386972136177728 0 -0.0016040299396057429 -0.014880480585612373 0 -0.0011458209025352053 -0.015370248213193227 0 -0.0017591594878764701 -0.014553132888952703 0 -0.0019720296098364853 -0.014090507281657474 0 -0.0021432807492205697 -0.014397234162702999 0 -6.6738352292259801e-05 -0.016345347491444232 0 -0.00034261044625095213 -0.016024046264622959 0 8.3098950312544405e-05 -0.015918115233665223 0 -0.0023017210563598565 -0.014170791609818307 0 -0.0019720296098364853 -0.014090507281657474 0 -0.0021432807492205697 -0.014397234162702999 0 -0.0012234652861898888 -0.015138148003090117 0 -0.0011458209025352053 -0.015370248213193227 0 -0.00034261044625095213 -0.016024046264622959 0 -0.00011008015935797468 -0.015523646211291315 0 -0.00068741660738821128 -0.015615873445522907 0 -0.00011008015935797468 -0.015523646211291315 0 -0.00068741660738821128 -0.015615873445522907 0 -0.00039429930525533991 -0.015281992522927562 0 -0.00034261044625095213 -0.016024046264622959 0 -0.00011008015935797468 -0.015523646211291315 0 8.3098950312544405e-05 -0.015918115233665223 0 -0.0010533319774685102 -0.015561191919107173 0 -0.00074515807546099845 -0.015672153559126448 0 -0.00089943318527757458 -0.015465830193514656 0 -0.0011458209025352053 -0.015370248213193227 0 -0.00070862769322884963 -0.015637563136395718 0 -0.0010461266668476898 -0.015395839139796776 0 -0.0010533319774685102 -0.015561191919107173 0 -0.00089943318527757458 -0.015465830193514656 0 -0.0010645053170680195 -0.015171149597829389 0 -0.00070862769322884963 -0.015637563136395718 0 -0.0010549346773501753 -0.015177844686719223 0 -0.0010461266668476898 -0.015395839139796776 0 -0.00089943318527757458 -0.015465830193514656 0 -0.0010549346773501753 -0.015177844686719223 0 -0.00068741660738821128 -0.015615873445522907 0 -0.00068073200445931256 -0.015264609069647571 0 -0.00068741660738821128 -0.015615873445522907 0 -0.00068073200445931256 -0.015264609069647571 0 -0.00039429930525533991 -0.015281992522927562 0 -0.00068073200445931256 -0.015264609069647571 0 -0.00062260652310364931 -0.014999969216179051 0 -0.00039429930525533991 -0.015281992522927562 0 -0.0010549346773501753 -0.015177844686719223 0 -0.00068073200445931256 -0.015264609069647571 0 -0.00062260652310364931 -0.014999969216179051 0 -0.00011008015935797468 -0.015523646211291315 0 -0.00039429930525533991 -0.015281992522927562 0 0.00013494663684723764 -0.014999997467771519 0 -0.00062260652310364931 -0.014999969216179051 0 -0.00039429930525533991 -0.015281992522927562 0 0.00013494663684723764 -0.014999997467771519 0 -0.00011008015935797468 -0.015523646211291315 0 0.00013494663684723764 -0.014999997467771519 0 0.00063820708420732895 -0.015591146180632783 0 0.00089256608033767522 -0.015000077362049962 0 0.00094504063354089657 -0.015384596921507643 0 0.00013494663684723764 -0.014999997467771519 0 0.00089243430394988425 -0.014999981313490257 0 0.00063820708420732895 -0.015591146180632783 0 0.00094504063354089657 -0.015384596921507643 0 0.00094669855306382937 -0.015849977332846484 0 -0.00011008015935797468 -0.015523646211291315 0 0.00063820708420732895 -0.015591146180632783 0 8.3098950312544405e-05 -0.015918115233665223 0 0.0017431763187540038 -0.014999906899892093 0 0.001353116366413058 -0.015176017317205314 0 0.0016168975843342628 -0.015239060046313393 0 0.0017431763187540038 -0.014999906899892093 0 0.0016168975843342628 -0.015239060046313393 0 0.0018436799372795764 -0.01517420537382818 0 0.00089369841904688428 -0.014999930409173209 0 0.0012420141892610637 -0.015302151139442163 0 0.001353116366413058 -0.015176017317205314 0 0.00089369841904688428 -0.014999930409173209 0 0.0017431763187540038 -0.014999906899892093 0 0.001353116366413058 -0.015176017317205314 0 0.0012420141892610637 -0.015302151139442163 0 0.001353116366413058 -0.015176017317205314 0 0.0014218903272924721 -0.015284112895689234 0 0.0012420141892610637 -0.015302151139442163 0 0.0014218903272924721 -0.015284112895689234 0 0.0014013050199147704 -0.015324528382690404 0 0.0016168975843342628 -0.015239060046313393 0 0.0016005419218440375 -0.015341310808301614 0 0.0017543795609806664 -0.015269574743197466 0 0.0014218903272924721 -0.015284112895689234 0 0.0016168975843342628 -0.015239060046313393 0 0.0016005419218440375 -0.015341310808301614 0 0.001353116366413058 -0.015176017317205314 0 0.0014218903272924721 -0.015284112895689234 0 0.0016168975843342628 -0.015239060046313393 0 0.0014218903272924721 -0.015284112895689234 0 0.0016005419218440375 -0.015341310808301614 0 0.0014013050199147704 -0.015324528382690404 0 0.0014101022236128623 -0.015309914809013418 0 0.0014441662127896839 -0.015243616590015108 0 0.0014013050199147704 -0.015324528382690404 0 0.0012427520874396985 -0.01503521112234125 0 0.0014696212486550193 -0.015063403763726411 0 0.0016005419218440375 -0.015341310808301614 0 0.0014013050199147704 -0.015324528382690404 0 0.00164998566321891 -0.01547551061042101 0 0.0016005419218440375 -0.015341310808301614 0 0.00164998566321891 -0.01547551061042101 0 0.0016787434658236025 -0.01542881142285457 0 0.00063820708420732895 -0.015591146180632783 0 0.00039496391084701366 -0.016143672173252879 0 8.3098950312544405e-05 -0.015918115233665223 0 -6.6738352292259801e-05 -0.016345347491444232 0 0.00039496391084701366 -0.016143672173252879 0 8.3098950312544405e-05 -0.015918115233665223 0 0.0012420141892610637 -0.015302151139442163 0 0.0014013050199147704 -0.015324528382690404 0 0.0014855194804600182 -0.015274063598418519 0 0.0014855194804600182 -0.015274063598418519 0 0.0014696212486550193 -0.015063403763726411 0 0.0016557877882895792 -0.015060441809419367 0 0.0014013050199147704 -0.015324528382690404 0 0.0014855194804600182 -0.015274063598418519 0 0.0014696212486550193 -0.015063403763726411 0 0.00094669855306382937 -0.015849977332846484 0 0.00038397780804945214 -0.014921497965194245 0 -6.6738352292259801e-05 -0.016345347491444232 0 0.00039496391084701366 -0.016143672173252879 0 0.0001851743508516693 -0.016656877720836665 0 -0.0012234652861898888 -0.015138148003090117 0 0.00038397780804945214 -0.014921497965194245 0 -0.00041549847741714953 -0.013944741080524074 0 0.00038397780804945214 -0.014921497965194245 0 0.001488264274287433 -0.014444654894870295 0 0.00146359037296153 -0.014493440891533897 0 0.0014510267667605604 -0.014457523034331937 0 0.00038397780804945214 -0.014921497965194245 0 0.0016900300942359985 -0.014644472716135178 0 0.001488264274287433 -0.014444654894870295 0 0.0014510267667605604 -0.014457523034331937 0 0.0014709633158040841 -0.014416394577042453 0 0.0014696212486550193 -0.015063403763726411 0 0.0016557877882895792 -0.015060441809419367 0 0.0015705297365118571 -0.014775531836166063 0 0.0012427520874396985 -0.01503521112234125 0 0.0014696212486550193 -0.015063403763726411 0 0.0013647034408190051 -0.014803026263516468 0 0.0014696212486550193 -0.015063403763726411 0 0.0015705297365118571 -0.014775531836166063 0 0.0013647034408190051 -0.014803026263516468 0 0.0014441662127896839 -0.015243616590015108 0 0.0014446708033101839 -0.015003155748596007 0 0.0012427520874396985 -0.01503521112234125 0 0.0013647034408190051 -0.014803026263516468 0 0.0011554005220529911 -0.014722532861716859 0 0.0013647034408190051 -0.014803026263516468 0 0.0014084630453879258 -0.014441423975541478 0 0.0011554005220529911 -0.014722532861716859 0 0.0015705297365118571 -0.014775531836166063 0 0.0013647034408190051 -0.014803026263516468 0 0.0014084630453879258 -0.014441423975541478 0 0.0016900300942359985 -0.014644472716135178 0 0.0013492671784487596 -0.014420854286490033 0 0.0014084630453879258 -0.014441423975541478 0 0.0012508599920886692 -0.014406307666831828 0 0.0011554005220529911 -0.014722532861716859 0 0.0013465785387750471 -0.01431414396933204 0 0.0012508599920886692 -0.014406307666831828 0 0.0012374306652929866 -0.014257335766396881 0 0.0014084630453879258 -0.014441423975541478 0 0.0013465785387750471 -0.01431414396933204 0 0.0012508599920886692 -0.014406307666831828 0 0.0014084630453879258 -0.014441423975541478 0 0.0013465785387750471 -0.01431414396933204 0 0.0014718244420865933 -0.014297877401101241 0 0.0014084630453879258 -0.014441423975541478 0 0.0014709633158040841 -0.014416394577042453 0 0.0014718244420865933 -0.014297877401101241 0 0.001496694115642467 -0.014375217253348234 0 0.0014709633158040841 -0.014416394577042453 0 0.0014718244420865933 -0.014297877401101241 0 0.0011678348522482908 -0.013908223056519207 0 0.0014559432653290241 -0.01416649894773379 0 0.001488264274287433 -0.014444654894870295 0 0.001489909212781247 -0.014413940846968426 0 0.0014709633158040841 -0.014416394577042453 0 0.001496694115642467 -0.014375217253348234 0 0.001489909212781247 -0.014413940846968426 0 0.0014709633158040841 -0.014416394577042453 0 0.0014510267667605604 -0.014457523034331937 0 0.0014084630453879258 -0.014441423975541478 0 0.0014709633158040841 -0.014416394577042453 0 0.0010073354691279249 -0.014822043689452407 0 0.001207462865805285 -0.014688149522215059 0 0.0013126607173932381 -0.015003234759121348 0 0.0010073354691279249 -0.014822043689452407 0 0.0013126607173932381 -0.015003234759121348 0 0.0010206430176977709 -0.015131098682989057 0 0.0035936084527964751 -0.015536965746831789 0 0.0023040643791285157 -0.015823055427003418 0 0.0035936084527964751 -0.015536965746831789 0 0.0025309470375646584 -0.01432341736020137 0 0.0010073354691279249 -0.014822043689452407 0 0.00070972344973974089 -0.014861513233083911 0 0.00098455899035700275 -0.014494430034168193 0 0.0010073354691279249 -0.014822043689452407 0 0.00070972344973974089 -0.014861513233083911 0 0.0010206430176977709 -0.015131098682989057 0 0.0044379435982538533 -0.014122652545174983 0 0.0044182754850772017 -0.014155493148458086 0 0.0043683809913995413 -0.014128339103370906 0 0.004424718922106022 -0.014079640587962301 0 0.0044379435982538533 -0.014122652545174983 0 0.0043683809913995413 -0.014128339103370906 0 0.0044379435982538533 -0.014122652545174983 0 0.0044182754850772017 -0.014155493148458086 0 0.0044902299229930207 -0.014163590104253177 0 0.0044182754850772017 -0.014155493148458086 0 0.0043683809913995413 -0.014128339103370906 0 0.0043855276829729709 -0.014180741685940487 0 0.00098455899035700275 -0.014494430034168193 0 0.0012390370793052149 -0.01435406066898808 0 0.001207462865805285 -0.014688149522215059 0 0.0010073354691279249 -0.014822043689452407 0 0.00098455899035700275 -0.014494430034168193 0 0.001207462865805285 -0.014688149522215059 0 0.0012390370793052149 -0.01435406066898808 0 0.0015972327659214928 -0.014819549977759318 0 0.001207462865805285 -0.014688149522215059 0 0.0012530101069082272 -0.014384706919325375 0 0.0013640983856694692 -0.014642587572286276 0 0.0012390370793052149 -0.01435406066898808 0 0.0012059760982047279 -0.014356993415440746 0 0.0011427960461487686 -0.014447543088536081 0 0.0012390370793052149 -0.01435406066898808 0 0.0012059760982047279 -0.014356993415440746 0 0.0012374306652929866 -0.014257335766396881 0 0.0012508599920886692 -0.014406307666831828 0 0.0012059760982047279 -0.014356993415440746 0 0.0012374306652929866 -0.014257335766396881 0 0.0012508599920886692 -0.014406307666831828 0 0.0012059760982047279 -0.014356993415440746 0 0.0011427960461487686 -0.014447543088536081 0 0.0012508599920886692 -0.014406307666831828 0 0.0011427960461487686 -0.014447543088536081 0 0.0011554005220529911 -0.014722532861716859 0 0.0015972327659214928 -0.014819549977759318 0 0.0013126607173932381 -0.015003234759121348 0 0.0015652385598171933 -0.01521609044551373 0 0.0015972327659214928 -0.014819549977759318 0 0.001207462865805285 -0.014688149522215059 0 0.0013126607173932381 -0.015003234759121348 0 0.0013363654925834375 -0.015219526145762862 0 0.001379556082211862 -0.015380257718974347 0 0.0010206430176977709 -0.015131098682989057 0 0.0013126607173932381 -0.015003234759121348 0 0.0013363654925834375 -0.015219526145762862 0 0.0015652385598171933 -0.01521609044551373 0 0.0013363654925834375 -0.015219526145762862 0 0.0015652385598171933 -0.01521609044551373 0 0.001379556082211862 -0.015380257718974347 0 0.0013640983856694692 -0.014642587572286276 0 0.0014446708033101839 -0.015003155748596007 0 0.0015972327659214928 -0.014819549977759318 0 0.0017404739500579182 -0.015294404837680582 0 0.0015652385598171933 -0.01521609044551373 0 0.00164998566321891 -0.01547551061042101 0 0.0017404739500579182 -0.015294404837680582 0 0.001657856797456814 -0.015491946426662974 0 0.0017404739500579182 -0.015294404837680582 0 0.0015652385598171933 -0.01521609044551373 0 0.001657856797456814 -0.015491946426662974 0 0.0018048543117855961 -0.015611058885281952 0 0.0019578546248566111 -0.015451134327271103 0 0.0018066665919679562 -0.015477811852710164 0 0.0015652385598171933 -0.01521609044551373 0 0.001657856797456814 -0.015491946426662974 0 0.001379556082211862 -0.015380257718974347 0 0.0015105481602553158 -0.015382012453465127 0 0.0021673922646728789 -0.015851146652761883 0 0.001657856797456814 -0.015491946426662974 0 0.0018048543117855961 -0.015611058885281952 0 0.0018066665919679562 -0.015477811852710164 0 0.0021673922646728789 -0.015851146652761883 0 0.0029389601126661932 -0.015720017467126444 0 0.0034888527670299623 -0.016338026864129003 0 0.0038408415901879014 -0.016296271649064512 0 0.0037847486489067808 -0.016017905598622463 0 0.0021673922646728789 -0.015851146652761883 0 0.0023040643791285157 -0.015823055427003418 0 0.0034888527670299623 -0.016338026864129003 0 0.0038408415901879014 -0.016296271649064512 0 0.0037961395851105234 -0.016576751682525113 0 0.0038408415901879014 -0.016296271649064512 0 0.0037961395851105234 -0.016576751682525113 0 0.0040576458484449813 -0.016462234759444305 0 0.0013126607173932381 -0.015003234759121348 0 0.0013363654925834375 -0.015219526145762862 0 0.0010206430176977709 -0.015131098682989057 0 0.0040986129864272747 -0.016810167508055932 0 0.0040576458484449813 -0.016462234759444305 0 0.0043714140004539439 -0.01649523099441377 0 0.0040986129864272747 -0.016810167508055932 0 0.0037961395851105234 -0.016576751682525113 0 0.0040576458484449813 -0.016462234759444305 0 0.0038408415901879014 -0.016296271649064512 0 0.0040576458484449813 -0.016462234759444305 0 0.0041808708511913107 -0.01612926029428053 0 0.0038408415901879014 -0.016296271649064512 0 0.0041808708511913107 -0.01612926029428053 0 0.0037847486489067808 -0.016017905598622463 0 0.0041808708511913107 -0.01612926029428053 0 0.0037847486489067808 -0.016017905598622463 0 0.0040730558939450125 -0.015719282752545097 0 0.0029389601126661932 -0.015720017467126444 0 0.0030110106117016964 -0.015555647039966789 0 0.0019578546248566111 -0.015451134327271103 0 0.0019278108992968304 -0.01529415770336998 0 0.0020877513915335696 -0.015337504182582831 0 0.0019578546248566111 -0.015451134327271103 0 0.0019278108992968304 -0.01529415770336998 0 0.0017971984248604793 -0.015390786033478713 0 0.0019278108992968304 -0.01529415770336998 0 0.0020877513915335696 -0.015337504182582831 0 0.0020370951230633707 -0.015258367249576556 0 0.00164998566321891 -0.01547551061042101 0 0.001657856797456814 -0.015491946426662974 0 0.0016787434658236025 -0.01542881142285457 0 0.001657856797456814 -0.015491946426662974 0 0.0016787434658236025 -0.01542881142285457 0 0.0017971984248604793 -0.015390786033478713 0 0.001657856797456814 -0.015491946426662974 0 0.0017971984248604793 -0.015390786033478713 0 0.0018066665919679562 -0.015477811852710164 0 0.0019578546248566111 -0.015451134327271103 0 0.0017971984248604793 -0.015390786033478713 0 0.0018066665919679562 -0.015477811852710164 0 0.0019278108992968304 -0.01529415770336998 0 0.0017971984248604793 -0.015390786033478713 0 0.0018295812617368261 -0.015280208732139099 0 0.0016787434658236025 -0.01542881142285457 0 0.0017971984248604793 -0.015390786033478713 0 0.0017344127552130545 -0.0153366617680969 0 0.0017971984248604793 -0.015390786033478713 0 0.0017344127552130545 -0.0153366617680969 0 0.0018295812617368261 -0.015280208732139099 0 0.0016005419218440375 -0.015341310808301614 0 0.0017344127552130545 -0.0153366617680969 0 0.0017543795609806664 -0.015269574743197466 0 0.0016005419218440375 -0.015341310808301614 0 0.0016787434658236025 -0.01542881142285457 0 0.0017344127552130545 -0.0153366617680969 0 0.0016168975843342628 -0.015239060046313393 0 0.0017543795609806664 -0.015269574743197466 0 0.0018436799372795764 -0.01517420537382818 0 0.0017543795609806664 -0.015269574743197466 0 0.0018636873163542541 -0.015199493018711131 0 0.0018436799372795764 -0.01517420537382818 0 0.0017344127552130545 -0.0153366617680969 0 0.0017543795609806664 -0.015269574743197466 0 0.0018295812617368261 -0.015280208732139099 0 0.0017543795609806664 -0.015269574743197466 0 0.0018636873163542541 -0.015199493018711131 0 0.0018295812617368261 -0.015280208732139099 0 0.0019278108992968304 -0.01529415770336998 0 0.0018295812617368261 -0.015280208732139099 0 0.0018969250891416351 -0.015207522324665412 0 0.0018636873163542541 -0.015199493018711131 0 0.0018969250891416351 -0.015207522324665412 0 0.0019017791932363724 -0.015172328690974663 0 0.0018636873163542541 -0.015199493018711131 0 0.0018295812617368261 -0.015280208732139099 0 0.0018969250891416351 -0.015207522324665412 0 0.0018969250891416351 -0.015207522324665412 0 0.0019004345621133161 -0.015166826954134842 0 0.001955199292050562 -0.015214945142174896 0 0.0023177905100913551 -0.015214836803271903 0 0.0019999004938959395 -0.015088808147691824 0 0.0025950300271841424 -0.015000000293879063 0 0.0026867509633934921 -0.015273959633512753 0 0.0019997514203869745 -0.015072657779831749 0 0.0018969250891416351 -0.015207522324665412 0 0.0019004345621133161 -0.015166826954134842 0 0.0019017791932363724 -0.015172328690974663 0 0.0019004345621133161 -0.015166826954134842 0 0.0019017791932363724 -0.015172328690974663 0 0.001925848265865859 -0.015141000883624819 0 0.0017431763187540038 -0.014999906899892093 0 0.0025950300271841424 -0.015000000293879063 0 0.0019997514203869745 -0.015072657779831749 0 0.0019004345621133161 -0.015166826954134842 0 0.001925848265865859 -0.015141000883624819 0 0.0019997514203869745 -0.015072657779831749 0 0.0018636873163542541 -0.015199493018711131 0 0.001925848265865859 -0.015141000883624819 0 0.0018436799372795764 -0.01517420537382818 0 0.0018636873163542541 -0.015199493018711131 0 0.0019017791932363724 -0.015172328690974663 0 0.001925848265865859 -0.015141000883624819 0 0.0017431763187540038 -0.014999906899892093 0 0.0019997514203869745 -0.015072657779831749 0 0.0018436799372795764 -0.01517420537382818 0 0.001925848265865859 -0.015141000883624819 0 0.0019997514203869745 -0.015072657779831749 0 0.0018436799372795764 -0.01517420537382818 0 0.002563454235810204 -0.015300464766519981 0 0.0037288596929787592 -0.0153543660400583 0 0.0020370951230633707 -0.015258367249576556 0 0.0020383407896477457 -0.015168242266399656 0 0.0022178380601614333 -0.015209298826007293 0 0.0020877513915335696 -0.015337504182582831 0 0.0020370951230633707 -0.015258367249576556 0 0.0022178380601614333 -0.015209298826007293 0 0.0019278108992968304 -0.01529415770336998 0 0.0020370951230633707 -0.015258367249576556 0 0.001955199292050562 -0.015214945142174896 0 0.0019278108992968304 -0.01529415770336998 0 0.0018969250891416351 -0.015207522324665412 0 0.001955199292050562 -0.015214945142174896 0 0.0020370951230633707 -0.015258367249576556 0 0.001955199292050562 -0.015214945142174896 0 0.0020383407896477457 -0.015168242266399656 0 0.0023177905100913551 -0.015214836803271903 0 0.002563454235810204 -0.015300464766519981 0 0.0025950300271841424 -0.015000000293879063 0 0.0026867509633934921 -0.015273959633512753 0 0.0034461927453347781 -0.0150000138710126 0 0.0026867509633934921 -0.015273959633512753 0 0.0034461927453347781 -0.0150000138710126 0 0.0033271597010396435 -0.015456625709045706 0 0.0019004345621133161 -0.015166826954134842 0 0.001955199292050562 -0.015214945142174896 0 0.0020383407896477457 -0.015168242266399656 0 0.0033271597010396435 -0.015456625709045706 0 0.0037605194133142504 -0.015275913228883999 0 0.0039712271089978593 -0.015647114622781327 0 0.0034461927453347781 -0.0150000138710126 0 0.0033271597010396435 -0.015456625709045706 0 0.0037605194133142504 -0.015275913228883999 0 0.0034461927453347781 -0.0150000138710126 0 0.0037605194133142504 -0.015275913228883999 0 0.0042977257667278527 -0.014999948165621267 0 0.0037605194133142504 -0.015275913228883999 0 0.0039712271089978593 -0.015647114622781327 0 0.0042977257667278527 -0.014999948165621267 0 0.0037288596929787592 -0.0153543660400583 0 0.0045401130827374759 -0.015123913518906964 0 0.0030110106117016964 -0.015555647039966789 0 0.0037288596929787592 -0.0153543660400583 0 0.0043380287744034067 -0.015441869963242054 0 0.0046429568048620964 -0.015554015931226375 0 0.0044671773651046142 -0.015798101107642324 0 0.0042284169724661003 -0.015455149909031811 0 0.0046429568048620964 -0.015554015931226375 0 0.0044881772088624693 -0.015335146479451974 0 0.0037288596929787592 -0.0153543660400583 0 0.0048093090608123824 -0.015596640094801264 0 0.0046429568048620964 -0.015554015931226375 0 0.0046114448096198357 -0.015271972406410364 0 0.0048424519553293965 -0.01530056284514421 0 0.0046429568048620964 -0.015554015931226375 0 0.0046114448096198357 -0.015271972406410364 0 0.0044881772088624693 -0.015335146479451974 0 0.0039712271089978593 -0.015647114622781327 0 0.0042977257667278527 -0.014999948165621267 0 0.0044672174974732361 -0.015071546943670544 0 0.0046114448096198357 -0.015271972406410364 0 0.0044881772088624693 -0.015335146479451974 0 0.0044672174974732361 -0.015071546943670544 0 0.0046114448096198357 -0.015271972406410364 0 0.0044672174974732361 -0.015071546943670544 0 0.0048424519553293965 -0.01530056284514421 0 0.0042284169724661003 -0.015455149909031811 0 0.0044881772088624693 -0.015335146479451974 0 0.0044672174974732361 -0.015071546943670544 0 0.0042977257667278527 -0.014999948165621267 0 0.0044672174974732361 -0.015071546943670544 0 0.0051484933011866369 -0.014999971769617293 0 0.0044672174974732361 -0.015071546943670544 0 0.0051484933011866369 -0.014999971769617293 0 0.0048424519553293965 -0.01530056284514421 0 0.0051484933011866369 -0.014999971769617293 0 0.0048424519553293965 -0.01530056284514421 0 0.0051146522620217879 -0.015573130252018272 0 0.0053736316691285002 -0.015000030786525844 0 0.0055760598710530521 -0.015708798866279291 0 0.0051492437005145062 -0.014999966325496722 0 0.0053730672690613423 -0.015000024554141341 0 0.0052044549095730643 -0.015559554096475508 0 0.0051487516269663686 -0.015000078526729967 0 0.0051628646551698165 -0.015566448401489479 0 0.0053730672690613423 -0.015000024554141341 0 0.0052044549095730643 -0.015559554096475508 0 0.0054440573801116171 -0.015544072965128162 0 0.0046429568048620964 -0.015554015931226375 0 0.0048424519553293965 -0.01530056284514421 0 0.0048858396507232222 -0.015625728244351225 0 0.0048424519553293965 -0.01530056284514421 0 0.0051146522620217879 -0.015573130252018272 0 0.0048858396507232222 -0.015625728244351225 0 0.0051146522620217879 -0.015573130252018272 0 0.0048867457939464048 -0.015832668470681852 0 0.0048858396507232222 -0.015625728244351225 0 0.0046429568048620964 -0.015554015931226375 0 0.0048867457939464048 -0.015832668470681852 0 0.0048858396507232222 -0.015625728244351225 0 0.0051628646551698165 -0.015566448401489479 0 0.0052015335821586342 -0.01599877977275661 0 0.0051146522620217879 -0.015573130252018272 0 0.0048867457939464048 -0.015832668470681852 0 0.0051996574263940762 -0.016013822520404064 0 0.0053097216996887582 -0.015740105751214373 0 0.0051996574263940762 -0.016013822520404064 0 0.0053883921557433285 -0.015844178330274176 0 0.0052044549095730643 -0.015559554096475508 0 0.0053097216996887582 -0.015740105751214373 0 0.0051996574263940762 -0.016013822520404064 0 0.0052044549095730643 -0.015559554096475508 0 0.0053097216996887582 -0.015740105751214373 0 0.0054440573801116171 -0.015544072965128162 0 0.0051996574263940762 -0.016013822520404064 0 0.0053883921557433285 -0.015844178330274176 0 0.005336307433545651 -0.0160239375489192 0 0.0051996574263940762 -0.016013822520404064 0 0.005336307433545651 -0.0160239375489192 0 0.0051712132616531375 -0.016235469590869151 0 0.0048867457939464048 -0.015832668470681852 0 0.0051996574263940762 -0.016013822520404064 0 0.0049190636581342888 -0.016111496614101429 0 0.0048867457939464048 -0.015832668470681852 0 0.0049190636581342888 -0.016111496614101429 0 0.004655105463232184 -0.016162808535063782 0 0.0048867457939464048 -0.015832668470681852 0 0.0044671773651046142 -0.015798101107642324 0 0.004655105463232184 -0.016162808535063782 0 0.0041808708511913107 -0.01612926029428053 0 0.0044671773651046142 -0.015798101107642324 0 0.004655105463232184 -0.016162808535063782 0 0.0041808708511913107 -0.01612926029428053 0 0.0040730558939450125 -0.015719282752545097 0 0.0044671773651046142 -0.015798101107642324 0 0.0040730558939450125 -0.015719282752545097 0 0.0043380287744034067 -0.015441869963242054 0 0.0044671773651046142 -0.015798101107642324 0 0.0046429568048620964 -0.015554015931226375 0 0.0048867457939464048 -0.015832668470681852 0 0.0044671773651046142 -0.015798101107642324 0 0.0076814069651895212 -0.015476631610098244 0 0.00762542869268061 -0.015638284101079723 0 0.00762542869268061 -0.015638284101079723 0 0.0082539569761707551 -0.015401152061812931 0 0.0080375710985697516 -0.015395059865367657 0 0.0078034286105598122 -0.015637905312500776 0 0.0080899096281459582 -0.015448621440116031 0 0.0074305362042886179 -0.015515042690303201 0 0.0068107765789910159 -0.015442211815234034 0 0.0069489121402435241 -0.016024824840568358 0 0.0074305362042886179 -0.015515042690303201 0 0.0070684129756611973 -0.014999993490059916 0 0.0079158009777005479 -0.014999998925531253 0 0.0074305362042886179 -0.015515042690303201 0 0.0070684129756611973 -0.014999993490059916 0 0.0068107765789910159 -0.015442211815234034 0 0.0070684129756611973 -0.014999993490059916 0 0.0068107765789910159 -0.015442211815234034 0 0.0062210221317534767 -0.014999995351691855 0 0.0068107765789910159 -0.015442211815234034 0 0.0063835470761578039 -0.015668505308050272 0 0.0069489121402435241 -0.016024824840568358 0 0.0063835470761578039 -0.015668505308050272 0 0.0062210221317534767 -0.014999995351691855 0 0.0057304364267325159 -0.015806576007324612 0 0.0068107765789910159 -0.015442211815234034 0 0.0063835470761578039 -0.015668505308050272 0 0.0062210221317534767 -0.014999995351691855 0 0.0053736441571339399 -0.014999995254045825 0 0.0062210221317534767 -0.014999995351691855 0 0.0057304364267325159 -0.015806576007324612 0 0.0053097216996887582 -0.015740105751214373 0 0.0054440573801116171 -0.015544072965128162 0 0.0053883921557433285 -0.015844178330274176 0 0.0054440573801116171 -0.015544072965128162 0 0.0053883921557433285 -0.015844178330274176 0 0.0055854964273473629 -0.015997362185868814 0 0.0055760598710530521 -0.015708798866279291 0 0.0059469899842023782 -0.016085547855681635 0 0.005541375563925359 -0.01585598552630231 0 0.0055996096624065196 -0.015994648488487244 0 0.0051512602325007335 -0.016120507405587573 0 0.005336307433545651 -0.0160239375489192 0 0.0055854964273473629 -0.015997362185868814 0 0.0051712132616531375 -0.016235469590869151 0 0.0059469899842023782 -0.016085547855681635 0 0.0050923195549518142 -0.016170711956482956 0 0.0053883921557433285 -0.015844178330274176 0 0.005336307433545651 -0.0160239375489192 0 0.0055854964273473629 -0.015997362185868814 0 0.0076092263651747708 -0.015595627192082972 0 0.0077467519994757423 -0.01553262621948698 0 0.0059469899842023782 -0.016085547855681635 0 0.0067256109111156854 -0.016015278654431631 0 0.0074074641629192223 -0.015610291318254286 0 0.0073470986156651688 -0.015672692943856002 0 0.0073701357930249494 -0.015723377530402 0 0.0059469899842023782 -0.016085547855681635 0 0.0064100727196202004 -0.015835384284192462 0 0.0065266002186333445 -0.015982469699864388 0 0.0070096861987036102 -0.015840062908065725 0 0.0066347316146296862 -0.016235287324048265 0 0.0076092263651747708 -0.015595627192082972 0 0.0064100727196202004 -0.015835384284192462 0 0.0065266002186333445 -0.015982469699864388 0 0.0070096861987036102 -0.015840062908065725 0 0.0069964148705057554 -0.015672223430341914 0 0.0070096861987036102 -0.015840062908065725 0 0.0070340895550537168 -0.015766225470007014 0 0.0069964148705057554 -0.015672223430341914 0 0.0076092263651747708 -0.015595627192082972 0 0.0075584679626545977 -0.015659273476007454 0 0.0057304364267325159 -0.015806576007324612 0 0.00607822275965492 -0.016605021711129139 0 0.0065113355303937507 -0.016315819086842712 0 0.0063835470761578039 -0.015668505308050272 0 0.0057304364267325159 -0.015806576007324612 0 0.0065113355303937507 -0.016315819086842712 0 0.0063835470761578039 -0.015668505308050272 0 0.0065113355303937507 -0.016315819086842712 0 0.0069489121402435241 -0.016024824840568358 0 0.0083968143473185531 -0.015511981592315049 0 0.0083017038056078362 -0.015524760251821553 0 0.0083392781390477354 -0.015500791635510635 0 0.0076092263651747708 -0.015595627192082972 0 0.00762542869268061 -0.015638284101079723 0 0.0067256109111156854 -0.016015278654431631 0 0.00762542869268061 -0.015638284101079723 0 0.0070340895550537168 -0.015766225470007014 0 0.0069964148705057554 -0.015672223430341914 0 0.0074601621393417597 -0.015371002172688965 0 0.0070101862790194576 -0.01583850368686944 0 0.0070340895550537168 -0.015766225470007014 0 0.0074601621393417597 -0.015371002172688965 0 0.0083968143473185531 -0.015511981592315049 0 0.0083392781390477354 -0.015500791635510635 0 0.0084032186478019393 -0.015493326558515598 0 0.0083392781390477354 -0.015500791635510635 0 0.0083031627537847041 -0.015486113260117304 0 0.0082371993274143324 -0.01549491431713562 0 0.0083392781390477354 -0.015500791635510635 0 0.0083031627537847041 -0.015486113260117304 0 0.0084032186478019393 -0.015493326558515598 0 0.0083017038056078362 -0.015524760251821553 0 0.0083392781390477354 -0.015500791635510635 0 0.0082371993274143324 -0.01549491431713562 0 0.0083031627537847041 -0.015486113260117304 0 0.0082371993274143324 -0.01549491431713562 0 0.008172788601872618 -0.015502108250368286 0 0.0083017038056078362 -0.015524760251821553 0 0.0082371993274143324 -0.01549491431713562 0 0.0080899096281459582 -0.015448621440116031 0 0.0083570735177688014 -0.015412521091194153 0 0.0084380663753822714 -0.015507002101021993 0 0.0084749050508987466 -0.015418626667914262 0 0.0083570735177688014 -0.015412521091194153 0 0.0084380663753822714 -0.015507002101021993 0 0.0083790413085824637 -0.015601114188700875 0 0.0083803909513070676 -0.015731359359935176 0 0.0084380663753822714 -0.015507002101021993 0 0.0083790413085824637 -0.015601114188700875 0 0.0083031627537847041 -0.015486113260117304 0 0.0084380663753822714 -0.015507002101021993 0 0.0084032186478019393 -0.015493326558515598 0 0.0083604033581553012 -0.015594614351649716 0 0.008418034689563994 -0.015525915552879029 0 0.0084032186478019393 -0.015493326558515598 0 0.0084695482528418173 -0.015483116633866766 0 0.008475199430345361 -0.015490688622698657 0 0.0084380663753822714 -0.015507002101021993 0 0.0084032186478019393 -0.015493326558515598 0 0.0084695482528418173 -0.015483116633866766 0 0.0084380663753822714 -0.015507002101021993 0 0.0084695482528418173 -0.015483116633866766 0 0.0084749050508987466 -0.015418626667914262 0 0.0084695482528418173 -0.015483116633866766 0 0.0084749050508987466 -0.015418626667914262 0 0.0085521829479488515 -0.015421363549443647 0 0.0062544465877004043 -0.015009562023168933 0 0.0061507827242596623 -0.015360673610315023 0 0.0062985681630825735 -0.015274277745543663 0 0.0084695482528418173 -0.015483116633866766 0 0.0085521829479488515 -0.015421363549443647 0 0.008475199430345361 -0.015490688622698657 0 0.0085521829479488515 -0.015421363549443647 0 0.0087339554525877362 -0.015413287179776539 0 0.0086436910145788037 -0.0156588758611419 0 0.0086492114345085528 -0.015528491841308808 0 0.0077467519994757423 -0.01553262621948698 0 0.0074484732634013204 -0.015210427367863644 0 0.0077467519994757423 -0.01553262621948698 0 0.0083968143473185531 -0.015511981592315049 0 0.0084032186478019393 -0.015493326558515598 0 0.008475199430345361 -0.015490688622698657 0 0.0064100727196202004 -0.015835384284192462 0 0.0077467519994757423 -0.01553262621948698 0 0.0062290171894619165 -0.015548011374468056 0 0.0061507827242596623 -0.015360673610315023 0 0.0062985681630825735 -0.015274277745543663 0 0.0064100727196202004 -0.015835384284192462 0 0.0058240694026930216 -0.015746083647490909 0 0.0055996096624065196 -0.015994648488487244 0 0.0051512602325007335 -0.016120507405587573 0 0.0052598833649165734 -0.016334999265116532 0 0.0062290171894619165 -0.015548011374468056 0 0.0062985681630825735 -0.015274277745543663 0 0.0065598487612964843 -0.015177722668977569 0 0.0062544465877004043 -0.015009562023168933 0 0.0062985681630825735 -0.015274277745543663 0 0.0065598487612964843 -0.015177722668977569 0 0.0062544465877004043 -0.015009562023168933 0 0.0064104859402690272 -0.014867514110161821 0 0.0065598487612964843 -0.015177722668977569 0 0.0064104859402690272 -0.014867514110161821 0 0.0065598487612964843 -0.015177722668977569 0 0.0065844181294724413 -0.014825497988650215 0 0.0062544465877004043 -0.015009562023168933 0 0.0064104859402690272 -0.014867514110161821 0 0.0063267159520846586 -0.014758680341782024 0 0.0074484732634013204 -0.015210427367863644 0 0.0071595911834190012 -0.014913954834406174 0 0.0064104859402690272 -0.014867514110161821 0 0.0063267159520846586 -0.014758680341782024 0 0.0063561951341547622 -0.014653690362584546 0 0.0071595911834190012 -0.014913954834406174 0 0.0066627119299717966 -0.014804468869188714 0 0.0064104859402690272 -0.014867514110161821 0 0.0064583673491788521 -0.014745298430627898 0 0.0065844181294724413 -0.014825497988650215 0 0.0064104859402690272 -0.014867514110161821 0 0.0064583673491788521 -0.014745298430627898 0 0.0063561951341547622 -0.014653690362584546 0 0.0064583673491788521 -0.014745298430627898 0 0.0065079749535750632 -0.014638842847899319 0 0.0065844181294724413 -0.014825497988650215 0 0.0087994377740178119 -0.015263357685850852 0 0.0087311737007895549 -0.015134969116848947 0 0.0088650537603695151 -0.015025071682331987 0 0.0063651988873547807 -0.014831533496556696 0 0.0063619308920250086 -0.01441478062069021 0 0.0064862212901648821 -0.014268950460109231 0 0.0063270706387059282 -0.014995853846389413 0 0.0063651988873547807 -0.014831533496556696 0 0.0063619308920250086 -0.01441478062069021 0 0.0066627119299717966 -0.014804468869188714 0 0.0064469432973937053 -0.014318303025262486 0 0.0064879402360255838 -0.014484195386644121 0 0.0063561951341547622 -0.014653690362584546 0 0.0064862212901648821 -0.014268950460109231 0 0.0071595911834190012 -0.014913954834406174 0 0.0075163894081285527 -0.015095841536449319 0 0.0065079749535750632 -0.014638842847899319 0 0.0064879402360255838 -0.014484195386644121 0 0.0063561951341547622 -0.014653690362584546 0 0.0064583673491788521 -0.014745298430627898 0 0.0065079749535750632 -0.014638842847899319 0 0.0063561951341547622 -0.014653690362584546 0 0.0065079749535750632 -0.014638842847899319 0 0.0064879402360255838 -0.014484195386644121 0 0.0066407527834797713 -0.014555763526298129 0 0.0064879402360255838 -0.014484195386644121 0 0.0065630998969720914 -0.014424101764646795 0 0.0064862212901648821 -0.014268950460109231 0 0.0087994377740178119 -0.015263357685850852 0 0.0087311737007895549 -0.015134969116848947 0 0.0087052885575672756 -0.015223498987396587 0 0.0087311737007895549 -0.015134969116848947 0 0.0087382410709883774 -0.015003707374505791 0 0.0088650537603695151 -0.015025071682331987 0 0.0087311737007895549 -0.015134969116848947 0 0.0085878473584825518 -0.015181187613612885 0 0.0087382410709883774 -0.015003707374505791 0 0.0087311737007895549 -0.015134969116848947 0 0.0087052885575672756 -0.015223498987396587 0 0.0085878473584825518 -0.015181187613612885 0 0.0086510824702346334 -0.015301024993713178 0 0.0087052885575672756 -0.015223498987396587 0 0.0085878473584825518 -0.015181187613612885 0 0.0086510824702346334 -0.015301024993713178 0 0.0085410397449325378 -0.015327187687416715 0 0.0085878473584825518 -0.015181187613612885 0 0.0087994377740178119 -0.015263357685850852 0 0.0086510824702346334 -0.015301024993713178 0 0.0087052885575672756 -0.015223498987396587 0 0.0087339554525877362 -0.015413287179776539 0 0.0087994377740178119 -0.015263357685850852 0 0.0086510824702346334 -0.015301024993713178 0 0.0085521829479488515 -0.015421363549443647 0 0.0086510824702346334 -0.015301024993713178 0 0.0085410397449325378 -0.015327187687416715 0 0.0085521829479488515 -0.015421363549443647 0 0.0087339554525877362 -0.015413287179776539 0 0.0086510824702346334 -0.015301024993713178 0 0.0084749050508987466 -0.015418626667914262 0 0.0085521829479488515 -0.015421363549443647 0 0.0085410397449325378 -0.015327187687416715 0 0.0084749050508987466 -0.015418626667914262 0 0.0085410397449325378 -0.015327187687416715 0 0.0084498235801047962 -0.015284521993706385 0 0.0085410397449325378 -0.015327187687416715 0 0.0085878473584825518 -0.015181187613612885 0 0.0084498235801047962 -0.015284521993706385 0 0.0085878473584825518 -0.015181187613612885 0 0.0084086286152882609 -0.01509044312875135 0 0.0084498235801047962 -0.015284521993706385 0 0.0085878473584825518 -0.015181187613612885 0 0.0084086286152882609 -0.01509044312875135 0 0.0086250495144720683 -0.014922731907447039 0 0.0084086286152882609 -0.01509044312875135 0 0.0083530122925416801 -0.015253790961026468 0 0.0084498235801047962 -0.015284521993706385 0 0.0083570735177688014 -0.015412521091194153 0 0.0083530122925416801 -0.015253790961026468 0 0.0084498235801047962 -0.015284521993706385 0 0.0083570735177688014 -0.015412521091194153 0 0.0084749050508987466 -0.015418626667914262 0 0.0084498235801047962 -0.015284521993706385 0 0.0045282089489219121 -0.016357140869428691 0 0.0048079693742565377 -0.016386090926584575 0 0.0047063456080718947 -0.016568632261348991 0 0.0035936084527964751 -0.015536965746831789 0 0.004461814622392808 -0.016562947843796319 0 0.0040576458484449813 -0.016462234759444305 0 0.0041808708511913107 -0.01612926029428053 0 0.0043714140004539439 -0.01649523099441377 0 0.0041808708511913107 -0.01612926029428053 0 0.0043714140004539439 -0.01649523099441377 0 0.004655105463232184 -0.016162808535063782 0 0.0045282089489219121 -0.016357140869428691 0 0.004655105463232184 -0.016162808535063782 0 0.0048079693742565377 -0.016386090926584575 0 0.004461814622392808 -0.016562947843796319 0 0.0046561803466397969 -0.016139160518638746 0 0.0049190636581342888 -0.016111496614101429 0 0.004655105463232184 -0.016162808535063782 0 0.0048079693742565377 -0.016386090926584575 0 0.0049190636581342888 -0.016111496614101429 0 0.0051712132616531375 -0.016235469590869151 0 0.0048079693742565377 -0.016386090926584575 0 0.0050923195549518142 -0.016170711956482956 0 0.0048577264859711363 -0.016370885399797235 0 0.0051996574263940762 -0.016013822520404064 0 0.0049190636581342888 -0.016111496614101429 0 0.0051712132616531375 -0.016235469590869151 0 0.0051512602325007335 -0.016120507405587573 0 0.0052598833649165734 -0.016334999265116532 0 0.0048079693742565377 -0.016386090926584575 0 0.0058240694026930216 -0.015746083647490909 0 0.0059892435782795692 -0.015822896078898311 0 0.0052598833649165734 -0.016334999265116532 0 0.0048079693742565377 -0.016386090926584575 0 0.0049549173081881275 -0.016606445072814141 0 0.0048079693742565377 -0.016386090926584575 0 0.0049549173081881275 -0.016606445072814141 0 0.0047063456080718947 -0.016568632261348991 0 0.0065598487612964843 -0.015177722668977569 0 0.006891084571694947 -0.014794244867541422 0 0.0065844181294724413 -0.014825497988650215 0 0.006891084571694947 -0.014794244867541422 0 0.0065844181294724413 -0.014825497988650215 0 0.0066407527834797713 -0.014555763526298129 0 0.006891084571694947 -0.014794244867541422 0 0.0066407527834797713 -0.014555763526298129 0 0.0068534628456710309 -0.014452682710584711 0 0.0065079749535750632 -0.014638842847899319 0 0.0065844181294724413 -0.014825497988650215 0 0.0066407527834797713 -0.014555763526298129 0 0.0066407527834797713 -0.014555763526298129 0 0.0068534628456710309 -0.014452682710584711 0 0.0066337760413923029 -0.014378827042681111 0 0.0066407527834797713 -0.014555763526298129 0 0.0065630998969720914 -0.014424101764646795 0 0.0066337760413923029 -0.014378827042681111 0 0.0064879402360255838 -0.014484195386644121 0 0.0066407527834797713 -0.014555763526298129 0 0.0065630998969720914 -0.014424101764646795 0 0.0059892435782795692 -0.015822896078898311 0 0.005430791381239683 -0.01477138087630772 0 0.006891084571694947 -0.014794244867541422 0 0.0068534628456710309 -0.014452682710584711 0 0.0071933036894571119 -0.014433300017017968 0 0.0047204276389670868 -0.016812678320077903 0 0.0047063456080718947 -0.016568632261348991 0 0.0045441757169961301 -0.016683310451186099 0 0.0049549173081881275 -0.016606445072814141 0 0.0047204276389670868 -0.016812678320077903 0 0.0047063456080718947 -0.016568632261348991 0 0.005430791381239683 -0.01477138087630772 0 0.0045593036807306505 -0.015443159795042516 0 0.0045282089489219121 -0.016357140869428691 0 0.0047063456080718947 -0.016568632261348991 0 0.0045370763665388706 -0.016539648777713481 0 0.0043711732726097437 -0.016548903170137488 0 0.0045282089489219121 -0.016357140869428691 0 0.0045370763665388706 -0.016539648777713481 0 0.0047063456080718947 -0.016568632261348991 0 0.0045370763665388706 -0.016539648777713481 0 0.0045441757169961301 -0.016683310451186099 0 0.004424718922106022 -0.014079640587962301 0 0.0044379435982538533 -0.014122652545174983 0 0.0044942518110058696 -0.014116035820240085 0 0.0035936084527964751 -0.015536965746831789 0 0.0045593036807306505 -0.015443159795042516 0 0.0043711732726097437 -0.016548903170137488 0 0.0045370763665388706 -0.016539648777713481 0 0.0045441757169961301 -0.016683310451186099 0 0.0044379435982538533 -0.014122652545174983 0 0.0044942518110058696 -0.014116035820240085 0 0.0044902299229930207 -0.014163590104253177 0 0.0045729587362594347 -0.014166710553591996 0 0.0044942518110058696 -0.014116035820240085 0 0.0044902299229930207 -0.014163590104253177 0 0.0053389200680994666 -0.013484981055537394 0 0.0044158140578433669 -0.01415793124552058 0 0.0044902299229930207 -0.014163590104253177 0 0.0045335723284254063 -0.014203430440799435 0 0.0044517729376994343 -0.014195559650689967 0 0.0044182754850772017 -0.014155493148458086 0 0.0044902299229930207 -0.014163590104253177 0 0.0044517729376994343 -0.014195559650689967 0 0.004650330646013375 -0.014315554363635123 0 0.0048284884422144228 -0.014128612446926378 0 0.0045968397658075521 -0.014139289815673134 0 0.0053613654412898708 -0.01212900215230551 0 0.0053389200680994666 -0.013484981055537394 0 0.0058821062836936343 -0.011491992082366355 0 0.0060231934632867358 -0.011523014966461012 0 0.006052022414546116 -0.011322069590750355 0 0.0060231934632867358 -0.011523014966461012 0 0.0058633477104331252 -0.011652833383963272 0 0.0062123532808135949 -0.011630487329253142 0 0.0053613654412898708 -0.01212900215230551 0 0.0059790821164801755 -0.011745032785075951 0 0.0058331812939551283 -0.011477913823567254 0 0.0060231934632867358 -0.011523014966461012 0 0.0058633477104331252 -0.011652833383963272 0 0.0058331812939551283 -0.011477913823567254 0 0.0058633477104331252 -0.011652833383963272 0 0.005676563273388488 -0.011685693526293575 0 0.0060231934632867358 -0.011523014966461012 0 0.0061813219204753939 -0.011462380964669153 0 0.006052022414546116 -0.011322069590750355 0 0.0061813219204753939 -0.011462380964669153 0 0.006314528895416228 -0.011514787029752551 0 0.0062123532808135949 -0.011630487329253142 0 0.0060231934632867358 -0.011523014966461012 0 0.0061813219204753939 -0.011462380964669153 0 0.0062123532808135949 -0.011630487329253142 0 0.0045729587362594347 -0.014166710553591996 0 0.0044902299229930207 -0.014163590104253177 0 0.0045335723284254063 -0.014203430440799435 0 0.0061813219204753939 -0.011462380964669153 0 0.006052022414546116 -0.011322069590750355 0 0.0062968400633484026 -0.011326529240881003 0 0.0057551699839496111 -0.013612489785275923 0 0.0054744797862010764 -0.013911968951651468 0 0.0061411332940552133 -0.013915429044834846 0 0.0053389200680994666 -0.013484981055537394 0 0.0065832176820344755 -0.013562636303150856 0 0.005430791381239683 -0.01477138087630772 0 0.0053389200680994666 -0.013484981055537394 0 0.005430791381239683 -0.01477138087630772 0 0.0065832176820344755 -0.013562636303150856 0 0.0068534628456710309 -0.014452682710584711 0 0.0071933036894571119 -0.014433300017017968 0 0.0070196936490967508 -0.014288906117591824 0 0.0065832176820344755 -0.013562636303150856 0 0.0069433314903716969 -0.014231926548517909 0 0.0068534628456710309 -0.014452682710584711 0 0.0070196936490967508 -0.014288906117591824 0 0.0067380058704324544 -0.014277913967742998 0 0.0069451845034054667 -0.01418383846839708 0 0.0066761593470087161 -0.013987410265478822 0 0.0064271567766857841 -0.014213821865843345 0 0.0074332633685003195 -0.01417874537247908 0 0.0069451845034054667 -0.01418383846839708 0 0.0067865330197390324 -0.013651762525808931 0 0.0069433314903716969 -0.014231926548517909 0 0.0064287819850288959 -0.014218776859600286 0 0.0066337760413923029 -0.014378827042681111 0 0.0067380058704324544 -0.014277913967742998 0 0.0064862212901648821 -0.014268950460109231 0 0.0068534628456710309 -0.014452682710584711 0 0.0066337760413923029 -0.014378827042681111 0 0.0067380058704324544 -0.014277913967742998 0 0.0069451845034054667 -0.01418383846839708 0 0.0066761593470087161 -0.013987410265478822 0 0.0067865330197390324 -0.013651762525808931 0 0.0062968400633484026 -0.011326529240881003 0 0.006592770156754065 -0.011547874957572569 0 0.006314528895416228 -0.011514787029752551 0 0.0061813219204753939 -0.011462380964669153 0 0.0062968400633484026 -0.011326529240881003 0 0.006314528895416228 -0.011514787029752551 0 0.006592770156754065 -0.011547874957572569 0 0.006314528895416228 -0.011514787029752551 0 0.0062776810715404561 -0.011663296088306191 0 0.0065832176820344755 -0.013562636303150856 0 0.0075637857535681297 -0.011344250022239807 0 0.0075637857535681297 -0.011344250022239807 0 0.0072887654392398988 -0.010217891949904691 0 0.006314528895416228 -0.011514787029752551 0 0.0062776810715404561 -0.011663296088306191 0 0.0062123532808135949 -0.011630487329253142 0 0.0082593968744628151 -0.0090533240293841181 0 0.0082793271113317506 -0.009056566068495463 0 0.0082684053349071571 -0.0090454288368450632 0 0.0082817552704597727 -0.0090603091340389092 0 0.0082593968744628151 -0.0090533240293841181 0 0.0082793271113317506 -0.009056566068495463 0 0.0082793271113317506 -0.009056566068495463 0 0.0082935959057384677 -0.00906074156219671 0 0.0082973709111413187 -0.0090616249572611392 0 0.0082817552704597727 -0.0090603091340389092 0 0.0082793271113317506 -0.009056566068495463 0 0.0082935959057384677 -0.00906074156219671 0 0.010687653863090136 -0.00755891746951477 0 0.01154071247090286 -0.0073139874152023387 0 0.011461568970441358 -0.0080108942796064727 0 0.0082793271113317506 -0.009056566068495463 0 0.0082684053349071571 -0.0090454288368450632 0 0.0082973709111413187 -0.0090616249572611392 0 0.0093790843681837554 -0.0082355611938691922 0 0.010527523340019326 -0.0089442596550595322 0 0.0082593968744628151 -0.0090533240293841181 0 0.0082684053349071571 -0.0090454288368450632 0 0.0082633579880324725 -0.0090351270286805358 0 0.0082633579880324725 -0.0090351270286805358 0 0.0082753805700169769 -0.0090444691665834773 0 0.0082656687449644967 -0.0089891986849953524 0 0.0093790843681837554 -0.0082355611938691922 0 0.0091539481747587755 -0.0084475006970714701 0 0.0082684053349071571 -0.0090454288368450632 0 0.0082633579880324725 -0.0090351270286805358 0 0.0082656687449644967 -0.0089891986849953524 0 0.0082753805700169769 -0.0090444691665834773 0 0.0083261941987207953 -0.0089735813495623803 0 0.0082656687449644967 -0.0089891986849953524 0 0.0061397844355410821 -0.011638928583043398 0 0.0060862645283127157 -0.01160810188467035 0 0.0062123532808135949 -0.011630487329253142 0 0.0059397640096072631 -0.011705962429855159 0 0.0061913644652008756 -0.011632542568897581 0 0.0057858806062371822 -0.01181373182121581 0 0.0058633477104331252 -0.011652833383963272 0 0.0062123532808135949 -0.011630487329253142 0 0.0057858806062371822 -0.01181373182121581 0 0.0058633477104331252 -0.011652833383963272 0 0.0057307116414404722 -0.01174001800415898 0 0.0062776810715404561 -0.011663296088306191 0 0.0061397844355410821 -0.011638928583043398 0 0.0062123532808135949 -0.011630487329253142 0 0.0072887654392398988 -0.010217891949904691 0 0.0072014425101644044 -0.010362281974515511 0 0.0082593968744628151 -0.0090533240293841181 0 0.0082633579880324725 -0.0090351270286805358 0 0.0082753805700169769 -0.0090444691665834773 0 0.011942365676412948 -0.010375537085836177 0 0.011918897495122894 -0.010192420632971287 0 0.011919441829875548 -0.010359947608610221 0 0.011942365676412948 -0.010375537085836177 0 0.012013617602010043 -0.010227010608334294 0 0.011918897495122894 -0.010192420632971287 0 0.011946822524640313 -0.010486043155118595 0 0.011942365676412948 -0.010375537085836177 0 0.011998941007083382 -0.010523315196228393 0 0.011946822524640313 -0.010486043155118595 0 0.011942365676412948 -0.010375537085836177 0 0.012055130336796787 -0.010412636917320752 0 0.010156220255830234 -0.012794172093191745 0 0.010599154030226016 -0.012613230344141826 0 0.011942365676412948 -0.010375537085836177 0 0.012013617602010043 -0.010227010608334294 0 0.012055130336796787 -0.010412636917320752 0 0.012013617602010043 -0.010227010608334294 0 0.01216566826824979 -0.010206405061519841 0 0.012090303276241747 -0.010081482458833751 0 0.01216566826824979 -0.010206405061519841 0 0.012055130336796787 -0.010412636917320752 0 0.012327816133184632 -0.010293013881793978 0 0.012013617602010043 -0.010227010608334294 0 0.01216566826824979 -0.010206405061519841 0 0.012055130336796787 -0.010412636917320752 0 0.0086250495144720683 -0.014922731907447039 0 0.0087382410709883774 -0.015003707374505791 0 0.0089153909311882017 -0.014743564137529414 0 0.0085878473584825518 -0.015181187613612885 0 0.0086250495144720683 -0.014922731907447039 0 0.0087382410709883774 -0.015003707374505791 0 0.010599154030226016 -0.012613230344141826 0 0.0093509197623243192 -0.012562559112253003 0 0.0063619308920250086 -0.01441478062069021 0 0.0064271567766857841 -0.014213821865843345 0 0.0064727218238650307 -0.013799564422017324 0 0.0067380058704324544 -0.014277913967742998 0 0.0064271567766857841 -0.014213821865843345 0 0.0064862212901648821 -0.014268950460109231 0 0.0087382410709883774 -0.015003707374505791 0 0.0088650537603695151 -0.015025071682331987 0 0.0089153909311882017 -0.014743564137529414 0 0.0075163894081285527 -0.015095841536449319 0 0.0093509197623243192 -0.012562559112253003 0 0.0065630998969720914 -0.014424101764646795 0 0.0066337760413923029 -0.014378827042681111 0 0.0064862212901648821 -0.014268950460109231 0 0.0063619308920250086 -0.01441478062069021 0 0.0064271567766857841 -0.014213821865843345 0 0.0064862212901648821 -0.014268950460109231 0 0.0066761593470087161 -0.013987410265478822 0 0.0064271567766857841 -0.014213821865843345 0 0.0064727218238650307 -0.013799564422017324 0 0.0066761593470087161 -0.013987410265478822 0 0.0067865330197390324 -0.013651762525808931 0 0.0064727218238650307 -0.013799564422017324 0 0.0075637857535681297 -0.011344250022239807 0 0.0093509197623243192 -0.012562559112253003 0 0.01216566826824979 -0.010206405061519841 0 0.012327816133184632 -0.010293013881793978 0 0.01236876136575716 -0.010126408357566547 0 0.0075637857535681297 -0.011344250022239807 0 0.0099871185346993609 -0.0099709562260784403 0 0.0093509197623243192 -0.012562559112253003 0 0.0099871185346993609 -0.0099709562260784403 0 0.0091969326543389959 -0.011331515134314886 0 0.0090246551273615531 -0.011416882999903153 0 0.0090558018146399532 -0.011211131987993356 0 0.01216566826824979 -0.010206405061519841 0 0.01236876136575716 -0.010126408357566547 0 0.012179313991777336 -0.010042357753006076 0 0.0099871185346993609 -0.0099709562260784403 0 0.010527523340019326 -0.0089442596550595322 0 0.010747956389615098 -0.0093532493383516567 0 0.010685484431280536 -0.0097792971077796699 0 0.01113378566105561 -0.0096539846658745803 0 0.0099871185346993609 -0.0099709562260784403 0 0.012000543917814899 -0.0098414916202833845 0 0.01236876136575716 -0.010126408357566547 0 0.012186577724010364 -0.009912841803667154 0 0.012179313991777336 -0.010042357753006076 0 0.010527523340019326 -0.0089442596550595322 0 0.011754325055932567 -0.0085658237589971431 0 0.012025219433860188 -0.0095807807191980905 0 0.011990448537337222 -0.0096130175116010182 0 0.012000971671926241 -0.0096658274182411987 0 0.012025219433860188 -0.0095807807191980905 0 0.011959276851948373 -0.009493113630780264 0 0.01190588714179258 -0.0093197030842427538 0 0.010527523340019326 -0.0089442596550595322 0 0.012000543917814899 -0.0098414916202833845 0 0.012025219433860188 -0.0095807807191980905 0 0.011959276851948373 -0.009493113630780264 0 0.011990448537337222 -0.0096130175116010182 0 0.011990448537337222 -0.0096130175116010182 0 0.011987272109339409 -0.0095873391424075999 0 0.012052363743011059 -0.0097420556856119001 0 0.011990448537337222 -0.0096130175116010182 0 0.012052363743011059 -0.0097420556856119001 0 0.012000971671926241 -0.0096658274182411987 0 0.011959276851948373 -0.009493113630780264 0 0.011990448537337222 -0.0096130175116010182 0 0.011987272109339409 -0.0095873391424075999 0 0.011987272109339409 -0.0095873391424075999 0 0.01200492519586146 -0.0097545866085105015 0 0.011977768685731711 -0.0095581754518742051 0 0.011987272109339409 -0.0095873391424075999 0 0.01200492519586146 -0.0097545866085105015 0 0.012052363743011059 -0.0097420556856119001 0 0.01200492519586146 -0.0097545866085105015 0 0.012052363743011059 -0.0097420556856119001 0 0.012037314636778349 -0.009928771826365021 0 0.012037314636778349 -0.009928771826365021 0 0.012090303276241747 -0.010081482458833751 0 0.011978405634766676 -0.010005592869138073 0 0.012037314636778349 -0.009928771826365021 0 0.012114901078089328 -0.0099925781215672131 0 0.012147409674343001 -0.0099127359549895881 0 0.012037314636778349 -0.009928771826365021 0 0.012114901078089328 -0.0099925781215672131 0 0.012090303276241747 -0.010081482458833751 0 0.012052363743011059 -0.0097420556856119001 0 0.012037314636778349 -0.009928771826365021 0 0.012147409674343001 -0.0099127359549895881 0 0.012020725806575077 -0.0098156870302373647 0 0.012000543917814899 -0.0098414916202833845 0 0.012052363743011059 -0.0097420556856119001 0 0.012244061034996383 -0.0098844835041305961 0 0.012147409674343001 -0.0099127359549895881 0 0.012000543917814899 -0.0098414916202833845 0 0.012031315508062152 -0.0098396049967059904 0 0.012114901078089328 -0.0099925781215672131 0 0.012147409674343001 -0.0099127359549895881 0 0.012179313991777336 -0.010042357753006076 0 0.012186577724010364 -0.009912841803667154 0 0.012147409674343001 -0.0099127359549895881 0 0.012179313991777336 -0.010042357753006076 0 0.01216566826824979 -0.010206405061519841 0 0.012179313991777336 -0.010042357753006076 0 0.012090303276241747 -0.010081482458833751 0 0.012114901078089328 -0.0099925781215672131 0 0.012179313991777336 -0.010042357753006076 0 0.012090303276241747 -0.010081482458833751 0 0.012013617602010043 -0.010227010608334294 0 0.012090303276241747 -0.010081482458833751 0 0.011978405634766676 -0.010005592869138073 0 0.012013617602010043 -0.010227010608334294 0 0.011978405634766676 -0.010005592869138073 0 0.011918897495122894 -0.010192420632971287 0 0.011978405634766676 -0.010005592869138073 0 0.011888593580716148 -0.0099803447343276841 0 0.011918897495122894 -0.010192420632971287 0 0.01200492519586146 -0.0097545866085105015 0 0.012037314636778349 -0.009928771826365021 0 0.011978405634766676 -0.010005592869138073 0 0.01200492519586146 -0.0097545866085105015 0 0.011978405634766676 -0.010005592869138073 0 0.011949337584291571 -0.0097931779910456623 0 0.011949337584291571 -0.0097931779910456623 0 0.011822250821184762 -0.0097340366037509587 0 0.011977768685731711 -0.0095581754518742051 0 0.01200492519586146 -0.0097545866085105015 0 0.011949337584291571 -0.0097931779910456623 0 0.011977768685731711 -0.0095581754518742051 0 0.011978405634766676 -0.010005592869138073 0 0.011949337584291571 -0.0097931779910456623 0 0.011888593580716148 -0.0099803447343276841 0 0.011949337584291571 -0.0097931779910456623 0 0.011888593580716148 -0.0099803447343276841 0 0.011822250821184762 -0.0097340366037509587 0 0.011888593580716148 -0.0099803447343276841 0 0.011822250821184762 -0.0097340366037509587 0 0.011830606397839082 -0.010167222496537974 0 0.011888593580716148 -0.0099803447343276841 0 0.011918897495122894 -0.010192420632971287 0 0.011830606397839082 -0.010167222496537974 0 0.012429396784800439 -0.0095236777557579141 0 0.012266240993953207 -0.0094225835570744751 0 0.012168182337421651 -0.0095579996598513465 0 0.012429396784800439 -0.0095236777557579141 0 0.012266240993953207 -0.0094225835570744751 0 0.012519633076865785 -0.0094586771463167785 0 0.012266240993953207 -0.0094225835570744751 0 0.012432306636738305 -0.0093047349615321025 0 0.012519633076865785 -0.0094586771463167785 0 0.012128713874887939 -0.009522380397313162 0 0.012008265482393674 -0.009392173328420966 0 0.012266240993953207 -0.0094225835570744751 0 0.012432306636738305 -0.0093047349615321025 0 0.011985255178710803 -0.0093581509431690749 0 0.011822250821184762 -0.0097340366037509587 0 0.011985255178710803 -0.0093581509431690749 0 0.011977768685731711 -0.0095581754518742051 0 0.012266240993953207 -0.0094225835570744751 0 0.011985255178710803 -0.0093581509431690749 0 0.012168182337421651 -0.0095579996598513465 0 0.011985255178710803 -0.0093581509431690749 0 0.011882040082352581 -0.00932006850529935 0 0.011804442267046503 -0.0092378664273244059 0 0.011985255178710803 -0.0093581509431690749 0 0.011977768685731711 -0.0095581754518742051 0 0.011882040082352581 -0.00932006850529935 0 0.011959276851948373 -0.009493113630780264 0 0.011987272109339409 -0.0095873391424075999 0 0.011882040082352581 -0.00932006850529935 0 0.011987272109339409 -0.0095873391424075999 0 0.011977768685731711 -0.0095581754518742051 0 0.011882040082352581 -0.00932006850529935 0 0.011959276851948373 -0.009493113630780264 0 0.011882040082352581 -0.00932006850529935 0 0.01190588714179258 -0.0093197030842427538 0 0.011882040082352581 -0.00932006850529935 0 0.01190588714179258 -0.0093197030842427538 0 0.011457315463426052 -0.0089152840393512713 0 0.011882040082352581 -0.00932006850529935 0 0.011804442267046503 -0.0092378664273244059 0 0.011457315463426052 -0.0089152840393512713 0 0.011804442267046503 -0.0092378664273244059 0 0.011457315463426052 -0.0089152840393512713 0 0.011180204501646128 -0.0091835850781903598 0 0.011791802863953408 -0.0094989624963652038 0 0.011180204501646128 -0.0091835850781903598 0 0.011195207437117549 -0.0095914023864775658 0 0.011791802863953408 -0.0094989624963652038 0 0.011804442267046503 -0.0092378664273244059 0 0.011180204501646128 -0.0091835850781903598 0 0.011791802863953408 -0.0094989624963652038 0 0.011804442267046503 -0.0092378664273244059 0 0.012168182337421651 -0.0095579996598513465 0 0.011985255178710803 -0.0093581509431690749 0 0.011804442267046503 -0.0092378664273244059 0 0.012168182337421651 -0.0095579996598513465 0 0.011916177993883701 -0.0092883682717263601 0 0.012572839770583459 -0.0090892033333593893 0 0.012042823362126963 -0.0090723599635634065 0 0.012948227646877489 -0.0086218370741289168 0 0.012876872897283941 -0.0092802001421684287 0 0.012948227646877489 -0.0086218370741289168 0 0.013398057874096137 -0.0087843341077175757 0 0.012876872897283941 -0.0092802001421684287 0 0.013398057874096137 -0.0087843341077175757 0 0.013683501966353781 -0.0091185823390720153 0 0.012876872897283941 -0.0092802001421684287 0 0.012429396784800439 -0.0095236777557579141 0 0.012168182337421651 -0.0095579996598513465 0 0.012642203337934524 -0.0096243739543012911 0 0.012948227646877489 -0.0086218370741289168 0 0.013398057874096137 -0.0087843341077175757 0 0.013734976237509156 -0.008378886101702742 0 0.012572839770583459 -0.0090892033333593893 0 0.013244756455053472 -0.0089498619888187126 0 0.010136597637015876 -0.008242684099591082 0 0.010195326634262055 -0.0084631569981345744 0 0.010511997950803837 -0.0084047297222667842 0 0.010136597637015876 -0.008242684099591082 0 0.010460623455878663 -0.0080561451659405675 0 0.010511997950803837 -0.0084047297222667842 0 0.010195326634262055 -0.0084631569981345744 0 0.010511997950803837 -0.0084047297222667842 0 0.010440652408716066 -0.0086477854802207658 0 0.010195326634262055 -0.0084631569981345744 0 0.0098834506762838208 -0.0084173258772430506 0 0.010067515210233406 -0.0085966168278136471 0 0.010136597637015876 -0.008242684099591082 0 0.010195326634262055 -0.0084631569981345744 0 0.0098834506762838208 -0.0084173258772430506 0 0.0098834506762838208 -0.0084173258772430506 0 0.0096576548164972621 -0.008469286217048632 0 0.0096893700563962758 -0.0083602936364807357 0 0.0098834506762838208 -0.0084173258772430506 0 0.009839205117201438 -0.0082278239869429323 0 0.0096893700563962758 -0.0083602936364807357 0 0.010136597637015876 -0.008242684099591082 0 0.0098834506762838208 -0.0084173258772430506 0 0.009839205117201438 -0.0082278239869429323 0 0.0083261941987207953 -0.0089735813495623803 0 0.0082656687449644967 -0.0089891986849953524 0 0.0083712397067400753 -0.0088649173836942204 0 0.009839205117201438 -0.0082278239869429323 0 0.0099627046928771213 -0.0079003398229008266 0 0.0096489512025664508 -0.0082235862675871865 0 0.0091539481747587755 -0.0084475006970714701 0 0.0090222418722132065 -0.0085304700908042028 0 0.010136597637015876 -0.008242684099591082 0 0.0099627046928771213 -0.0079003398229008266 0 0.010460623455878663 -0.0080561451659405675 0 0.010136597637015876 -0.008242684099591082 0 0.009839205117201438 -0.0082278239869429323 0 0.0099627046928771213 -0.0079003398229008266 0 0.010687653863090136 -0.00755891746951477 0 0.0099627046928771213 -0.0079003398229008266 0 0.010460623455878663 -0.0080561451659405675 0 0.010687653863090136 -0.00755891746951477 0 0.010460623455878663 -0.0080561451659405675 0 0.010906547284417983 -0.0082755805040604924 0 0.010687653863090136 -0.00755891746951477 0 0.011461568970441358 -0.0080108942796064727 0 0.010906547284417983 -0.0082755805040604924 0 0.011461568970441358 -0.0080108942796064727 0 0.011457315463426052 -0.0089152840393512713 0 0.010906547284417983 -0.0082755805040604924 0 0.011754325055932567 -0.0085658237589971431 0 0.011486093566794284 -0.0089923709534314774 0 0.011457315463426052 -0.0089152840393512713 0 0.010906547284417983 -0.0082755805040604924 0 0.010898365049336957 -0.0088302954088061419 0 0.010511997950803837 -0.0084047297222667842 0 0.010906547284417983 -0.0082755805040604924 0 0.010898365049336957 -0.0088302954088061419 0 0.010460623455878663 -0.0080561451659405675 0 0.010511997950803837 -0.0084047297222667842 0 0.010906547284417983 -0.0082755805040604924 0 0.010511997950803837 -0.0084047297222667842 0 0.010440652408716066 -0.0086477854802207658 0 0.010898365049336957 -0.0088302954088061419 0 0.010440652408716066 -0.0086477854802207658 0 0.010898365049336957 -0.0088302954088061419 0 0.010532503967106543 -0.0088654104065350112 0 0.010898365049336957 -0.0088302954088061419 0 0.010532503967106543 -0.0088654104065350112 0 0.011180204501646128 -0.0091835850781903598 0 0.011457315463426052 -0.0089152840393512713 0 0.010898365049336957 -0.0088302954088061419 0 0.011180204501646128 -0.0091835850781903598 0 0.011180204501646128 -0.0091835850781903598 0 0.010404758134582533 -0.0091129656306242791 0 0.010647336787854032 -0.0095406642852590463 0 0.010532503967106543 -0.0088654104065350112 0 0.011180204501646128 -0.0091835850781903598 0 0.010404758134582533 -0.0091129656306242791 0 0.010404758134582533 -0.0091129656306242791 0 0.010060165129842839 -0.0091309502956546402 0 0.010105692540811262 -0.0088033186952337205 0 0.010060165129842839 -0.0091309502956546402 0 0.0097757920384004288 -0.0087029820574686043 0 0.0093842796834334077 -0.0086145957058140089 0 0.010060165129842839 -0.0091309502956546402 0 0.0097757920384004288 -0.0087029820574686043 0 0.010105692540811262 -0.0088033186952337205 0 0.0097757920384004288 -0.0087029820574686043 0 0.010105692540811262 -0.0088033186952337205 0 0.009835760360061379 -0.0086330640376052134 0 0.010532503967106543 -0.0088654104065350112 0 0.010404758134582533 -0.0091129656306242791 0 0.010105692540811262 -0.0088033186952337205 0 0.010532503967106543 -0.0088654104065350112 0 0.010105692540811262 -0.0088033186952337205 0 0.010067515210233406 -0.0085966168278136471 0 0.009835760360061379 -0.0086330640376052134 0 0.010067515210233406 -0.0085966168278136471 0 0.0097274400820834672 -0.0085338275367506777 0 0.010105692540811262 -0.0088033186952337205 0 0.009835760360061379 -0.0086330640376052134 0 0.010067515210233406 -0.0085966168278136471 0 0.0098834506762838208 -0.0084173258772430506 0 0.010067515210233406 -0.0085966168278136471 0 0.0097274400820834672 -0.0085338275367506777 0 0.010440652408716066 -0.0086477854802207658 0 0.010532503967106543 -0.0088654104065350112 0 0.010067515210233406 -0.0085966168278136471 0 0.010195326634262055 -0.0084631569981345744 0 0.010440652408716066 -0.0086477854802207658 0 0.010067515210233406 -0.0085966168278136471 0 0.0098834506762838208 -0.0084173258772430506 0 0.0096576548164972621 -0.008469286217048632 0 0.0097274400820834672 -0.0085338275367506777 0 0.009835760360061379 -0.0086330640376052134 0 0.0097274400820834672 -0.0085338275367506777 0 0.0095725618818843661 -0.0085710681940969393 0 0.0097274400820834672 -0.0085338275367506777 0 0.0095453926855164697 -0.0084893989001803213 0 0.0095725618818843661 -0.0085710681940969393 0 0.0096576548164972621 -0.008469286217048632 0 0.0097274400820834672 -0.0085338275367506777 0 0.0095453926855164697 -0.0084893989001803213 0 0.0095453926855164697 -0.0084893989001803213 0 0.0094567782735543501 -0.008517897457712087 0 0.0095725618818843661 -0.0085710681940969393 0 0.0094567782735543501 -0.008517897457712087 0 0.0093842796834334077 -0.0086145957058140089 0 0.0093316771644452717 -0.0075589186870130285 0 0.0094567782735543501 -0.008517897457712087 0 0.0095725618818843661 -0.0085710681940969393 0 0.0093842796834334077 -0.0086145957058140089 0 0.0097757920384004288 -0.0087029820574686043 0 0.009835760360061379 -0.0086330640376052134 0 0.0095725618818843661 -0.0085710681940969393 0 0.0097757920384004288 -0.0087029820574686043 0 0.0095725618818843661 -0.0085710681940969393 0 0.0093842796834334077 -0.0086145957058140089 0 0.0095453926855164697 -0.0084893989001803213 0 0.0094567782735543501 -0.008517897457712087 0 0.009595349686365346 -0.0082321564031614392 0 0.0094567782735543501 -0.008517897457712087 0 0.009595349686365346 -0.0082321564031614392 0 0.0096040861482163137 -0.0075903108796030825 0 0.0094366399794388323 -0.0083907107801145259 0 0.0098384088527487135 -0.0075418662375147045 0 0.009595349686365346 -0.0082321564031614392 0 0.0097587918658734868 -0.0085602587843311637 0 0.010206859116540026 -0.0079286869762024113 0 0.009595349686365346 -0.0082321564031614392 0 0.010206859116540026 -0.0079286869762024113 0 0.0096040861482163137 -0.0075903108796030825 0 0.0097587918658734868 -0.0085602587843311637 0 0.0096038938756705782 -0.0084599341765148033 0 0.009650877911637849 -0.0084442390620793999 0 0.009595349686365346 -0.0082321564031614392 0 0.0097587918658734868 -0.0085602587843311637 0 0.0096038938756705782 -0.0084599341765148033 0 0.0096576548164972621 -0.008469286217048632 0 0.0095453926855164697 -0.0084893989001803213 0 0.0096038938756705782 -0.0084599341765148033 0 0.0095453926855164697 -0.0084893989001803213 0 0.009595349686365346 -0.0082321564031614392 0 0.0096038938756705782 -0.0084599341765148033 0 0.0096576548164972621 -0.008469286217048632 0 0.0096038938756705782 -0.0084599341765148033 0 0.009650877911637849 -0.0084442390620793999 0 0.0096576548164972621 -0.008469286217048632 0 0.0096893700563962758 -0.0083602936364807357 0 0.009650877911637849 -0.0084442390620793999 0 0.0096893700563962758 -0.0083602936364807357 0 0.009650877911637849 -0.0084442390620793999 0 0.0096482958481827353 -0.0083847275366824119 0 0.0096893700563962758 -0.0083602936364807357 0 0.0096482958481827353 -0.0083847275366824119 0 0.0096489512025664508 -0.0082235862675871865 0 0.0097587918658734868 -0.0085602587843311637 0 0.009650877911637849 -0.0084442390620793999 0 0.0096482958481827353 -0.0083847275366824119 0 0.0097587918658734868 -0.0085602587843311637 0 0.0095785811227900777 -0.0084471201351740514 0 0.0096482958481827353 -0.0083847275366824119 0 0.0095785811227900777 -0.0084471201351740514 0 0.0096482958481827353 -0.0083847275366824119 0 0.0095535318744007156 -0.0083058849116439334 0 0.0085441765565028253 -0.0088317964092403268 0 0.0083712397067400753 -0.0088649173836942204 0 0.0086618727674128166 -0.0086747917297933935 0 0.0071534307983791255 -0.010281784474499732 0 0.0071964507288907603 -0.010332949336218488 0 0.0090222418722132065 -0.0085304700908042028 0 0.0091059529979211108 -0.0084872992856904663 0 0.0085441765565028253 -0.0088317964092403268 0 0.0087439050861064394 -0.0088029684478893484 0 0.008417525091014488 -0.0089885931794404968 0 0.0096482958481827353 -0.0083847275366824119 0 0.0096489512025664508 -0.0082235862675871865 0 0.0095535318744007156 -0.0083058849116439334 0 0.0085441765565028253 -0.0088317964092403268 0 0.0087439050861064394 -0.0088029684478893484 0 0.0086618727674128166 -0.0086747917297933935 0 0.0085441765565028253 -0.0088317964092403268 0 0.0083712397067400753 -0.0088649173836942204 0 0.008417525091014488 -0.0089885931794404968 0 0.009839205117201438 -0.0082278239869429323 0 0.0096893700563962758 -0.0083602936364807357 0 0.0096489512025664508 -0.0082235862675871865 0 0.0083261941987207953 -0.0089735813495623803 0 0.0083712397067400753 -0.0088649173836942204 0 0.008417525091014488 -0.0089885931794404968 0 0.0054985894201339961 -0.011782191762402019 0 0.005552765092869995 -0.011769124924896464 0 0.0056580530546151784 -0.011793810657011008 0 0.0071534307983791255 -0.010281784474499732 0 0.0074996742930572491 -0.010268273145145232 0 0.0054985894201339961 -0.011782191762402019 0 0.0056580530546151784 -0.011793810657011008 0 0.0054772655395885963 -0.011791090303840296 0 0.0054985894201339961 -0.011782191762402019 0 0.0055028359246918172 -0.011766945729538876 0 0.0054709573378916429 -0.01177353819337686 0 0.0054985894201339961 -0.011782191762402019 0 0.0055028359246918172 -0.011766945729538876 0 0.005552765092869995 -0.011769124924896464 0 0.005552765092869995 -0.011769124924896464 0 0.0056580530546151784 -0.011793810657011008 0 0.005845002863937218 -0.0116500941070544 0 0.0087439050861064394 -0.0088029684478893484 0 0.0086618727674128166 -0.0086747917297933935 0 0.0090408994767139528 -0.0084495016963971811 0 0.0091059529979211108 -0.0084872992856904663 0 0.0090545541369582393 -0.0084578714928740285 0 0.0095535318744007156 -0.0083058849116439334 0 0.0093257208925390297 -0.0084923014243700641 0 0.0090408994767139528 -0.0084495016963971811 0 0.0095785811227900777 -0.0084471201351740514 0 0.0095535318744007156 -0.0083058849116439334 0 0.0093257208925390297 -0.0084923014243700641 0 0.0095785811227900777 -0.0084471201351740514 0 0.0093257208925390297 -0.0084923014243700641 0 0.009279245749734339 -0.0087170408844777104 0 0.0093257208925390297 -0.0084923014243700641 0 0.0090408994767139528 -0.0084495016963971811 0 0.0090891690313615638 -0.0085960604239606175 0 0.0087439050861064394 -0.0088029684478893484 0 0.0090544698541188545 -0.0084649809834992998 0 0.0090408994767139528 -0.0084495016963971811 0 0.0090544698541188545 -0.0084649809834992998 0 0.0090408994767139528 -0.0084495016963971811 0 0.0089364570980421179 -0.0085631450455027191 0 0.0090408994767139528 -0.0084495016963971811 0 0.0090891690313615638 -0.0085960604239606175 0 0.0089364570980421179 -0.0085631450455027191 0 0.0098132009179863131 -0.0085878900797212946 0 0.010750697039389709 -0.0086508142317125551 0 0.0090891690313615638 -0.0085960604239606175 0 0.008943204354194453 -0.0087440059998668829 0 0.0089364570980421179 -0.0085631450455027191 0 0.010607087985933268 -0.0084808067535534822 0 0.010950349094130726 -0.0080254284645604867 0 0.011307431597009856 -0.0082585036418679047 0 0.0090891690313615638 -0.0085960604239606175 0 0.009279245749734339 -0.0087170408844777104 0 0.008943204354194453 -0.0087440059998668829 0 0.0093257208925390297 -0.0084923014243700641 0 0.0090891690313615638 -0.0085960604239606175 0 0.009279245749734339 -0.0087170408844777104 0 0.0098223737366658955 -0.0085713236061981165 0 0.0098132009179863131 -0.0085878900797212946 0 0.0097587918658734868 -0.0085602587843311637 0 0.0095785811227900777 -0.0084471201351740514 0 0.009279245749734339 -0.0087170408844777104 0 0.0097587918658734868 -0.0085602587843311637 0 0.010607087985933268 -0.0084808067535534822 0 0.010206859116540026 -0.0079286869762024113 0 0.010607087985933268 -0.0084808067535534822 0 0.010206859116540026 -0.0079286869762024113 0 0.010950349094130726 -0.0080254284645604867 0 0.010206859116540026 -0.0079286869762024113 0 0.010950349094130726 -0.0080254284645604867 0 0.011000234818562287 -0.0075059215230562455 0 0.010950349094130726 -0.0080254284645604867 0 0.011507325823912434 -0.0078310455732443322 0 0.011000234818562287 -0.0075059215230562455 0 0.011507325823912434 -0.0078310455732443322 0 0.011844311463789231 -0.0080775212727927648 0 0.011307431597009856 -0.0082585036418679047 0 0.010950349094130726 -0.0080254284645604867 0 0.011507325823912434 -0.0078310455732443322 0 0.011307431597009856 -0.0082585036418679047 0 0.0064627734908508953 -0.0044020643301642022 0 0.007991464826127833 -0.0018617244060119113 0 0.0030047122475096704 0.0018405318995498175 0 0.0035672075233831755 0.0025547571542299183 0 0.0030666668860874382 0.0029992386019864268 0 0.011507325823912434 -0.0078310455732443322 0 0.011844311463789231 -0.0080775212727927648 0 0.011877990892045623 -0.007330579932341901 0 0.0043577376367340903 -0.0053262082188960591 0 0.0046129828981450616 -0.0054026188587799904 0 0.0043456480771154361 -0.0055665866005264004 0 0.0086147862459166318 -0.0087672017829486387 0 0.008943204354194453 -0.0087440059998668829 0 0.0086348179164855796 -0.0085363714850147428 0 0.0064627734908508953 -0.0044020643301642022 0 0.005556137992258155 -0.0087518956132088196 0 0.0064627734908508953 -0.0044020643301642022 0 0.010750697039389709 -0.0086508142317125551 0 0.008943204354194453 -0.0087440059998668829 0 0.0089364570980421179 -0.0085631450455027191 0 0.0086348179164855796 -0.0085363714850147428 0 0.0036337172924301216 0.001890656574170615 0 0.0032112908206850498 -0.0016229675218271159 0 0.0042193059568967038 0.0021188059779892418 0 0.0035672075233831755 0.0025547571542299183 0 0.0039930494545362639 0.0032650612331787559 0 0.0030047122475096704 0.0018405318995498175 0 0.0042193059568967038 0.0021188059779892418 0 0.0035672075233831755 0.0025547571542299183 0 0.0064627734908508953 -0.0044020643301642022 0 0.0032112908206850498 -0.0016229675218271159 0 0.0027704061746565188 -0.0068685680950974224 0 0.005556137992258155 -0.0087518956132088196 0 0.0043577376367340903 -0.0053262082188960591 0 0.0047268652930951881 -0.0052253782890167048 0 0.0046129828981450616 -0.0054026188587799904 0 0.0027704061746565188 -0.0068685680950974224 0 0.0021853670564493666 -0.008866980491998645 0 0.0023377027907761972 -0.005030846199121513 0 0.0024059370331694315 -0.0049777033646524957 0 0.0022780789214751941 -0.0050036230941255967 0 0.0010063941479953079 -0.0086825297556512894 0 0.00099101602518411429 -0.0086747466933389979 0 0.00099152408935122968 -0.0086854066137260957 0 0.0027704061746565188 -0.0068685680950974224 0 0.0013247098056221802 -0.007013810903157028 0 0.0032112908206850498 -0.0016229675218271159 0 0.0027704061746565188 -0.0068685680950974224 0 0.0010063941479953079 -0.0086825297556512894 0 0.00099152408935122968 -0.0086854066137260957 0 0.0010031471485423679 -0.0086913726319299452 0 0.00098561770004392565 -0.0086924252566868507 0 0.00099152408935122968 -0.0086854066137260957 0 0.0010004019094762414 -0.0086971087548672436 0 0.00099152408935122968 -0.0086854066137260957 0 0.0010004019094762414 -0.0086971087548672436 0 0.0010031471485423679 -0.0086913726319299452 0 0.0041110886756925268 -0.0080856666568135914 0 0.0035377197336538039 -0.0088340591554536569 0 0.0030129107578543645 -0.0086183474754130303 0 0.0010004019094762414 -0.0086971087548672436 0 0.0010031471485423679 -0.0086913726319299452 0 0.0010115862138363161 -0.0087005085628539917 0 0.0010063941479953079 -0.0086825297556512894 0 0.0010031471485423679 -0.0086913726319299452 0 0.0010115862138363161 -0.0087005085628539917 0 0.0010004019094762414 -0.0086971087548672436 0 0.0010115862138363161 -0.0087005085628539917 0 0.001012693254572154 -0.0087079846885057578 0 0.001012693254572154 -0.0087079846885057578 0 0.0010103213731649495 -0.0087062956267155208 0 0.0010017701747322913 -0.0087012437611927746 0 0.0010409295491639369 -0.011218674004166141 0 0.0012280813145742603 -0.010791462336054224 0 0.0010103213731649495 -0.0087062956267155208 0 0.0010017701747322913 -0.0087012437611927746 0 0.0009965911271151047 -0.0086963974943710769 0 0.0010004019094762414 -0.0086971087548672436 0 0.001012693254572154 -0.0087079846885057578 0 0.0010017701747322913 -0.0087012437611927746 0 0.0010004019094762414 -0.0086971087548672436 0 0.0010017701747322913 -0.0087012437611927746 0 0.00099147804611819245 -0.0086968451157991445 0 0.0010017701747322913 -0.0087012437611927746 0 0.00099406305989795736 -0.0086974021761053316 0 0.00099147804611819245 -0.0086968451157991445 0 0.0010017701747322913 -0.0087012437611927746 0 0.00099406305989795736 -0.0086974021761053316 0 0.0009965911271151047 -0.0086963974943710769 0 0.00097650650833558427 -0.0086951943386768607 0 0.00098711093041387466 -0.0086961334171271019 0 0.00099290283579137289 -0.0086944119479901421 0 0.00097898140254809802 -0.0086947117769453647 0 0.00098711093041387466 -0.0086961334171271019 0 0.00099147804611819245 -0.0086968451157991445 0 0.00099406305989795736 -0.0086974021761053316 0 0.00098711093041387466 -0.0086961334171271019 0 0.00099147804611819245 -0.0086968451157991445 0 0.00099406305989795736 -0.0086974021761053316 0 0.00098711093041387466 -0.0086961334171271019 0 0.00099290283579137289 -0.0086944119479901421 0 0.00097898140254809802 -0.0086947117769453647 0 0.00098561770004392565 -0.0086924252566868507 0 0.00099147804611819245 -0.0086968451157991445 0 0.00098561770004392565 -0.0086924252566868507 0 0.0010004019094762414 -0.0086971087548672436 0 0.00099147804611819245 -0.0086968451157991445 0 0.0054985894201339961 -0.011782191762402019 0 0.0054772655395885963 -0.011791090303840296 0 0.0054476009647388733 -0.011764439211790479 0 0.0054772655395885963 -0.011791090303840296 0 0.0054476009647388733 -0.011764439211790479 0 0.0054288557583922021 -0.011746689420504287 0 0.0090544698541188545 -0.0084649809834992998 0 0.0089364570980421179 -0.0085631450455027191 0 0.0086348179164855796 -0.0085363714850147428 0 0.0074996742930572491 -0.010268273145145232 0 0.005556137992258155 -0.0087518956132088196 0 0.0035377197336538039 -0.0088340591554536569 0 0.0030129107578543645 -0.0086183474754130303 0 0.0029544035148550076 -0.0095868754830956832 0 0.005556137992258155 -0.0087518956132088196 0 0.0030138169022040306 -0.010652353484118273 0 0.0054476009647388733 -0.011764439211790479 0 0.0054288557583922021 -0.011746689420504287 0 0.005420163372955299 -0.011744759719699068 0 0.0021853670564493666 -0.008866980491998645 0 0.0030138169022040306 -0.010652353484118273 0 0.0010115862138363161 -0.0087005085628539917 0 0.001012693254572154 -0.0087079846885057578 0 0.0010225790639609425 -0.008718807018404497 0 0.0013409773260744766 -0.013864223705635026 0 0.0013319746798581536 -0.013836783490833018 0 0.0013355768124134217 -0.013863659436087059 0 0.0010409295491639369 -0.011218674004166141 0 0.001960190466871094 -0.011672554331875975 0 0.001012693254572154 -0.0087079846885057578 0 0.0010103213731649495 -0.0087062956267155208 0 0.0010241275327559228 -0.0087204389129910947 0 0.0054476009647388733 -0.011764439211790479 0 0.005420163372955299 -0.011744759719699068 0 0.0054237662369901072 -0.011734082892593325 0 0.0030138169022040306 -0.010652353484118273 0 0.001960190466871094 -0.011672554331875975 0 0.0029110972871878777 -0.011191157668115048 0 0.0022977271831638806 -0.011961871976490096 0 0.0028571084982210049 -0.012103809292446543 0 0.0030138169022040306 -0.010652353484118273 0 0.0034755368759983086 -0.011966241524266808 0 0.001012693254572154 -0.0087079846885057578 0 0.0010225790639609425 -0.008718807018404497 0 0.0010241275327559228 -0.0087204389129910947 0 0.0013319746798581536 -0.013836783490833018 0 0.0013313693978031088 -0.01384773168000065 0 0.0013355768124134217 -0.013863659436087059 0 0.001328020980913234 -0.013810055658257258 0 0.001340827238530106 -0.013811492485687839 0 0.0013313693978031088 -0.01384773168000065 0 0.0034755368759983086 -0.011966241524266808 0 0.001960190466871094 -0.011672554331875975 0 0.001960190466871094 -0.011672554331875975 0 0.0016554837521018943 -0.013575335834598327 0 0.0054985894201339961 -0.011782191762402019 0 0.0054476009647388733 -0.011764439211790479 0 0.0054237662369901072 -0.011734082892593325 0 0.0054985894201339961 -0.011782191762402019 0 0.0054240535737666296 -0.011787682342875543 0 0.0054709573378916429 -0.01177353819337686 0 0.006244673420836698 -0.011842231466445701 0 0.0034755368759983086 -0.011966241524266808 0 0.0054240535737666296 -0.011787682342875543 0 0.0054709573378916429 -0.01177353819337686 0 0.0054743862238257092 -0.01175135521827601 0 0.001328020980913234 -0.013810055658257258 0 0.001270412913456619 -0.013877950441965893 0 0.0013313693978031088 -0.01384773168000065 0 0.0034755368759983086 -0.011966241524266808 0 0.0032915226763281977 -0.012992710768413938 0 0.001270412913456619 -0.013877950441965893 0 0.0013313693978031088 -0.01384773168000065 0 0.001317858774332367 -0.013897233419099847 0 0.0013313693978031088 -0.01384773168000065 0 0.0013355768124134217 -0.013863659436087059 0 0.0013305369419191664 -0.013878247839402065 0 0.001339814689045721 -0.013892338734619926 0 0.0013305369419191664 -0.013878247839402065 0 0.001317858774332367 -0.013897233419099847 0 0.0013355768124134217 -0.013863659436087059 0 0.001339814689045721 -0.013892338734619926 0 0.0013305369419191664 -0.013878247839402065 0 0.0013313693978031088 -0.01384773168000065 0 0.0013305369419191664 -0.013878247839402065 0 0.001317858774332367 -0.013897233419099847 0 0.001317858774332367 -0.013897233419099847 0 0.0013374698920425897 -0.013942842410615769 0 0.0012863107587374064 -0.013972615176602728 0 0.001339814689045721 -0.013892338734619926 0 0.001317858774332367 -0.013897233419099847 0 0.0013374698920425897 -0.013942842410615769 0 0.001270412913456619 -0.013877950441965893 0 0.001317858774332367 -0.013897233419099847 0 0.0012863107587374064 -0.013972615176602728 0 0.0013075088885033533 -0.013894113102331856 0 0.0013336090845467573 -0.01388724836465925 0 0.0013271883797915465 -0.013900465180332488 0 0.0013336090845467573 -0.01388724836465925 0 0.0013358597387617902 -0.013884394589493733 0 0.0013398078755352998 -0.013895944066346805 0 0.00099406305989795736 -0.0086974021761053316 0 0.00099290283579137289 -0.0086944119479901421 0 0.0009965911271151047 -0.0086963974943710769 0 0.0011345271343262276 -0.010478776595846935 0 0.0012280813145742603 -0.010791462336054224 0 0.0013336090845467573 -0.01388724836465925 0 0.0013398078755352998 -0.013895944066346805 0 0.0013271883797915465 -0.013900465180332488 0 0.0013409773260744766 -0.013864223705635026 0 0.0013358597387617902 -0.013884394589493733 0 0.0013398078755352998 -0.013895944066346805 0 0.0013409773260744766 -0.013864223705635026 0 0.001339814689045721 -0.013892338734619926 0 0.0013398078755352998 -0.013895944066346805 0 0.0013409773260744766 -0.013864223705635026 0 0.0013355768124134217 -0.013863659436087059 0 0.001339814689045721 -0.013892338734619926 0 0.0013398078755352998 -0.013895944066346805 0 0.00134074234783089 -0.013922474165834038 0 0.0013320119099903018 -0.013920915797583465 0 0.001339814689045721 -0.013892338734619926 0 0.0013398078755352998 -0.013895944066346805 0 0.00134074234783089 -0.013922474165834038 0 0.001339814689045721 -0.013892338734619926 0 0.0013374698920425897 -0.013942842410615769 0 0.00134074234783089 -0.013922474165834038 0 0.0013374698920425897 -0.013942842410615769 0 0.00134074234783089 -0.013922474165834038 0 0.0013405788441788534 -0.013957166605908046 0 0.00134074234783089 -0.013922474165834038 0 0.0013320119099903018 -0.013920915797583465 0 0.0013405788441788534 -0.013957166605908046 0 0.0013101856457524966 -0.013904182512020588 0 0.0013320119099903018 -0.013920915797583465 0 0.0013271883797915465 -0.013900465180332488 0 0.0013398078755352998 -0.013895944066346805 0 0.0013320119099903018 -0.013920915797583465 0 0.0013271883797915465 -0.013900465180332488 0 0.0013101856457524966 -0.013904182512020588 0 0.0013320119099903018 -0.013920915797583465 0 0.0013144523300692025 -0.013915832577678033 0 0.0013144523300692025 -0.013915832577678033 0 0.0013260865880052267 -0.01393200079983329 0 0.0013116844930920256 -0.013918312927216493 0 0.0013320119099903018 -0.013920915797583465 0 0.0013144523300692025 -0.013915832577678033 0 0.0013260865880052267 -0.01393200079983329 0 0.0013320119099903018 -0.013920915797583465 0 0.0013260865880052267 -0.01393200079983329 0 0.0013405788441788534 -0.013957166605908046 0 0.0013260865880052267 -0.01393200079983329 0 0.0013405788441788534 -0.013957166605908046 0 0.00132514700017637 -0.013933158714285408 0 0.0013405788441788534 -0.013957166605908046 0 0.0013447985447956111 -0.013957711238482502 0 0.0013433746070933754 -0.014005837460403988 0 0.0013405788441788534 -0.013957166605908046 0 0.0013447985447956111 -0.013957711238482502 0 0.00132514700017637 -0.013933158714285408 0 0.0013066738491515656 -0.013914453633000833 0 0.0013119250040846166 -0.013903295946045616 0 0.00132514700017637 -0.013933158714285408 0 0.0013119250040846166 -0.013903295946045616 0 0.0013447985447956111 -0.013957711238482502 0 0.00132514700017637 -0.013933158714285408 0 0.0013260865880052267 -0.01393200079983329 0 0.00132514700017637 -0.013933158714285408 0 0.0013116844930920256 -0.013918312927216493 0 0.0013066738491515656 -0.013914453633000833 0 0.00132514700017637 -0.013933158714285408 0 0.0013116844930920256 -0.013918312927216493 0 0.0012863107587374064 -0.013972615176602728 0 0.0013433746070933754 -0.014005837460403988 0 0.0013221336715471624 -0.014102128686532581 0 0.0012863107587374064 -0.013972615176602728 0 0.0013221336715471624 -0.014102128686532581 0 0.0012431693457962837 -0.014059924173613287 0 0.0013374698920425897 -0.013942842410615769 0 0.0013405788441788534 -0.013957166605908046 0 0.0013433746070933754 -0.014005837460403988 0 0.0013374698920425897 -0.013942842410615769 0 0.0012863107587374064 -0.013972615176602728 0 0.0013433746070933754 -0.014005837460403988 0 0.0013447985447956111 -0.013957711238482502 0 0.0013433746070933754 -0.014005837460403988 0 0.0013221336715471624 -0.014102128686532581 0 0.0013465785387750471 -0.01431414396933204 0 0.0014718244420865933 -0.014297877401101241 0 0.0013221336715471624 -0.014102128686532581 0 0.0014559432653290241 -0.01416649894773379 0 0.0012895462111287865 -0.014081628529084499 0 0.0013465785387750471 -0.01431414396933204 0 0.0013221336715471624 -0.014102128686532581 0 0.0012374306652929866 -0.014257335766396881 0 0.0013221336715471624 -0.014102128686532581 0 0.0012374306652929866 -0.014257335766396881 0 0.0012431693457962837 -0.014059924173613287 0 0.0012374306652929866 -0.014257335766396881 0 0.0012431693457962837 -0.014059924173613287 0 0.0011688362521992568 -0.014103933713748613 0 0.0012374306652929866 -0.014257335766396881 0 0.0011688362521992568 -0.014103933713748613 0 0.0010372715920242905 -0.014136571260088708 0 0.00045180509076705929 -0.014338296964144867 0 0.003036894636525996 -0.013629227214192935 0 0.0012863107587374064 -0.013972615176602728 0 0.0012431693457962837 -0.014059924173613287 0 0.0011670164197781785 -0.013982631616699947 0 0.0012431693457962837 -0.014059924173613287 0 0.0011688362521992568 -0.014103933713748613 0 0.0011670164197781785 -0.013982631616699947 0 0.0011688362521992568 -0.014103933713748613 0 0.0011670164197781785 -0.013982631616699947 0 0.0010372715920242905 -0.014136571260088708 0 0.0054969648961697374 -0.01171876992088524 0 0.005535999510516065 -0.011645875758797728 0 0.0055727797977755998 -0.011680944008804461 0 0.0054969648961697374 -0.01171876992088524 0 0.0055727797977755998 -0.011680944008804461 0 0.0055778559372291836 -0.011728990797251055 0 0.0034255448785094843 -0.012681073260945893 0 0.003036894636525996 -0.013629227214192935 0 0.0012390370793052149 -0.01435406066898808 0 0.0012374306652929866 -0.014257335766396881 0 0.0012095985123618494 -0.014280587182575494 0 0.003036894636525996 -0.013629227214192935 0 0.0053126741565558315 -0.013022339388821478 0 0.00098455899035700275 -0.014494430034168193 0 0.0012390370793052149 -0.01435406066898808 0 0.0012095985123618494 -0.014280587182575494 0 0.0025309470375646584 -0.01432341736020137 0 0.003036894636525996 -0.013629227214192935 0 0.0043683809913995413 -0.014128339103370906 0 0.0042694106129923448 -0.014202200681208109 0 0.0043855276829729709 -0.014180741685940487 0 0.0042694106129923448 -0.014202200681208109 0 0.0043855276829729709 -0.014180741685940487 0 0.0044048224595792679 -0.014259066348782991 0 0.0044425916641284676 -0.014175764743274729 0 0.0044158140578433669 -0.01415793124552058 0 0.0044182754850772017 -0.014155493148458086 0 0.0043855276829729709 -0.014180741685940487 0 0.0044517729376994343 -0.014195559650689967 0 0.004650330646013375 -0.014315554363635123 0 0.0045968397658075521 -0.014139289815673134 0 0.0044048224595792679 -0.014259066348782991 0 0.0043855276829729709 -0.014180741685940487 0 0.0045968397658075521 -0.014139289815673134 0 0.0044048224595792679 -0.014259066348782991 0 0.0056966021428182956 -0.011659911431205034 0 0.0056300565815575543 -0.011647324276815382 0 0.005676563273388488 -0.011685693526293575 0 0.0053613654412898708 -0.01212900215230551 0 0.0053126741565558315 -0.013022339388821478 0 0.0053613654412898708 -0.01212900215230551 0 0.005831064302510648 -0.011520098115637843 0 0.005535999510516065 -0.011645875758797728 0 0.0056300565815575543 -0.011647324276815382 0 0.0055727797977755998 -0.011680944008804461 0 0.0055727797977755998 -0.011680944008804461 0 0.0055778559372291836 -0.011728990797251055 0 0.005676563273388488 -0.011685693526293575 0 0.0056300565815575543 -0.011647324276815382 0 0.0055727797977755998 -0.011680944008804461 0 0.005676563273388488 -0.011685693526293575 0 0.0055778559372291836 -0.011728990797251055 0 0.0055923846107255749 -0.011766357624319743 0 0.0056524209338817792 -0.011767183956996219 0 0.0055778559372291836 -0.011728990797251055 0 0.0055923846107255749 -0.011766357624319743 0 0.0055658343446615315 -0.01176488232520363 0 0.0055778559372291836 -0.011728990797251055 0 0.005676563273388488 -0.011685693526293575 0 0.0056524209338817792 -0.011767183956996219 0 0.0057307116414404722 -0.01174001800415898 0 0.005676563273388488 -0.011685693526293575 0 0.0056524209338817792 -0.011767183956996219 0 0.0058633477104331252 -0.011652833383963272 0 0.0057307116414404722 -0.01174001800415898 0 0.005676563273388488 -0.011685693526293575 0 0.0057858806062371822 -0.01181373182121581 0 0.0057307116414404722 -0.01174001800415898 0 0.0056524209338817792 -0.011767183956996219 0 0.0082753805700169769 -0.0090444691665834773 0 0.0083261941987207953 -0.0089735813495623803 0 0.008417525091014488 -0.0089885931794404968 0 0.0057858806062371822 -0.01181373182121581 0 0.0056524209338817792 -0.011767183956996219 0 0.0055789024092263067 -0.011799275216392653 0 0.0072014425101644044 -0.010362281974515511 0 0.0071964507288907603 -0.010332949336218488 0 0.0060862645283127157 -0.01160810188467035 0 0.0059505415087210429 -0.011686959679882045 0 0.005845002863937218 -0.0116500941070544 0 0.0061397844355410821 -0.011638928583043398 0 0.0060862645283127157 -0.01160810188467035 0 0.0059505415087210429 -0.011686959679882045 0 0.0059397640096072631 -0.011705962429855159 0 0.005713756293054313 -0.011728944698063766 0 0.0056580530546151784 -0.011793810657011008 0 0.0059505415087210429 -0.011686959679882045 0 0.005845002863937218 -0.0116500941070544 0 0.0055658343446615315 -0.01176488232520363 0 0.0055789024092263067 -0.011799275216392653 0 0.005536625928241566 -0.011760806255303454 0 0.0055923846107255749 -0.011766357624319743 0 0.0055658343446615315 -0.01176488232520363 0 0.0055789024092263067 -0.011799275216392653 0 0.0055923846107255749 -0.011766357624319743 0 0.0056524209338817792 -0.011767183956996219 0 0.0055789024092263067 -0.011799275216392653 0 0.005552765092869995 -0.011769124924896464 0 0.0055789024092263067 -0.011799275216392653 0 0.005536625928241566 -0.011760806255303454 0 0.005552765092869995 -0.011769124924896464 0 0.005536625928241566 -0.011760806255303454 0 0.0055182437159375089 -0.011760835642433808 0 0.005562763710872983 -0.011768458458747388 0 0.005713756293054313 -0.011728944698063766 0 0.0054743862238257092 -0.01175135521827601 0 0.005536625928241566 -0.011760806255303454 0 0.0055182437159375089 -0.011760835642433808 0 0.0055028359246918172 -0.011766945729538876 0 0.005552765092869995 -0.011769124924896464 0 0.0055182437159375089 -0.011760835642433808 0 0.0055028359246918172 -0.011766945729538876 0 0.0054743862238257092 -0.01175135521827601 0 0.0055182437159375089 -0.011760835642433808 0 0.0055028359246918172 -0.011766945729538876 0 0.0054709573378916429 -0.01177353819337686 0 0.0054743862238257092 -0.01175135521827601 0 0.001270412913456619 -0.013877950441965893 0 0.0012863107587374064 -0.013972615176602728 0 0.0011670164197781785 -0.013982631616699947 0 0.0054743862238257092 -0.01175135521827601 0 0.0054969648961697374 -0.01171876992088524 0 0.005536625928241566 -0.011760806255303454 0 0.0032915226763281977 -0.012992710768413938 0 0.0034255448785094843 -0.012681073260945893 0 0.0054969648961697374 -0.01171876992088524 0 0.0055778559372291836 -0.011728990797251055 0 0.005536625928241566 -0.011760806255303454 0 0.0055778559372291836 -0.011728990797251055 0 0.0055658343446615315 -0.01176488232520363 0 0.005536625928241566 -0.011760806255303454 0 0.015498202413077195 -0.011822538349789668 0 0.015887380967692995 -0.011503087411310189 0 0.015994113208279852 -0.011897105163818337 0 0.015498202413077195 -0.011822538349789668 0 0.015994113208279852 -0.011897105163818337 0 0.015726782739383601 -0.01246799268077828 0 0.015498202413077195 -0.011822538349789668 0 0.014999985874388198 -0.011541381082986971 0 0.0149999812024141 -0.012277456539640689 0 0.015498202413077195 -0.011822538349789668 0 0.014999985874388198 -0.011541381082986971 0 0.015543167604497839 -0.011243571132201145 0 0.015887380967692995 -0.011503087411310189 0 0.016013564432905941 -0.011100372702900985 0 0.015543167604497839 -0.011243571132201145 0 0.015498202413077195 -0.011822538349789668 0 0.015887380967692995 -0.011503087411310189 0 0.015543167604497839 -0.011243571132201145 0 0.01627646355334603 -0.011543519710716137 0 0.015887380967692995 -0.011503087411310189 0 0.016013564432905941 -0.011100372702900985 0 0.01627646355334603 -0.011543519710716137 0 0.015887380967692995 -0.011503087411310189 0 0.015994113208279852 -0.011897105163818337 0 0.01627646355334603 -0.011543519710716137 0 0.016764143979416134 -0.01165269919486327 0 0.016482434536207017 -0.010935912322359851 0 0.015754419359217644 -0.010350173759225241 0 0.015686251354318063 -0.00990420851025927 0 0.01627646355334603 -0.011543519710716137 0 0.016475800013306521 -0.012165703997297094 0 0.016764143979416134 -0.01165269919486327 0 0.01627646355334603 -0.011543519710716137 0 0.016475800013306521 -0.012165703997297094 0 0.015994113208279852 -0.011897105163818337 0 0.016475800013306521 -0.012165703997297094 0 0.015994113208279852 -0.011897105163818337 0 0.015726782739383601 -0.01246799268077828 0 0.016475800013306521 -0.012165703997297094 0 0.016366525319365721 -0.012815402245985265 0 0.015726782739383601 -0.01246799268077828 0 0.015452244950388567 -0.013466589272786992 0 0.014158908315694864 -0.012183094749697466 0 0.016475800013306521 -0.012165703997297094 0 0.016366525319365721 -0.012815402245985265 0 0.017030560380677455 -0.012371949492354588 0 0.014224444785134504 -0.0138076215454537 0 0.013598769908099606 -0.013368580362562303 0 0.013275837421038227 -0.014339395905543242 0 0.016366525319365721 -0.012815402245985265 0 0.015726782739383601 -0.01246799268077828 0 0.015693762722312911 -0.013276590623579995 0 0.015452244950388567 -0.013466589272786992 0 0.015232478487876863 -0.013466586639956394 0 0.015726782739383601 -0.01246799268077828 0 0.014999982955524994 -0.01301353056176959 0 0.015693762722312911 -0.013276590623579995 0 0.015498202413077195 -0.011822538349789668 0 0.015726782739383601 -0.01246799268077828 0 0.0149999812024141 -0.012277456539640689 0 0.015726782739383601 -0.01246799268077828 0 0.0149999812024141 -0.012277456539640689 0 0.014999982955524994 -0.01301353056176959 0 0.014999982955524994 -0.01301353056176959 0 0.015693762722312911 -0.013276590623579995 0 0.01499999531227561 -0.0137496123895695 0 0.014299142802228024 -0.015402528526772971 0 0.015000537305459069 -0.014998341754833425 0 0.012459903424850245 -0.015000332761976222 0 0.015232478487876863 -0.013466586639956394 0 0.015000077526533803 -0.013749580257013387 0 0.014817679057840698 -0.013702965421235424 0 0.014890008876873478 -0.013640268374326418 0 0.01499975810981403 -0.013750267793568258 0 0.014890008876873478 -0.013640268374326418 0 0.01499975810981403 -0.013750267793568258 0 0.014999767353713249 -0.014309727362210469 0 0.014890008876873478 -0.013640268374326418 0 0.014999767353713249 -0.014309727362210469 0 0.014986052479740523 -0.013887958063590217 0 0.014999767353713249 -0.014309727362210469 0 0.014986052479740523 -0.013887958063590217 0 0.014999939352411704 -0.014870623388462187 0 0.014579923619248432 -0.014665478032006267 0 0.01499975085510216 -0.014871119528485745 0 0.014299142802228024 -0.015402528526772971 0 0.014999076154090726 -0.014873834151185641 0 0.015000537305459069 -0.014998341754833425 0 0.014299142802228024 -0.015402528526772971 0 0.013565682605549538 -0.015747678159539372 0 0.012459903424850245 -0.015000332761976222 0 0.014579923619248432 -0.014665478032006267 0 0.013946607643879668 -0.014489073593708456 0 0.014890008876873478 -0.013640268374326418 0 0.014986052479740523 -0.013887958063590217 0 0.014397160542097859 -0.013185941230086921 0 0.013946607643879668 -0.014489073593708456 0 0.013109262948657965 -0.014480362567341181 0 0.014397160542097859 -0.013185941230086921 0 0.014186526066435657 -0.0133626147924435 0 0.013416735443447153 -0.012844261598222309 0 0.014890008876873478 -0.013640268374326418 0 0.014397160542097859 -0.013185941230086921 0 0.014186526066435657 -0.0133626147924435 0 0.014224444785134504 -0.0138076215454537 0 0.014817679057840698 -0.013702965421235424 0 0.014186526066435657 -0.0133626147924435 0 0.014817679057840698 -0.013702965421235424 0 0.014890008876873478 -0.013640268374326418 0 0.014186526066435657 -0.0133626147924435 0 0.014224444785134504 -0.0138076215454537 0 0.014186526066435657 -0.0133626147924435 0 0.013598769908099606 -0.013368580362562303 0 0.014186526066435657 -0.0133626147924435 0 0.013598769908099606 -0.013368580362562303 0 0.013416735443447153 -0.012844261598222309 0 0.013598769908099606 -0.013368580362562303 0 0.013416735443447153 -0.012844261598222309 0 0.012761564053192644 -0.013070811362708715 0 0.013416735443447153 -0.012844261598222309 0 0.012654685920287238 -0.012783568405305718 0 0.012761564053192644 -0.013070811362708715 0 0.012654685920287238 -0.012783568405305718 0 0.012667259160284442 -0.012670120868451599 0 0.012761564053192644 -0.013070811362708715 0 0.012834648610634006 -0.016070345730561809 0 0.012191467690595646 -0.015752917507984555 0 0.012108076722306533 -0.016376949722668011 0 0.013109262948657965 -0.014480362567341181 0 0.012376823284825023 -0.01458261304316626 0 0.013565682605549538 -0.015747678159539372 0 0.012834648610634006 -0.016070345730561809 0 0.012459903424850245 -0.015000332761976222 0 0.012834648610634006 -0.016070345730561809 0 0.012459903424850245 -0.015000332761976222 0 0.012191467690595646 -0.015752917507984555 0 0.012459903424850245 -0.015000332761976222 0 0.011344912354984475 -0.01569558270817973 0 0.010609835761905792 -0.014999838643331884 0 0.012459903424850245 -0.015000332761976222 0 0.012191467690595646 -0.015752917507984555 0 0.011344912354984475 -0.01569558270817973 0 0.011344912354984475 -0.01569558270817973 0 0.012108076722306533 -0.016376949722668011 0 0.01138872937559216 -0.016672091065327688 0 0.012191467690595646 -0.015752917507984555 0 0.011344912354984475 -0.01569558270817973 0 0.012108076722306533 -0.016376949722668011 0 0.012654685920287238 -0.012783568405305718 0 0.012702515414908747 -0.01236353234703819 0 0.012667259160284442 -0.012670120868451599 0 0.012376823284825023 -0.01458261304316626 0 0.012035683007840359 -0.014507379246578571 0 0.012702515414908747 -0.01236353234703819 0 0.012676128835259029 -0.012307750918267864 0 0.012674163260309066 -0.0119815344747475 0 0.012676128835259029 -0.012307750918267864 0 0.012651866847037873 -0.012079745985065539 0 0.012674163260309066 -0.0119815344747475 0 0.012702515414908747 -0.01236353234703819 0 0.012676128835259029 -0.012307750918267864 0 0.012667259160284442 -0.012670120868451599 0 0.012651866847037873 -0.012079745985065539 0 0.012639493501084592 -0.011867876389344192 0 0.012674163260309066 -0.0119815344747475 0 0.012651866847037873 -0.012079745985065539 0 0.012616565832656496 -0.011857325142704883 0 0.012639493501084592 -0.011867876389344192 0 0.012651866847037873 -0.012079745985065539 0 0.012616565832656496 -0.011857325142704883 0 0.012609881975577631 -0.01196536754309846 0 0.012639493501084592 -0.011867876389344192 0 0.012606437065087354 -0.011709859322566463 0 0.012629307229656285 -0.011718252347119618 0 0.012616565832656496 -0.011857325142704883 0 0.012639493501084592 -0.011867876389344192 0 0.012606437065087354 -0.011709859322566463 0 0.012609881975577631 -0.01196536754309846 0 0.012562050162850747 -0.012158057958500862 0 0.012555772859179654 -0.01182222026580239 0 0.012651866847037873 -0.012079745985065539 0 0.012609881975577631 -0.01196536754309846 0 0.012639775257799139 -0.012301114743156882 0 0.012609881975577631 -0.01196536754309846 0 0.012639775257799139 -0.012301114743156882 0 0.012562050162850747 -0.012158057958500862 0 0.012639775257799139 -0.012301114743156882 0 0.012627798885707755 -0.012519773416265591 0 0.012562050162850747 -0.012158057958500862 0 0.012639775257799139 -0.012301114743156882 0 0.012667259160284442 -0.012670120868451599 0 0.012627798885707755 -0.012519773416265591 0 0.012676128835259029 -0.012307750918267864 0 0.012639775257799139 -0.012301114743156882 0 0.012667259160284442 -0.012670120868451599 0 0.012676128835259029 -0.012307750918267864 0 0.012651866847037873 -0.012079745985065539 0 0.012639775257799139 -0.012301114743156882 0 0.012761564053192644 -0.013070811362708715 0 0.012627798885707755 -0.012519773416265591 0 0.012138035493434014 -0.012170026780434681 0 0.012667259160284442 -0.012670120868451599 0 0.012761564053192644 -0.013070811362708715 0 0.012627798885707755 -0.012519773416265591 0 0.013598769908099606 -0.013368580362562303 0 0.012761564053192644 -0.013070811362708715 0 0.013275837421038227 -0.014339395905543242 0 0.012445146447109244 -0.013393131681017462 0 0.014158908315694864 -0.012183094749697466 0 0.014158908315694864 -0.012183094749697466 0 0.013936964335590916 -0.0097332317513825865 0 0.012627798885707755 -0.012519773416265591 0 0.012138035493434014 -0.012170026780434681 0 0.012562050162850747 -0.012158057958500862 0 0.012138035493434014 -0.012170026780434681 0 0.012562050162850747 -0.012158057958500862 0 0.012551243739826527 -0.01184571930494877 0 0.014685901310121176 -0.0095092202748365412 0 0.014835985487738424 -0.0094154560623886212 0 0.014967892781420208 -0.0095508071977719461 0 0.014592824307936741 -0.0098070339863476179 0 0.014685901310121176 -0.0095092202748365412 0 0.014967892781420208 -0.0095508071977719461 0 0.014835985487738424 -0.0094154560623886212 0 0.014911523685232748 -0.0092600029031072104 0 0.014967892781420208 -0.0095508071977719461 0 0.016475800013306521 -0.012165703997297094 0 0.017030560380677455 -0.012371949492354588 0 0.016764143979416134 -0.01165269919486327 0 0.014592824307936741 -0.0098070339863476179 0 0.014685901310121176 -0.0095092202748365412 0 0.014447408441445785 -0.0093739863286074546 0 0.014158908315694864 -0.012183094749697466 0 0.015754419359217644 -0.010350173759225241 0 0.014447408441445785 -0.0093739863286074546 0 0.01475090605481569 -0.0092327905438007764 0 0.014550866236065454 -0.0090984554145133976 0 0.014685901310121176 -0.0095092202748365412 0 0.014447408441445785 -0.0093739863286074546 0 0.01475090605481569 -0.0092327905438007764 0 0.014685901310121176 -0.0095092202748365412 0 0.014835985487738424 -0.0094154560623886212 0 0.01475090605481569 -0.0092327905438007764 0 0.01475090605481569 -0.0092327905438007764 0 0.014911523685232748 -0.0092600029031072104 0 0.01489579556723279 -0.0089831119410799451 0 0.014835985487738424 -0.0094154560623886212 0 0.01475090605481569 -0.0092327905438007764 0 0.014911523685232748 -0.0092600029031072104 0 0.014893517344880782 -0.0083945193077712161 0 0.014853564163463633 -0.0083678747598405559 0 0.014871074380655944 -0.0084111092286564965 0 0.015155505173872328 -0.0085800627035729111 0 0.013936964335590916 -0.0097332317513825865 0 0.014911523685232748 -0.0092600029031072104 0 0.015112503028729666 -0.0091336111607347188 0 0.014967892781420208 -0.0095508071977719461 0 0.014893517344880782 -0.0083945193077712161 0 0.014853564163463633 -0.0083678747598405559 0 0.014831169234872547 -0.0084377321509975199 0 0.012537336529075824 -0.011448497393621835 0 0.012580326264025265 -0.011704410077386526 0 0.012555772859179654 -0.01182222026580239 0 0.012537336529075824 -0.011448497393621835 0 0.012580326264025265 -0.011704410077386526 0 0.012573981868369543 -0.011561926744970245 0 0.012580326264025265 -0.011704410077386526 0 0.012573981868369543 -0.011561926744970245 0 0.012606437065087354 -0.011709859322566463 0 0.012616565832656496 -0.011857325142704883 0 0.012609881975577631 -0.01196536754309846 0 0.012580326264025265 -0.011704410077386526 0 0.012616565832656496 -0.011857325142704883 0 0.012580326264025265 -0.011704410077386526 0 0.012606437065087354 -0.011709859322566463 0 0.014893517344880782 -0.0083945193077712161 0 0.014871074380655944 -0.0084111092286564965 0 0.014868614499523109 -0.0084122060333001493 0 0.013680555761628981 -0.0099323688923932014 0 0.013777210865608076 -0.0098948933686190312 0 0.012609881975577631 -0.01196536754309846 0 0.012580326264025265 -0.011704410077386526 0 0.012555772859179654 -0.01182222026580239 0 0.012562050162850747 -0.012158057958500862 0 0.012555772859179654 -0.01182222026580239 0 0.012551243739826527 -0.01184571930494877 0 0.013777210865608076 -0.0098948933686190312 0 0.013936964335590916 -0.0097332317513825865 0 0.012605328732776918 -0.011425369907876652 0 0.01262955440821497 -0.01133506247024319 0 0.012568603147000533 -0.011186896109299198 0 0.012605328732776918 -0.011425369907876652 0 0.01262955440821497 -0.01133506247024319 0 0.012658132593038635 -0.011525567279497747 0 0.01262955440821497 -0.01133506247024319 0 0.01267032825385205 -0.011370624914794764 0 0.012658132593038635 -0.011525567279497747 0 0.012605328732776918 -0.011425369907876652 0 0.012658132593038635 -0.011525567279497747 0 0.012652133631732423 -0.011679127877128733 0 0.012598842590927787 -0.011567584551099351 0 0.012629307229656285 -0.011718252347119618 0 0.012652133631732423 -0.011679127877128733 0 0.012605328732776918 -0.011425369907876652 0 0.012598842590927787 -0.011567584551099351 0 0.012652133631732423 -0.011679127877128733 0 0.012573981868369543 -0.011561926744970245 0 0.012606437065087354 -0.011709859322566463 0 0.012598842590927787 -0.011567584551099351 0 0.012606437065087354 -0.011709859322566463 0 0.012598842590927787 -0.011567584551099351 0 0.012629307229656285 -0.011718252347119618 0 0.012573981868369543 -0.011561926744970245 0 0.012598842590927787 -0.011567584551099351 0 0.012548954382237607 -0.01135240945740019 0 0.012605328732776918 -0.011425369907876652 0 0.012598842590927787 -0.011567584551099351 0 0.012548954382237607 -0.01135240945740019 0 0.013680555761628981 -0.0099323688923932014 0 0.013536167301513587 -0.009640638466979266 0 0.012537336529075824 -0.011448497393621835 0 0.012548954382237607 -0.01135240945740019 0 0.012452734621045375 -0.010979021113718838 0 0.012537336529075824 -0.011448497393621835 0 0.012573981868369543 -0.011561926744970245 0 0.012548954382237607 -0.01135240945740019 0 0.012568603147000533 -0.011186896109299198 0 0.012567094286980275 -0.010850913022691047 0 0.012452734621045375 -0.010979021113718838 0 0.012605328732776918 -0.011425369907876652 0 0.012548954382237607 -0.01135240945740019 0 0.012568603147000533 -0.011186896109299198 0 0.012548954382237607 -0.01135240945740019 0 0.012568603147000533 -0.011186896109299198 0 0.012452734621045375 -0.010979021113718838 0 0.012568603147000533 -0.011186896109299198 0 0.012643222382154729 -0.011155188171579145 0 0.012567094286980275 -0.010850913022691047 0 0.01270241125543364 -0.010846388537569703 0 0.012658791378538441 -0.011001227497578201 0 0.012643222382154729 -0.011155188171579145 0 0.01270241125543364 -0.010846388537569703 0 0.012643222382154729 -0.011155188171579145 0 0.012567094286980275 -0.010850913022691047 0 0.012658791378538441 -0.011001227497578201 0 0.012667307557548368 -0.011202935623996326 0 0.012643222382154729 -0.011155188171579145 0 0.012658791378538441 -0.011001227497578201 0 0.012667307557548368 -0.011202935623996326 0 0.01264364432240893 -0.011056947470122591 0 0.01262955440821497 -0.01133506247024319 0 0.012568603147000533 -0.011186896109299198 0 0.012643222382154729 -0.011155188171579145 0 0.012667307557548368 -0.011202935623996326 0 0.012643222382154729 -0.011155188171579145 0 0.01267032825385205 -0.011370624914794764 0 0.01262955440821497 -0.01133506247024319 0 0.012643222382154729 -0.011155188171579145 0 0.01267032825385205 -0.011370624914794764 0 0.012702873827397475 -0.011449397523419929 0 0.012695728732384785 -0.011493956147312535 0 0.012711639733171225 -0.011870100122941318 0 0.01267032825385205 -0.011370624914794764 0 0.012695728732384785 -0.011493956147312535 0 0.012683981054768175 -0.011563597215827413 0 0.012667307557548368 -0.011202935623996326 0 0.01267032825385205 -0.011370624914794764 0 0.01269625883077331 -0.011425860911808038 0 0.01267032825385205 -0.011370624914794764 0 0.01269625883077331 -0.011425860911808038 0 0.012695728732384785 -0.011493956147312535 0 0.011353646909585837 -0.013623097777883651 0 0.012073552650020539 -0.013208900546397905 0 0.011353646909585837 -0.013623097777883651 0 0.012008727056601597 -0.012222870218937032 0 0.012667307557548368 -0.011202935623996326 0 0.01269625883077331 -0.011425860911808038 0 0.01264364432240893 -0.011056947470122591 0 0.011353646909585837 -0.013623097777883651 0 0.010176716295815628 -0.015474939888886301 0 0.010854504223505208 -0.013786571925727664 0 0.01083327764173219 -0.013784105433600102 0 0.010831400028002008 -0.013782314307221597 0 0.0095359706091446075 -0.017172059198593749 0 0.009763781241295965 -0.016861347932923699 0 0.0092751927461550074 -0.016603277259785838 0 0.010005646811710706 -0.017219712199349865 0 0.0095359706091446075 -0.017172059198593749 0 0.009763781241295965 -0.016861347932923699 0 0.010005646811710706 -0.017219712199349865 0 0.009763781241295965 -0.016861347932923699 0 0.010249496539517081 -0.016677242145741386 0 0.010005646811710706 -0.017219712199349865 0 0.010681455044401801 -0.016949639561563069 0 0.010249496539517081 -0.016677242145741386 0 0.011353646909585837 -0.013623097777883651 0 0.011650961280692831 -0.014519639747445932 0 0.012695728732384785 -0.011493956147312535 0 0.012711639733171225 -0.011870100122941318 0 0.012683981054768175 -0.011563597215827413 0 0.012711639733171225 -0.011870100122941318 0 0.012658132593038635 -0.011525567279497747 0 0.012652133631732423 -0.011679127877128733 0 0.012711639733171225 -0.011870100122941318 0 0.012683981054768175 -0.011563597215827413 0 0.012658132593038635 -0.011525567279497747 0 0.01267032825385205 -0.011370624914794764 0 0.012683981054768175 -0.011563597215827413 0 0.012658132593038635 -0.011525567279497747 0 0.012711639733171225 -0.011870100122941318 0 0.012652133631732423 -0.011679127877128733 0 0.012674163260309066 -0.0119815344747475 0 0.012639493501084592 -0.011867876389344192 0 0.012629307229656285 -0.011718252347119618 0 0.012674163260309066 -0.0119815344747475 0 0.012629307229656285 -0.011718252347119618 0 0.012652133631732423 -0.011679127877128733 0 0.012674163260309066 -0.0119815344747475 0 0.012035683007840359 -0.014507379246578571 0 0.011650961280692831 -0.014519639747445932 0 0.012702515414908747 -0.01236353234703819 0 0.012711639733171225 -0.011870100122941318 0 0.012674163260309066 -0.0119815344747475 0 0.011344912354984475 -0.01569558270817973 0 0.01138872937559216 -0.016672091065327688 0 0.010847889133713177 -0.016439263575315114 0 0.011344912354984475 -0.01569558270817973 0 0.010847889133713177 -0.016439263575315114 0 0.01039621951420364 -0.016144892354963466 0 0.01138872937559216 -0.016672091065327688 0 0.010681455044401801 -0.016949639561563069 0 0.010847889133713177 -0.016439263575315114 0 0.010681455044401801 -0.016949639561563069 0 0.010847889133713177 -0.016439263575315114 0 0.010249496539517081 -0.016677242145741386 0 0.010847889133713177 -0.016439263575315114 0 0.01039621951420364 -0.016144892354963466 0 0.010249496539517081 -0.016677242145741386 0 0.011344912354984475 -0.01569558270817973 0 0.01039621951420364 -0.016144892354963466 0 0.010213069820714868 -0.015457664623671513 0 0.011344912354984475 -0.01569558270817973 0 0.010609835761905792 -0.014999838643331884 0 0.010213069820714868 -0.015457664623671513 0 0.010213069820714868 -0.015457664623671513 0 0.0095795761076808185 -0.015462040041753933 0 0.0092615719050300402 -0.014999876743221847 0 0.010609835761905792 -0.014999838643331884 0 0.010213069820714868 -0.015457664623671513 0 0.0092615719050300402 -0.014999876743221847 0 0.010213069820714868 -0.015457664623671513 0 0.0095795761076808185 -0.015462040041753933 0 0.0098922228263982059 -0.015914179112688338 0 0.01039621951420364 -0.016144892354963466 0 0.010213069820714868 -0.015457664623671513 0 0.0098922228263982059 -0.015914179112688338 0 0.0095795761076808185 -0.015462040041753933 0 0.0091394754756176592 -0.015732208748053988 0 0.0091393730109939324 -0.015479054874410036 0 0.0095795761076808185 -0.015462040041753933 0 0.0094456480051943702 -0.016060346091344161 0 0.0098922228263982059 -0.015914179112688338 0 0.0095419532097836893 -0.015481297356784059 0 0.009322616402486706 -0.015835605840510691 0 0.0094456480051943702 -0.016060346091344161 0 0.0098922228263982059 -0.015914179112688338 0 0.0098260023527829803 -0.016424667132897895 0 0.01039621951420364 -0.016144892354963466 0 0.0098922228263982059 -0.015914179112688338 0 0.0098260023527829803 -0.016424667132897895 0 0.009763781241295965 -0.016861347932923699 0 0.010249496539517081 -0.016677242145741386 0 0.0098260023527829803 -0.016424667132897895 0 0.01039621951420364 -0.016144892354963466 0 0.010249496539517081 -0.016677242145741386 0 0.0098260023527829803 -0.016424667132897895 0 0.0094456480051943702 -0.016060346091344161 0 0.0098260023527829803 -0.016424667132897895 0 0.0092751927461550074 -0.016603277259785838 0 0.009763781241295965 -0.016861347932923699 0 0.0098260023527829803 -0.016424667132897895 0 0.0092751927461550074 -0.016603277259785838 0 0.009322616402486706 -0.015835605840510691 0 0.0090356357371481379 -0.016384595181536645 0 0.0091394754756176592 -0.015732208748053988 0 0.0089023081805791934 -0.015853419084531164 0 0.0088279077128054096 -0.015745197289610623 0 0.0086248326818736485 -0.01578936079289104 0 0.0086477412412702334 -0.015665676026139174 0 0.0088279077128054096 -0.015745197289610623 0 0.0089023081805791934 -0.015853419084531164 0 0.0086248326818736485 -0.01578936079289104 0 0.0088279077128054096 -0.015745197289610623 0 0.0086477412412702334 -0.015665676026139174 0 0.0088714386318985324 -0.015602399247261981 0 0.0085642355020694502 -0.015478208874933471 0 0.0086477412412702334 -0.015665676026139174 0 0.0088279077128054096 -0.015745197289610623 0 0.0088714386318985324 -0.015602399247261981 0 0.0091394754756176592 -0.015732208748053988 0 0.0088279077128054096 -0.015745197289610623 0 0.0088714386318985324 -0.015602399247261981 0 0.0085889735966936439 -0.015267396175698543 0 0.0092615719050300402 -0.014999876743221847 0 0.0082806226377175763 -0.015000058645932745 0 0.0091394754756176592 -0.015732208748053988 0 0.0091393730109939324 -0.015479054874410036 0 0.0088714386318985324 -0.015602399247261981 0 0.0091393730109939324 -0.015479054874410036 0 0.0088714386318985324 -0.015602399247261981 0 0.0088459302921083047 -0.015392190993158793 0 0.0088714386318985324 -0.015602399247261981 0 0.0088459302921083047 -0.015392190993158793 0 0.0085642355020694502 -0.015478208874933471 0 0.0088459302921083047 -0.015392190993158793 0 0.0085889735966936439 -0.015267396175698543 0 0.0085642355020694502 -0.015478208874933471 0 0.0088459302921083047 -0.015392190993158793 0 0.0085889735966936439 -0.015267396175698543 0 0.0092615719050300402 -0.014999876743221847 0 0.0095795761076808185 -0.015462040041753933 0 0.0091393730109939324 -0.015479054874410036 0 0.0092615719050300402 -0.014999876743221847 0 0.0091393730109939324 -0.015479054874410036 0 0.0088459302921083047 -0.015392190993158793 0 0.0092615719050300402 -0.014999876743221847 0 0.0080375710985697516 -0.015395059865367657 0 0.008073670678918227 -0.015316270979036711 0 0.007916471973071007 -0.01500015107974719 0 0.0076814069651895212 -0.015476631610098244 0 0.007915912749735696 -0.015000008594892904 0 0.0078551548813914629 -0.01540446043133682 0 0.007989381070173697 -0.014999989151013256 0 0.0079800789875780521 -0.015405413155125667 0 0.008073670678918227 -0.015316270979036711 0 0.007916471973071007 -0.01500015107974719 0 0.0079888318723397422 -0.014999943372760069 0 0.0079515990438285295 -0.015384734768636646 0 0.0079893367244263259 -0.015000149849815668 0 0.007989381070173697 -0.014999989151013256 0 0.008279871834600265 -0.015000005632227618 0 0.0079800789875780521 -0.015405413155125667 0 0.0082799453620573948 -0.015000073531503099 0 0.0081390530421332867 -0.015371486330547295 0 0.0085889735966936439 -0.015267396175698543 0 0.0082806226377175763 -0.015000058645932745 0 0.0083108267099679771 -0.015344311390696407 0 0.0083108267099679771 -0.015344311390696407 0 0.0085642355020694502 -0.015478208874933471 0 0.0084539072940947209 -0.015582558539346862 0 0.0085889735966936439 -0.015267396175698543 0 0.0083108267099679771 -0.015344311390696407 0 0.0085642355020694502 -0.015478208874933471 0 0.0082371993274143324 -0.01549491431713562 0 0.0080899096281459582 -0.015448621440116031 0 0.0081312450785815046 -0.015471142635839661 0 0.0083108267099679771 -0.015344311390696407 0 0.008323795859667027 -0.015543616425159371 0 0.0084539072940947209 -0.015582558539346862 0 0.0079515990438285295 -0.015384734768636646 0 0.0081041334116854144 -0.015545531241671658 0 0.0081390530421332867 -0.015371486330547295 0 0.0081041334116854144 -0.015545531241671658 0 0.0078551548813914629 -0.01540446043133682 0 0.0079800789875780521 -0.015405413155125667 0 0.0077252152652261905 -0.01576209109915136 0 0.008073670678918227 -0.015316270979036711 0 0.0080899096281459582 -0.015448621440116031 0 0.0081312450785815046 -0.015471142635839661 0 0.0080375710985697516 -0.015395059865367657 0 0.008073670678918227 -0.015316270979036711 0 0.0080899096281459582 -0.015448621440116031 0 0.0083803909513070676 -0.015731359359935176 0 0.008323795859667027 -0.015543616425159371 0 0.0084088259972375755 -0.015641146340777502 0 0.0083604033581553012 -0.015594614351649716 0 0.0081041334116854144 -0.015545531241671658 0 0.0082148720330416716 -0.015469984430506225 0 0.0081041334116854144 -0.015545531241671658 0 0.008323795859667027 -0.015543616425159371 0 0.0084088259972375755 -0.015641146340777502 0 0.0084539072940947209 -0.015582558539346862 0 0.0086248326818736485 -0.01578936079289104 0 0.0086477412412702334 -0.015665676026139174 0 0.0085226398375518597 -0.015676445596820028 0 0.0086477412412702334 -0.015665676026139174 0 0.0085642355020694502 -0.015478208874933471 0 0.0084539072940947209 -0.015582558539346862 0 0.0086477412412702334 -0.015665676026139174 0 0.0084539072940947209 -0.015582558539346862 0 0.0085226398375518597 -0.015676445596820028 0 0.0084088259972375755 -0.015641146340777502 0 0.0084539072940947209 -0.015582558539346862 0 0.0085226398375518597 -0.015676445596820028 0 0.0084088259972375755 -0.015641146340777502 0 0.0085226398375518597 -0.015676445596820028 0 0.0084495443423239398 -0.015706092371835411 0 0.0086248326818736485 -0.01578936079289104 0 0.0084495443423239398 -0.015706092371835411 0 0.0084208055467802322 -0.015740163077474677 0 0.0086248326818736485 -0.01578936079289104 0 0.0085226398375518597 -0.015676445596820028 0 0.0084495443423239398 -0.015706092371835411 0 0.0083803909513070676 -0.015731359359935176 0 0.0084495443423239398 -0.015706092371835411 0 0.0084208055467802322 -0.015740163077474677 0 0.0083803909513070676 -0.015731359359935176 0 0.0084088259972375755 -0.015641146340777502 0 0.0084495443423239398 -0.015706092371835411 0 0.0084717543943291906 -0.015627509546093658 0 0.0081922226045366229 -0.01567191682794784 0 0.0083790413085824637 -0.015601114188700875 0 0.0084208055467802322 -0.015740163077474677 0 0.0085169397711974144 -0.015888309801458542 0 0.0083803909513070676 -0.015731359359935176 0 0.0083790413085824637 -0.015601114188700875 0 0.0084208055467802322 -0.015740163077474677 0 0.0083570735177688014 -0.015412521091194153 0 0.0081995364606874937 -0.015494782954257763 0 0.0082411286741620477 -0.01535888331928934 0 0.0083570735177688014 -0.015412521091194153 0 0.0083790413085824637 -0.015601114188700875 0 0.0081995364606874937 -0.015494782954257763 0 0.0081995364606874937 -0.015494782954257763 0 0.0081193645020703059 -0.01530524649243032 0 0.0082411286741620477 -0.01535888331928934 0 0.0086248326818736485 -0.01578936079289104 0 0.0084208055467802322 -0.015740163077474677 0 0.0085169397711974144 -0.015888309801458542 0 0.0089023081805791934 -0.015853419084531164 0 0.0086248326818736485 -0.01578936079289104 0 0.0087848992122160751 -0.015991840860416363 0 0.0086248326818736485 -0.01578936079289104 0 0.0085169397711974144 -0.015888309801458542 0 0.0087848992122160751 -0.015991840860416363 0 0.0095359706091446075 -0.017172059198593749 0 0.0092751927461550074 -0.016603277259785838 0 0.0090858619062216036 -0.017125596409579235 0 0.0090356357371481379 -0.016384595181536645 0 0.0092241976460381275 -0.015770736925125334 0 0.010825702700895121 -0.013792811723594563 0 0.010831400028002008 -0.013782314307221597 0 0.010835426125961486 -0.013767192454010055 0 0.01083327764173219 -0.013784105433600102 0 0.010825702700895121 -0.013792811723594563 0 0.010831400028002008 -0.013782314307221597 0 0.010176716295815628 -0.015474939888886301 0 0.0092241976460381275 -0.015770736925125334 0 0.0081922226045366229 -0.01567191682794784 0 0.0092241976460381275 -0.015770736925125334 0 0.0092241976460381275 -0.015770736925125334 0 0.010812903441817241 -0.01268705974983189 0 0.0081995364606874937 -0.015494782954257763 0 0.0080709214457013595 -0.015458459336018433 0 0.0081193645020703059 -0.01530524649243032 0 0.01264364432240893 -0.011056947470122591 0 0.012482516992702138 -0.010813720029689248 0 0.012496768605104413 -0.010788633799609771 0 0.012008727056601597 -0.012222870218937032 0 0.010812903441817241 -0.01268705974983189 0 0.012658791378538441 -0.011001227497578201 0 0.01264364432240893 -0.011056947470122591 0 0.012496768605104413 -0.010788633799609771 0 0.01270241125543364 -0.010846388537569703 0 0.012658791378538441 -0.011001227497578201 0 0.012496768605104413 -0.010788633799609771 0 0.012482516992702138 -0.010813720029689248 0 0.012496768605104413 -0.010788633799609771 0 0.012206750536472332 -0.010629506935807397 0 0.010812903441817241 -0.01268705974983189 0 0.012688877894439576 -0.0097884077018442119 0 0.012206750536472332 -0.010629506935807397 0 0.012035606193613437 -0.010522615048709634 0 0.011998941007083382 -0.010523315196228393 0 0.012241752520141267 -0.010475115955645365 0 0.012206750536472332 -0.010629506935807397 0 0.012035606193613437 -0.010522615048709634 0 0.011946822524640313 -0.010486043155118595 0 0.012035606193613437 -0.010522615048709634 0 0.011998941007083382 -0.010523315196228393 0 0.0084086286152882609 -0.01509044312875135 0 0.0083530122925416801 -0.015253790961026468 0 0.0082550280311111321 -0.015220006989598408 0 0.010156220255830234 -0.012794172093191745 0 0.010019266049826817 -0.012916811629390436 0 0.0083570735177688014 -0.015412521091194153 0 0.0083530122925416801 -0.015253790961026468 0 0.0082411286741620477 -0.01535888331928934 0 0.0083530122925416801 -0.015253790961026468 0 0.0082550280311111321 -0.015220006989598408 0 0.0082411286741620477 -0.01535888331928934 0 0.0081193645020703059 -0.01530524649243032 0 0.0082550280311111321 -0.015220006989598408 0 0.0082411286741620477 -0.01535888331928934 0 0.010812903441817241 -0.01268705974983189 0 0.010019266049826817 -0.012916811629390436 0 0.012009992002940152 -0.01051402328761528 0 0.011998941007083382 -0.010523315196228393 0 0.012129496492201538 -0.010609903095648396 0 0.012009992002940152 -0.01051402328761528 0 0.011919441829875548 -0.010359947608610221 0 0.011998941007083382 -0.010523315196228393 0 0.011942365676412948 -0.010375537085836177 0 0.011919441829875548 -0.010359947608610221 0 0.011998941007083382 -0.010523315196228393 0 0.012206750536472332 -0.010629506935807397 0 0.011998941007083382 -0.010523315196228393 0 0.012129496492201538 -0.010609903095648396 0 0.012496768605104413 -0.010788633799609771 0 0.012206750536472332 -0.010629506935807397 0 0.012327934016778879 -0.010742830813024067 0 0.012206750536472332 -0.010629506935807397 0 0.012129496492201538 -0.010609903095648396 0 0.012327934016778879 -0.010742830813024067 0 0.01270241125543364 -0.010846388537569703 0 0.013201597477730356 -0.010095208492770283 0 0.01280871657835104 -0.010300553189534279 0 0.012689721247415506 -0.010788119777838149 0 0.012750919016006512 -0.0104185118116411 0 0.01270241125543364 -0.010846388537569703 0 0.012496768605104413 -0.010788633799609771 0 0.012327934016778879 -0.010742830813024067 0 0.013201597477730356 -0.010095208492770283 0 0.013068748405040008 -0.0094380467055162499 0 0.01280871657835104 -0.010300553189534279 0 0.012009992002940152 -0.01051402328761528 0 0.012129496492201538 -0.010609903095648396 0 0.012327934016778879 -0.010742830813024067 0 0.012589324466230425 -0.010010225094017916 0 0.012750919016006512 -0.0104185118116411 0 0.013171010005239649 -0.0094876287536396764 0 0.013201597477730356 -0.010095208492770283 0 0.013068748405040008 -0.0094380467055162499 0 0.013171010005239649 -0.0094876287536396764 0 0.013062836870605086 -0.0094575797633616246 0 0.012993580593283937 -0.0094238413009645559 0 0.013171010005239649 -0.0094876287536396764 0 0.013068748405040008 -0.0094380467055162499 0 0.013062836870605086 -0.0094575797633616246 0 0.013068748405040008 -0.0094380467055162499 0 0.013166550837173269 -0.0095062011026704769 0 0.013062836870605086 -0.0094575797633616246 0 0.013068748405040008 -0.0094380467055162499 0 0.013166550837173269 -0.0095062011026704769 0 0.013430483717484171 -0.0094426307882921005 0 0.013124455650399486 -0.0095504318761355962 0 0.013063346848801784 -0.0095561407149829282 0 0.013254222018441314 -0.0096941804940008404 0 0.013166550837173269 -0.0095062011026704769 0 0.013124455650399486 -0.0095504318761355962 0 0.013062836870605086 -0.0094575797633616246 0 0.013166550837173269 -0.0095062011026704769 0 0.013124455650399486 -0.0095504318761355962 0 0.013254222018441314 -0.0096941804940008404 0 0.013124455650399486 -0.0095504318761355962 0 0.013062836870605086 -0.0094575797633616246 0 0.013063346848801784 -0.0095561407149829282 0 0.013062836870605086 -0.0094575797633616246 0 0.012949268362622805 -0.0094907513945575277 0 0.013063346848801784 -0.0095561407149829282 0 0.013062836870605086 -0.0094575797633616246 0 0.012993580593283937 -0.0094238413009645559 0 0.012949268362622805 -0.0094907513945575277 0 0.012993580593283937 -0.0094238413009645559 0 0.012764324801533845 -0.00944982549011536 0 0.012949268362622805 -0.0094907513945575277 0 0.012993580593283937 -0.0094238413009645559 0 0.012803374151659776 -0.0093336214333745275 0 0.012764324801533845 -0.00944982549011536 0 0.013171010005239649 -0.0094876287536396764 0 0.012993580593283937 -0.0094238413009645559 0 0.012803374151659776 -0.0093336214333745275 0 0.012589324466230425 -0.010010225094017916 0 0.012325418250098238 -0.0097506593053900917 0 0.011918897495122894 -0.010192420632971287 0 0.011919441829875548 -0.010359947608610221 0 0.011830606397839082 -0.010167222496537974 0 0.012009992002940152 -0.01051402328761528 0 0.011919441829875548 -0.010359947608610221 0 0.011830606397839082 -0.010167222496537974 0 0.012432306636738305 -0.0093047349615321025 0 0.012803374151659776 -0.0093336214333745275 0 0.012764324801533845 -0.00944982549011536 0 0.012128713874887939 -0.009522380397313162 0 0.012325418250098238 -0.0097506593053900917 0 0.012432306636738305 -0.0093047349615321025 0 0.012764324801533845 -0.00944982549011536 0 0.012519633076865785 -0.0094586771463167785 0 0.012764324801533845 -0.00944982549011536 0 0.012807339521790166 -0.0095297400587049941 0 0.012670139707152672 -0.0095227764656468823 0 0.012764324801533845 -0.00944982549011536 0 0.012519633076865785 -0.0094586771463167785 0 0.012670139707152672 -0.0095227764656468823 0 0.012949268362622805 -0.0094907513945575277 0 0.012807339521790166 -0.0095297400587049941 0 0.013000937760656563 -0.0095918988006845635 0 0.012764324801533845 -0.00944982549011536 0 0.012949268362622805 -0.0094907513945575277 0 0.012807339521790166 -0.0095297400587049941 0 0.013869233113740985 -0.0082794822907936595 0 0.014046669627667374 -0.008364198704311673 0 0.014088193517843921 -0.0082913432576530461 0 0.013244756455053472 -0.0089498619888187126 0 0.013555554995395076 -0.0089375946163775498 0 0.012807339521790166 -0.0095297400587049941 0 0.012642203337934524 -0.0096243739543012911 0 0.013000937760656563 -0.0095918988006845635 0 0.012429396784800439 -0.0095236777557579141 0 0.012564827871616431 -0.0095302099182528969 0 0.012519633076865785 -0.0094586771463167785 0 0.012564827871616431 -0.0095302099182528969 0 0.012519633076865785 -0.0094586771463167785 0 0.012670139707152672 -0.0095227764656468823 0 0.012564827871616431 -0.0095302099182528969 0 0.012670139707152672 -0.0095227764656468823 0 0.012642203337934524 -0.0096243739543012911 0 0.012807339521790166 -0.0095297400587049941 0 0.012670139707152672 -0.0095227764656468823 0 0.012642203337934524 -0.0096243739543012911 0 0.012429396784800439 -0.0095236777557579141 0 0.012564827871616431 -0.0095302099182528969 0 0.012642203337934524 -0.0096243739543012911 0 0.013734976237509156 -0.008378886101702742 0 0.013955141104306007 -0.0084509932664479561 0 0.013948438562644917 -0.008595580610023296 0 0.012948227646877489 -0.0086218370741289168 0 0.013869233113740985 -0.0082794822907936595 0 0.013734976237509156 -0.008378886101702742 0 0.013720642437398522 -0.0082822061761157906 0 0.013919782879528693 -0.0090981962289643677 0 0.013869233113740985 -0.0082794822907936595 0 0.013734976237509156 -0.008378886101702742 0 0.013955141104306007 -0.0084509932664479561 0 0.013869233113740985 -0.0082794822907936595 0 0.014046669627667374 -0.008364198704311673 0 0.013955141104306007 -0.0084509932664479561 0 0.014046669627667374 -0.008364198704311673 0 0.013955141104306007 -0.0084509932664479561 0 0.014081751852757713 -0.0085076216498767322 0 0.013955141104306007 -0.0084509932664479561 0 0.014025897630669014 -0.0085566001927593963 0 0.013948438562644917 -0.008595580610023296 0 0.013955141104306007 -0.0084509932664479561 0 0.014025897630669014 -0.0085566001927593963 0 0.014081751852757713 -0.0085076216498767322 0 0.014025897630669014 -0.0085566001927593963 0 0.014093580892570151 -0.0085931562203263624 0 0.014081751852757713 -0.0085076216498767322 0 0.014025897630669014 -0.0085566001927593963 0 0.014093580892570151 -0.0085931562203263624 0 0.014045318358988593 -0.0086039078969798472 0 0.014025897630669014 -0.0085566001927593963 0 0.013948438562644917 -0.008595580610023296 0 0.014045318358988593 -0.0086039078969798472 0 0.013398057874096137 -0.0087843341077175757 0 0.013734976237509156 -0.008378886101702742 0 0.013683501966353781 -0.0091185823390720153 0 0.014297541881179794 -0.0086110077208242913 0 0.014222627206516261 -0.0084958173711644457 0 0.014450497515698357 -0.0084922822522274805 0 0.014297541881179794 -0.0086110077208242913 0 0.014173276944317817 -0.0085732922877946611 0 0.014222627206516261 -0.0084958173711644457 0 0.014297541881179794 -0.0086110077208242913 0 0.014173276944317817 -0.0085732922877946611 0 0.014129025851973268 -0.0086425648107054543 0 0.014173276944317817 -0.0085732922877946611 0 0.014093580892570151 -0.0085931562203263624 0 0.014129025851973268 -0.0086425648107054543 0 0.014173276944317817 -0.0085732922877946611 0 0.014093580892570151 -0.0085931562203263624 0 0.014081751852757713 -0.0085076216498767322 0 0.014173276944317817 -0.0085732922877946611 0 0.014222627206516261 -0.0084958173711644457 0 0.014081751852757713 -0.0085076216498767322 0 0.014046669627667374 -0.008364198704311673 0 0.014222627206516261 -0.0084958173711644457 0 0.014081751852757713 -0.0085076216498767322 0 0.014046669627667374 -0.008364198704311673 0 0.014222627206516261 -0.0084958173711644457 0 0.014309045264496334 -0.0083873288439854053 0 0.014222627206516261 -0.0084958173711644457 0 0.014309045264496334 -0.0083873288439854053 0 0.014450497515698357 -0.0084922822522274805 0 0.014402338586590076 -0.0082982489791613625 0 0.014244914070427113 -0.0082654241722035175 0 0.014462087734015692 -0.0081371627476207395 0 0.014309045264496334 -0.0083873288439854053 0 0.014402338586590076 -0.0082982489791613625 0 0.014450497515698357 -0.0084922822522274805 0 0.014309045264496334 -0.0083873288439854053 0 0.014402338586590076 -0.0082982489791613625 0 0.014244914070427113 -0.0082654241722035175 0 0.014046669627667374 -0.008364198704311673 0 0.014309045264496334 -0.0083873288439854053 0 0.014244914070427113 -0.0082654241722035175 0 0.014046669627667374 -0.008364198704311673 0 0.014102435716369476 -0.0083056679553565917 0 0.014088193517843921 -0.0082913432576530461 0 0.014053575427735917 -0.0083598832216032117 0 0.014173905157925772 -0.0082881065668288702 0 0.012949268362622805 -0.0094907513945575277 0 0.013000937760656563 -0.0095918988006845635 0 0.013063346848801784 -0.0095561407149829282 0 0.014102435716369476 -0.0083056679553565917 0 0.014088193517843921 -0.0082913432576530461 0 0.014098203469191892 -0.0083333165824065365 0 0.013555554995395076 -0.0089375946163775498 0 0.013643978306651294 -0.0090244509319511498 0 0.013000937760656563 -0.0095918988006845635 0 0.013063346848801784 -0.0095561407149829282 0 0.013254222018441314 -0.0096941804940008404 0 0.014102435716369476 -0.0083056679553565917 0 0.014098203469191892 -0.0083333165824065365 0 0.014094834663760812 -0.0083235184935356032 0 0.014173905157925772 -0.0082881065668288702 0 0.014254411169197853 -0.0082224724267135584 0 0.014254411169197853 -0.0082224724267135584 0 0.014583680782397379 -0.0083778853168543638 0 0.014462087734015692 -0.0081371627476207395 0 0.014555259924378816 -0.0082305465232849623 0 0.014657061953594818 -0.0080207237612579061 0 0.014098203469191892 -0.0083333165824065365 0 0.014094834663760812 -0.0083235184935356032 0 0.014072583861192567 -0.0083479772290567834 0 0.014607708877233627 -0.0083694627620388255 0 0.014583680782397379 -0.0083778853168543638 0 0.014750937028150298 -0.0085743988913399988 0 0.014702362463957432 -0.0085554638908592068 0 0.014751286315195697 -0.0085685441801576622 0 0.014702362463957432 -0.0085554638908592068 0 0.014647616055179537 -0.0085318513251283409 0 0.014751286315195697 -0.0085685441801576622 0 0.014750937028150298 -0.0085743988913399988 0 0.014786722166131368 -0.0085906187411470495 0 0.014751286315195697 -0.0085685441801576622 0 0.014750937028150298 -0.0085743988913399988 0 0.014702362463957432 -0.0085554638908592068 0 0.014716031882709894 -0.0085648550472007343 0 0.014750937028150298 -0.0085743988913399988 0 0.014716031882709894 -0.0085648550472007343 0 0.014768312399188743 -0.0085873396611946713 0 0.014716031882709894 -0.0085648550472007343 0 0.014643678875217617 -0.0085406502084003199 0 0.014743988446800776 -0.0085886235691926965 0 0.014702362463957432 -0.0085554638908592068 0 0.014643678875217617 -0.0085406502084003199 0 0.014647616055179537 -0.0085318513251283409 0 0.014702362463957432 -0.0085554638908592068 0 0.014716031882709894 -0.0085648550472007343 0 0.014643678875217617 -0.0085406502084003199 0 0.014607708877233627 -0.0083694627620388255 0 0.014463087795979882 -0.0085104878831461419 0 0.014643678875217617 -0.0085406502084003199 0 0.014647616055179537 -0.0085318513251283409 0 0.014450497515698357 -0.0084922822522274805 0 0.014402338586590076 -0.0082982489791613625 0 0.014555259924378816 -0.0082305465232849623 0 0.014450497515698357 -0.0084922822522274805 0 0.014402338586590076 -0.0082982489791613625 0 0.014462087734015692 -0.0081371627476207395 0 0.014555259924378816 -0.0082305465232849623 0 0.014643678875217617 -0.0085406502084003199 0 0.014450497515698357 -0.0084922822522274805 0 0.014562707300942704 -0.0086163668516435234 0 0.014643678875217617 -0.0085406502084003199 0 0.014683306130450515 -0.0085970451797325858 0 0.014743988446800776 -0.0085886235691926965 0 0.014643678875217617 -0.0085406502084003199 0 0.014683306130450515 -0.0085970451797325858 0 0.014562707300942704 -0.0086163668516435234 0 0.014683306130450515 -0.0085970451797325858 0 0.014562707300942704 -0.0086163668516435234 0 0.014756490737087272 -0.0086767568752412153 0 0.014297541881179794 -0.0086110077208242913 0 0.014562707300942704 -0.0086163668516435234 0 0.014402145506065403 -0.0087135427908273059 0 0.014297541881179794 -0.0086110077208242913 0 0.014450497515698357 -0.0084922822522274805 0 0.014562707300942704 -0.0086163668516435234 0 0.013222198576355062 -0.0063305408990651912 0 0.012310225930423956 -0.0071881234318230958 0 0.012539634868105339 -0.0060716825965106865 0 0.013753160065160381 -0.0075887682760023755 0 0.014604944560985515 -0.0076730625271340851 0 0.014774172141514755 -0.0086247384848116594 0 0.014820929401404432 -0.0086265078527210486 0 0.014743988446800776 -0.0085886235691926965 0 0.014683306130450515 -0.0085970451797325858 0 0.014756490737087272 -0.0086767568752412153 0 0.014774172141514755 -0.0086247384848116594 0 0.014683306130450515 -0.0085970451797325858 0 0.014774172141514755 -0.0086247384848116594 0 0.014743988446800776 -0.0085886235691926965 0 0.014756490737087272 -0.0086767568752412153 0 0.014774172141514755 -0.0086247384848116594 0 0.014852427681626642 -0.0086438181737689291 0 0.014774172141514755 -0.0086247384848116594 0 0.014820929401404432 -0.0086265078527210486 0 0.014852427681626642 -0.0086438181737689291 0 0.014865516917317733 -0.00864480614880455 0 0.014820929401404432 -0.0086265078527210486 0 0.014852427681626642 -0.0086438181737689291 0 0.014820929401404432 -0.0086265078527210486 0 0.014803080212418567 -0.0086095410227239044 0 0.01486541804064497 -0.0086361726084925212 0 0.014865516917317733 -0.00864480614880455 0 0.014820929401404432 -0.0086265078527210486 0 0.01486541804064497 -0.0086361726084925212 0 0.014820929401404432 -0.0086265078527210486 0 0.014743988446800776 -0.0085886235691926965 0 0.014803080212418567 -0.0086095410227239044 0 0.014743988446800776 -0.0085886235691926965 0 0.014803080212418567 -0.0086095410227239044 0 0.014768312399188743 -0.0085873396611946713 0 0.014716031882709894 -0.0085648550472007343 0 0.014743988446800776 -0.0085886235691926965 0 0.014768312399188743 -0.0085873396611946713 0 0.014768312399188743 -0.0085873396611946713 0 0.014812297339141235 -0.0086076237835662692 0 0.01478555828338146 -0.0085914877819094279 0 0.014750937028150298 -0.0085743988913399988 0 0.014768312399188743 -0.0085873396611946713 0 0.01478555828338146 -0.0085914877819094279 0 0.014803080212418567 -0.0086095410227239044 0 0.014768312399188743 -0.0085873396611946713 0 0.014812297339141235 -0.0086076237835662692 0 0.014812297339141235 -0.0086076237835662692 0 0.01478555828338146 -0.0085914877819094279 0 0.014814320226574314 -0.0086093172612667704 0 0.014812297339141235 -0.0086076237835662692 0 0.014853952738547786 -0.0086262462602552763 0 0.014814320226574314 -0.0086093172612667704 0 0.014750937028150298 -0.0085743988913399988 0 0.01478555828338146 -0.0085914877819094279 0 0.014786722166131368 -0.0085906187411470495 0 0.014803080212418567 -0.0086095410227239044 0 0.014812297339141235 -0.0086076237835662692 0 0.01486541804064497 -0.0086361726084925212 0 0.014812297339141235 -0.0086076237835662692 0 0.01486541804064497 -0.0086361726084925212 0 0.014853952738547786 -0.0086262462602552763 0 0.01486541804064497 -0.0086361726084925212 0 0.014853952738547786 -0.0086262462602552763 0 0.014938579481219752 -0.0086381795658077663 0 0.014853952738547786 -0.0086262462602552763 0 0.014896968753791316 -0.008641231079724733 0 0.014938579481219752 -0.0086381795658077663 0 0.014853952738547786 -0.0086262462602552763 0 0.014819461185959578 -0.0086496991937458183 0 0.014814320226574314 -0.0086093172612667704 0 0.014853952738547786 -0.0086262462602552763 0 0.014819461185959578 -0.0086496991937458183 0 0.014896968753791316 -0.008641231079724733 0 0.014819461185959578 -0.0086496991937458183 0 0.014896968753791316 -0.008641231079724733 0 0.014915413536332999 -0.0086730126943305678 0 0.014896968753791316 -0.008641231079724733 0 0.014915413536332999 -0.0086730126943305678 0 0.015001517939796771 -0.0086315964267250547 0 0.014915413536332999 -0.0086730126943305678 0 0.014772432230722781 -0.0087381767761542575 0 0.014907163341669985 -0.0085536785451250739 0 0.014819461185959578 -0.0086496991937458183 0 0.014915413536332999 -0.0086730126943305678 0 0.014772432230722781 -0.0087381767761542575 0 0.014869108197438882 -0.0087207768496040464 0 0.014282820398716013 -0.0089013452471156489 0 0.014772432230722781 -0.0087381767761542575 0 0.014822184050223279 -0.0086156813027093541 0 0.014858970439277372 -0.0086225430602624702 0 0.014381056727446736 -0.0089876387563639724 0 0.014282820398716013 -0.0089013452471156489 0 0.014772432230722781 -0.0087381767761542575 0 0.014470389697717159 -0.0087953457250005938 0 0.014309334124751079 -0.0091171593158446522 0 0.014819461185959578 -0.0086496991937458183 0 0.014772432230722781 -0.0087381767761542575 0 0.014822184050223279 -0.0086156813027093541 0 0.014819461185959578 -0.0086496991937458183 0 0.014822184050223279 -0.0086156813027093541 0 0.014814320226574314 -0.0086093172612667704 0 0.014822184050223279 -0.0086156813027093541 0 0.014814320226574314 -0.0086093172612667704 0 0.014786722166131368 -0.0085906187411470495 0 0.01478555828338146 -0.0085914877819094279 0 0.014814320226574314 -0.0086093172612667704 0 0.014786722166131368 -0.0085906187411470495 0 0.014583680782397379 -0.0083778853168543638 0 0.014282820398716013 -0.0089013452471156489 0 0.014822184050223279 -0.0086156813027093541 0 0.014786722166131368 -0.0085906187411470495 0 0.014751286315195697 -0.0085685441801576622 0 0.014098203469191892 -0.0083333165824065365 0 0.014072583861192567 -0.0083479772290567834 0 0.014066527565816054 -0.0083711356926137598 0 0.01482558115773158 -0.0085774498018252373 0 0.014583680782397379 -0.0083778853168543638 0 0.014060561357647295 -0.009559877910008811 0 0.013445358597676042 -0.0095336307903623463 0 0.013652874429218934 -0.0094417515703679802 0 0.014822184050223279 -0.0086156813027093541 0 0.014879315834378135 -0.0085739663220611544 0 0.014858970439277372 -0.0086225430602624702 0 0.013643978306651294 -0.0090244509319511498 0 0.014282820398716013 -0.0089013452471156489 0 0.013254222018441314 -0.0096941804940008404 0 0.014060561357647295 -0.009559877910008811 0 0.013445358597676042 -0.0095336307903623463 0 0.013166550837173269 -0.0095062011026704769 0 0.013254222018441314 -0.0096941804940008404 0 0.013445358597676042 -0.0095336307903623463 0 0.013445358597676042 -0.0095336307903623463 0 0.013430483717484171 -0.0094426307882921005 0 0.013652874429218934 -0.0094417515703679802 0 0.013166550837173269 -0.0095062011026704769 0 0.013445358597676042 -0.0095336307903623463 0 0.013430483717484171 -0.0094426307882921005 0 0.013068748405040008 -0.0094380467055162499 0 0.013430483717484171 -0.0094426307882921005 0 0.013828041738758219 -0.0091264399306491776 0 0.013430483717484171 -0.0094426307882921005 0 0.013652874429218934 -0.0094417515703679802 0 0.013828041738758219 -0.0091264399306491776 0 0.014470389697717159 -0.0087953457250005938 0 0.014060561357647295 -0.009559877910008811 0 0.013828041738758219 -0.0091264399306491776 0 0.014060561357647295 -0.009559877910008811 0 0.013652874429218934 -0.0094417515703679802 0 0.013828041738758219 -0.0091264399306491776 0 0.014470389697717159 -0.0087953457250005938 0 0.013828041738758219 -0.0091264399306491776 0 0.0138761349097684 -0.0085864544787433231 0 0.013068748405040008 -0.0094380467055162499 0 0.013828041738758219 -0.0091264399306491776 0 0.0138761349097684 -0.0085864544787433231 0 0.013068748405040008 -0.0094380467055162499 0 0.012507147461887538 -0.01029014280604869 0 0.01280871657835104 -0.010300553189534279 0 0.013105166633773068 -0.0094200481566515497 0 0.013224980786919567 -0.009446194588715132 0 0.012507147461887538 -0.01029014280604869 0 0.01280871657835104 -0.010300553189534279 0 0.012567094286980275 -0.010850913022691047 0 0.01270241125543364 -0.010846388537569703 0 0.01280871657835104 -0.010300553189534279 0 0.012567094286980275 -0.010850913022691047 0 0.012507147461887538 -0.01029014280604869 0 0.012567094286980275 -0.010850913022691047 0 0.012452734621045375 -0.010979021113718838 0 0.013224980786919567 -0.009446194588715132 0 0.013536167301513587 -0.009640638466979266 0 0.014598900185581062 -0.0083377406384105672 0 0.014768182325536738 -0.0085530066569484732 0 0.014831169234872547 -0.0084377321509975199 0 0.014853564163463633 -0.0083678747598405559 0 0.014598900185581062 -0.0083377406384105672 0 0.014831169234872547 -0.0084377321509975199 0 0.014772432230722781 -0.0087381767761542575 0 0.014768182325536738 -0.0085530066569484732 0 0.014907163341669985 -0.0085536785451250739 0 0.014470389697717159 -0.0087953457250005938 0 0.014598900185581062 -0.0083377406384105672 0 0.014768182325536738 -0.0085530066569484732 0 0.014470389697717159 -0.0087953457250005938 0 0.0138761349097684 -0.0085864544787433231 0 0.014598900185581062 -0.0083377406384105672 0 0.014772432230722781 -0.0087381767761542575 0 0.014470389697717159 -0.0087953457250005938 0 0.014768182325536738 -0.0085530066569484732 0 0.015019559063873384 -0.0087522229327191108 0 0.015045378386165776 -0.0088967167037195174 0 0.01489579556723279 -0.0089831119410799451 0 0.015019559063873384 -0.0087522229327191108 0 0.015141628589344239 -0.0087570867835517763 0 0.015045378386165776 -0.0088967167037195174 0 0.015019559063873384 -0.0087522229327191108 0 0.015141628589344239 -0.0087570867835517763 0 0.015074129752152991 -0.0086670923187894579 0 0.014768182325536738 -0.0085530066569484732 0 0.014907163341669985 -0.0085536785451250739 0 0.014831169234872547 -0.0084377321509975199 0 0.015155505173872328 -0.0085800627035729111 0 0.014980328963303934 -0.0087156277812276278 0 0.014893517344880782 -0.0083945193077712161 0 0.014907163341669985 -0.0085536785451250739 0 0.014831169234872547 -0.0084377321509975199 0 0.014911523685232748 -0.0092600029031072104 0 0.015112503028729666 -0.0091336111607347188 0 0.01489579556723279 -0.0089831119410799451 0 0.015112503028729666 -0.0091336111607347188 0 0.015141628589344239 -0.0087570867835517763 0 0.015045378386165776 -0.0088967167037195174 0 0.015112503028729666 -0.0091336111607347188 0 0.015045378386165776 -0.0088967167037195174 0 0.01489579556723279 -0.0089831119410799451 0 0.014714740505310407 -0.0090356458345856906 0 0.01489579556723279 -0.0089831119410799451 0 0.014661649880652683 -0.0088510155714625061 0 0.01475090605481569 -0.0092327905438007764 0 0.014714740505310407 -0.0090356458345856906 0 0.01489579556723279 -0.0089831119410799451 0 0.014717641896936496 -0.0087014244076618966 0 0.015686251354318063 -0.00990420851025927 0 0.014550866236065454 -0.0090984554145133976 0 0.014661649880652683 -0.0088510155714625061 0 0.014311018029377594 -0.0089794745136558274 0 0.014714740505310407 -0.0090356458345856906 0 0.014550866236065454 -0.0090984554145133976 0 0.014661649880652683 -0.0088510155714625061 0 0.01475090605481569 -0.0092327905438007764 0 0.014714740505310407 -0.0090356458345856906 0 0.014550866236065454 -0.0090984554145133976 0 0.01496687393342894 -0.0087667452526008129 0 0.015228313228058635 -0.0088619017304735672 0 0.015582902153777795 -0.0085058587052960558 0 0.01496687393342894 -0.0087667452526008129 0 0.014960740969460509 -0.0088518938383469088 0 0.015228313228058635 -0.0088619017304735672 0 0.015019559063873384 -0.0087522229327191108 0 0.01496687393342894 -0.0087667452526008129 0 0.014960740969460509 -0.0088518938383469088 0 0.015019559063873384 -0.0087522229327191108 0 0.014960740969460509 -0.0088518938383469088 0 0.015013444917663484 -0.0087316443999321831 0 0.015019559063873384 -0.0087522229327191108 0 0.01489579556723279 -0.0089831119410799451 0 0.014661649880652683 -0.0088510155714625061 0 0.015035972149156933 -0.0087713370263272899 0 0.014717641896936496 -0.0087014244076618966 0 0.014960740969460509 -0.0088518938383469088 0 0.015013444917663484 -0.0087316443999321831 0 0.014906401207839665 -0.0086974209670039205 0 0.015013444917663484 -0.0087316443999321831 0 0.014906401207839665 -0.0086974209670039205 0 0.014966674639893087 -0.0085984830460517064 0 0.015013444917663484 -0.0087316443999321831 0 0.015045402964519275 -0.0086390265415393751 0 0.014966674639893087 -0.0085984830460517064 0 0.015013444917663484 -0.0087316443999321831 0 0.015045402964519275 -0.0086390265415393751 0 0.015076607899224622 -0.0086676097361788711 0 0.014957265631695155 -0.0088818553066481332 0 0.01508920431746885 -0.0090592960481957526 0 0.014960740969460509 -0.0088518938383469088 0 0.014906401207839665 -0.0086974209670039205 0 0.014695706024723601 -0.0087069854251001968 0 0.014960740969460509 -0.0088518938383469088 0 0.015228313228058635 -0.0088619017304735672 0 0.015441766973689749 -0.009431706146953862 0 0.014906401207839665 -0.0086974209670039205 0 0.014822722029866129 -0.0085874840785001468 0 0.014695706024723601 -0.0087069854251001968 0 0.014822722029866129 -0.0085874840785001468 0 0.014886082960716418 -0.0085129285989383081 0 0.014966674639893087 -0.0085984830460517064 0 0.014906401207839665 -0.0086974209670039205 0 0.014822722029866129 -0.0085874840785001468 0 0.014966674639893087 -0.0085984830460517064 0 0.014822722029866129 -0.0085874840785001468 0 0.014886082960716418 -0.0085129285989383081 0 0.014815377958422105 -0.0084214295060118377 0 0.014886082960716418 -0.0085129285989383081 0 0.014951221705630555 -0.0084282473600016256 0 0.014815377958422105 -0.0084214295060118377 0 0.014886082960716418 -0.0085129285989383081 0 0.014966674639893087 -0.0085984830460517064 0 0.014951221705630555 -0.0084282473600016256 0 0.014822722029866129 -0.0085874840785001468 0 0.014815377958422105 -0.0084214295060118377 0 0.014691814009595135 -0.0084893341097401712 0 0.015045402964519275 -0.0086390265415393751 0 0.014966674639893087 -0.0085984830460517064 0 0.015051654875909497 -0.0085065583716056933 0 0.015045402964519275 -0.0086390265415393751 0 0.015051654875909497 -0.0085065583716056933 0 0.01511309452843276 -0.0085783739922672981 0 0.014966674639893087 -0.0085984830460517064 0 0.015051654875909497 -0.0085065583716056933 0 0.014951221705630555 -0.0084282473600016256 0 0.015076607899224622 -0.0086676097361788711 0 0.015074129752152991 -0.0086670923187894579 0 0.015172355989342034 -0.0086026745184472897 0 0.01511309452843276 -0.0085783739922672981 0 0.015076607899224622 -0.0086676097361788711 0 0.015172355989342034 -0.0086026745184472897 0 0.015051654875909497 -0.0085065583716056933 0 0.01511309452843276 -0.0085783739922672981 0 0.015174677328923957 -0.0084677738881715463 0 0.01511309452843276 -0.0085783739922672981 0 0.015172355989342034 -0.0086026745184472897 0 0.015174677328923957 -0.0084677738881715463 0 0.015045402964519275 -0.0086390265415393751 0 0.01511309452843276 -0.0085783739922672981 0 0.015076607899224622 -0.0086676097361788711 0 0.015019559063873384 -0.0087522229327191108 0 0.015076607899224622 -0.0086676097361788711 0 0.015074129752152991 -0.0086670923187894579 0 0.015019559063873384 -0.0087522229327191108 0 0.015013444917663484 -0.0087316443999321831 0 0.015076607899224622 -0.0086676097361788711 0 0.014915413536332999 -0.0086730126943305678 0 0.015141628589344239 -0.0087570867835517763 0 0.015074129752152991 -0.0086670923187894579 0 0.014939717984103673 -0.0086696601136078376 0 0.014980328963303934 -0.0087156277812276278 0 0.014915413536332999 -0.0086730126943305678 0 0.015074129752152991 -0.0086670923187894579 0 0.015001517939796771 -0.0086315964267250547 0 0.015074129752152991 -0.0086670923187894579 0 0.015001517939796771 -0.0086315964267250547 0 0.015172355989342034 -0.0086026745184472897 0 0.014896968753791316 -0.008641231079724733 0 0.015001517939796771 -0.0086315964267250547 0 0.014938579481219752 -0.0086381795658077663 0 0.015001517939796771 -0.0086315964267250547 0 0.015172355989342034 -0.0086026745184472897 0 0.014938579481219752 -0.0086381795658077663 0 0.015206983235175858 -0.00852268593881861 0 0.015369249507991817 -0.0084275218789450455 0 0.01486541804064497 -0.0086361726084925212 0 0.014938579481219752 -0.0086381795658077663 0 0.014921131285812751 -0.0086670213596591571 0 0.015172355989342034 -0.0086026745184472897 0 0.014938579481219752 -0.0086381795658077663 0 0.014921131285812751 -0.0086670213596591571 0 0.015172355989342034 -0.0086026745184472897 0 0.015314778678386608 -0.0083319030844794667 0 0.015739231922352444 -0.0080800294167971565 0 0.015174677328923957 -0.0084677738881715463 0 0.015314778678386608 -0.0083319030844794667 0 0.01511186786328499 -0.0083525480450955883 0 0.015172355989342034 -0.0086026745184472897 0 0.015174677328923957 -0.0084677738881715463 0 0.015314778678386608 -0.0083319030844794667 0 0.015314778678386608 -0.0083319030844794667 0 0.015315951088543785 -0.0081875535133413002 0 0.015484221871621351 -0.0080953252710298882 0 0.015314778678386608 -0.0083319030844794667 0 0.015484221871621351 -0.0080953252710298882 0 0.015739231922352444 -0.0080800294167971565 0 0.015314778678386608 -0.0083319030844794667 0 0.015315951088543785 -0.0081875535133413002 0 0.01511186786328499 -0.0083525480450955883 0 0.015315951088543785 -0.0081875535133413002 0 0.015192674608354835 -0.0081686114117522357 0 0.01511186786328499 -0.0083525480450955883 0 0.015315951088543785 -0.0081875535133413002 0 0.015429297196933475 -0.0079923357222089608 0 0.015192674608354835 -0.0081686114117522357 0 0.015429297196933475 -0.0079923357222089608 0 0.015484221871621351 -0.0080953252710298882 0 0.015633001500489616 -0.0078556510092399716 0 0.015315951088543785 -0.0081875535133413002 0 0.015429297196933475 -0.0079923357222089608 0 0.015484221871621351 -0.0080953252710298882 0 0.014865516917317733 -0.00864480614880455 0 0.014921131285812751 -0.0086670213596591571 0 0.014852427681626642 -0.0086438181737689291 0 0.015369249507991817 -0.0084275218789450455 0 0.014604944560985515 -0.0076730625271340851 0 0.015633001500489616 -0.0078556510092399716 0 0.015739231922352444 -0.0080800294167971565 0 0.015867697033833849 -0.0076346977889401538 0 0.014865516917317733 -0.00864480614880455 0 0.01486541804064497 -0.0086361726084925212 0 0.014921131285812751 -0.0086670213596591571 0 0.015484221871621351 -0.0080953252710298882 0 0.015633001500489616 -0.0078556510092399716 0 0.015739231922352444 -0.0080800294167971565 0 0.015633001500489616 -0.0078556510092399716 0 0.016216667240613984 -0.0073893601053682881 0 0.015755342760793222 -0.00722975001815863 0 0.016028897936258706 -0.0075802569351222111 0 0.014604944560985515 -0.0076730625271340851 0 0.015429297196933475 -0.0079923357222089608 0 0.015755342760793222 -0.00722975001815863 0 0.015403393020265992 -0.0072200635640067021 0 0.015429297196933475 -0.0079923357222089608 0 0.015633001500489616 -0.0078556510092399716 0 0.015755342760793222 -0.00722975001815863 0 0.015755342760793222 -0.00722975001815863 0 0.015403393020265992 -0.0072200635640067021 0 0.015794608098022394 -0.0066957221842982462 0 0.016216667240613984 -0.0073893601053682881 0 0.015755342760793222 -0.00722975001815863 0 0.016375706724941146 -0.0067007665770220503 0 0.015755342760793222 -0.00722975001815863 0 0.015794608098022394 -0.0066957221842982462 0 0.016375706724941146 -0.0067007665770220503 0 0.014604944560985515 -0.0076730625271340851 0 0.014415154481777829 -0.0062959197550576159 0 0.015168108051948815 -0.0074810593035829504 0 0.015533611833160888 -0.0069160023575171583 0 0.014826289177016632 -0.0077262945305095953 0 0.014600776459001442 -0.0076792239660017896 0 0.014831424624382259 -0.0073740593794277961 0 0.015079215494897449 -0.0076971290531968458 0 0.014826289177016632 -0.0077262945305095953 0 0.014831424624382259 -0.0073740593794277961 0 0.015403393020265992 -0.0072200635640067021 0 0.015550949664562204 -0.0066638272254873525 0 0.015794608098022394 -0.0066957221842982462 0 0.015403393020265992 -0.0072200635640067021 0 0.015550949664562204 -0.0066638272254873525 0 0.015213597633291009 -0.0066821826674179205 0 0.015479704018541528 -0.0079806442452568134 0 0.015168108051948815 -0.0074810593035829504 0 0.015079215494897449 -0.0076971290531968458 0 0.014911785722903239 -0.0079132829364489052 0 0.015051152230959068 -0.0080484477791150453 0 0.015079215494897449 -0.0076971290531968458 0 0.014911785722903239 -0.0079132829364489052 0 0.014826289177016632 -0.0077262945305095953 0 0.014911785722903239 -0.0079132829364489052 0 0.014826289177016632 -0.0077262945305095953 0 0.014709563514598746 -0.0079783948155525315 0 0.014911785722903239 -0.0079132829364489052 0 0.01487041735246211 -0.0081141152742972844 0 0.014709563514598746 -0.0079783948155525315 0 0.014911785722903239 -0.0079132829364489052 0 0.01487041735246211 -0.0081141152742972844 0 0.015051152230959068 -0.0080484477791150453 0 0.01487041735246211 -0.0081141152742972844 0 0.014733593292097015 -0.0081555037067686693 0 0.014709563514598746 -0.0079783948155525315 0 0.01487041735246211 -0.0081141152742972844 0 0.014733593292097015 -0.0081555037067686693 0 0.014848481051789169 -0.0082881553328772901 0 0.015429297196933475 -0.0079923357222089608 0 0.015079215494897449 -0.0076971290531968458 0 0.015051152230959068 -0.0080484477791150453 0 0.015429297196933475 -0.0079923357222089608 0 0.015051152230959068 -0.0080484477791150453 0 0.015192674608354835 -0.0081686114117522357 0 0.015051152230959068 -0.0080484477791150453 0 0.015084679011907236 -0.0082209665097465988 0 0.01498533661945071 -0.0082707257955909382 0 0.01487041735246211 -0.0081141152742972844 0 0.015051152230959068 -0.0080484477791150453 0 0.01498533661945071 -0.0082707257955909382 0 0.015051152230959068 -0.0080484477791150453 0 0.015192674608354835 -0.0081686114117522357 0 0.015084679011907236 -0.0082209665097465988 0 0.015192674608354835 -0.0081686114117522357 0 0.015084679011907236 -0.0082209665097465988 0 0.01511186786328499 -0.0083525480450955883 0 0.015084679011907236 -0.0082209665097465988 0 0.01498533661945071 -0.0082707257955909382 0 0.01511186786328499 -0.0083525480450955883 0 0.01498533661945071 -0.0082707257955909382 0 0.014951221705630555 -0.0084282473600016256 0 0.01511186786328499 -0.0083525480450955883 0 0.015051654875909497 -0.0085065583716056933 0 0.015174677328923957 -0.0084677738881715463 0 0.01511186786328499 -0.0083525480450955883 0 0.015051654875909497 -0.0085065583716056933 0 0.014951221705630555 -0.0084282473600016256 0 0.01511186786328499 -0.0083525480450955883 0 0.014733593292097015 -0.0081555037067686693 0 0.014848481051789169 -0.0082881553328772901 0 0.014703586387252846 -0.0083135249358038676 0 0.01487041735246211 -0.0081141152742972844 0 0.01498533661945071 -0.0082707257955909382 0 0.014848481051789169 -0.0082881553328772901 0 0.01498533661945071 -0.0082707257955909382 0 0.014951221705630555 -0.0084282473600016256 0 0.014848481051789169 -0.0082881553328772901 0 0.014951221705630555 -0.0084282473600016256 0 0.014848481051789169 -0.0082881553328772901 0 0.014815377958422105 -0.0084214295060118377 0 0.014848481051789169 -0.0082881553328772901 0 0.014815377958422105 -0.0084214295060118377 0 0.014703586387252846 -0.0083135249358038676 0 0.014815377958422105 -0.0084214295060118377 0 0.014703586387252846 -0.0083135249358038676 0 0.014691814009595135 -0.0084893341097401712 0 0.014703586387252846 -0.0083135249358038676 0 0.014553214519844022 -0.0083810931601141 0 0.014691814009595135 -0.0084893341097401712 0 0.014553214519844022 -0.0083810931601141 0 0.014415437393403565 -0.0082797603693201306 0 0.014576007972946064 -0.0081862443979815788 0 0.014703586387252846 -0.0083135249358038676 0 0.014553214519844022 -0.0083810931601141 0 0.014576007972946064 -0.0081862443979815788 0 0.014733593292097015 -0.0081555037067686693 0 0.014703586387252846 -0.0083135249358038676 0 0.014576007972946064 -0.0081862443979815788 0 0.01534992417901661 -0.0088463649007313513 0 0.015112030290728695 -0.0090548690700051806 0 0.014415437393403565 -0.0082797603693201306 0 0.014386140234944509 -0.0079964893124593022 0 0.014183150706719487 -0.008293170546653383 0 0.014415437393403565 -0.0082797603693201306 0 0.014183150706719487 -0.008293170546653383 0 0.014434952927197606 -0.0085095952261156748 0 0.014553214519844022 -0.0083810931601141 0 0.014415437393403565 -0.0082797603693201306 0 0.014434952927197606 -0.0085095952261156748 0 0.014415437393403565 -0.0082797603693201306 0 0.014386140234944509 -0.0079964893124593022 0 0.014576007972946064 -0.0081862443979815788 0 0.015138045049837437 -0.0081986970498659426 0 0.01534992417901661 -0.0088463649007313513 0 0.014386140234944509 -0.0079964893124593022 0 0.014576007972946064 -0.0081862443979815788 0 0.014709563514598746 -0.0079783948155525315 0 0.014733593292097015 -0.0081555037067686693 0 0.014576007972946064 -0.0081862443979815788 0 0.014709563514598746 -0.0079783948155525315 0 0.014386140234944509 -0.0079964893124593022 0 0.014709563514598746 -0.0079783948155525315 0 0.014600776459001442 -0.0076792239660017896 0 0.014826289177016632 -0.0077262945305095953 0 0.014709563514598746 -0.0079783948155525315 0 0.014600776459001442 -0.0076792239660017896 0 0.015991044495439553 -0.0084484308782374097 0 0.015917420229662547 -0.0077641338279766658 0 0.016375288958018257 -0.0078829170119253198 0 0.015138045049837437 -0.0081986970498659426 0 0.015511990923136171 -0.0078371542116003473 0 0.015991044495439553 -0.0084484308782374097 0 0.015917420229662547 -0.0077641338279766658 0 0.015513824129954928 -0.0079736383705066964 0 0.015917420229662547 -0.0077641338279766658 0 0.01566589334023696 -0.0072341634250553252 0 0.016160557863697612 -0.0073380184899863752 0 0.015917420229662547 -0.0077641338279766658 0 0.016375288958018257 -0.0078829170119253198 0 0.016160557863697612 -0.0073380184899863752 0 0.015511990923136171 -0.0078371542116003473 0 0.015533611833160888 -0.0069160023575171583 0 0.016375288958018257 -0.0078829170119253198 0 0.016160557863697612 -0.0073380184899863752 0 0.016805708721911103 -0.0072888676138825577 0 0.014999910453930556 -0.0077365865382751225 0 0.015513824129954928 -0.0079736383705066964 0 0.015265280131475599 -0.0073103770115390907 0 0.015513824129954928 -0.0079736383705066964 0 0.01566589334023696 -0.0072341634250553252 0 0.015265280131475599 -0.0073103770115390907 0 0.015917420229662547 -0.0077641338279766658 0 0.015513824129954928 -0.0079736383705066964 0 0.01566589334023696 -0.0072341634250553252 0 0.015513824129954928 -0.0079736383705066964 0 0.015234053083605467 -0.0082110246986663894 0 0.01556729142368914 -0.0085299560675447649 0 0.015991044495439553 -0.0084484308782374097 0 0.015513824129954928 -0.0079736383705066964 0 0.01556729142368914 -0.0085299560675447649 0 0.014999910453930556 -0.0077365865382751225 0 0.015513824129954928 -0.0079736383705066964 0 0.015234053083605467 -0.0082110246986663894 0 0.014999910453930556 -0.0077365865382751225 0 0.015234053083605467 -0.0082110246986663894 0 0.014999961451731878 -0.0085140432193277025 0 0.015313211443027551 -0.0087001848228468546 0 0.01534992417901661 -0.0088463649007313513 0 0.015157066331132514 -0.0085936279159558211 0 0.014999961451731878 -0.0085140432193277025 0 0.014999992719574059 -0.0092916951441040681 0 0.015234053083605467 -0.0082110246986663894 0 0.015157066331132514 -0.0085936279159558211 0 0.014999961451731878 -0.0085140432193277025 0 0.015234053083605467 -0.0082110246986663894 0 0.015157066331132514 -0.0085936279159558211 0 0.01556729142368914 -0.0085299560675447649 0 0.015157066331132514 -0.0085936279159558211 0 0.01556729142368914 -0.0085299560675447649 0 0.0156163668054196 -0.0089446956395248071 0 0.015991044495439553 -0.0084484308782374097 0 0.01556729142368914 -0.0085299560675447649 0 0.0156163668054196 -0.0089446956395248071 0 0.015747011470452359 -0.0090980229593524524 0 0.015319156404421802 -0.0090764988449038245 0 0.015369283357096346 -0.0095870995501073867 0 0.01534992417901661 -0.0088463649007313513 0 0.015382090294218413 -0.0096361772034498291 0 0.015157066331132514 -0.0085936279159558211 0 0.014999992719574059 -0.0092916951441040681 0 0.015319156404421802 -0.0090764988449038245 0 0.014999992719574059 -0.0092916951441040681 0 0.015319156404421802 -0.0090764988449038245 0 0.015369283357096346 -0.0095870995501073867 0 0.015157066331132514 -0.0085936279159558211 0 0.015747011470452359 -0.0090980229593524524 0 0.015319156404421802 -0.0090764988449038245 0 0.014999992719574059 -0.0092916951441040681 0 0.015369283357096346 -0.0095870995501073867 0 0.015000001996163701 -0.010069195132544726 0 0.015382090294218413 -0.0096361772034498291 0 0.015000096221464396 -0.010069077587993205 0 0.015370411907894285 -0.0096256708389436587 0 0.015000022616856722 -0.010069180850973695 0 0.01566883295031879 -0.0098628589541251612 0 0.015000022616856722 -0.010069180850973695 0 0.01566883295031879 -0.0098628589541251612 0 0.015591976397360392 -0.010294458822680399 0 0.01566883295031879 -0.0098628589541251612 0 0.015908528808687015 -0.010135644890285003 0 0.015591976397360392 -0.010294458822680399 0 0.01566883295031879 -0.0098628589541251612 0 0.015767788360350813 -0.0096333211800049313 0 0.01598242719385029 -0.0096783442812588324 0 0.015370411907894285 -0.0096256708389436587 0 0.01566883295031879 -0.0098628589541251612 0 0.015767788360350813 -0.0096333211800049313 0 0.015694737260482407 -0.0093031104175229432 0 0.015370411907894285 -0.0096256708389436587 0 0.015767788360350813 -0.0096333211800049313 0 0.015694737260482407 -0.0093031104175229432 0 0.015767788360350813 -0.0096333211800049313 0 0.015963538383156124 -0.0097001377761148418 0 0.015963538383156124 -0.0097001377761148418 0 0.01598242719385029 -0.0096783442812588324 0 0.015771975283752245 -0.0094307579754696596 0 0.015767788360350813 -0.0096333211800049313 0 0.015963538383156124 -0.0097001377761148418 0 0.01598242719385029 -0.0096783442812588324 0 0.014691814009595135 -0.0084893341097401712 0 0.014594199833466394 -0.0085233487391452641 0 0.014695706024723601 -0.0087069854251001968 0 0.014822722029866129 -0.0085874840785001468 0 0.014691814009595135 -0.0084893341097401712 0 0.014695706024723601 -0.0087069854251001968 0 0.015112030290728695 -0.0090548690700051806 0 0.01508920431746885 -0.0090592960481957526 0 0.014434952927197606 -0.0085095952261156748 0 0.014594199833466394 -0.0085233487391452641 0 0.014695706024723601 -0.0087069854251001968 0 0.015963538383156124 -0.0097001377761148418 0 0.015441766973689749 -0.009431706146953862 0 0.015771975283752245 -0.0094307579754696596 0 0.014553214519844022 -0.0083810931601141 0 0.014434952927197606 -0.0085095952261156748 0 0.014594199833466394 -0.0085233487391452641 0 0.014553214519844022 -0.0083810931601141 0 0.014691814009595135 -0.0084893341097401712 0 0.014594199833466394 -0.0085233487391452641 0 0.015228313228058635 -0.0088619017304735672 0 0.015441766973689749 -0.009431706146953862 0 0.015494506843414902 -0.008944367500747296 0 0.015441766973689749 -0.009431706146953862 0 0.015771975283752245 -0.0094307579754696596 0 0.015834075428659861 -0.0090658433504807595 0 0.015441766973689749 -0.009431706146953862 0 0.015834075428659861 -0.0090658433504807595 0 0.015494506843414902 -0.008944367500747296 0 0.01598242719385029 -0.0096783442812588324 0 0.015771975283752245 -0.0094307579754696596 0 0.015834075428659861 -0.0090658433504807595 0 0.016002235123073465 -0.0096766051588011558 0 0.016067107135022525 -0.0096689823133659352 0 0.01598242719385029 -0.0096783442812588324 0 0.015908528808687015 -0.010135644890285003 0 0.016296513865062822 -0.010305767808417771 0 0.01566883295031879 -0.0098628589541251612 0 0.01598242719385029 -0.0096783442812588324 0 0.015908528808687015 -0.010135644890285003 0 0.015908528808687015 -0.010135644890285003 0 0.016296513865062822 -0.010305767808417771 0 0.016035199160832136 -0.010636899891672083 0 0.016296513865062822 -0.010305767808417771 0 0.016035199160832136 -0.010636899891672083 0 0.016520905684120912 -0.01087480989124287 0 0.016067107135022525 -0.0096689823133659352 0 0.015686251354318063 -0.00990420851025927 0 0.015834075428659861 -0.0090658433504807595 0 0.015494506843414902 -0.008944367500747296 0 0.015582902153777795 -0.0085058587052960558 0 0.015228313228058635 -0.0088619017304735672 0 0.015494506843414902 -0.008944367500747296 0 0.015582902153777795 -0.0085058587052960558 0 0.014447408441445785 -0.0093739863286074546 0 0.014550866236065454 -0.0090984554145133976 0 0.014311018029377594 -0.0089794745136558274 0 0.01627646355334603 -0.011543519710716137 0 0.016482434536207017 -0.010935912322359851 0 0.016013564432905941 -0.011100372702900985 0 0.015686251354318063 -0.00990420851025927 0 0.016089988993769844 -0.011061715514522664 0 0.016035199160832136 -0.010636899891672083 0 0.016520905684120912 -0.01087480989124287 0 0.016025257634685174 -0.011050653691396352 0 0.016035199160832136 -0.010636899891672083 0 0.016025257634685174 -0.011050653691396352 0 0.015643216899698241 -0.010793458320479883 0 0.016025257634685174 -0.011050653691396352 0 0.015543167604497839 -0.011243571132201145 0 0.015643216899698241 -0.010793458320479883 0 0.016089988993769844 -0.011061715514522664 0 0.015566431093755013 -0.011232835843999783 0 0.015543167604497839 -0.011243571132201145 0 0.015643216899698241 -0.010793458320479883 0 0.014999954282716626 -0.010805263648005953 0 0.014999985874388198 -0.011541381082986971 0 0.015543167604497839 -0.011243571132201145 0 0.014999954282716626 -0.010805263648005953 0 0.015000022616856722 -0.010069180850973695 0 0.014999954282716626 -0.010805263648005953 0 0.015591976397360392 -0.010294458822680399 0 0.015643216899698241 -0.010793458320479883 0 0.014999954282716626 -0.010805263648005953 0 0.015591976397360392 -0.010294458822680399 0 0.016035199160832136 -0.010636899891672083 0 0.015643216899698241 -0.010793458320479883 0 0.015591976397360392 -0.010294458822680399 0 0.015908528808687015 -0.010135644890285003 0 0.016035199160832136 -0.010636899891672083 0 0.015591976397360392 -0.010294458822680399 0 0.015603584941639343 -0.0041176289237063362 0 0.01529787857205488 -0.0041737540257516786 0 0.015438571491670144 -0.0039440235662469509 0 0.01529787857205488 -0.0041737540257516786 0 0.015247895789750086 -0.0038561791133644515 0 0.015438571491670144 -0.0039440235662469509 0 0.015595828849046768 -0.0039677560358663344 0 0.015603584941639343 -0.0041176289237063362 0 0.015438571491670144 -0.0039440235662469509 0 0.015624162286252843 -0.0046069677047004768 0 0.015429289066122391 -0.0044215681321675259 0 0.016050017231030896 -0.0044486237324955821 0 0.015498736671977395 -0.0045476248864913449 0 0.015516236725723808 -0.0046563632224894697 0 0.015429289066122391 -0.0044215681321675259 0 0.015442465974246141 -0.0044792763113016198 0 0.015499311493578661 -0.0045600555074528943 0 0.014999895236713938 -0.0046267125547349445 0 0.015234394988850134 -0.0048742414112613796 0 0.01499999912583007 -0.0046265739857250928 0 0.015217715265926158 -0.0043492324930953594 0 0.014999999130013627 -0.004107607598171404 0 0.01548205822283635 -0.0045373028740977881 0 0.01499999912583007 -0.0046265739857250928 0 0.015217715265926158 -0.0043492324930953594 0 0.015499311493578661 -0.0045600555074528943 0 0.015516236725723808 -0.0046563632224894697 0 0.015234394988850134 -0.0048742414112613796 0 0.015429289066122391 -0.0044215681321675259 0 0.015000171163826702 -0.0046265452219548826 0 0.01548205822283635 -0.0045373028740977881 0 0.015217715265926158 -0.0043492324930953594 0 0.01541063720663163 -0.0040868914311106425 0 0.015429289066122391 -0.0044215681321675259 0 0.015330671441158331 -0.0039697639150744844 0 0.014999999130013627 -0.004107607598171404 0 0.015187492865721217 -0.0038547431334610641 0 0.014999998853435998 -0.0035886398456568733 0 0.01541063720663163 -0.0040868914311106425 0 0.014999999130013627 -0.004107607598171404 0 0.015187492865721217 -0.0038547431334610641 0 0.015217715265926158 -0.0043492324930953594 0 0.01541063720663163 -0.0040868914311106425 0 0.014999999130013627 -0.004107607598171404 0 0.015247895789750086 -0.0038561791133644515 0 0.0152732651276004 -0.0037127293563967985 0 0.015199536291442765 -0.0035426730218442348 0 0.01541063720663163 -0.0040868914311106425 0 0.015187492865721217 -0.0038547431334610641 0 0.01533906337329569 -0.0036357860698291809 0 0.015330671441158331 -0.0039697639150744844 0 0.015267191475130837 -0.0035293443365591857 0 0.0152732651276004 -0.0037127293563967985 0 0.015438571491670144 -0.0039440235662469509 0 0.015628914521697509 -0.0038193323811000421 0 0.0152732651276004 -0.0037127293563967985 0 0.015619422206830382 -0.0038102644177147814 0 0.015509295620844589 -0.0035859573874461328 0 0.015357844083612305 -0.0037417633512416464 0 0.01554611368961141 -0.0035488071968564051 0 0.015247895789750086 -0.0038561791133644515 0 0.0152732651276004 -0.0037127293563967985 0 0.015438571491670144 -0.0039440235662469509 0 0.015595828849046768 -0.0039677560358663344 0 0.015438571491670144 -0.0039440235662469509 0 0.015628914521697509 -0.0038193323811000421 0 0.01554611368961141 -0.0035488071968564051 0 0.01558072583358845 -0.0032713237611502132 0 0.015592245053138304 -0.0030675049958393272 0 0.015629303961567875 -0.0030472983753538629 0 0.01558115762652508 -0.0030450325754136673 0 0.015610341591746178 -0.0030716720899854411 0 0.015592245053138304 -0.0030675049958393272 0 0.015629303961567875 -0.0030472983753538629 0 0.015498793850245489 -0.0031312275632185277 0 0.015646991325646613 -0.0025130249659436107 0 0.015529269329402113 -0.0034944749830524012 0 0.015508541214361626 -0.0034888346666250118 0 0.015517768404643617 -0.0035090372614798005 0 0.015595828849046768 -0.0039677560358663344 0 0.015628914521697509 -0.0038193323811000421 0 0.015712079637656012 -0.0039902433768045677 0 0.01554611368961141 -0.0035488071968564051 0 0.015516240156983992 -0.0039863573631865245 0 0.015498793850245489 -0.0031312275632185277 0 0.01554611368961141 -0.0035488071968564051 0 0.015498793850245489 -0.0031312275632185277 0 0.015516240156983992 -0.0039863573631865245 0 0.015667030367061664 -0.001538549629599579 0 0.015045341461470033 -0.0014455098768601478 0 0.015381866570279831 -0.0016147656152530282 0 0.015498793850245489 -0.0031312275632185277 0 0.015493205035600031 -0.0035861272313361019 0 0.015507416991332386 -0.0023023967222510896 0 0.015384447352634226 -0.0024391453552032637 0 0.015228301032616695 -0.0022138459143146542 0 0.015646991325646613 -0.0025130249659436107 0 0.01497427366323564 -0.00089545441699132814 0 0.015384447352634226 -0.0024391453552032637 0 0.015228301032616695 -0.0022138459143146542 0 0.015137070246295285 -0.002399691538215377 0 0.015569737248984548 -0.0038397284144366666 0 0.01553528903253712 -0.0038281673921685012 0 0.015574098975985115 -0.0038254612375783295 0 0.015806085063216097 -0.0053696293271821771 0 0.015750903191237609 -0.0054407777935107293 0 0.015643844066281384 -0.0053658834201469781 0 0.015493205035600031 -0.0035861272313361019 0 0.015603703222616051 -0.0047770988012113998 0 0.015806085063216097 -0.0053696293271821771 0 0.015750903191237609 -0.0054407777935107293 0 0.015847610961740765 -0.0054657641471842384 0 0.015569737248984548 -0.0038397284144366666 0 0.015574098975985115 -0.0038254612375783295 0 0.015577845311325595 -0.0038323085292050608 0 0.015603703222616051 -0.0047770988012113998 0 0.015516240156983992 -0.0039863573631865245 0 0.015624162286252843 -0.0046069677047004768 0 0.015516240156983992 -0.0039863573631865245 0 0.015575576796135249 -0.0045117666501210607 0 0.015516069386725284 -0.0045222891064535366 0 0.015534054787244653 -0.0045583010110402363 0 0.015624162286252843 -0.0046069677047004768 0 0.015603703222616051 -0.0047770988012113998 0 0.015595828849046768 -0.0039677560358663344 0 0.015603584941639343 -0.0041176289237063362 0 0.015712079637656012 -0.0039902433768045677 0 0.015603703222616051 -0.0047770988012113998 0 0.0157618522324133 -0.0053748836891582335 0 0.015750903191237609 -0.0054407777935107293 0 0.015643844066281384 -0.0053658834201469781 0 0.015672689429551565 -0.0054138365479903935 0 0.015634394282987345 -0.0053320104613661596 0 0.015672689429551565 -0.0054138365479903935 0 0.015614585568725707 -0.005390424919353827 0 0.015591125931901925 -0.0053420778261479432 0 0.015634394282987345 -0.0053320104613661596 0 0.015614585568725707 -0.005390424919353827 0 0.015591125931901925 -0.0053420778261479432 0 0.015614585568725707 -0.005390424919353827 0 0.015546342559992892 -0.0053931868496225159 0 0.015614585568725707 -0.005390424919353827 0 0.015652015808697871 -0.0054671856084339814 0 0.015546342559992892 -0.0053931868496225159 0 0.015672689429551565 -0.0054138365479903935 0 0.015652015808697871 -0.0054671856084339814 0 0.015737140807022702 -0.0055203133405161194 0 0.015672689429551565 -0.0054138365479903935 0 0.015614585568725707 -0.005390424919353827 0 0.015652015808697871 -0.0054671856084339814 0 0.015652015808697871 -0.0054671856084339814 0 0.015625514872292783 -0.0055428324621259748 0 0.015718014287528111 -0.0056083337900195065 0 0.015652015808697871 -0.0054671856084339814 0 0.015737140807022702 -0.0055203133405161194 0 0.015718014287528111 -0.0056083337900195065 0 0.015652015808697871 -0.0054671856084339814 0 0.015625514872292783 -0.0055428324621259748 0 0.015546342559992892 -0.0053931868496225159 0 0.015750903191237609 -0.0054407777935107293 0 0.015737140807022702 -0.0055203133405161194 0 0.015820559924176237 -0.0055589817666377188 0 0.015750903191237609 -0.0054407777935107293 0 0.015820559924176237 -0.0055589817666377188 0 0.015847610961740765 -0.0054657641471842384 0 0.015750903191237609 -0.0054407777935107293 0 0.015672689429551565 -0.0054138365479903935 0 0.015737140807022702 -0.0055203133405161194 0 0.015737140807022702 -0.0055203133405161194 0 0.015808150040507046 -0.0056611681363761745 0 0.015718014287528111 -0.0056083337900195065 0 0.015737140807022702 -0.0055203133405161194 0 0.015820559924176237 -0.0055589817666377188 0 0.015808150040507046 -0.0056611681363761745 0 0.015808150040507046 -0.0056611681363761745 0 0.015800621129865834 -0.005793249388580583 0 0.015718014287528111 -0.0056083337900195065 0 0.015808150040507046 -0.0056611681363761745 0 0.015800621129865834 -0.005793249388580583 0 0.015864341793703787 -0.0058090101195501197 0 0.015625514872292783 -0.0055428324621259748 0 0.015681564892167356 -0.005734842659665988 0 0.015530276286066807 -0.0055497403954360537 0 0.015625514872292783 -0.0055428324621259748 0 0.015718014287528111 -0.0056083337900195065 0 0.015681564892167356 -0.005734842659665988 0 0.015800621129865834 -0.005793249388580583 0 0.015718014287528111 -0.0056083337900195065 0 0.015681564892167356 -0.005734842659665988 0 0.015530276286066807 -0.0055497403954360537 0 0.015347801732099592 -0.0052556318143672813 0 0.015417674327199963 -0.0057427750579997052 0 0.015681564892167356 -0.005734842659665988 0 0.015530276286066807 -0.0055497403954360537 0 0.015417674327199963 -0.0057427750579997052 0 0.015625514872292783 -0.0055428324621259748 0 0.015530276286066807 -0.0055497403954360537 0 0.015546342559992892 -0.0053931868496225159 0 0.015530276286066807 -0.0055497403954360537 0 0.015546342559992892 -0.0053931868496225159 0 0.015347801732099592 -0.0052556318143672813 0 0.015624162286252843 -0.0046069677047004768 0 0.015411432966378298 -0.0053474347718150787 0 0.016050017231030896 -0.0044486237324955821 0 0.015516236725723808 -0.0046563632224894697 0 0.015347801732099592 -0.0052556318143672813 0 0.015591125931901925 -0.0053420778261479432 0 0.015546342559992892 -0.0053931868496225159 0 0.015347801732099592 -0.0052556318143672813 0 0.014999895236713938 -0.0046267125547349445 0 0.015234394988850134 -0.0048742414112613796 0 0.015000007852585828 -0.0054044071952411444 0 0.015516236725723808 -0.0046563632224894697 0 0.015347801732099592 -0.0052556318143672813 0 0.015234394988850134 -0.0048742414112613796 0 0.015347801732099592 -0.0052556318143672813 0 0.015234394988850134 -0.0048742414112613796 0 0.015000007852585828 -0.0054044071952411444 0 0.015347801732099592 -0.0052556318143672813 0 0.015000007852585828 -0.0054044071952411444 0 0.015417674327199963 -0.0057427750579997052 0 0.015000007852585828 -0.0054044071952411444 0 0.015417674327199963 -0.0057427750579997052 0 0.014999922321303823 -0.0061815378066654506 0 0.015417674327199963 -0.0057427750579997052 0 0.015528106260994186 -0.006222614381051002 0 0.014999922321303823 -0.0061815378066654506 0 0.015417674327199963 -0.0057427750579997052 0 0.015528106260994186 -0.006222614381051002 0 0.015718128632497497 -0.0060053095381908421 0 0.015528106260994186 -0.006222614381051002 0 0.014999922321303823 -0.0061815378066654506 0 0.01528739120852776 -0.0065863209879632604 0 0.014999922321303823 -0.0061815378066654506 0 0.01528739120852776 -0.0065863209879632604 0 0.01499989544947565 -0.0069590394551584892 0 0.01528739120852776 -0.0065863209879632604 0 0.01499989544947565 -0.0069590394551584892 0 0.015265280131475599 -0.0073103770115390907 0 0.015528106260994186 -0.006222614381051002 0 0.01528739120852776 -0.0065863209879632604 0 0.0156127699661487 -0.0067386598498088632 0 0.01528739120852776 -0.0065863209879632604 0 0.0156127699661487 -0.0067386598498088632 0 0.015265280131475599 -0.0073103770115390907 0 0.0156127699661487 -0.0067386598498088632 0 0.01566589334023696 -0.0072341634250553252 0 0.015265280131475599 -0.0073103770115390907 0 0.014999910453930556 -0.0077365865382751225 0 0.01499989544947565 -0.0069590394551584892 0 0.015265280131475599 -0.0073103770115390907 0 0.016160557863697612 -0.0073380184899863752 0 0.016468233875493659 -0.0068416954621499104 0 0.016805708721911103 -0.0072888676138825577 0 0.016160557863697612 -0.0073380184899863752 0 0.015957992536569817 -0.0068702823769553126 0 0.016468233875493659 -0.0068416954621499104 0 0.01566589334023696 -0.0072341634250553252 0 0.016160557863697612 -0.0073380184899863752 0 0.015957992536569817 -0.0068702823769553126 0 0.0156127699661487 -0.0067386598498088632 0 0.01566589334023696 -0.0072341634250553252 0 0.015957992536569817 -0.0068702823769553126 0 0.0156127699661487 -0.0067386598498088632 0 0.015957992536569817 -0.0068702823769553126 0 0.015949339542657637 -0.0063232068608070893 0 0.016181742808470685 -0.0065694225592261473 0 0.015977415322796843 -0.0063359360167058801 0 0.015957992536569817 -0.0068702823769553126 0 0.016468233875493659 -0.0068416954621499104 0 0.015949339542657637 -0.0063232068608070893 0 0.015853307190020247 -0.0062138350040134216 0 0.015840031119337253 -0.006243204075693262 0 0.015949339542657637 -0.0063232068608070893 0 0.015840031119337253 -0.006243204075693262 0 0.015834603071139285 -0.0060268964472556903 0 0.015850237389541735 -0.0059929767578595465 0 0.015840031119337253 -0.006243204075693262 0 0.015949339542657637 -0.0063232068608070893 0 0.015834603071139285 -0.0060268964472556903 0 0.015528106260994186 -0.006222614381051002 0 0.0156127699661487 -0.0067386598498088632 0 0.015949339542657637 -0.0063232068608070893 0 0.015528106260994186 -0.006222614381051002 0 0.015949339542657637 -0.0063232068608070893 0 0.015718128632497497 -0.0060053095381908421 0 0.015949339542657637 -0.0063232068608070893 0 0.015718128632497497 -0.0060053095381908421 0 0.015834603071139285 -0.0060268964472556903 0 0.015681564892167356 -0.005734842659665988 0 0.015417674327199963 -0.0057427750579997052 0 0.015718128632497497 -0.0060053095381908421 0 0.015681564892167356 -0.005734842659665988 0 0.015718128632497497 -0.0060053095381908421 0 0.015834603071139285 -0.0060268964472556903 0 0.015800621129865834 -0.005793249388580583 0 0.015681564892167356 -0.005734842659665988 0 0.015834603071139285 -0.0060268964472556903 0 0.015800621129865834 -0.005793249388580583 0 0.015834603071139285 -0.0060268964472556903 0 0.015850237389541735 -0.0059929767578595465 0 0.015800621129865834 -0.005793249388580583 0 0.015850237389541735 -0.0059929767578595465 0 0.015864341793703787 -0.0058090101195501197 0 0.015850237389541735 -0.0059929767578595465 0 0.015912247278276632 -0.0059230110832701448 0 0.015864341793703787 -0.0058090101195501197 0 0.015850237389541735 -0.0059929767578595465 0 0.015912247278276632 -0.0059230110832701448 0 0.015839250760618647 -0.0061226184889826112 0 0.015912247278276632 -0.0059230110832701448 0 0.015977714869538636 -0.0059909027344137175 0 0.016027681527785609 -0.0058652261500347679 0 0.015912247278276632 -0.0059230110832701448 0 0.016027681527785609 -0.0058652261500347679 0 0.016000618906100914 -0.0057527484866038711 0 0.015912247278276632 -0.0059230110832701448 0 0.015891351468136371 -0.0060480652811552172 0 0.015839250760618647 -0.0061226184889826112 0 0.015912247278276632 -0.0059230110832701448 0 0.015891351468136371 -0.0060480652811552172 0 0.015977714869538636 -0.0059909027344137175 0 0.015854963092928151 -0.0061379167387393503 0 0.015839250760618647 -0.0061226184889826112 0 0.015656121030638098 -0.0062988979303475676 0 0.015891351468136371 -0.0060480652811552172 0 0.015854963092928151 -0.0061379167387393503 0 0.015977714869538636 -0.0059909027344137175 0 0.015891351468136371 -0.0060480652811552172 0 0.015854963092928151 -0.0061379167387393503 0 0.015839250760618647 -0.0061226184889826112 0 0.015840031119337253 -0.006243204075693262 0 0.015850237389541735 -0.0059929767578595465 0 0.015839250760618647 -0.0061226184889826112 0 0.015853307190020247 -0.0062138350040134216 0 0.015840031119337253 -0.006243204075693262 0 0.015656121030638098 -0.0062988979303475676 0 0.015840031119337253 -0.006243204075693262 0 0.015839250760618647 -0.0061226184889826112 0 0.015656121030638098 -0.0062988979303475676 0 0.015854963092928151 -0.0061379167387393503 0 0.015656121030638098 -0.0062988979303475676 0 0.015874211751634219 -0.0062841905835368103 0 0.015656121030638098 -0.0062988979303475676 0 0.015794608098022394 -0.0066957221842982462 0 0.015874211751634219 -0.0062841905835368103 0 0.015656121030638098 -0.0062988979303475676 0 0.015550949664562204 -0.0066638272254873525 0 0.015794608098022394 -0.0066957221842982462 0 0.015853307190020247 -0.0062138350040134216 0 0.015656121030638098 -0.0062988979303475676 0 0.015759833652364056 -0.0061273530032554856 0 0.016181742808470685 -0.0065694225592261473 0 0.015533611833160888 -0.0069160023575171583 0 0.015656121030638098 -0.0062988979303475676 0 0.015550949664562204 -0.0066638272254873525 0 0.015213597633291009 -0.0066821826674179205 0 0.015688097872822538 -0.0061813686076108518 0 0.015533611833160888 -0.0069160023575171583 0 0.015794608098022394 -0.0066957221842982462 0 0.016152281594883643 -0.0062836382460653741 0 0.016375706724941146 -0.0067007665770220503 0 0.015794608098022394 -0.0066957221842982462 0 0.015874211751634219 -0.0062841905835368103 0 0.016152281594883643 -0.0062836382460653741 0 0.015874211751634219 -0.0062841905835368103 0 0.016152281594883643 -0.0062836382460653741 0 0.016015111913665676 -0.0061127098870171611 0 0.016152281594883643 -0.0062836382460653741 0 0.016205445795232948 -0.0060554751155244601 0 0.016015111913665676 -0.0061127098870171611 0 0.016152281594883643 -0.0062836382460653741 0 0.016205445795232948 -0.0060554751155244601 0 0.016432253997149159 -0.0062277582734094079 0 0.015854963092928151 -0.0061379167387393503 0 0.015874211751634219 -0.0062841905835368103 0 0.016015111913665676 -0.0061127098870171611 0 0.016205445795232948 -0.0060554751155244601 0 0.016015111913665676 -0.0061127098870171611 0 0.01608059827792592 -0.0059801289863406241 0 0.016015111913665676 -0.0061127098870171611 0 0.015977714869538636 -0.0059909027344137175 0 0.01608059827792592 -0.0059801289863406241 0 0.015854963092928151 -0.0061379167387393503 0 0.016015111913665676 -0.0061127098870171611 0 0.015977714869538636 -0.0059909027344137175 0 0.015977714869538636 -0.0059909027344137175 0 0.01608059827792592 -0.0059801289863406241 0 0.016027681527785609 -0.0058652261500347679 0 0.01608059827792592 -0.0059801289863406241 0 0.016124364282511051 -0.0058731745720823052 0 0.016027681527785609 -0.0058652261500347679 0 0.016124364282511051 -0.0058731745720823052 0 0.016027681527785609 -0.0058652261500347679 0 0.016099561314285592 -0.0057908759055475007 0 0.016205445795232948 -0.0060554751155244601 0 0.01622389225926377 -0.0059062329343715428 0 0.016349301881732468 -0.0058783559437926621 0 0.01608059827792592 -0.0059801289863406241 0 0.016124364282511051 -0.0058731745720823052 0 0.01622389225926377 -0.0059062329343715428 0 0.016205445795232948 -0.0060554751155244601 0 0.01608059827792592 -0.0059801289863406241 0 0.01622389225926377 -0.0059062329343715428 0 0.016124364282511051 -0.0058731745720823052 0 0.01622389225926377 -0.0059062329343715428 0 0.016195386524614067 -0.0058229649895193969 0 0.016124364282511051 -0.0058731745720823052 0 0.016195386524614067 -0.0058229649895193969 0 0.016099561314285592 -0.0057908759055475007 0 0.016195386524614067 -0.0058229649895193969 0 0.016252337850975813 -0.0058413312127350431 0 0.016277978832556061 -0.0057816059343873509 0 0.01622389225926377 -0.0059062329343715428 0 0.016252337850975813 -0.0058413312127350431 0 0.016349301881732468 -0.0058783559437926621 0 0.01622389225926377 -0.0059062329343715428 0 0.016195386524614067 -0.0058229649895193969 0 0.016252337850975813 -0.0058413312127350431 0 0.016195386524614067 -0.0058229649895193969 0 0.016277978832556061 -0.0057816059343873509 0 0.016202385134504851 -0.0057529287598049577 0 0.015196317674205576 -0.0014903925033338662 0 0.015147006991877775 -0.0015032420257543935 0 0.015221519092493571 -0.0016260332544654804 0 0.016202385134504851 -0.0057529287598049577 0 0.016146183941250523 -0.0056174650399451733 0 0.01628804394286185 -0.0057526968196581589 0 0.01581804753154295 -0.0037428012980823765 0 0.015300113577523535 -0.0034536197832747916 0 0.016277978832556061 -0.0057816059343873509 0 0.016202385134504851 -0.0057529287598049577 0 0.01628804394286185 -0.0057526968196581589 0 0.016202385134504851 -0.0057529287598049577 0 0.016146183941250523 -0.0056174650399451733 0 0.016099561314285592 -0.0057908759055475007 0 0.015228830311321729 -0.0041328506256303544 0 0.015300113577523535 -0.0034536197832747916 0 0.016195386524614067 -0.0058229649895193969 0 0.016202385134504851 -0.0057529287598049577 0 0.016099561314285592 -0.0057908759055475007 0 0.015196317674205576 -0.0014903925033338662 0 0.015154610504767222 -0.0014804442447753721 0 0.015264570425671206 -0.0014406867453936078 0 0.014859366609270503 -0.0012943038984519343 0 0.015058858968748685 -0.0010937669902826555 0 0.015264570425671206 -0.0014406867453936078 0 0.014876839890813095 -0.0012870888990668061 0 0.015302374152256317 -0.0014637718176403098 0 0.015196317674205576 -0.0014903925033338662 0 0.015154610504767222 -0.0014804442447753721 0 0.015147006991877775 -0.0015032420257543935 0 0.016146183941250523 -0.0056174650399451733 0 0.016036286213261215 -0.0056181433440277333 0 0.016027172802922471 -0.0054772767598680909 0 0.015154610504767222 -0.0014804442447753721 0 0.015147006991877775 -0.0015032420257543935 0 0.015143666495639533 -0.0014982221053314361 0 0.01581804753154295 -0.0037428012980823765 0 0.015257050964911159 -0.0027423679904915602 0 0.016036286213261215 -0.0056181433440277333 0 0.016099561314285592 -0.0057908759055475007 0 0.016000618906100914 -0.0057527484866038711 0 0.016146183941250523 -0.0056174650399451733 0 0.016036286213261215 -0.0056181433440277333 0 0.016099561314285592 -0.0057908759055475007 0 0.016027681527785609 -0.0058652261500347679 0 0.016099561314285592 -0.0057908759055475007 0 0.016000618906100914 -0.0057527484866038711 0 0.015912247278276632 -0.0059230110832701448 0 0.016000618906100914 -0.0057527484866038711 0 0.015917703511022868 -0.0057580558323974806 0 0.016000618906100914 -0.0057527484866038711 0 0.015917703511022868 -0.0057580558323974806 0 0.015935342704881412 -0.0055942035949083108 0 0.015912247278276632 -0.0059230110832701448 0 0.015917703511022868 -0.0057580558323974806 0 0.015864341793703787 -0.0058090101195501197 0 0.015917703511022868 -0.0057580558323974806 0 0.015875656490286785 -0.005674273808382803 0 0.015935342704881412 -0.0055942035949083108 0 0.015917703511022868 -0.0057580558323974806 0 0.015864341793703787 -0.0058090101195501197 0 0.015875656490286785 -0.005674273808382803 0 0.015808150040507046 -0.0056611681363761745 0 0.015864341793703787 -0.0058090101195501197 0 0.015875656490286785 -0.005674273808382803 0 0.015820559924176237 -0.0055589817666377188 0 0.015875656490286785 -0.005674273808382803 0 0.015935342704881412 -0.0055942035949083108 0 0.015820559924176237 -0.0055589817666377188 0 0.015935342704881412 -0.0055942035949083108 0 0.015847610961740765 -0.0054657641471842384 0 0.015820559924176237 -0.0055589817666377188 0 0.015808150040507046 -0.0056611681363761745 0 0.015875656490286785 -0.005674273808382803 0 0.016036286213261215 -0.0056181433440277333 0 0.016000618906100914 -0.0057527484866038711 0 0.015935342704881412 -0.0055942035949083108 0 0.016036286213261215 -0.0056181433440277333 0 0.015935342704881412 -0.0055942035949083108 0 0.016027172802922471 -0.0054772767598680909 0 0.015935342704881412 -0.0055942035949083108 0 0.016027172802922471 -0.0054772767598680909 0 0.015918168602779493 -0.0054262067817976226 0 0.014484111452043719 -0.0011758332707410778 0 0.014227986443462884 -0.00093017218972557352 0 0.014774680520683916 -0.0008117425567260605 0 0.015257050964911159 -0.0027423679904915602 0 0.015762083442604817 -0.0042065080364041838 0 0.015166189343410616 -0.0029312066365341127 0 0.015282472336706605 -0.0029661321904891672 0 0.015263202945248092 -0.0030216123469365762 0 0.015257050964911159 -0.0027423679904915602 0 0.014766322281900402 -0.0015113657906603217 0 0.015493205035600031 -0.0035861272313361019 0 0.015762083442604817 -0.0042065080364041838 0 0.015493205035600031 -0.0035861272313361019 0 0.014766322281900402 -0.0015113657906603217 0 0.015400655347556526 -0.0030039803211298149 0 0.015282472336706605 -0.0029661321904891672 0 0.015263202945248092 -0.0030216123469365762 0 0.015806085063216097 -0.0053696293271821771 0 0.015918168602779493 -0.0054262067817976226 0 0.015847610961740765 -0.0054657641471842384 0 0.015935342704881412 -0.0055942035949083108 0 0.015918168602779493 -0.0054262067817976226 0 0.015847610961740765 -0.0054657641471842384 0 0.015228301032616695 -0.0022138459143146542 0 0.015137070246295285 -0.002399691538215377 0 0.014978598588394834 -0.0022497347324490452 0 0.01497427366323564 -0.00089545441699132814 0 0.014766322281900402 -0.0015113657906603217 0 0.01487437204582891 0.00011358327749001622 0 0.014629309605988232 0.00034730031723674906 0 0.014586399468671735 0.00016424474500351257 0 0.014861510045306675 0.000122105425189372 0 0.014586399468671735 0.00016424474500351257 0 0.014654928765900764 9.3013543119121913e-06 0 0.01497427366323564 -0.00089545441699132814 0 0.014551115482623014 -1.6725939329582567e-06 0 0.01497427366323564 -0.00089545441699132814 0 0.015219984120554591 -0.0011446882079825934 0 0.014586399468671735 0.00016424474500351257 0 0.014041505532119697 0.00025968296432384762 0 0.014404287812814937 -0.0001098911459258772 0 0.014629309605988232 0.00034730031723674906 0 0.014586399468671735 0.00016424474500351257 0 0.014041505532119697 0.00025968296432384762 0 0.01341539363759266 0.0035785268199199356 0 0.01342879902307784 0.0035489131990422734 0 0.01372150590583656 0.0034812837085459757 0 0.014766322281900402 -0.0015113657906603217 0 0.014025779463298605 0.0013566443076182427 0 0.014025779463298605 0.0013566443076182427 0 0.013854966865631793 0.001993684075837564 0 0.01341539363759266 0.0035785268199199356 0 0.01342879902307784 0.0035489131990422734 0 0.013438927073025441 0.0035300930227200001 0 0.01342879902307784 0.0035489131990422734 0 0.013499706704836165 0.0035739044078833401 0 0.013566010058258582 0.0036471663041114104 0 0.013499706704836165 0.0035739044078833401 0 0.013647622712366095 0.0035104971241947049 0 0.013438927073025441 0.0035300930227200001 0 0.01342879902307784 0.0035489131990422734 0 0.013499706704836165 0.0035739044078833401 0 0.013438927073025441 0.0035300930227200001 0 0.013647622712366095 0.0035104971241947049 0 0.013755155510596346 0.0037537527471903356 0 0.013566010058258582 0.0036471663041114104 0 0.013499706704836165 0.0035739044078833401 0 0.013647622712366095 0.0035104971241947049 0 0.013566010058258582 0.0036471663041114104 0 0.013647622712366095 0.0035104971241947049 0 0.013438927073025441 0.0035300930227200001 0 0.013602885150403688 0.0032190333022825849 0 0.01337071523207352 0.0035159405546941656 0 0.013438927073025441 0.0035300930227200001 0 0.013602885150403688 0.0032190333022825849 0 0.014025779463298605 0.0013566443076182427 0 0.013899447405155382 0.001626045347446196 0 0.014025779463298605 0.0013566443076182427 0 0.01439974966890265 0.00098616352285455368 0 0.014774680520683916 -0.0008117425567260605 0 0.015058858968748685 -0.0010937669902826555 0 0.014804843008671738 -0.0010734034046307802 0 0.014859366609270503 -0.0012943038984519343 0 0.015058858968748685 -0.0010937669902826555 0 0.014804843008671738 -0.0010734034046307802 0 0.014484111452043719 -0.0011758332707410778 0 0.014774680520683916 -0.0008117425567260605 0 0.014804843008671738 -0.0010734034046307802 0 0.014876839890813095 -0.0012870888990668061 0 0.015257050964911159 -0.0027423679904915602 0 0.014859366609270503 -0.0012943038984519343 0 0.014484111452043719 -0.0011758332707410778 0 0.014804843008671738 -0.0010734034046307802 0 0.013989749552338702 0.0037683006040265085 0 0.014304903427681764 0.0012045010112562056 0 0.014020592690297311 0.0032365945329228736 0 0.013925782507035515 0.0034383562856146748 0 0.013656329474624362 0.0029136018355159729 0 0.013602885150403688 0.0032190333022825849 0 0.013807694559968201 0.0033296635134500104 0 0.013861120582308028 0.0029365134453316058 0 0.013807694559968201 0.0033296635134500104 0 0.01405514245949601 0.0034150080603541754 0 0.013861120582308028 0.0029365134453316058 0 0.01439974966890265 0.00098616352285455368 0 0.014304903427681764 0.0012045010112562056 0 0.013647622712366095 0.0035104971241947049 0 0.013602885150403688 0.0032190333022825849 0 0.013807694559968201 0.0033296635134500104 0 0.013807694559968201 0.0033296635134500104 0 0.013865825730964804 0.0035844712904463489 0 0.01405514245949601 0.0034150080603541754 0 0.013647622712366095 0.0035104971241947049 0 0.013807694559968201 0.0033296635134500104 0 0.013865825730964804 0.0035844712904463489 0 0.013647622712366095 0.0035104971241947049 0 0.013865825730964804 0.0035844712904463489 0 0.013755155510596346 0.0037537527471903356 0 0.013989749552338702 0.0037683006040265085 0 0.014175377681454999 0.0037263877231433705 0 0.014020592690297311 0.0032365945329228736 0 0.013925782507035515 0.0034383562856146748 0 0.01419298598120464 0.0037205028469925244 0 0.011855677896612465 0.0054561891126155802 0 0.012049736295326499 0.0052449656198852966 0 0.01405514245949601 0.0034150080603541754 0 0.014216466601231362 0.0038904231840760466 0 0.014028851883079192 0.0036996082539087092 0 0.013925782507035515 0.0034383562856146748 0 0.01419298598120464 0.0037205028469925244 0 0.014216466601231362 0.0038904231840760466 0 0.013865825730964804 0.0035844712904463489 0 0.01405514245949601 0.0034150080603541754 0 0.014028851883079192 0.0036996082539087092 0 0.010010941821035301 0.0069489012662719042 0 0.010235960167680769 0.0071688165560736955 0 0.0098840787733754428 0.0072358279980740958 0 0.0097642797006817356 0.0067129414887970003 0 0.010010941821035301 0.0069489012662719042 0 0.0098840787733754428 0.0072358279980740958 0 0.010235960167680769 0.0071688165560736955 0 0.010259943372182626 0.0068175254182176815 0 0.010506933623993792 0.0070158142346376596 0 0.010235960167680769 0.0071688165560736955 0 0.010506933623993792 0.0070158142346376596 0 0.010553270080812782 0.0073670514759194257 0 0.010010941821035301 0.0069489012662719042 0 0.010235960167680769 0.0071688165560736955 0 0.010259943372182626 0.0068175254182176815 0 0.010259943372182626 0.0068175254182176815 0 0.010411468010515717 0.0064948240454767809 0 0.010506933623993792 0.0070158142346376596 0 0.010259943372182626 0.0068175254182176815 0 0.010070969712422041 0.0064153448522897864 0 0.010411468010515717 0.0064948240454767809 0 0.010010941821035301 0.0069489012662719042 0 0.010259943372182626 0.0068175254182176815 0 0.010070969712422041 0.0064153448522897864 0 0.0097642797006817356 0.0067129414887970003 0 0.010010941821035301 0.0069489012662719042 0 0.010070969712422041 0.0064153448522897864 0 0.010070969712422041 0.0064153448522897864 0 0.010411468010515717 0.0064948240454767809 0 0.0104303498472176 0.0059853590847602249 0 0.011238212774766922 0.00043736522734058434 0 0.011119658371029463 0.0029643981058077007 0 0.010070969712422041 0.0064153448522897864 0 0.0099425786124269465 0.0059348223108353195 0 0.0096699010664720361 0.0062025050001169122 0 0.010070969712422041 0.0064153448522897864 0 0.0099425786124269465 0.0059348223108353195 0 0.0104303498472176 0.0059853590847602249 0 0.011238212774766922 0.00043736522734058434 0 0.011619013946645756 0.00032486233251619408 0 0.013738451045917551 -0.0023935129321373573 0 0.012776752400509342 -0.0012126735239701037 0 0.013202347253244035 -0.0028984017244417268 0 0.011238212774766922 0.00043736522734058434 0 0.012641833584888686 0.0022032579644906303 0 0.013898388891063772 -0.002391017343625327 0 0.013738451045917551 -0.0023935129321373573 0 0.012776752400509342 -0.0012126735239701037 0 0.012641833584888686 0.0022032579644906303 0 0.013991677217045107 -0.0043059129399252733 0 0.011855677896612465 0.0054561891126155802 0 0.012641833584888686 0.0022032579644906303 0 0.0097642797006817356 0.0067129414887970003 0 0.010070969712422041 0.0064153448522897864 0 0.0096699010664720361 0.0062025050001169122 0 0.014020592690297311 0.0032365945329228736 0 0.013874749416785145 0.0026823376764632469 0 0.013656329474624362 0.0029136018355159729 0 0.015196317674205576 -0.0014903925033338662 0 0.015264570425671206 -0.0014406867453936078 0 0.015221519092493571 -0.0016260332544654804 0 0.015264570425671206 -0.0014406867453936078 0 0.015320082375357289 -0.0014246223319074897 0 0.015221519092493571 -0.0016260332544654804 0 0.015058858968748685 -0.0010937669902826555 0 0.015264570425671206 -0.0014406867453936078 0 0.015320082375357289 -0.0014246223319074897 0 0.012641833584888686 0.0022032579644906303 0 0.014304903427681764 0.0012045010112562056 0 0.014304903427681764 0.0012045010112562056 0 0.015300113577523535 -0.0034536197832747916 0 0.01510825240590964 -0.00039671718906631083 0 0.013967631932625707 0.00076648630869635009 0 0.012885269256939223 -0.0016049879386847636 0 0.01510825240590964 -0.00039671718906631083 0 0.012885269256939223 -0.0016049879386847636 0 0.014457360902980786 -0.0031009881855702704 0 0.016293972835984175 -0.0057385496797367104 0 0.016349301881732468 -0.0058783559437926621 0 0.016470105949259649 -0.0058910424955489404 0 0.016252337850975813 -0.0058413312127350431 0 0.016277978832556061 -0.0057816059343873509 0 0.016349301881732468 -0.0058783559437926621 0 0.015300113577523535 -0.0034536197832747916 0 0.013991677217045107 -0.0043059129399252733 0 0.016277978832556061 -0.0057816059343873509 0 0.016293972835984175 -0.0057385496797367104 0 0.016349301881732468 -0.0058783559437926621 0 0.012352548707163473 -0.003116122073158195 0 0.013202347253244035 -0.0028984017244417268 0 0.013835274002744957 -0.0034634506109739159 0 0.012776752400509342 -0.0012126735239701037 0 0.012352548707163473 -0.003116122073158195 0 0.013202347253244035 -0.0028984017244417268 0 0.013738451045917551 -0.0023935129321373573 0 0.013202347253244035 -0.0028984017244417268 0 0.013862147436035586 -0.0029311965188889106 0 0.012352548707163473 -0.003116122073158195 0 0.014027563699803555 -0.0045711983640618721 0 0.013835274002744957 -0.0034634506109739159 0 0.013075125627190315 -0.0037078444106490986 0 0.012785664399410004 -0.0048715193761286356 0 0.014027563699803555 -0.0045711983640618721 0 0.013991677217045107 -0.0043059129399252733 0 0.013431990755916215 -0.0041070350697790638 0 0.016205445795232948 -0.0060554751155244601 0 0.016349301881732468 -0.0058783559437926621 0 0.016432253997149159 -0.0062277582734094079 0 0.013991677217045107 -0.0043059129399252733 0 0.014695659129294637 -0.005655635343654263 0 0.016349301881732468 -0.0058783559437926621 0 0.016470105949259649 -0.0058910424955489404 0 0.016432253997149159 -0.0062277582734094079 0 0.016152281594883643 -0.0062836382460653741 0 0.016432253997149159 -0.0062277582734094079 0 0.016375706724941146 -0.0067007665770220503 0 0.012785664399410004 -0.0048715193761286356 0 0.0133510393908629 -0.0054763135064097683 0 0.014027563699803555 -0.0045711983640618721 0 0.013753160065160381 -0.0075887682760023755 0 0.014663161700075793 -0.0071697108251412732 0 0.013222198576355062 -0.0063305408990651912 0 0.0133510393908629 -0.0054763135064097683 0 0.014230186599149699 -0.005466760461190141 0 0.013222198576355062 -0.0063305408990651912 0 0.0133510393908629 -0.0054763135064097683 0 0.012539634868105339 -0.0060716825965106865 0 0.014695659129294637 -0.005655635343654263 0 0.014415154481777829 -0.0062959197550576159 0 0.012785664399410004 -0.0048715193761286356 0 0.0133510393908629 -0.0054763135064097683 0 0.012539634868105339 -0.0060716825965106865 0 0.014562707300942704 -0.0086163668516435234 0 0.014402145506065403 -0.0087135427908273059 0 0.014591446656444467 -0.0087734462729371285 0 0.014562707300942704 -0.0086163668516435234 0 0.014756490737087272 -0.0086767568752412153 0 0.014591446656444467 -0.0087734462729371285 0 0.014230186599149699 -0.005466760461190141 0 0.015560120896331653 -0.0043688079710799107 0 0.014027563699803555 -0.0045711983640618721 0 0.0133510393908629 -0.0054763135064097683 0 0.014230186599149699 -0.005466760461190141 0 0.014027563699803555 -0.0045711983640618721 0 0.014402145506065403 -0.0087135427908273059 0 0.014591446656444467 -0.0087734462729371285 0 0.014353700084837389 -0.0089798184968752585 0 0.014663161700075793 -0.0071697108251412732 0 0.013700116394337252 -0.0059372085558291442 0 0.015560120896331653 -0.0043688079710799107 0 0.014027563699803555 -0.0045711983640618721 0 0.014788830494964246 -0.003460587721775093 0 0.013700116394337252 -0.0059372085558291442 0 0.013146581127027187 -0.0026078107396307693 0 0.012058795877169119 -0.0024157687625600932 0 0.012102638560108965 -0.0016780189464676027 0 0.011359050210441105 -0.0016826177890079672 0 0.014027563699803555 -0.0045711983640618721 0 0.013835274002744957 -0.0034634506109739159 0 0.014788830494964246 -0.003460587721775093 0 0.013835274002744957 -0.0034634506109739159 0 0.013862147436035586 -0.0029311965188889106 0 0.014788830494964246 -0.003460587721775093 0 0.013202347253244035 -0.0028984017244417268 0 0.013835274002744957 -0.0034634506109739159 0 0.013862147436035586 -0.0029311965188889106 0 0.011238212774766922 0.00043736522734058434 0 0.013146581127027187 -0.0026078107396307693 0 0.01389376817304664 -0.0024003928149762999 0 0.013862147436035586 -0.0029311965188889106 0 0.014788830494964246 -0.003460587721775093 0 0.01389376817304664 -0.0024003928149762999 0 0.013738451045917551 -0.0023935129321373573 0 0.013862147436035586 -0.0029311965188889106 0 0.010667540422392487 -0.00095796726198002318 0 0.011359050210441105 -0.0016826177890079672 0 0.012149885973494305 -0.00095326045375446742 0 0.012102638560108965 -0.0016780189464676027 0 0.011359050210441105 -0.0016826177890079672 0 0.012149885973494305 -0.00095326045375446742 0 0.012838451324725421 -0.0016660462218113751 0 0.013611592845768863 -0.00092927940957146743 0 0.012149885973494305 -0.00095326045375446742 0 0.012102638560108965 -0.0016780189464676027 0 0.012838451324725421 -0.0016660462218113751 0 0.012149885973494305 -0.00095326045375446742 0 0.013728888666064691 -0.0069234707114786314 0 0.014614145667288546 -0.0069951784745327728 0 0.014486944335743721 -0.0062204709738176789 0 0.01311098803280351 -0.0046701144916734367 0 0.012105727078372082 0.0011226429382767817 0 0.014111973381279262 -0.0075463396878794574 0 0.013961112976418546 -0.0083525870292461002 0 0.014812549927411612 -0.0075975042892261627 0 0.013728888666064691 -0.0069234707114786314 0 0.014614145667288546 -0.0069951784745327728 0 0.014111973381279262 -0.0075463396878794574 0 0.014614145667288546 -0.0069951784745327728 0 0.014111973381279262 -0.0075463396878794574 0 0.014812549927411612 -0.0075975042892261627 0 0.012920360963685583 -0.0077210228206971813 0 0.014111973381279262 -0.0075463396878794574 0 0.013961112976418546 -0.0083525870292461002 0 0.012920360963685583 -0.0077210228206971813 0 0.013728888666064691 -0.0069234707114786314 0 0.014111973381279262 -0.0075463396878794574 0 0.012058795877169119 -0.0024157687625600932 0 0.012102638560108965 -0.0016780189464676027 0 0.012838451324725421 -0.0016660462218113751 0 0.013700116394337252 -0.0059372085558291442 0 0.01311098803280351 -0.0046701144916734367 0 0.014353700084837389 -0.0089798184968752585 0 0.014050550593287048 -0.008715691727767488 0 0.014229404351251845 -0.0086934294883289302 0 0.012920360963685583 -0.0077210228206971813 0 0.013961112976418546 -0.0083525870292461002 0 0.014050550593287048 -0.008715691727767488 0 0.013700116394337252 -0.0059372085558291442 0 0.01421782256660533 -0.0095060007109583951 0 0.014402145506065403 -0.0087135427908273059 0 0.014353700084837389 -0.0089798184968752585 0 0.014229404351251845 -0.0086934294883289302 0 0.013961112976418546 -0.0083525870292461002 0 0.014099326242738673 -0.0085467265034350377 0 0.014115142893121423 -0.0084258701805359285 0 0.013970589260487609 -0.0083299147315351388 0 0.014507590539365654 -0.0080775264434219413 0 0.014099326242738673 -0.0085467265034350377 0 0.014060424946933029 -0.0085819697743809917 0 0.014076548004420989 -0.008642781611276712 0 0.013961112976418546 -0.0083525870292461002 0 0.014060424946933029 -0.0085819697743809917 0 0.014050550593287048 -0.008715691727767488 0 0.013961112976418546 -0.0083525870292461002 0 0.014099326242738673 -0.0085467265034350377 0 0.014060424946933029 -0.0085819697743809917 0 0.014060424946933029 -0.0085819697743809917 0 0.014050550593287048 -0.008715691727767488 0 0.014076548004420989 -0.008642781611276712 0 0.014050550593287048 -0.008715691727767488 0 0.014076548004420989 -0.008642781611276712 0 0.014129025851973268 -0.0086425648107054543 0 0.014099326242738673 -0.0085467265034350377 0 0.014089351510691843 -0.0086375024325986566 0 0.014076548004420989 -0.008642781611276712 0 0.014089351510691843 -0.0086375024325986566 0 0.014076548004420989 -0.008642781611276712 0 0.014129025851973268 -0.0086425648107054543 0 0.014093580892570151 -0.0085931562203263624 0 0.014089351510691843 -0.0086375024325986566 0 0.014129025851973268 -0.0086425648107054543 0 0.014297541881179794 -0.0086110077208242913 0 0.014129025851973268 -0.0086425648107054543 0 0.014229404351251845 -0.0086934294883289302 0 0.014297541881179794 -0.0086110077208242913 0 0.014402145506065403 -0.0087135427908273059 0 0.014229404351251845 -0.0086934294883289302 0 0.014050550593287048 -0.008715691727767488 0 0.014129025851973268 -0.0086425648107054543 0 0.014229404351251845 -0.0086934294883289302 0 0.013683501966353781 -0.0091185823390720153 0 0.013696249604755691 -0.0099118036523185536 0 0.013212384577229097 -0.0096978746246792792 0 0.013948438562644917 -0.008595580610023296 0 0.014045318358988593 -0.0086039078969798472 0 0.014040279299529798 -0.0086364832674028572 0 0.013919782879528693 -0.0090981962289643677 0 0.012975283824266309 -0.0081666923997364624 0 0.014045318358988593 -0.0086039078969798472 0 0.014103097003237947 -0.008609610590167566 0 0.014040279299529798 -0.0086364832674028572 0 0.014093580892570151 -0.0085931562203263624 0 0.014089351510691843 -0.0086375024325986566 0 0.014045318358988593 -0.0086039078969798472 0 0.014089351510691843 -0.0086375024325986566 0 0.014045318358988593 -0.0086039078969798472 0 0.014103097003237947 -0.008609610590167566 0 0.014103097003237947 -0.008609610590167566 0 0.014154328836983318 -0.0084907681157848254 0 0.014248960000351677 -0.0085454112614850621 0 0.014099326242738673 -0.0085467265034350377 0 0.014103097003237947 -0.008609610590167566 0 0.014154328836983318 -0.0084907681157848254 0 0.014099326242738673 -0.0085467265034350377 0 0.014089351510691843 -0.0086375024325986566 0 0.014103097003237947 -0.008609610590167566 0 0.014099326242738673 -0.0085467265034350377 0 0.014154328836983318 -0.0084907681157848254 0 0.014115142893121423 -0.0084258701805359285 0 0.014277168792997084 -0.0083990638175537296 0 0.012975283824266309 -0.0081666923997364624 0 0.012975283824266309 -0.0081666923997364624 0 0.014036669661905291 -0.006504363113204078 0 0.011407983015200466 -0.0057364542619375179 0 0.011381367875907345 -0.005228521108581451 0 0.011581563629533385 -0.0053633338295331293 0 0.014154328836983318 -0.0084907681157848254 0 0.014248960000351677 -0.0085454112614850621 0 0.014239338604706596 -0.008313718079817253 0 0.014154328836983318 -0.0084907681157848254 0 0.014115142893121423 -0.0084258701805359285 0 0.014239338604706596 -0.008313718079817253 0 0.014812549927411612 -0.0075975042892261627 0 0.015575786250771018 -0.0069679370250666393 0 0.015450774734131952 -0.0069333786895699476 0 0.014507590539365654 -0.0080775264434219413 0 0.014036669661905291 -0.006504363113204078 0 0.014812549927411612 -0.0075975042892261627 0 0.015076187748124043 -0.0069583206545195337 0 0.015450774734131952 -0.0069333786895699476 0 0.014614145667288546 -0.0069951784745327728 0 0.014812549927411612 -0.0075975042892261627 0 0.015076187748124043 -0.0069583206545195337 0 0.015122003246903094 -0.0065445259347068577 0 0.015532482523822885 -0.0062624293688904875 0 0.014486944335743721 -0.0062204709738176789 0 0.014614145667288546 -0.0069951784745327728 0 0.015076187748124043 -0.0069583206545195337 0 0.015122003246903094 -0.0065445259347068577 0 0.015076187748124043 -0.0069583206545195337 0 0.015450774734131952 -0.0069333786895699476 0 0.015356548502095228 -0.0067107506807053095 0 0.015076187748124043 -0.0069583206545195337 0 0.015122003246903094 -0.0065445259347068577 0 0.015356548502095228 -0.0067107506807053095 0 0.014614145667288546 -0.0069951784745327728 0 0.015122003246903094 -0.0065445259347068577 0 0.014486944335743721 -0.0062204709738176789 0 0.014036669661905291 -0.006504363113204078 0 0.013149790282831189 -0.0052768749981727398 0 0.011381367875907345 -0.005228521108581451 0 0.011625374829820453 -0.0050528274199311439 0 0.011581563629533385 -0.0053633338295331293 0 0.013907951436571055 -0.005748645433605936 0 0.013910068191066556 -0.0058019214701524021 0 0.013571883904037772 -0.0059408929940766401 0 0.014673724524968464 -0.0064306855742846331 0 0.013149790282831189 -0.0052768749981727398 0 0.015578170988327072 -0.0068686282765277338 0 0.015356548502095228 -0.0067107506807053095 0 0.015494567195294044 -0.006362823164266008 0 0.014673724524968464 -0.0064306855742846331 0 0.015173162432112034 -0.0064775694905207393 0 0.015575786250771018 -0.0069679370250666393 0 0.01557013886394285 -0.0068739029336395488 0 0.015450774734131952 -0.0069333786895699476 0 0.014036669661905291 -0.006504363113204078 0 0.014673724524968464 -0.0064306855742846331 0 0.014673724524968464 -0.0064306855742846331 0 0.014840704142365505 -0.0064249436105063935 0 0.015578170988327072 -0.0068686282765277338 0 0.015450774734131952 -0.0069333786895699476 0 0.015356548502095228 -0.0067107506807053095 0 0.015122003246903094 -0.0065445259347068577 0 0.015494567195294044 -0.006362823164266008 0 0.015532482523822885 -0.0062624293688904875 0 0.015122003246903094 -0.0065445259347068577 0 0.015356548502095228 -0.0067107506807053095 0 0.015494567195294044 -0.006362823164266008 0 0.015494567195294044 -0.006362823164266008 0 0.015532482523822885 -0.0062624293688904875 0 0.015542334776332468 -0.0063041522739072783 0 0.015494188078166498 -0.0063717268667023907 0 0.015494567195294044 -0.006362823164266008 0 0.015542334776332468 -0.0063041522739072783 0 0.010818473592207103 0.0045314530353199201 0 0.010471981101306007 0.0054159541500585686 0 0.01146383104270726 0.0052774716006498464 0 0.01115680059229349 0.0062948456816857906 0 0.011167603456691688 0.0065980555465943135 0 0.011490604052366352 0.0064218569234306619 0 0.010756227177012795 0.0064076450450081292 0 0.0114209481002346 0.0062423317966483647 0 0.010471981101306007 0.0054159541500585686 0 0.01146383104270726 0.0052774716006498464 0 0.011490604052366352 0.0064218569234306619 0 0.01115680059229349 0.0062948456816857906 0 0.01074935230200902 0.0063390090889562023 0 0.010935277308163828 0.0065861486219945756 0 0.01115680059229349 0.0062948456816857906 0 0.011167603456691688 0.0065980555465943135 0 0.010935277308163828 0.0065861486219945756 0 0.01115680059229349 0.0062948456816857906 0 0.010882235894690057 0.0060100352335002178 0 0.01074935230200902 0.0063390090889562023 0 0.010756227177012795 0.0064076450450081292 0 0.012105727078372082 0.0011226429382767817 0 0.010818473592207103 0.0045314530353199201 0 0.010471981101306007 0.0054159541500585686 0 0.0095502142507427456 0.0044860447481161183 0 0.013192407038427537 -0.0010262320625642053 0 0.012105727078372082 0.0011226429382767817 0 0.010882235894690057 0.0060100352335002178 0 0.0104303498472176 0.0059853590847602249 0 0.01074935230200902 0.0063390090889562023 0 0.010411468010515717 0.0064948240454767809 0 0.0104303498472176 0.0059853590847602249 0 0.01074935230200902 0.0063390090889562023 0 0.012105727078372082 0.0011226429382767817 0 0.011119658371029463 0.0029643981058077007 0 0.010411468010515717 0.0064948240454767809 0 0.01074935230200902 0.0063390090889562023 0 0.010651112762229475 0.0066469142650005184 0 0.01074935230200902 0.0063390090889562023 0 0.010651112762229475 0.0066469142650005184 0 0.010935277308163828 0.0065861486219945756 0 0.010805715220286788 0.0068225177410456287 0 0.010651112762229475 0.0066469142650005184 0 0.010678751201681935 0.0071068603064984174 0 0.010805715220286788 0.0068225177410456287 0 0.010651112762229475 0.0066469142650005184 0 0.010935277308163828 0.0065861486219945756 0 0.010411468010515717 0.0064948240454767809 0 0.010651112762229475 0.0066469142650005184 0 0.010506933623993792 0.0070158142346376596 0 0.010506933623993792 0.0070158142346376596 0 0.010678751201681935 0.0071068603064984174 0 0.010553270080812782 0.0073670514759194257 0 0.010651112762229475 0.0066469142650005184 0 0.010506933623993792 0.0070158142346376596 0 0.010678751201681935 0.0071068603064984174 0 0.010805715220286788 0.0068225177410456287 0 0.010678751201681935 0.0071068603064984174 0 0.010951516811557514 0.0069434311777555055 0 0.010678751201681935 0.0071068603064984174 0 0.010951516811557514 0.0069434311777555055 0 0.010799902825935424 0.0072867541873865667 0 0.010951516811557514 0.0069434311777555055 0 0.011109705117733704 0.0073597630735810207 0 0.010799902825935424 0.0072867541873865667 0 0.010951516811557514 0.0069434311777555055 0 0.011355320250413092 0.0068445292384132486 0 0.011109705117733704 0.0073597630735810207 0 0.011355320250413092 0.0068445292384132486 0 0.011109705117733704 0.0073597630735810207 0 0.011790567202850931 0.0071740757236590643 0 0.011355320250413092 0.0068445292384132486 0 0.011167603456691688 0.0065980555465943135 0 0.011490604052366352 0.0064218569234306619 0 0.010951516811557514 0.0069434311777555055 0 0.011355320250413092 0.0068445292384132486 0 0.011167603456691688 0.0065980555465943135 0 0.010951516811557514 0.0069434311777555055 0 0.011167603456691688 0.0065980555465943135 0 0.010935277308163828 0.0065861486219945756 0 0.010805715220286788 0.0068225177410456287 0 0.010951516811557514 0.0069434311777555055 0 0.010935277308163828 0.0065861486219945756 0 0.01081061999126783 0.0077149001935028433 0 0.011019586341871578 0.0077621091140289535 0 0.011109705117733704 0.0073597630735810207 0 0.01081061999126783 0.0077149001935028433 0 0.0106558941170592 0.0081097113157953329 0 0.010855627235408689 0.0079647054972935109 0 0.01081061999126783 0.0077149001935028433 0 0.010596904049254192 0.0079590874827308589 0 0.0106558941170592 0.0081097113157953329 0 0.01081061999126783 0.0077149001935028433 0 0.011019586341871578 0.0077621091140289535 0 0.010855627235408689 0.0079647054972935109 0 0.011019586341871578 0.0077621091140289535 0 0.010855627235408689 0.0079647054972935109 0 0.010920109042640702 0.0080727213900619581 0 0.010958853453870501 0.0080514914431350504 0 0.011143069282467936 0.0077841490693279025 0 0.011019586341871578 0.0077621091140289535 0 0.010920109042640702 0.0080727213900619581 0 0.011436639086358618 0.0076386484818905644 0 0.011019586341871578 0.0077621091140289535 0 0.011109705117733704 0.0073597630735810207 0 0.011436639086358618 0.0076386484818905644 0 0.01081061999126783 0.0077149001935028433 0 0.011109705117733704 0.0073597630735810207 0 0.010799902825935424 0.0072867541873865667 0 0.010678751201681935 0.0071068603064984174 0 0.010799902825935424 0.0072867541873865667 0 0.010631388108782598 0.0075309704193330072 0 0.01081061999126783 0.0077149001935028433 0 0.010799902825935424 0.0072867541873865667 0 0.010631388108782598 0.0075309704193330072 0 0.010631388108782598 0.0075309704193330072 0 0.010553270080812782 0.0073670514759194257 0 0.010702286413024977 0.00749694226229888 0 0.010678751201681935 0.0071068603064984174 0 0.010631388108782598 0.0075309704193330072 0 0.010553270080812782 0.0073670514759194257 0 0.010702286413024977 0.00749694226229888 0 0.010790041467255221 0.0074770159330682529 0 0.010852560779772948 0.0075012599469146939 0 0.010631388108782598 0.0075309704193330072 0 0.010702286413024977 0.00749694226229888 0 0.010790041467255221 0.0074770159330682529 0 0.010631136622814358 0.0075543970826940574 0 0.010590149616973266 0.0078323454872211359 0 0.010631388108782598 0.0075309704193330072 0 0.010596904049254192 0.0079590874827308589 0 0.010343602195066538 0.0081847590004996296 0 0.01081061999126783 0.0077149001935028433 0 0.010631388108782598 0.0075309704193330072 0 0.010596904049254192 0.0079590874827308589 0 0.010596904049254192 0.0079590874827308589 0 0.01050501124785227 0.0082100341455070419 0 0.0106558941170592 0.0081097113157953329 0 0.010596904049254192 0.0079590874827308589 0 0.01050501124785227 0.0082100341455070419 0 0.010343602195066538 0.0081847590004996296 0 0.01050501124785227 0.0082100341455070419 0 0.010486679611291797 0.0083089286763109033 0 0.0106558941170592 0.0081097113157953329 0 0.01050501124785227 0.0082100341455070419 0 0.010343602195066538 0.0081847590004996296 0 0.010444297779907071 0.0083627837647082311 0 0.010590149616973266 0.0078323454872211359 0 0.010915892599116839 0.0079460201156260606 0 0.010343602195066538 0.0081847590004996296 0 0.010444297779907071 0.0083627837647082311 0 0.010673324626462389 0.0084914685350838837 0 0.01050501124785227 0.0082100341455070419 0 0.010444297779907071 0.0083627837647082311 0 0.010486679611291797 0.0083089286763109033 0 0.010444297779907071 0.0083627837647082311 0 0.010486679611291797 0.0083089286763109033 0 0.010396943016662719 0.0083700251137867904 0 0.010486679611291797 0.0083089286763109033 0 0.010597770062627382 0.0082535053055144553 0 0.0106558941170592 0.0081097113157953329 0 0.010486679611291797 0.0083089286763109033 0 0.010597770062627382 0.0082535053055144553 0 0.010414865662327006 0.0083535694675751383 0 0.010597770062627382 0.0082535053055144553 0 0.010424051727529839 0.0083583172141123655 0 0.010414865662327006 0.0083535694675751383 0 0.010597770062627382 0.0082535053055144553 0 0.010744401382571957 0.0080992692926924858 0 0.010842514162728021 0.0081146682924498927 0 0.010597770062627382 0.0082535053055144553 0 0.0106558941170592 0.0081097113157953329 0 0.010744401382571957 0.0080992692926924858 0 0.0106558941170592 0.0081097113157953329 0 0.010744401382571957 0.0080992692926924858 0 0.010855627235408689 0.0079647054972935109 0 0.010744401382571957 0.0080992692926924858 0 0.010855627235408689 0.0079647054972935109 0 0.010842514162728021 0.0081146682924498927 0 0.010920109042640702 0.0080727213900619581 0 0.010898174743578197 0.008089824349744229 0 0.010895057996597598 0.0080627449108343456 0 0.010855627235408689 0.0079647054972935109 0 0.010920109042640702 0.0080727213900619581 0 0.010842514162728021 0.0081146682924498927 0 0.010842514162728021 0.0081146682924498927 0 0.010879000839703942 0.0081353672410277057 0 0.010898174743578197 0.008089824349744229 0 0.010920109042640702 0.0080727213900619581 0 0.010842514162728021 0.0081146682924498927 0 0.010898174743578197 0.008089824349744229 0 0.010842514162728021 0.0081146682924498927 0 0.010826247467464058 0.0082000331228715296 0 0.010879000839703942 0.0081353672410277057 0 0.010597770062627382 0.0082535053055144553 0 0.010842514162728021 0.0081146682924498927 0 0.010424051727529839 0.0083583172141123655 0 0.010795979854919868 0.0081037429470723898 0 0.010630979251252237 0.008274404048189252 0 0.010424051727529839 0.0083583172141123655 0 0.010414865662327006 0.0083535694675751383 0 0.010236022131224733 0.0083826144621313541 0 0.010414865662327006 0.0083535694675751383 0 0.010284304628580583 0.0083767503941068085 0 0.010236022131224733 0.0083826144621313541 0 0.010284304628580583 0.0083767503941068085 0 0.010236022131224733 0.0083826144621313541 0 0.010116508944972033 0.0083350162483463823 0 0.010236022131224733 0.0083826144621313541 0 0.010091902320895732 0.0084117596335228639 0 0.010116508944972033 0.0083350162483463823 0 0.010424051727529839 0.0083583172141123655 0 0.010236022131224733 0.0083826144621313541 0 0.010141897780242359 0.008411488603723356 0 0.010630979251252237 0.008274404048189252 0 0.0105019431135773 0.0083070184527803872 0 0.010236022131224733 0.0083826144621313541 0 0.010076821658614338 0.0084478170451985218 0 0.010141897780242359 0.008411488603723356 0 0.010003442755719173 0.0085468752468095353 0 0.0099342354288013447 0.0086583561186128425 0 0.010141897780242359 0.008411488603723356 0 0.010076821658614338 0.0084478170451985218 0 0.010003442755719173 0.0085468752468095353 0 0.010141897780242359 0.008411488603723356 0 0.010076821658614338 0.0084478170451985218 0 0.010003442755719173 0.0085468752468095353 0 0.010013434134046449 0.0084918289961952408 0 0.010003442755719173 0.0085468752468095353 0 0.010013434134046449 0.0084918289961952408 0 0.0099307939180862601 0.0086124027712236612 0 0.010076821658614338 0.0084478170451985218 0 0.010013434134046449 0.0084918289961952408 0 0.010091902320895732 0.0084117596335228639 0 0.010236022131224733 0.0083826144621313541 0 0.010076821658614338 0.0084478170451985218 0 0.010091902320895732 0.0084117596335228639 0 0.010091902320895732 0.0084117596335228639 0 0.010116508944972033 0.0083350162483463823 0 0.010032285817343473 0.0083909370588422932 0 0.010116508944972033 0.0083350162483463823 0 0.010032285817343473 0.0083909370588422932 0 0.010028603091961453 0.0081641010579443993 0 0.010013434134046449 0.0084918289961952408 0 0.010091902320895732 0.0084117596335228639 0 0.010032285817343473 0.0083909370588422932 0 0.010032285817343473 0.0083909370588422932 0 0.0099586205693184566 0.008559720172907237 0 0.0099493296314441294 0.0085811803516014987 0 0.010013434134046449 0.0084918289961952408 0 0.010032285817343473 0.0083909370588422932 0 0.0099586205693184566 0.008559720172907237 0 0.010032285817343473 0.0083909370588422932 0 0.0099493296314441294 0.0085811803516014987 0 0.010028603091961453 0.0081641010579443993 0 0.0099586205693184566 0.008559720172907237 0 0.0099493296314441294 0.0085811803516014987 0 0.0098726389661998454 0.0086789905649273455 0 0.0099586205693184566 0.008559720172907237 0 0.0098726389661998454 0.0086789905649273455 0 0.0099307939180862601 0.0086124027712236612 0 0.0098726389661998454 0.0086789905649273455 0 0.0098403407582455041 0.0087340840388806934 0 0.0099307939180862601 0.0086124027712236612 0 0.0098403407582455041 0.0087340840388806934 0 0.0097804221378914417 0.0088209311702679479 0 0.0097186193337335958 0.0088648963593604899 0 0.0098403407582455041 0.0087340840388806934 0 0.0099307939180862601 0.0086124027712236612 0 0.0099342354288013447 0.0086583561186128425 0 0.010003442755719173 0.0085468752468095353 0 0.0099307939180862601 0.0086124027712236612 0 0.0099342354288013447 0.0086583561186128425 0 0.010013434134046449 0.0084918289961952408 0 0.0099586205693184566 0.008559720172907237 0 0.0099307939180862601 0.0086124027712236612 0 0.0099493296314441294 0.0085811803516014987 0 0.010028603091961453 0.0081641010579443993 0 0.0098669835569821888 0.0086267534584545842 0 0.0099971255463737266 0.0081220013932814319 0 0.0098418974049576686 0.0077302732187043109 0 0.010672482804477591 0.0076402427608288428 0 0.010028603091961453 0.0081641010579443993 0 0.0098500512073897185 0.0068068405116828235 0 0.010116508944972033 0.0083350162483463823 0 0.010028603091961453 0.0081641010579443993 0 0.010357278587866193 0.0083703057196348393 0 0.010672482804477591 0.0076402427608288428 0 0.010028603091961453 0.0081641010579443993 0 0.010357278587866193 0.0083703057196348393 0 0.010672482804477591 0.0076402427608288428 0 0.010357278587866193 0.0083703057196348393 0 0.010921009511204271 0.0083441025671215467 0 0.010357278587866193 0.0083703057196348393 0 0.010458049254214091 0.0083539468317301406 0 0.010921009511204271 0.0083441025671215467 0 0.01051486539799773 0.0083051272475163501 0 0.010937188081778336 0.0078304261663585933 0 0.010284304628580583 0.0083767503941068085 0 0.010116508944972033 0.0083350162483463823 0 0.010357278587866193 0.0083703057196348393 0 0.010284304628580583 0.0083767503941068085 0 0.010357278587866193 0.0083703057196348393 0 0.010396943016662719 0.0083700251137867904 0 0.010486679611291797 0.0083089286763109033 0 0.010414865662327006 0.0083535694675751383 0 0.010396943016662719 0.0083700251137867904 0 0.010414865662327006 0.0083535694675751383 0 0.010284304628580583 0.0083767503941068085 0 0.010396943016662719 0.0083700251137867904 0 0.010357278587866193 0.0083703057196348393 0 0.010396943016662719 0.0083700251137867904 0 0.010458049254214091 0.0083539468317301406 0 0.010444297779907071 0.0083627837647082311 0 0.010458049254214091 0.0083539468317301406 0 0.010673324626462389 0.0084914685350838837 0 0.010444297779907071 0.0083627837647082311 0 0.010396943016662719 0.0083700251137867904 0 0.010458049254214091 0.0083539468317301406 0 0.011420096627632445 0.0074285938633007753 0 0.011844189856025106 0.0068088676727444796 0 0.011125114040254415 0.0074539564956580236 0 0.011761279350503839 0.0072592749208793611 0 0.010915892599116839 0.0079460201156260606 0 0.010458049254214091 0.0083539468317301406 0 0.010912315845812821 0.0080223046180568445 0 0.010673324626462389 0.0084914685350838837 0 0.010912315845812821 0.0080223046180568445 0 0.011680558059514914 0.0077384394370089106 0 0.010673324626462389 0.0084914685350838837 0 0.011420096627632445 0.0074285938633007753 0 0.011988574281779917 0.007211079761245979 0 0.011844189856025106 0.0068088676727444796 0 0.011988574281779917 0.007211079761245979 0 0.011844189856025106 0.0068088676727444796 0 0.012417729788414092 0.0070402830889790295 0 0.011988574281779917 0.007211079761245979 0 0.012330886640379991 0.007339200871599282 0 0.012102142895804184 0.0076933804307353351 0 0.011420096627632445 0.0074285938633007753 0 0.011988574281779917 0.007211079761245979 0 0.012102142895804184 0.0076933804307353351 0 0.011844189856025106 0.0068088676727444796 0 0.012534251253374224 0.0067365130639438818 0 0.012417729788414092 0.0070402830889790295 0 0.011844189856025106 0.0068088676727444796 0 0.012655086923008272 0.0065376642486059972 0 0.012534251253374224 0.0067365130639438818 0 0.010458049254214091 0.0083539468317301406 0 0.010912315845812821 0.0080223046180568445 0 0.010903540475084791 0.0073561844971368204 0 0.010912315845812821 0.0080223046180568445 0 0.011680558059514914 0.0077384394370089106 0 0.010903540475084791 0.0073561844971368204 0 0.011680558059514914 0.0077384394370089106 0 0.010903540475084791 0.0073561844971368204 0 0.011621981248915923 0.0069724521056163963 0 0.010672482804477591 0.0076402427608288428 0 0.010921009511204271 0.0083441025671215467 0 0.011687374466071558 0.0076998525743169751 0 0.010937188081778336 0.0078304261663585933 0 0.01175170807230109 0.0069711209926562297 0 0.010903540475084791 0.0073561844971368204 0 0.011621981248915923 0.0069724521056163963 0 0.011819500149386625 0.0062241223665293541 0 0.011680558059514914 0.0077384394370089106 0 0.01192434125352989 0.0068108626713902247 0 0.011621981248915923 0.0069724521056163963 0 0.011680558059514914 0.0077384394370089106 0 0.01192434125352989 0.0068108626713902247 0 0.012591806444502474 0.006338655323759719 0 0.011844189856025106 0.0068088676727444796 0 0.012591806444502474 0.006338655323759719 0 0.012655086923008272 0.0065376642486059972 0 0.011761279350503839 0.0072592749208793611 0 0.012514245041861398 0.0063944546870087285 0 0.01192434125352989 0.0068108626713902247 0 0.011819500149386625 0.0062241223665293541 0 0.012591806444502474 0.006338655323759719 0 0.01192434125352989 0.0068108626713902247 0 0.011621981248915923 0.0069724521056163963 0 0.011819500149386625 0.0062241223665293541 0 0.011687374466071558 0.0076998525743169751 0 0.011338681644371853 0.0067072643227672705 0 0.012526927339410248 0.0066508257649860129 0 0.011819500149386625 0.0062241223665293541 0 0.012591806444502474 0.006338655323759719 0 0.012664709268146314 0.0055914438424689763 0 0.01175170807230109 0.0069711209926562297 0 0.012575383876011094 0.0061205275702133442 0 0.010672482804477591 0.0076402427608288428 0 0.011687374466071558 0.0076998525743169751 0 0.011338681644371853 0.0067072643227672705 0 0.013387686296937949 0.0060451688460021122 0 0.012963598127604874 0.0062972810910030801 0 0.013300464981426801 0.0062569362290471244 0 0.013387686296937949 0.0060451688460021122 0 0.01369472019866394 0.0059920590654252001 0 0.013665086965528261 0.0061754652501799538 0 0.013387686296937949 0.0060451688460021122 0 0.013531427454940828 0.0063180582177244284 0 0.013665086965528261 0.0061754652501799538 0 0.013387686296937949 0.0060451688460021122 0 0.01369472019866394 0.0059920590654252001 0 0.013556291220154903 0.0057278896851183344 0 0.013387686296937949 0.0060451688460021122 0 0.0132770880706052 0.0058355547447896195 0 0.01301385761207789 0.0059460104835621407 0 0.013387686296937949 0.0060451688460021122 0 0.0132770880706052 0.0058355547447896195 0 0.013556291220154903 0.0057278896851183344 0 0.01301385761207789 0.0059460104835621407 0 0.012591806444502474 0.006338655323759719 0 0.012664709268146314 0.0055914438424689763 0 0.01301385761207789 0.0059460104835621407 0 0.012963598127604874 0.0062972810910030801 0 0.012591806444502474 0.006338655323759719 0 0.013387686296937949 0.0060451688460021122 0 0.01301385761207789 0.0059460104835621407 0 0.012963598127604874 0.0062972810910030801 0 0.012963598127604874 0.0062972810910030801 0 0.012655086923008272 0.0065376642486059972 0 0.012891000656950874 0.0069162468618627904 0 0.012963598127604874 0.0062972810910030801 0 0.012591806444502474 0.006338655323759719 0 0.012655086923008272 0.0065376642486059972 0 0.01296371483324767 0.006249173300623947 0 0.013196446298036579 0.006830282396255224 0 0.012963598127604874 0.0062972810910030801 0 0.013360630913488998 0.0064104307575553405 0 0.013496236451986991 0.0066152485399007151 0 0.012963598127604874 0.0062972810910030801 0 0.013360630913488998 0.0064104307575553405 0 0.013300464981426801 0.0062569362290471244 0 0.013387686296937949 0.0060451688460021122 0 0.013300464981426801 0.0062569362290471244 0 0.013531427454940828 0.0063180582177244284 0 0.013360630913488998 0.0064104307575553405 0 0.013300464981426801 0.0062569362290471244 0 0.013531427454940828 0.0063180582177244284 0 0.013360630913488998 0.0064104307575553405 0 0.013531427454940828 0.0063180582177244284 0 0.013529646764556693 0.0064832343070964161 0 0.013531427454940828 0.0063180582177244284 0 0.013529646764556693 0.0064832343070964161 0 0.013668029318051772 0.0063396339931549896 0 0.013529646764556693 0.0064832343070964161 0 0.013496236451986991 0.0066152485399007151 0 0.013673362741534236 0.0065551261989844987 0 0.013360630913488998 0.0064104307575553405 0 0.013529646764556693 0.0064832343070964161 0 0.013496236451986991 0.0066152485399007151 0 0.013496236451986991 0.0066152485399007151 0 0.013741134604831224 0.006745944687773296 0 0.013673362741534236 0.0065551261989844987 0 0.012891000656950874 0.0069162468618627904 0 0.012534251253374224 0.0067365130639438818 0 0.012417729788414092 0.0070402830889790295 0 0.012655086923008272 0.0065376642486059972 0 0.012891000656950874 0.0069162468618627904 0 0.012534251253374224 0.0067365130639438818 0 0.012891000656950874 0.0069162468618627904 0 0.012417729788414092 0.0070402830889790295 0 0.012696015819957962 0.007332047678225379 0 0.012417729788414092 0.0070402830889790295 0 0.012696015819957962 0.007332047678225379 0 0.012330886640379991 0.007339200871599282 0 0.011988574281779917 0.007211079761245979 0 0.012417729788414092 0.0070402830889790295 0 0.012330886640379991 0.007339200871599282 0 0.012696015819957962 0.007332047678225379 0 0.012330886640379991 0.007339200871599282 0 0.012654866295653721 0.0076816333819348841 0 0.012891000656950874 0.0069162468618627904 0 0.012696015819957962 0.007332047678225379 0 0.013193106739635108 0.0077127746590897389 0 0.013496236451986991 0.0066152485399007151 0 0.013717632449193084 0.0069460536304869888 0 0.013741134604831224 0.006745944687773296 0 0.013196446298036579 0.006830282396255224 0 0.013467144672865142 0.0069583341305261507 0 0.013467144672865142 0.0069583341305261507 0 0.013504120588676578 0.0062377966356499124 0 0.013717632449193084 0.0069460536304869888 0 0.013794514677141932 0.0069689779603351815 0 0.013741134604831224 0.006745944687773296 0 0.012696015819957962 0.007332047678225379 0 0.013193106739635108 0.0077127746590897389 0 0.012654866295653721 0.0076816333819348841 0 0.013193106739635108 0.0077127746590897389 0 0.01257372899970839 0.0082764223967868641 0 0.012654866295653721 0.0076816333819348841 0 0.013467144672865142 0.0069583341305261507 0 0.013536458508818188 0.0069262506227425469 0 0.014010498591790162 0.0045351003007626737 0 0.013932814532965165 0.0042511957090299382 0 0.013390232301328551 0.0045914329769809973 0 0.013854353308444846 0.0042157543702678593 0 0.013735075031306039 0.0048393101330790099 0 0.01351919820102602 0.0049940843112073275 0 0.014010498591790162 0.0045351003007626737 0 0.013390232301328551 0.0045914329769809973 0 0.013504120588676578 0.0062377966356499124 0 0.011890770714960038 0.0066878167618051234 0 0.01257372899970839 0.0082764223967868641 0 0.012654866295653721 0.0076816333819348841 0 0.012102142895804184 0.0076933804307353351 0 0.012330886640379991 0.007339200871599282 0 0.012654866295653721 0.0076816333819348841 0 0.012102142895804184 0.0076933804307353351 0 0.011362654846793756 0.0073529207176433247 0 0.011421229175002734 0.0080666210178682533 0 0.011420096627632445 0.0074285938633007753 0 0.012102142895804184 0.0076933804307353351 0 0.011711642112188709 0.0081845990880749803 0 0.01257372899970839 0.0082764223967868641 0 0.012102142895804184 0.0076933804307353351 0 0.011711642112188709 0.0081845990880749803 0 0.011420096627632445 0.0074285938633007753 0 0.011125114040254415 0.0074539564956580236 0 0.011054456666201029 0.0075047133846130216 0 0.010790041467255221 0.0074770159330682529 0 0.011125114040254415 0.0074539564956580236 0 0.011054456666201029 0.0075047133846130216 0 0.010790041467255221 0.0074770159330682529 0 0.011054456666201029 0.0075047133846130216 0 0.010852560779772948 0.0075012599469146939 0 0.011054456666201029 0.0075047133846130216 0 0.010914438721861337 0.0075100649126654115 0 0.010852560779772948 0.0075012599469146939 0 0.011421229175002734 0.0080666210178682533 0 0.011890770714960038 0.0066878167618051234 0 0.01257372899970839 0.0082764223967868641 0 0.011711642112188709 0.0081845990880749803 0 0.011890773313171808 0.008837185076971666 0 0.011890770714960038 0.0066878167618051234 0 0.010324249558123916 0.0076881469413510655 0 0.014355777136387256 0.0041820316368626209 0 0.014216466601231362 0.0038904231840760466 0 0.01410186600737009 0.0040898699442745504 0 0.010914438721861337 0.0075100649126654115 0 0.010852560779772948 0.0075012599469146939 0 0.010775283812970141 0.0075040462325635486 0 0.010702286413024977 0.00749694226229888 0 0.010852560779772948 0.0075012599469146939 0 0.010775283812970141 0.0075040462325635486 0 0.010235960167680769 0.0071688165560736955 0 0.010553270080812782 0.0073670514759194257 0 0.01026858199207986 0.0075481240688966113 0 0.010553270080812782 0.0073670514759194257 0 0.010702286413024977 0.00749694226229888 0 0.010775283812970141 0.0075040462325635486 0 0.010648192324749466 0.0073348632290654936 0 0.010324249558123916 0.0076881469413510655 0 0.010028144345522426 0.0077476255094110205 0 0.01026858199207986 0.0075481240688966113 0 0.0098840787733754428 0.0072358279980740958 0 0.011890770714960038 0.0066878167618051234 0 0.012049736295326499 0.0052449656198852966 0 0.010235960167680769 0.0071688165560736955 0 0.01026858199207986 0.0075481240688966113 0 0.0098840787733754428 0.0072358279980740958 0 0.014355777136387256 0.0041820316368626209 0 0.01419298598120464 0.0037205028469925244 0 0.014216466601231362 0.0038904231840760466 0 0.014216466601231362 0.0038904231840760466 0 0.014038226439791775 0.0038850611008063355 0 0.014028851883079192 0.0036996082539087092 0 0.014216466601231362 0.0038904231840760466 0 0.014038226439791775 0.0038850611008063355 0 0.01410186600737009 0.0040898699442745504 0 0.014038226439791775 0.0038850611008063355 0 0.013919864365257382 0.0037777138623599407 0 0.013924157473835902 0.0039636315417157985 0 0.014038226439791775 0.0038850611008063355 0 0.014028851883079192 0.0036996082539087092 0 0.013919864365257382 0.0037777138623599407 0 0.013865825730964804 0.0035844712904463489 0 0.014028851883079192 0.0036996082539087092 0 0.013919864365257382 0.0037777138623599407 0 0.013755155510596346 0.0037537527471903356 0 0.013924157473835902 0.0039636315417157985 0 0.013726502759702086 0.0040719023120242958 0 0.013865825730964804 0.0035844712904463489 0 0.013919864365257382 0.0037777138623599407 0 0.013755155510596346 0.0037537527471903356 0 0.013755155510596346 0.0037537527471903356 0 0.013726502759702086 0.0040719023120242958 0 0.013586804461494111 0.003824709916492777 0 0.013919864365257382 0.0037777138623599407 0 0.013755155510596346 0.0037537527471903356 0 0.013924157473835902 0.0039636315417157985 0 0.013726502759702086 0.0040719023120242958 0 0.013932814532965165 0.0042511957090299382 0 0.013591548701448335 0.0044528622291671073 0 0.013924157473835902 0.0039636315417157985 0 0.013726502759702086 0.0040719023120242958 0 0.013932814532965165 0.0042511957090299382 0 0.014010498591790162 0.0045351003007626737 0 0.013932814532965165 0.0042511957090299382 0 0.01410186600737009 0.0040898699442745504 0 0.014010498591790162 0.0045351003007626737 0 0.014355777136387256 0.0041820316368626209 0 0.01410186600737009 0.0040898699442745504 0 0.014038226439791775 0.0038850611008063355 0 0.013924157473835902 0.0039636315417157985 0 0.01410186600737009 0.0040898699442745504 0 0.013924157473835902 0.0039636315417157985 0 0.013932814532965165 0.0042511957090299382 0 0.01410186600737009 0.0040898699442745504 0 0.013577737483185236 0.0032526186160162177 0 0.01349505856614829 0.0032240583535781703 0 0.013511082071978054 0.003175849740479074 0 0.013577321112640423 0.003333391745501701 0 0.013506962318638209 0.0027711263922074966 0 0.013510996424568678 0.003287417020341243 0 0.01349505856614829 0.0032240583535781703 0 0.013409071998242456 0.0032539238350988249 0 0.013510996424568678 0.003287417020341243 0 0.013577737483185236 0.0032526186160162177 0 0.01349505856614829 0.0032240583535781703 0 0.013726502759702086 0.0040719023120242958 0 0.013459505517215581 0.0040378279648115075 0 0.013591548701448335 0.0044528622291671073 0 0.01349505856614829 0.0032240583535781703 0 0.013409071998242456 0.0032539238350988249 0 0.013459731369845462 0.0031875976729160644 0 0.013726502759702086 0.0040719023120242958 0 0.013459505517215581 0.0040378279648115075 0 0.013586804461494111 0.003824709916492777 0 0.013456434951621531 0.0036554126572469047 0 0.013377364582867864 0.0034334704760328985 0 0.01342879902307784 0.0035489131990422734 0 0.013459505517215581 0.0040378279648115075 0 0.013586804461494111 0.003824709916492777 0 0.013755155510596346 0.0037537527471903356 0 0.013586804461494111 0.003824709916492777 0 0.013566010058258582 0.0036471663041114104 0 0.01342879902307784 0.0035489131990422734 0 0.013586804461494111 0.003824709916492777 0 0.013566010058258582 0.0036471663041114104 0 0.01342879902307784 0.0035489131990422734 0 0.013409071998242456 0.0032539238350988249 0 0.01350451139849255 0.0034121312814311901 0 0.01342879902307784 0.0035489131990422734 0 0.01350451139849255 0.0034121312814311901 0 0.01372150590583656 0.0034812837085459757 0 0.013510996424568678 0.003287417020341243 0 0.013409071998242456 0.0032539238350988249 0 0.01350451139849255 0.0034121312814311901 0 0.013510996424568678 0.003287417020341243 0 0.01350451139849255 0.0034121312814311901 0 0.013571070390342728 0.003348144292967827 0 0.01350451139849255 0.0034121312814311901 0 0.013571070390342728 0.003348144292967827 0 0.01372150590583656 0.0034812837085459757 0 0.013577737483185236 0.0032526186160162177 0 0.013571070390342728 0.003348144292967827 0 0.013666371068011929 0.003356685420868615 0 0.013510996424568678 0.003287417020341243 0 0.013577737483185236 0.0032526186160162177 0 0.013571070390342728 0.003348144292967827 0 0.01372150590583656 0.0034812837085459757 0 0.013666371068011929 0.003356685420868615 0 0.014897353966845843 0.0023509374641295868 0 0.014654928765900764 9.3013543119121913e-06 0 0.014404287812814937 -0.0001098911459258772 0 0.014766126168757606 -0.00013995488559551835 0 0.014586399468671735 0.00016424474500351257 0 0.014654928765900764 9.3013543119121913e-06 0 0.014404287812814937 -0.0001098911459258772 0 0.013571070390342728 0.003348144292967827 0 0.01372150590583656 0.0034812837085459757 0 0.013666371068011929 0.003356685420868615 0 0.014766126168757606 -0.00013995488559551835 0 0.014801875549652174 -0.00042091381816534084 0 0.015026318235641076 -3.5424525547655245e-05 0 0.015370610746712279 -0.0010116616489122706 0 0.015818276652650069 -0.0022706441064946005 0 0.014404287812814937 -0.0001098911459258772 0 0.014766126168757606 -0.00013995488559551835 0 0.014801875549652174 -0.00042091381816534084 0 0.015641393658970226 -0.0011701275089927474 0 0.015231464655798086 -0.001652272617194195 0 0.015319017504811081 -0.0017346880759679965 0 0.015370610746712279 -0.0010116616489122706 0 0.015219984120554591 -0.0011446882079825934 0 0.014861510045306675 0.000122105425189372 0 0.014766126168757606 -0.00013995488559551835 0 0.015026318235641076 -3.5424525547655245e-05 0 0.014861510045306675 0.000122105425189372 0 0.014654928765900764 9.3013543119121913e-06 0 0.014766126168757606 -0.00013995488559551835 0 0.014404287812814937 -0.0001098911459258772 0 0.014801875549652174 -0.00042091381816534084 0 0.014767835213305415 -0.00047829485796146824 0 0.016213165378652122 -0.0023935843331668386 0 0.016060873327738621 -0.002351930939646558 0 0.016062172754602335 -0.0024606093326146822 0 0.015370610746712279 -0.0010116616489122706 0 0.015362719134890635 -0.00033047353028353016 0 0.016213165378652122 -0.0023935843331668386 0 0.016234082624381349 -0.0023553127819068921 0 0.016060873327738621 -0.002351930939646558 0 0.013577737483185236 0.0032526186160162177 0 0.013666371068011929 0.003356685420868615 0 0.013907811927093889 0.0028552486920709265 0 0.013854966865631793 0.001993684075837564 0 0.015362719134890635 -0.00033047353028353016 0 0.013411938889151511 0.0037520428395252598 0 0.014884092795394061 0.0012254332069929657 0 0.013666371068011929 0.003356685420868615 0 0.014897353966845843 0.0023509374641295868 0 0.014430993509721657 0.0015394048357126374 0 0.013577737483185236 0.0032526186160162177 0 0.013907811927093889 0.0028552486920709265 0 0.013564067389331956 0.0028804015530689356 0 0.013907811927093889 0.0028552486920709265 0 0.01354925864439201 0.0025168932363487271 0 0.013564067389331956 0.0028804015530689356 0 0.015362719134890635 -0.00033047353028353016 0 0.016040619548999515 -0.0018689457249679042 0 0.015754212471138736 -0.0010940653398145508 0 0.015769657337156542 -0.0010747084314952269 0 0.015717340336915957 -0.0010903585316116946 0 0.015362719134890635 -0.00033047353028353016 0 0.014884092795394061 0.0012254332069929657 0 0.014884092795394061 0.0012254332069929657 0 0.015981057365612943 -0.00065011251042963812 0 0.015769657337156542 -0.0010747084314952269 0 0.015768320478963302 -0.0010367133276241746 0 0.015717340336915957 -0.0010903585316116946 0 0.015545663631754589 0.0011873668997856683 0 0.015917873438963583 0.00033513557694831976 0 0.015028841990891809 0.00029196771309051439 0 0.014884092795394061 0.0012254332069929657 0 0.015090781674933593 0.0014483292744727067 0 0.013907811927093889 0.0028552486920709265 0 0.013673413880606212 0.0024367291093441335 0 0.01354925864439201 0.0025168932363487271 0 0.015090781674933593 0.0014483292744727067 0 0.014072725376930557 0.0041425270674182758 0 0.013506274514445639 0.0031202606136166143 0 0.013511082071978054 0.003175849740479074 0 0.013459731369845462 0.0031875976729160644 0 0.014072725376930557 0.0041425270674182758 0 0.013506962318638209 0.0027711263922074966 0 0.01349505856614829 0.0032240583535781703 0 0.013511082071978054 0.003175849740479074 0 0.013459731369845462 0.0031875976729160644 0 0.013409071998242456 0.0032539238350988249 0 0.013459731369845462 0.0031875976729160644 0 0.013418591296952548 0.0031655104603596318 0 0.013377364582867864 0.0034334704760328985 0 0.013735075031306039 0.0048393101330790099 0 0.013506274514445639 0.0031202606136166143 0 0.013459731369845462 0.0031875976729160644 0 0.013418591296952548 0.0031655104603596318 0 0.014072725376930557 0.0041425270674182758 0 0.013735075031306039 0.0048393101330790099 0 0.015520541565749384 0.0071590599706478119 0 0.013957796173193949 0.0080477866527438619 0 0.014687346792677105 0.0067909547160940479 0 0.013467144672865142 0.0069583341305261507 0 0.013735075031306039 0.0048393101330790099 0 0.013957796173193949 0.0080477866527438619 0 0.014687346792677105 0.0067909547160940479 0 0.014186082414258264 0.0068039047763291029 0 0.013957796173193949 0.0080477866527438619 0 0.013794514677141932 0.0069689779603351815 0 0.014186082414258264 0.0068039047763291029 0 0.013629976662353938 0.0071070826755836375 0 0.013957796173193949 0.0080477866527438619 0 0.013794514677141932 0.0069689779603351815 0 0.013794514677141932 0.0069689779603351815 0 0.014186082414258264 0.0068039047763291029 0 0.013741134604831224 0.006745944687773296 0 0.014186082414258264 0.0068039047763291029 0 0.013741134604831224 0.006745944687773296 0 0.014359945963279866 0.0062338321214606201 0 0.013739066370079628 0.006671383230574748 0 0.013942496828958189 0.0056347430086978994 0 0.013741134604831224 0.006745944687773296 0 0.014359945963279866 0.0062338321214606201 0 0.014176155401122275 0.0046513797845378919 0 0.014687346792677105 0.0067909547160940479 0 0.014186082414258264 0.0068039047763291029 0 0.014359945963279866 0.0062338321214606201 0 0.014687346792677105 0.0067909547160940479 0 0.014359945963279866 0.0062338321214606201 0 0.014959253117162582 0.0062800390684458977 0 0.014359945963279866 0.0062338321214606201 0 0.014959253117162582 0.0062800390684458977 0 0.01466739944428469 0.0055739750276756423 0 0.014798081574210715 0.002922982013514121 0 0.015091684132025466 0.0027378375799504357 0 0.015155858301553969 0.003530867439037068 0 0.015520541565749384 0.0071590599706478119 0 0.014959253117162582 0.0062800390684458977 0 0.015541981356242667 0.0059553612319229645 0 0.016496724428577091 -0.00026928016226408818 0 0.016622599074399995 -0.00014377180942940895 0 0.016463640020584969 -6.9213559305105447e-05 0 0.014072725376930557 0.0041425270674182758 0 0.01563732171368094 0.003784731884191813 0 0.015090781674933593 0.0014483292744727067 0 0.01563732171368094 0.003784731884191813 0 0.015520541565749384 0.0071590599706478119 0 0.014687346792677105 0.0067909547160940479 0 0.014959253117162582 0.0062800390684458977 0 0.014959253117162582 0.0062800390684458977 0 0.015541981356242667 0.0059553612319229645 0 0.01466739944428469 0.0055739750276756423 0 0.016622599074399995 -0.00014377180942940895 0 0.016498497504432334 0.00010974596761637761 0 0.016419776990899766 0.00044446317219803332 0 0.01563732171368094 0.003784731884191813 0 0.016008437305814891 0.0019789136280432863 0 0.015541981356242667 0.0059553612319229645 0 0.01466739944428469 0.0055739750276756423 0 0.01473744898180177 0.004188977885262706 0 0.01563732171368094 0.003784731884191813 0 0.014944117657098467 0.0050021240097997211 0 0.015651618227431253 0.0056766333101427495 0 0.01473744898180177 0.004188977885262706 0 0.015546289657926749 0.0039789956992349372 0 0.016622599074399995 -0.00014377180942940895 0 0.016498497504432334 0.00010974596761637761 0 0.016463640020584969 -6.9213559305105447e-05 0 0.014359945963279866 0.0062338321214606201 0 0.01466739944428469 0.0055739750276756423 0 0.014176155401122275 0.0046513797845378919 0 0.01466739944428469 0.0055739750276756423 0 0.014176155401122275 0.0046513797845378919 0 0.01473744898180177 0.004188977885262706 0 0.01473744898180177 0.004188977885262706 0 0.015546289657926749 0.0039789956992349372 0 0.014801926022501103 0.0027973373827324286 0 0.014176155401122275 0.0046513797845378919 0 0.01473744898180177 0.004188977885262706 0 0.014801926022501103 0.0027973373827324286 0 0.013529646764556693 0.0064832343070964161 0 0.013673362741534236 0.0065551261989844987 0 0.013668029318051772 0.0063396339931549896 0 0.013942496828958189 0.0056347430086978994 0 0.014383758494812156 0.0044266345100941939 0 0.013673362741534236 0.0065551261989844987 0 0.013668029318051772 0.0063396339931549896 0 0.013913550599468073 0.0061249155017096685 0 0.013668029318051772 0.0063396339931549896 0 0.013665086965528261 0.0061754652501799538 0 0.013913550599468073 0.0061249155017096685 0 0.013531427454940828 0.0063180582177244284 0 0.013668029318051772 0.0063396339931549896 0 0.013665086965528261 0.0061754652501799538 0 0.016498497504432334 0.00010974596761637761 0 0.01667971889622407 0.00021224750731846229 0 0.016525876031276719 0.00012819996989397119 0 0.016498497504432334 0.00010974596761637761 0 0.016419776990899766 0.00044446317219803332 0 0.01608625288036385 0.00087160584278953381 0 0.016474623593893033 0.0001441269478850957 0 0.016382554681298685 0.00062708582408628163 0 0.01667971889622407 0.00021224750731846229 0 0.016614325573977927 0.00033266121965332943 0 0.01670622280578709 0.00049686995683275652 0 0.015475802931413705 0.0023336740374252803 0 0.014801926022501103 0.0027973373827324286 0 0.015446993770344922 0.0016699534676421061 0 0.015977332021930812 0.0011506170378285259 0 0.01608625288036385 0.00087160584278953381 0 0.01564905882277472 0.0014681346715401324 0 0.015546289657926749 0.0039789956992349372 0 0.015475802931413705 0.0023336740374252803 0 0.014801926022501103 0.0027973373827324286 0 0.016419776990899766 0.00044446317219803332 0 0.015977332021930812 0.0011506170378285259 0 0.01608625288036385 0.00087160584278953381 0 0.016382554681298685 0.00062708582408628163 0 0.016315381807754433 0.00082194196593126745 0 0.016008437305814891 0.0019789136280432863 0 0.015730003941874834 0.0017624550540110413 0 0.01369472019866394 0.0059920590654252001 0 0.013913550599468073 0.0061249155017096685 0 0.013873488950763584 0.0057846744962605024 0 0.01369472019866394 0.0059920590654252001 0 0.013665086965528261 0.0061754652501799538 0 0.013913550599468073 0.0061249155017096685 0 0.016357507624518677 0.00020211991846772278 0 0.016201190902072945 7.8250023048394117e-05 0 0.016175895661753446 0.0002224613673238797 0 0.016357507624518677 0.00020211991846772278 0 0.016329116343254926 0.00038202800129603383 0 0.016175895661753446 0.0002224613673238797 0 0.016357507624518677 0.00020211991846772278 0 0.016329116343254926 0.00038202800129603383 0 0.016538628992706503 0.00041214487950646096 0 0.016538628992706503 0.00041214487950646096 0 0.016614325573977927 0.00033266121965332943 0 0.01670622280578709 0.00049686995683275652 0 0.016538628992706503 0.00041214487950646096 0 0.016614325573977927 0.00033266121965332943 0 0.016534884105619381 0.00022261770847120375 0 0.01667971889622407 0.00021224750731846229 0 0.016614325573977927 0.00033266121965332943 0 0.016534884105619381 0.00022261770847120375 0 0.016357507624518677 0.00020211991846772278 0 0.016538628992706503 0.00041214487950646096 0 0.016534884105619381 0.00022261770847120375 0 0.016534884105619381 0.00022261770847120375 0 0.016525876031276719 0.00012819996989397119 0 0.016425746247620256 0.00010215260998066688 0 0.016357507624518677 0.00020211991846772278 0 0.016534884105619381 0.00022261770847120375 0 0.016425746247620256 0.00010215260998066688 0 0.01667971889622407 0.00021224750731846229 0 0.016534884105619381 0.00022261770847120375 0 0.016525876031276719 0.00012819996989397119 0 0.016525876031276719 0.00012819996989397119 0 0.016425746247620256 0.00010215260998066688 0 0.016433477995313452 1.6788296931919952e-05 0 0.016425746247620256 0.00010215260998066688 0 0.016304277403590112 6.5240461752561296e-05 0 0.016308178614957886 -2.6463934296401527e-05 0 0.016357507624518677 0.00020211991846772278 0 0.016425746247620256 0.00010215260998066688 0 0.016304277403590112 6.5240461752561296e-05 0 0.016357507624518677 0.00020211991846772278 0 0.016304277403590112 6.5240461752561296e-05 0 0.016201190902072945 7.8250023048394117e-05 0 0.016304277403590112 6.5240461752561296e-05 0 0.016222656373939742 -7.7456574129946203e-06 0 0.016201190902072945 7.8250023048394117e-05 0 0.016304277403590112 6.5240461752561296e-05 0 0.016222656373939742 -7.7456574129946203e-06 0 0.016308178614957886 -2.6463934296401527e-05 0 0.016222656373939742 -7.7456574129946203e-06 0 0.016308178614957886 -2.6463934296401527e-05 0 0.01619372914589038 -0.00010203359837201984 0 0.016308178614957886 -2.6463934296401527e-05 0 0.016433477995313452 1.6788296931919952e-05 0 0.016342932634844726 -0.00015298045767693022 0 0.016308178614957886 -2.6463934296401527e-05 0 0.016342932634844726 -0.00015298045767693022 0 0.016213368712597764 -0.0001156439640176656 0 0.016308178614957886 -2.6463934296401527e-05 0 0.01619372914589038 -0.00010203359837201984 0 0.016213368712597764 -0.0001156439640176656 0 0.016433477995313452 1.6788296931919952e-05 0 0.016463640020584969 -6.9213559305105447e-05 0 0.016342932634844726 -0.00015298045767693022 0 0.016498497504432334 0.00010974596761637761 0 0.016525876031276719 0.00012819996989397119 0 0.016433477995313452 1.6788296931919952e-05 0 0.016425746247620256 0.00010215260998066688 0 0.016308178614957886 -2.6463934296401527e-05 0 0.016433477995313452 1.6788296931919952e-05 0 0.016498497504432334 0.00010974596761637761 0 0.016433477995313452 1.6788296931919952e-05 0 0.016463640020584969 -6.9213559305105447e-05 0 0.015917873438963583 0.00033513557694831976 0 0.015028841990891809 0.00029196771309051439 0 0.015658307247497897 -0.00011353559321507413 0 0.015090781674933593 0.0014483292744727067 0 0.016207264295219584 -0.0002872016530334073 0 0.016496724428577091 -0.00026928016226408818 0 0.016463640020584969 -6.9213559305105447e-05 0 0.016342932634844726 -0.00015298045767693022 0 0.015917873438963583 0.00033513557694831976 0 0.015658307247497897 -0.00011353559321507413 0 0.016285039199986952 -0.00051460131275652419 0 0.016207264295219584 -0.0002872016530334073 0 0.016060141077604763 -0.00039615933463964427 0 0.015981057365612943 -0.00065011251042963812 0 0.016060141077604763 -0.00039615933463964427 0 0.015768320478963302 -0.0010367133276241746 0 0.01570321026600191 -0.0010108715886273435 0 0.015755348691100415 -0.00091818070567276989 0 0.01570321026600191 -0.0010108715886273435 0 0.015591705069445246 -0.0010538163237718014 0 0.015638294166342617 -0.00080717691097410241 0 0.015591705069445246 -0.0010538163237718014 0 0.015638294166342617 -0.00080717691097410241 0 0.015392481549418243 -0.00095277016569828834 0 0.015918093545433151 -0.00011843990868944862 0 0.01619372914589038 -0.00010203359837201984 0 0.016114838538845697 -2.0529283909955437e-05 0 0.015760583465856209 -0.00046915414032001185 0 0.016060141077604763 -0.00039615933463964427 0 0.015918093545433151 -0.00011843990868944862 0 0.01619372914589038 -0.00010203359837201984 0 0.016222824875468979 -0.00012985653296660544 0 0.01570321026600191 -0.0010108715886273435 0 0.015638294166342617 -0.00080717691097410241 0 0.015755348691100415 -0.00091818070567276989 0 0.0160566834519459 -0.00028302066430894323 0 0.016060141077604763 -0.00039615933463964427 0 0.016222656373939742 -7.7456574129946203e-06 0 0.01619372914589038 -0.00010203359837201984 0 0.016114838538845697 -2.0529283909955437e-05 0 0.016222656373939742 -7.7456574129946203e-06 0 0.016114838538845697 -2.0529283909955437e-05 0 0.016201190902072945 7.8250023048394117e-05 0 0.016114838538845697 -2.0529283909955437e-05 0 0.016201190902072945 7.8250023048394117e-05 0 0.016059274812583395 6.224717142336849e-05 0 0.016201190902072945 7.8250023048394117e-05 0 0.016059274812583395 6.224717142336849e-05 0 0.016175895661753446 0.0002224613673238797 0 0.015918093545433151 -0.00011843990868944862 0 0.016114838538845697 -2.0529283909955437e-05 0 0.016059274812583395 6.224717142336849e-05 0 0.015918093545433151 -0.00011843990868944862 0 0.015905314361785623 0.00019339325008028556 0 0.015524326067061733 -0.00010310390891171395 0 0.015918093545433151 -0.00011843990868944862 0 0.016059274812583395 6.224717142336849e-05 0 0.015905314361785623 0.00019339325008028556 0 0.015905314361785623 0.00019339325008028556 0 0.016175895661753446 0.0002224613673238797 0 0.016174205904255855 0.00045634623280046846 0 0.016059274812583395 6.224717142336849e-05 0 0.015905314361785623 0.00019339325008028556 0 0.016175895661753446 0.0002224613673238797 0 0.016329116343254926 0.00038202800129603383 0 0.016175895661753446 0.0002224613673238797 0 0.016174205904255855 0.00045634623280046846 0 0.015000044724164479 -0.00015480340591264994 0 0.015450852261284046 -0.00033430201057591967 0 0.015000117857123657 -0.00015407066115667072 0 0.015524326067061733 -0.00010310390891171395 0 0.015523875613571459 0.00033590727417004846 0 0.015905314361785623 0.00019339325008028556 0 0.015524326067061733 -0.00010310390891171395 0 0.015523875613571459 0.00033590727417004846 0 0.015638294166342617 -0.00080717691097410241 0 0.015428732209161496 -0.00059563626261793139 0 0.015392481549418243 -0.00095277016569828834 0 0.015760583465856209 -0.00046915414032001185 0 0.015450852261284046 -0.00033430201057591967 0 0.015428732209161496 -0.00059563626261793139 0 0.015000099146162803 -0.0007538634259664081 0 0.015392481549418243 -0.00095277016569828834 0 0.014999902946361015 -0.00015518959512202341 0 0.015428732209161496 -0.00059563626261793139 0 0.015000099146162803 -0.0007538634259664081 0 0.014999938113948079 -0.0013031048697052868 0 0.015476267289125436 -0.0013484416416311457 0 0.015201570718601991 -0.0015745800064295634 0 0.015000053962767851 -0.00075430569836907387 0 0.01542879952622922 -0.0011527574223940348 0 0.015000030302436674 -0.00075428518124626891 0 0.014999938113948079 -0.0013031048697052868 0 0.015476267289125436 -0.0013484416416311457 0 0.015641246051545873 -0.0013714656275613949 0 0.01542879952622922 -0.0011527574223940348 0 0.015787620657581141 -0.0018148832493960405 0 0.015476267289125436 -0.0013484416416311457 0 0.015450660697778142 -0.0017471633657187579 0 0.015476267289125436 -0.0013484416416311457 0 0.015450660697778142 -0.0017471633657187579 0 0.015201570718601991 -0.0015745800064295634 0 0.014999938113948079 -0.0013031048697052868 0 0.015201570718601991 -0.0015745800064295634 0 0.015000060626701603 -0.0018515876781453292 0 0.015450660697778142 -0.0017471633657187579 0 0.015201570718601991 -0.0015745800064295634 0 0.015276113724097805 -0.0018476989809573371 0 0.015201570718601991 -0.0015745800064295634 0 0.015000060626701603 -0.0018515876781453292 0 0.015276113724097805 -0.0018476989809573371 0 0.01500012319314474 -0.0018523777888461144 0 0.014999885771168295 -0.0019392996181562658 0 0.015362285074193632 -0.0021250742290332206 0 0.015000094221555989 -0.0018518198420651173 0 0.015386211296017274 -0.0021020445696033527 0 0.015000060626701603 -0.0018515876781453292 0 0.015276113724097805 -0.0018476989809573371 0 0.015424131919833819 -0.0020851554747816203 0 0.015000099890441402 -0.0019399980139518963 0 0.015405772369432108 -0.0022840083161599547 0 0.015000030673715914 -0.0019399728525573482 0 0.015041673816756258 -0.0021656162175566094 0 0.015439696992025416 -0.0024135144259506123 0 0.015000030673715914 -0.0019399728525573482 0 0.015041673816756258 -0.0021656162175566094 0 0.014999974386361374 -0.0027642299833088245 0 0.014999885771168295 -0.0019392996181562658 0 0.015419245051613361 -0.0022098465076895832 0 0.015362285074193632 -0.0021250742290332206 0 0.015041673816756258 -0.0021656162175566094 0 0.015113837723672681 -0.0023069152936372951 0 0.015439696992025416 -0.0024135144259506123 0 0.015276113724097805 -0.0018476989809573371 0 0.015424131919833819 -0.0020851554747816203 0 0.015414139514446146 -0.0019069159359455805 0 0.015450660697778142 -0.0017471633657187579 0 0.015276113724097805 -0.0018476989809573371 0 0.015414139514446146 -0.0019069159359455805 0 0.015073722294356055 -0.0022565712142246473 0 0.015129149404072006 -0.0023797465200313703 0 0.015041673816756258 -0.0021656162175566094 0 0.014999974386361374 -0.0027642299833088245 0 0.015132573616278963 -0.0023406105633200767 0 0.014999974386361374 -0.0027642299833088245 0 0.015132573616278963 -0.0023406105633200767 0 0.015238008999326952 -0.0029903053649722802 0 0.015113837723672681 -0.0023069152936372951 0 0.015439696992025416 -0.0024135144259506123 0 0.015376213878205 -0.0027482775781050477 0 0.015137710398517169 -0.0024213065739520246 0 0.01536492364220108 -0.0028911085514842596 0 0.015208423473895795 -0.0028690546469882609 0 0.015129149404072006 -0.0023797465200313703 0 0.01522550929982665 -0.0029201983839561609 0 0.015129149404072006 -0.0023797465200313703 0 0.015364535114103708 -0.0028053290092455098 0 0.015405772369432108 -0.0022840083161599547 0 0.015813312867737229 -0.0026738002494663365 0 0.015419245051613361 -0.0022098465076895832 0 0.015663908275094108 -0.0023111953056556673 0 0.015755065269016065 -0.0024109358387279273 0 0.015386211296017274 -0.0021020445696033527 0 0.015689404506923771 -0.0023035545880800636 0 0.015662734107690691 -0.0020608861855680115 0 0.015424131919833819 -0.0020851554747816203 0 0.015708612269026232 -0.0022835574148970749 0 0.015419245051613361 -0.0022098465076895832 0 0.015362285074193632 -0.0021250742290332206 0 0.015663908275094108 -0.0023111953056556673 0 0.015787620657581141 -0.0018148832493960405 0 0.015450660697778142 -0.0017471633657187579 0 0.015556611604718372 -0.0019280749135749046 0 0.015662734107690691 -0.0020608861855680115 0 0.015424131919833819 -0.0020851554747816203 0 0.015556611604718372 -0.0019280749135749046 0 0.015424131919833819 -0.0020851554747816203 0 0.015414139514446146 -0.0019069159359455805 0 0.015556611604718372 -0.0019280749135749046 0 0.015450660697778142 -0.0017471633657187579 0 0.015414139514446146 -0.0019069159359455805 0 0.015556611604718372 -0.0019280749135749046 0 0.015787620657581141 -0.0018148832493960405 0 0.015662734107690691 -0.0020608861855680115 0 0.015556611604718372 -0.0019280749135749046 0 0.015641246051545873 -0.0013714656275613949 0 0.016040619548999515 -0.0018689457249679042 0 0.015787620657581141 -0.0018148832493960405 0 0.016012805740579238 -0.0021175690262776126 0 0.01581698789285067 -0.0021180843902797049 0 0.015787620657581141 -0.0018148832493960405 0 0.015662734107690691 -0.0020608861855680115 0 0.01581698789285067 -0.0021180843902797049 0 0.01570321026600191 -0.0010108715886273435 0 0.015591705069445246 -0.0010538163237718014 0 0.015717340336915957 -0.0010903585316116946 0 0.015768320478963302 -0.0010367133276241746 0 0.01570321026600191 -0.0010108715886273435 0 0.015717340336915957 -0.0010903585316116946 0 0.016234082624381349 -0.0023553127819068921 0 0.016012805740579238 -0.0021175690262776126 0 0.016060873327738621 -0.002351930939646558 0 0.016012805740579238 -0.0021175690262776126 0 0.015909691028172978 -0.0022784745286524846 0 0.016060873327738621 -0.002351930939646558 0 0.016012805740579238 -0.0021175690262776126 0 0.015909691028172978 -0.0022784745286524846 0 0.01581698789285067 -0.0021180843902797049 0 0.015662734107690691 -0.0020608861855680115 0 0.01581698789285067 -0.0021180843902797049 0 0.015708612269026232 -0.0022835574148970749 0 0.015909691028172978 -0.0022784745286524846 0 0.01581698789285067 -0.0021180843902797049 0 0.015708612269026232 -0.0022835574148970749 0 0.015909691028172978 -0.0022784745286524846 0 0.015708612269026232 -0.0022835574148970749 0 0.015927692346403899 -0.0024787239427843896 0 0.015663908275094108 -0.0023111953056556673 0 0.015755065269016065 -0.0024109358387279273 0 0.015927692346403899 -0.0024787239427843896 0 0.015689404506923771 -0.0023035545880800636 0 0.015908804927842083 -0.0024702979985314379 0 0.015755065269016065 -0.0024109358387279273 0 0.015927692346403899 -0.0024787239427843896 0 0.01603900553324953 -0.0026166229401791146 0 0.016213165378652122 -0.0023935843331668386 0 0.016062172754602335 -0.0024606093326146822 0 0.01603900553324953 -0.0026166229401791146 0 0.015909691028172978 -0.0022784745286524846 0 0.016060873327738621 -0.002351930939646558 0 0.015927692346403899 -0.0024787239427843896 0 0.016060873327738621 -0.002351930939646558 0 0.015927692346403899 -0.0024787239427843896 0 0.016062172754602335 -0.0024606093326146822 0 0.015813312867737229 -0.0026738002494663365 0 0.015818276652650069 -0.0022706441064946005 0 0.015926770074788578 -0.0031372773492765577 0 0.015747162208995809 -0.0027385563594450753 0 0.016033120688409674 -0.0030114324799931013 0 0.015927692346403899 -0.0024787239427843896 0 0.016062172754602335 -0.0024606093326146822 0 0.01603900553324953 -0.0026166229401791146 0 0.015646991325646613 -0.0025130249659436107 0 0.015818276652650069 -0.0022706441064946005 0 0.015667030367061664 -0.001538549629599579 0 0.015429610178202404 -0.0018106477423991928 0 0.015381866570279831 -0.0016147656152530282 0 0.015045341461470033 -0.0014455098768601478 0 0.015381866570279831 -0.0016147656152530282 0 0.015324788651536133 -0.0017118846890707658 0 0.015818276652650069 -0.0022706441064946005 0 0.015219984120554591 -0.0011446882079825934 0 0.015429610178202404 -0.0018106477423991928 0 0.015381866570279831 -0.0016147656152530282 0 0.015326015484829932 -0.0017119264009376974 0 0.015191509564251734 -0.0012701295448634355 0 0.015219984120554591 -0.0011446882079825934 0 0.015926770074788578 -0.0031372773492765577 0 0.015747162208995809 -0.0027385563594450753 0 0.015563103471499086 -0.0030973072912485302 0 0.015646991325646613 -0.0025130249659436107 0 0.01558072583358845 -0.0032713237611502132 0 0.015592651112607204 -0.0033565804729967612 0 0.01527936028760336 -0.0033140258280658958 0 0.01536492364220108 -0.0028911085514842596 0 0.01558072583358845 -0.0032713237611502132 0 0.015364535114103708 -0.0028053290092455098 0 0.01558072583358845 -0.0032713237611502132 0 0.015267191475130837 -0.0035293443365591857 0 0.0152732651276004 -0.0037127293563967985 0 0.015509295620844589 -0.0035859573874461328 0 0.015199536291442765 -0.0035426730218442348 0 0.015339248592975798 -0.0036346245437358692 0 0.015000011697926937 -0.0035886586082849699 0 0.015238008999326952 -0.0029903053649722802 0 0.015267191475130837 -0.0035293443365591857 0 0.01522550929982665 -0.0029201983839561609 0 0.015187492865721217 -0.0038547431334610641 0 0.01533906337329569 -0.0036357860698291809 0 0.014999998853435998 -0.0035886398456568733 0 0.015267191475130837 -0.0035293443365591857 0 0.015000181523710788 -0.0035886159900013945 0 0.01527936028760336 -0.0033140258280658958 0 0.01536492364220108 -0.0028911085514842596 0 0.015208423473895795 -0.0028690546469882609 0 0.014999974386361374 -0.0027642299833088245 0 0.015000011697926937 -0.0035886586082849699 0 0.015238008999326952 -0.0029903053649722802 0 0.015747162208995809 -0.0027385563594450753 0 0.015563103471499086 -0.0030973072912485302 0 0.015376213878205 -0.0027482775781050477 0 0.015439696992025416 -0.0024135144259506123 0 0.015747162208995809 -0.0027385563594450753 0 0.015376213878205 -0.0027482775781050477 0 0.010562374802617359 -0.0034443128001979571 0 0.011184200668191207 -0.0028900901657520251 0 0.010912889674112905 -0.0042349259777957398 0 0.010562374802617359 -0.0034443128001979571 0 0.011184200668191207 -0.0028900901657520251 0 0.010273171152079192 -0.0026351886533035433 0 0.011184200668191207 -0.0028900901657520251 0 0.011711579399237816 -0.0041328746948716367 0 0.012076873467392871 -0.0030547971991977752 0 0.0078408576572537823 0.0010956503970147794 0 0.0064980898230543472 0.0024121313426188158 0 0.0038539130085927342 0.0053637014909717184 0 0.0041395449994426972 0.0055561279319169725 0 0.0043087532036398171 0.005180018171298156 0 0.011184200668191207 -0.0028900901657520251 0 0.011711579399237816 -0.0041328746948716367 0 0.010912889674112905 -0.0042349259777957398 0 0.010562374802617359 -0.0034443128001979571 0 0.010912889674112905 -0.0042349259777957398 0 0.010208099155392475 -0.0042176437014426055 0 0.010208099155392475 -0.0042176437014426055 0 0.0094203906849813501 -0.0040525727296279439 0 0.0099187433890089941 -0.0034867633146746816 0 0.010562374802617359 -0.0034443128001979571 0 0.010208099155392475 -0.0042176437014426055 0 0.0099187433890089941 -0.0034867633146746816 0 0.0094203906849813501 -0.0040525727296279439 0 0.0092745002719493933 -0.0031294239501180785 0 0.0086580229074638745 -0.00350777538368735 0 0.0094203906849813501 -0.0040525727296279439 0 0.0092745002719493933 -0.0031294239501180785 0 0.0099187433890089941 -0.0034867633146746816 0 0.0092745002719493933 -0.0031294239501180785 0 0.0099187433890089941 -0.0034867633146746816 0 0.010273171152079192 -0.0026351886533035433 0 0.010562374802617359 -0.0034443128001979571 0 0.0099187433890089941 -0.0034867633146746816 0 0.010273171152079192 -0.0026351886533035433 0 0.0071284388746392065 0.0012406647124996886 0 0.0051003074164637655 0.0038823258320310563 0 0.0035276113715489756 0.0055125768151623716 0 0.003431534997434003 0.005785840487622161 0 0.0036697309402934533 0.005858388049910155 0 0.0035276113715489756 0.0055125768151623716 0 0.0032140538589316425 0.0056144755084341687 0 0.003431534997434003 0.005785840487622161 0 0.0051003074164637655 0.0038823258320310563 0 0.0031589005945019239 0.005686625539254051 0 0.0092745002719493933 -0.0031294239501180785 0 0.010273171152079192 -0.0026351886533035433 0 0.0093039638894588887 -0.0023237988693882465 0 0.0031692156389123006 0.0056193268440173716 0 0.0031587775659903949 0.0058818775119176773 0 0.0028604272206376687 0.0056814582856424371 0 0.0031692156389123006 0.0056193268440173716 0 0.0031587775659903949 0.0058818775119176773 0 0.003431534997434003 0.005785840487622161 0 0.0031587775659903949 0.0058818775119176773 0 0.0033496912939772988 0.0060772445075184135 0 0.0031617221019789457 0.0060964545028190133 0 0.0031587775659903949 0.0058818775119176773 0 0.0029534839289113543 0.0060930860950626246 0 0.0031617221019789457 0.0060964545028190133 0 0.003431534997434003 0.005785840487622161 0 0.0035132430632139129 0.0059690429315005546 0 0.0036697309402934533 0.005858388049910155 0 0.0031587775659903949 0.0058818775119176773 0 0.003431534997434003 0.005785840487622161 0 0.0033496912939772988 0.0060772445075184135 0 0.003431534997434003 0.005785840487622161 0 0.0035132430632139129 0.0059690429315005546 0 0.0033496912939772988 0.0060772445075184135 0 0.0035132430632139129 0.0059690429315005546 0 0.0036697309402934533 0.005858388049910155 0 0.0035964123406075077 0.0061603455485612557 0 0.0078408576572537823 0.0010956503970147794 0 0.0071284388746392065 0.0012406647124996886 0 0.0035276113715489756 0.0055125768151623716 0 0.0036697309402934533 0.005858388049910155 0 0.0038332507896914054 0.0056571511951446002 0 0.0038539130085927342 0.0053637014909717184 0 0.0035276113715489756 0.0055125768151623716 0 0.0038332507896914054 0.0056571511951446002 0 0.0039710057069444618 0.0056098728286708343 0 0.0037668637996525652 0.006020239310334745 0 0.0038332507896914054 0.0056571511951446002 0 0.003906656532316824 0.0058562048307875172 0 0.0041395449994426972 0.0055561279319169725 0 0.0038539130085927342 0.0053637014909717184 0 0.0038332507896914054 0.0056571511951446002 0 0.0041395449994426972 0.0055561279319169725 0 0.0036697309402934533 0.005858388049910155 0 0.0038332507896914054 0.0056571511951446002 0 0.003906656532316824 0.0058562048307875172 0 0.0036697309402934533 0.005858388049910155 0 0.003906656532316824 0.0058562048307875172 0 0.0038105518967708092 0.0060995051605598994 0 0.003906656532316824 0.0058562048307875172 0 0.0040498249388604569 0.0058173889671735588 0 0.0037629140136282123 0.0054661838986279944 0 0.003906656532316824 0.0058562048307875172 0 0.0040498249388604569 0.0058173889671735588 0 0.0040000242413461709 0.0061164548758439229 0 0.0040498249388604569 0.0058173889671735588 0 0.0043123301955846809 0.0056706680640015595 0 0.0041726072966612468 0.005515645124587687 0 0.0040498249388604569 0.0058173889671735588 0 0.004260558760577406 0.0060384552945865989 0 0.0041161895546105391 0.0061641258362375778 0 0.0040498249388604569 0.0058173889671735588 0 0.0043123301955846809 0.0056706680640015595 0 0.004260558760577406 0.0060384552945865989 0 0.0043123301955846809 0.0056706680640015595 0 0.0041726072966612468 0.005515645124587687 0 0.0044300745198737118 0.0053006582294068657 0 0.0041726072966612468 0.005515645124587687 0 0.0042911582866290727 0.0052310677637470706 0 0.0044300745198737118 0.0053006582294068657 0 0.0041726072966612468 0.005515645124587687 0 0.0042911582866290727 0.0052310677637470706 0 0.0040725633344514608 0.0051273258672978553 0 0.0041726072966612468 0.005515645124587687 0 0.0037629140136282123 0.0054661838986279944 0 0.0040725633344514608 0.0051273258672978553 0 0.0040498249388604569 0.0058173889671735588 0 0.0041726072966612468 0.005515645124587687 0 0.0037629140136282123 0.0054661838986279944 0 0.0048212538921531085 0.0059533244314071646 0 0.0046385586560046847 0.0056841091425333641 0 0.0046180748459355722 0.0063440727116060242 0 0.0046385586560046847 0.0056841091425333641 0 0.004426440618921253 0.0058234343169637753 0 0.0044989125029178192 0.0055385030781660554 0 0.0046385586560046847 0.0056841091425333641 0 0.004426440618921253 0.0058234343169637753 0 0.0044341399570399734 0.0061530676320035848 0 0.004426440618921253 0.0058234343169637753 0 0.0044341399570399734 0.0061530676320035848 0 0.004260558760577406 0.0060384552945865989 0 0.0043123301955846809 0.0056706680640015595 0 0.004426440618921253 0.0058234343169637753 0 0.004260558760577406 0.0060384552945865989 0 0.0043123301955846809 0.0056706680640015595 0 0.004426440618921253 0.0058234343169637753 0 0.0044989125029178192 0.0055385030781660554 0 0.0044300745198737118 0.0053006582294068657 0 0.0044989125029178192 0.0055385030781660554 0 0.0046384991612850165 0.0052333998287655724 0 0.0043123301955846809 0.0056706680640015595 0 0.0044300745198737118 0.0053006582294068657 0 0.0044989125029178192 0.0055385030781660554 0 0.0046385586560046847 0.0056841091425333641 0 0.0044989125029178192 0.0055385030781660554 0 0.0046384991612850165 0.0052333998287655724 0 0.0048140848382056565 0.0052790286261795126 0 0.0046385586560046847 0.0056841091425333641 0 0.0046384991612850165 0.0052333998287655724 0 0.0048536099481610306 0.0050718338626355702 0 0.0046825477455265194 0.0050577219890605724 0 0.0047143503702892801 0.0048879018126627106 0 0.0048140848382056565 0.0052790286261795126 0 0.0046384991612850165 0.0052333998287655724 0 0.0046825477455265194 0.0050577219890605724 0 0.0046384991612850165 0.0052333998287655724 0 0.0046825477455265194 0.0050577219890605724 0 0.0045183550713955864 0.0050380873677369877 0 0.0046825477455265194 0.0050577219890605724 0 0.0045183550713955864 0.0050380873677369877 0 0.0045825474069992583 0.0049246755137562328 0 0.0044300745198737118 0.0053006582294068657 0 0.0046384991612850165 0.0052333998287655724 0 0.0045183550713955864 0.0050380873677369877 0 0.0045183550713955864 0.0050380873677369877 0 0.0044492965785611739 0.0049292510990894293 0 0.0044688999240332736 0.0048663927490267562 0 0.0045183550713955864 0.0050380873677369877 0 0.0044688999240332736 0.0048663927490267562 0 0.0045825474069992583 0.0049246755137562328 0 0.0044300745198737118 0.0053006582294068657 0 0.0045183550713955864 0.0050380873677369877 0 0.0044607133488551529 0.0049461225139523311 0 0.0045183550713955864 0.0050380873677369877 0 0.0044492965785611739 0.0049292510990894293 0 0.0044607133488551529 0.0049461225139523311 0 0.0044492965785611739 0.0049292510990894293 0 0.004383402178455802 0.0048451959543911391 0 0.0044607133488551529 0.0049461225139523311 0 0.0044492965785611739 0.0049292510990894293 0 0.004383402178455802 0.0048451959543911391 0 0.0044688999240332736 0.0048663927490267562 0 0.004383402178455802 0.0048451959543911391 0 0.0043819078187344431 0.0047231281850801657 0 0.0042036701126617181 0.0047092017322545527 0 0.004383402178455802 0.0048451959543911391 0 0.0043819078187344431 0.0047231281850801657 0 0.0044688999240332736 0.0048663927490267562 0 0.0043819078187344431 0.0047231281850801657 0 0.0044688999240332736 0.0048663927490267562 0 0.0045337835594152498 0.0047570910640647134 0 0.0044688999240332736 0.0048663927490267562 0 0.0045825474069992583 0.0049246755137562328 0 0.0045337835594152498 0.0047570910640647134 0 0.0046825477455265194 0.0050577219890605724 0 0.0045825474069992583 0.0049246755137562328 0 0.0047143503702892801 0.0048879018126627106 0 0.0045825474069992583 0.0049246755137562328 0 0.0045337835594152498 0.0047570910640647134 0 0.0047143503702892801 0.0048879018126627106 0 0.0045337835594152498 0.0047570910640647134 0 0.0047143503702892801 0.0048879018126627106 0 0.0046478468919552776 0.0046827175988837398 0 0.0048200614127328545 0.0046663526667395745 0 0.0047143503702892801 0.0048879018126627106 0 0.0046478468919552776 0.0046827175988837398 0 0.0037629140136282123 0.0054661838986279944 0 0.0037588505126790921 0.0048714544275399287 0 0.0040725633344514608 0.0051273258672978553 0 0.0037668637996525652 0.006020239310334745 0 0.0064980898230543472 0.0024121313426188158 0 0.0064980898230543472 0.0024121313426188158 0 0.0031183927328049593 0.0046234442281471713 0 0.0042911582866290727 0.0052310677637470706 0 0.0044300745198737118 0.0053006582294068657 0 0.0044607133488551529 0.0049461225139523311 0 0.0042911582866290727 0.0052310677637470706 0 0.0040725633344514608 0.0051273258672978553 0 0.0044607133488551529 0.0049461225139523311 0 0.0044607133488551529 0.0049461225139523311 0 0.0041488134488482297 0.0045001859734024267 0 0.0041541631145579575 0.0037213763377035407 0 0.0040725633344514608 0.0051273258672978553 0 0.0044607133488551529 0.0049461225139523311 0 0.0041488134488482297 0.0045001859734024267 0 0.0037588505126790921 0.0048714544275399287 0 0.0040725633344514608 0.0051273258672978553 0 0.0041488134488482297 0.0045001859734024267 0 0.0031127574090393682 0.0046761665364458719 0 0.0041488134488482297 0.0045001859734024267 0 0.0041541631145579575 0.0037213763377035407 0 0.0044607133488551529 0.0049461225139523311 0 0.0041541631145579575 0.0037213763377035407 0 0.0047723233009539911 0.0027968533306106029 0 0.0045037370749896923 0.0046587577347178277 0 0.0042887774546760135 0.0041525567910789124 0 0.0031127574090393682 0.0046761665364458719 0 0.0041541631145579575 0.0037213763377035407 0 0.0038147018546518374 0.0027446167864074978 0 0.004383402178455802 0.0048451959543911391 0 0.0044607133488551529 0.0049461225139523311 0 0.0042036701126617181 0.0047092017322545527 0 0.0041541631145579575 0.0037213763377035407 0 0.0038147018546518374 0.0027446167864074978 0 0.0047723233009539911 0.0027968533306106029 0 0.0064980898230543472 0.0024121313426188158 0 0.0087257037615190106 -0.0016824558152952133 0 0.011711579399237816 -0.0041328746948716367 0 0.012076873467392871 -0.0030547971991977752 0 0.012548710858116036 -0.0041535170285713161 0 0.011711579399237816 -0.0041328746948716367 0 0.012548710858116036 -0.0041535170285713161 0 0.012178744333843798 -0.0050659708030131676 0 0.011711579399237816 -0.0041328746948716367 0 0.012178744333843798 -0.0050659708030131676 0 0.011411928692654222 -0.0055517310239049603 0 0.0038147018546518374 0.0027446167864074978 0 0.0047723233009539911 0.0027968533306106029 0 0.0046859821590258801 0.00052116397001222706 0 0.0087257037615190106 -0.0016824558152952133 0 0.0065974592345148441 0.00037899236110915298 0 0.012548710858116036 -0.0041535170285713161 0 0.013055115664295317 -0.0053993549240332053 0 0.012178744333843798 -0.0050659708030131676 0 0.0042036701126617181 0.0047092017322545527 0 0.0040626085046506777 0.0041664841291420658 0 0.0042979997476801975 0.0045083200159539445 0 0.0042887774546760135 0.0041525567910789124 0 0.0065974592345148441 0.00037899236110915298 0 0.013055115664295317 -0.0053993549240332053 0 0.012178744333843798 -0.0050659708030131676 0 0.012179629422163798 -0.0061433031972517888 0 0.012178744333843798 -0.0050659708030131676 0 0.012179629422163798 -0.0061433031972517888 0 0.011411928692654222 -0.0055517310239049603 0 0.0048200614127328545 0.0046663526667395745 0 0.0047740573438745486 0.0043682745020583447 0 0.0046170311133060691 0.0044769515613778304 0 0.0048200614127328545 0.0046663526667395745 0 0.0046170311133060691 0.0044769515613778304 0 0.0046478468919552776 0.0046827175988837398 0 0.0046170311133060691 0.0044769515613778304 0 0.0046478468919552776 0.0046827175988837398 0 0.0044544663410537068 0.0045754876169196088 0 0.0045337835594152498 0.0047570910640647134 0 0.0046478468919552776 0.0046827175988837398 0 0.0044544663410537068 0.0045754876169196088 0 0.0046170311133060691 0.0044769515613778304 0 0.0044544663410537068 0.0045754876169196088 0 0.004405252697169207 0.0043388085614292108 0 0.0044544663410537068 0.0045754876169196088 0 0.0042979997476801975 0.0045083200159539445 0 0.004405252697169207 0.0043388085614292108 0 0.0043819078187344431 0.0047231281850801657 0 0.0045337835594152498 0.0047570910640647134 0 0.0044544663410537068 0.0045754876169196088 0 0.0043819078187344431 0.0047231281850801657 0 0.0042036701126617181 0.0047092017322545527 0 0.0042979997476801975 0.0045083200159539445 0 0.0043819078187344431 0.0047231281850801657 0 0.0044544663410537068 0.0045754876169196088 0 0.0042979997476801975 0.0045083200159539445 0 0.0040626085046506777 0.0041664841291420658 0 0.0043902950425714583 0.004042405046996574 0 0.0042094144553210359 0.0037447543537239098 0 0.0040626085046506777 0.0041664841291420658 0 0.0043902950425714583 0.004042405046996574 0 0.004405252697169207 0.0043388085614292108 0 0.0040626085046506777 0.0041664841291420658 0 0.0042979997476801975 0.0045083200159539445 0 0.004405252697169207 0.0043388085614292108 0 0.0043902950425714583 0.004042405046996574 0 0.004405252697169207 0.0043388085614292108 0 0.0045985164271639158 0.0042074322144366868 0 0.0046170311133060691 0.0044769515613778304 0 0.004405252697169207 0.0043388085614292108 0 0.0045985164271639158 0.0042074322144366868 0 0.0043902950425714583 0.004042405046996574 0 0.0045985164271639158 0.0042074322144366868 0 0.0046007397033148312 0.0038833475633934253 0 0.0048513880045597266 0.0040832033663612812 0 0.0045985164271639158 0.0042074322144366868 0 0.0046007397033148312 0.0038833475633934253 0 0.0047740573438745486 0.0043682745020583447 0 0.0046170311133060691 0.0044769515613778304 0 0.0045985164271639158 0.0042074322144366868 0 0.0048778226614092047 0.0035560463203574751 0 0.0046007397033148312 0.0038833475633934253 0 0.0044222288743862026 0.0036125356774318997 0 0.0043902950425714583 0.004042405046996574 0 0.0046007397033148312 0.0038833475633934253 0 0.0044068247053016532 0.0038170966334651704 0 0.0046007397033148312 0.0038833475633934253 0 0.0044068247053016532 0.0038170966334651704 0 0.0044222288743862026 0.0036125356774318997 0 0.0044068247053016532 0.0038170966334651704 0 0.0042094144553210359 0.0037447543537239098 0 0.0044222288743862026 0.0036125356774318997 0 0.0043902950425714583 0.004042405046996574 0 0.0044068247053016532 0.0038170966334651704 0 0.0042094144553210359 0.0037447543537239098 0 0.0035672075233831755 0.0025547571542299183 0 0.0039930494545362639 0.0032650612331787559 0 0.0030666668860874382 0.0029992386019864268 0 0.0042094144553210359 0.0037447543537239098 0 0.0044222288743862026 0.0036125356774318997 0 0.0041368090144688367 0.0035893606070830108 0 0.0034142049019444849 0.0037921071104809545 0 0.007991464826127833 -0.0018617244060119113 0 0.0048778226614092047 0.0035560463203574751 0 0.0048886744190668602 0.0031865946577216702 0 0.0039930494545362639 0.0032650612331787559 0 0.0051503656293174008 0.0035227495310870779 0 0.0034142049019444849 0.0037921071104809545 0 0.0048886744190668602 0.0031865946577216702 0 0.0042193059568967038 0.0021188059779892418 0 0.0039930494545362639 0.0032650612331787559 0 0.012179629422163798 -0.0061433031972517888 0 0.012037818110006216 -0.0072727888181798638 0 0.011419373233135941 -0.0065806006018325107 0 0.013055115664295317 -0.0053993549240332053 0 0.012179629422163798 -0.0061433031972517888 0 0.01296453306040281 -0.0070394269389561972 0 0.0042011658850126853 0.0038500785065879208 0 0.0042094144553210359 0.0037447543537239098 0 0.0041368090144688367 0.0035893606070830108 0 0.0065974592345148441 0.00037899236110915298 0 0.0036890100350203108 0.0051111606799541503 0 0.0065974592345148441 0.00037899236110915298 0 0.007991464826127833 -0.0018617244060119113 0 0.007991464826127833 -0.0018617244060119113 0 0.012331345403822407 -0.0072909448395042462 0 0.011507325823912434 -0.0078310455732443322 0 0.011434900466320719 -0.0074474995365389493 0 0.011000234818562287 -0.0075059215230562455 0 0.011507325823912434 -0.0078310455732443322 0 0.011877990892045623 -0.007330579932341901 0 0.011434900466320719 -0.0074474995365389493 0 0.012179629422163798 -0.0061433031972517888 0 0.01296453306040281 -0.0070394269389561972 0 0.012037818110006216 -0.0072727888181798638 0 0.011000234818562287 -0.0075059215230562455 0 0.010261479590365217 -0.0066441021731430492 0 0.011419373233135941 -0.0065806006018325107 0 0.012037818110006216 -0.0072727888181798638 0 0.011000234818562287 -0.0075059215230562455 0 0.011419373233135941 -0.0065806006018325107 0 0.012331345403822407 -0.0072909448395042462 0 0.010872262124174333 -0.0075229415494276362 0 0.010206859116540026 -0.0079286869762024113 0 0.011000234818562287 -0.0075059215230562455 0 0.010261479590365217 -0.0066441021731430492 0 0.010530874281955847 -0.0065149845181447863 0 0.011367252045126564 -0.0056352497254391542 0 0.010261479590365217 -0.0066441021731430492 0 0.011419373233135941 -0.0065806006018325107 0 0.011411928692654222 -0.0055517310239049603 0 0.012179629422163798 -0.0061433031972517888 0 0.011419373233135941 -0.0065806006018325107 0 0.011411928692654222 -0.0055517310239049603 0 0.010763749199377618 -0.0063987901234698668 0 0.011411928692654222 -0.0055517310239049603 0 0.010543093869282025 -0.00522125829535956 0 0.010912889674112905 -0.0042349259777957398 0 0.010208099155392475 -0.0042176437014426055 0 0.010543093869282025 -0.00522125829535956 0 0.010912889674112905 -0.0042349259777957398 0 0.011411928692654222 -0.0055517310239049603 0 0.010543093869282025 -0.00522125829535956 0 0.011711579399237816 -0.0041328746948716367 0 0.010912889674112905 -0.0042349259777957398 0 0.011411928692654222 -0.0055517310239049603 0 0.0092739334772699404 -0.0046862493615908813 0 0.0091490886149105631 -0.0053249657867398392 0 0.0086571356357311308 -0.0044696829551537573 0 0.0092739334772699404 -0.0046862493615908813 0 0.009849652330880785 -0.0048930134511342531 0 0.0091490886149105631 -0.0053249657867398392 0 0.0094203906849813501 -0.0040525727296279439 0 0.0092739334772699404 -0.0046862493615908813 0 0.0086571356357311308 -0.0044696829551537573 0 0.0094203906849813501 -0.0040525727296279439 0 0.0092739334772699404 -0.0046862493615908813 0 0.009849652330880785 -0.0048930134511342531 0 0.010208099155392475 -0.0042176437014426055 0 0.0094203906849813501 -0.0040525727296279439 0 0.009849652330880785 -0.0048930134511342531 0 0.010208099155392475 -0.0042176437014426055 0 0.010543093869282025 -0.00522125829535956 0 0.009849652330880785 -0.0048930134511342531 0 0.010543093869282025 -0.00522125829535956 0 0.009849652330880785 -0.0048930134511342531 0 0.0099770091014385904 -0.0059256550272369299 0 0.010763749199377618 -0.0063987901234698668 0 0.010543093869282025 -0.00522125829535956 0 0.0099770091014385904 -0.0059256550272369299 0 0.0099770091014385904 -0.0059256550272369299 0 0.0091490886149105631 -0.0053249657867398392 0 0.0092395662204914804 -0.0063013622501288911 0 0.009849652330880785 -0.0048930134511342531 0 0.0099770091014385904 -0.0059256550272369299 0 0.0091490886149105631 -0.0053249657867398392 0 0.0099770091014385904 -0.0059256550272369299 0 0.0092395662204914804 -0.0063013622501288911 0 0.010044436389806793 -0.0074368303590396133 0 0.010763749199377618 -0.0063987901234698668 0 0.0099770091014385904 -0.0059256550272369299 0 0.010044436389806793 -0.0074368303590396133 0 0.010206859116540026 -0.0079286869762024113 0 0.010261479590365217 -0.0066441021731430492 0 0.0096040861482163137 -0.0075903108796030825 0 0.010530874281955847 -0.0065149845181447863 0 0.0098384088527487135 -0.0075418662375147045 0 0.0094567782735543501 -0.008517897457712087 0 0.010044436389806793 -0.0074368303590396133 0 0.0093316771644452717 -0.0075589186870130285 0 0.0092395662204914804 -0.0063013622501288911 0 0.010044436389806793 -0.0074368303590396133 0 0.0093316771644452717 -0.0075589186870130285 0 0.0093407836418862456 -0.0085744671418098301 0 0.009178396545025622 -0.0082742942356591517 0 0.0093842796834334077 -0.0086145957058140089 0 0.0093316771644452717 -0.0075589186870130285 0 0.0084668866493245003 -0.0068110898348048912 0 0.010060165129842839 -0.0091309502956546402 0 0.0093842796834334077 -0.0086145957058140089 0 0.0098574618489267966 -0.0098829133071936352 0 0.0092395662204914804 -0.0063013622501288911 0 0.0093316771644452717 -0.0075589186870130285 0 0.0084668866493245003 -0.0068110898348048912 0 0.0092395662204914804 -0.0063013622501288911 0 0.0084668866493245003 -0.0068110898348048912 0 0.0081297445086305833 -0.0052914952027404366 0 0.0098574618489267966 -0.0098829133071936352 0 0.010452403892222887 -0.010104496467889809 0 0.010154547422089788 -0.010457658429885238 0 0.0098574618489267966 -0.0098829133071936352 0 0.010647336787854032 -0.0095406642852590463 0 0.010452403892222887 -0.010104496467889809 0 0.010060165129842839 -0.0091309502956546402 0 0.0098574618489267966 -0.0098829133071936352 0 0.010647336787854032 -0.0095406642852590463 0 0.010404758134582533 -0.0091129656306242791 0 0.010060165129842839 -0.0091309502956546402 0 0.010647336787854032 -0.0095406642852590463 0 0.010647336787854032 -0.0095406642852590463 0 0.011195207437117549 -0.0095914023864775658 0 0.01088599634848845 -0.0099770083386570545 0 0.011180204501646128 -0.0091835850781903598 0 0.010647336787854032 -0.0095406642852590463 0 0.011195207437117549 -0.0095914023864775658 0 0.011195207437117549 -0.0095914023864775658 0 0.011256545117162451 -0.010037176135542 0 0.01088599634848845 -0.0099770083386570545 0 0.011256545117162451 -0.010037176135542 0 0.01088599634848845 -0.0099770083386570545 0 0.011032559432639387 -0.010306837179412288 0 0.010647336787854032 -0.0095406642852590463 0 0.01088599634848845 -0.0099770083386570545 0 0.010452403892222887 -0.010104496467889809 0 0.01088599634848845 -0.0099770083386570545 0 0.010452403892222887 -0.010104496467889809 0 0.01071648310930535 -0.010279620502436686 0 0.010452403892222887 -0.010104496467889809 0 0.01071648310930535 -0.010279620502436686 0 0.010376745409027527 -0.010444113925758718 0 0.01088599634848845 -0.0099770083386570545 0 0.01071648310930535 -0.010279620502436686 0 0.011032559432639387 -0.010306837179412288 0 0.01071648310930535 -0.010279620502436686 0 0.011032559432639387 -0.010306837179412288 0 0.010779908798122715 -0.010586018325615294 0 0.01071648310930535 -0.010279620502436686 0 0.010779908798122715 -0.010586018325615294 0 0.010376745409027527 -0.010444113925758718 0 0.011032559432639387 -0.010306837179412288 0 0.011290572588523839 -0.01051877402998877 0 0.010779908798122715 -0.010586018325615294 0 0.011256545117162451 -0.010037176135542 0 0.011032559432639387 -0.010306837179412288 0 0.011369350206320952 -0.010278345299834698 0 0.011032559432639387 -0.010306837179412288 0 0.011290572588523839 -0.01051877402998877 0 0.011369350206320952 -0.010278345299834698 0 0.011290572588523839 -0.01051877402998877 0 0.011088034958113417 -0.010909471486823611 0 0.010779908798122715 -0.010586018325615294 0 0.010111081194339686 -0.0053850825130373082 0 0.010659657471349936 -0.0089740402191624581 0 0.011088034958113417 -0.010909471486823611 0 0.010779908798122715 -0.010586018325615294 0 0.01057292873843782 -0.01091925049660023 0 0.010173544359090202 -0.0063246377063574727 0 0.0095148450745232184 -0.006347229667428015 0 0.0096113426163555588 -0.0065799144380070031 0 0.010247299523599341 -0.01043222132793536 0 0.010278787560600036 -0.01043914194488701 0 0.010376745409027527 -0.010444113925758718 0 0.010779908798122715 -0.010586018325615294 0 0.01057292873843782 -0.01091925049660023 0 0.010376745409027527 -0.010444113925758718 0 0.010659657471349936 -0.0089740402191624581 0 0.010590828419869212 -0.010854870731699506 0 0.010111081194339686 -0.0053850825130373082 0 0.0091562131374174783 -0.0048116277832037013 0 0.010659657471349936 -0.0089740402191624581 0 0.0091562131374174783 -0.0048116277832037013 0 0.01025080101436595 -0.010416179663531113 0 0.010247299523599341 -0.01043222132793536 0 0.010225960539630747 -0.010386198397251249 0 0.010247299523599341 -0.01043222132793536 0 0.010278787560600036 -0.01043914194488701 0 0.010265504010998155 -0.010422034450298448 0 0.01025080101436595 -0.010416179663531113 0 0.010247299523599341 -0.01043222132793536 0 0.010265504010998155 -0.010422034450298448 0 0.01025080101436595 -0.010416179663531113 0 0.010265504010998155 -0.010422034450298448 0 0.010255345479711147 -0.010406988622960493 0 0.010265504010998155 -0.010422034450298448 0 0.010266814609802374 -0.010411271740903404 0 0.010255345479711147 -0.010406988622960493 0 0.010262189800445159 -0.010424269219651429 0 0.010154547422089788 -0.010457658429885238 0 0.010311782109810673 -0.010387096250253388 0 0.0091446878925936885 -0.0080345175179994781 0 0.0091402211108748566 -0.006337136836056809 0 0.010265504010998155 -0.010422034450298448 0 0.010271041067292104 -0.010429231532259737 0 0.010266814609802374 -0.010411271740903404 0 0.01027175140724414 -0.010419368247526532 0 0.010271041067292104 -0.010429231532259737 0 0.010266814609802374 -0.010411271740903404 0 0.01027175140724414 -0.010419368247526532 0 0.010271041067292104 -0.010429231532259737 0 0.01026777078136892 -0.010426189273443801 0 0.01026777078136892 -0.010426189273443801 0 0.010262189800445159 -0.010424269219651429 0 0.010274050636737819 -0.010415868709439557 0 0.01027175140724414 -0.010419368247526532 0 0.01026777078136892 -0.010426189273443801 0 0.010274050636737819 -0.010415868709439557 0 0.010271041067292104 -0.010429231532259737 0 0.01026777078136892 -0.010426189273443801 0 0.01026118315837425 -0.01044082910418301 0 0.01026777078136892 -0.010426189273443801 0 0.01026118315837425 -0.01044082910418301 0 0.010262189800445159 -0.010424269219651429 0 0.010278787560600036 -0.01043914194488701 0 0.010271041067292104 -0.010429231532259737 0 0.01026118315837425 -0.01044082910418301 0 0.010278787560600036 -0.01043914194488701 0 0.010265504010998155 -0.010422034450298448 0 0.010271041067292104 -0.010429231532259737 0 0.010278787560600036 -0.01043914194488701 0 0.01026118315837425 -0.01044082910418301 0 0.010298554833930449 -0.010451377981864515 0 0.010278787560600036 -0.01043914194488701 0 0.010298554833930449 -0.010451377981864515 0 0.010376745409027527 -0.010444113925758718 0 0.01026118315837425 -0.01044082910418301 0 0.010298554833930449 -0.010451377981864515 0 0.010154547422089788 -0.010457658429885238 0 0.01026118315837425 -0.01044082910418301 0 0.010262189800445159 -0.010424269219651429 0 0.010154547422089788 -0.010457658429885238 0 0.0086571356357311308 -0.0044696829551537573 0 0.0081297445086305833 -0.0052914952027404366 0 0.0078909589811059794 -0.0038833740594201136 0 0.0091490886149105631 -0.0053249657867398392 0 0.0086571356357311308 -0.0044696829551537573 0 0.0081297445086305833 -0.0052914952027404366 0 0.0091490886149105631 -0.0053249657867398392 0 0.0092395662204914804 -0.0063013622501288911 0 0.0081297445086305833 -0.0052914952027404366 0 0.009178396545025622 -0.0082742942356591517 0 0.0091446878925936885 -0.0080345175179994781 0 0.010452403892222887 -0.010104496467889809 0 0.010376745409027527 -0.010444113925758718 0 0.010154547422089788 -0.010457658429885238 0 0.010298554833930449 -0.010451377981864515 0 0.010376745409027527 -0.010444113925758718 0 0.010154547422089788 -0.010457658429885238 0 0.013089660695764392 -0.010181566333640668 0 0.013212384577229097 -0.0096978746246792792 0 0.012634260002956105 -0.0099224065614612594 0 0.013696249604755691 -0.0099118036523185536 0 0.013089660695764392 -0.010181566333640668 0 0.013212384577229097 -0.0096978746246792792 0 0.012975283824266309 -0.0081666923997364624 0 0.012347455097041523 -0.0078697048418168453 0 0.013683501966353781 -0.0091185823390720153 0 0.013212384577229097 -0.0096978746246792792 0 0.012876872897283941 -0.0092802001421684287 0 0.013212384577229097 -0.0096978746246792792 0 0.012876872897283941 -0.0092802001421684287 0 0.012634260002956105 -0.0099224065614612594 0 0.012876872897283941 -0.0092802001421684287 0 0.012634260002956105 -0.0099224065614612594 0 0.012082514894746014 -0.0097148772480510955 0 0.012634260002956105 -0.0099224065614612594 0 0.012081274921889191 -0.010211906493705404 0 0.012460941625748843 -0.010441329733351995 0 0.013089660695764392 -0.010181566333640668 0 0.012634260002956105 -0.0099224065614612594 0 0.012460941625748843 -0.010441329733351995 0 0.012634260002956105 -0.0099224065614612594 0 0.012082514894746014 -0.0097148772480510955 0 0.012081274921889191 -0.010211906493705404 0 0.012082514894746014 -0.0097148772480510955 0 0.011670437621588254 -0.010037588792866932 0 0.012081274921889191 -0.010211906493705404 0 0.012042823362126963 -0.0090723599635634065 0 0.012876872897283941 -0.0092802001421684287 0 0.012082514894746014 -0.0097148772480510955 0 0.011916177993883701 -0.0092883682717263601 0 0.011242165100535379 -0.0095775725804969677 0 0.012042823362126963 -0.0090723599635634065 0 0.011195207437117549 -0.0095914023864775658 0 0.012082514894746014 -0.0097148772480510955 0 0.011195207437117549 -0.0095914023864775658 0 0.011256545117162451 -0.010037176135542 0 0.011670437621588254 -0.010037588792866932 0 0.011195207437117549 -0.0095914023864775658 0 0.012082514894746014 -0.0097148772480510955 0 0.011670437621588254 -0.010037588792866932 0 0.011256545117162451 -0.010037176135542 0 0.011670437621588254 -0.010037588792866932 0 0.011369350206320952 -0.010278345299834698 0 0.011290572588523839 -0.01051877402998877 0 0.011672878192417933 -0.01037836132505535 0 0.011794817403900504 -0.010625208060504205 0 0.011290572588523839 -0.01051877402998877 0 0.011369350206320952 -0.010278345299834698 0 0.011672878192417933 -0.01037836132505535 0 0.011670437621588254 -0.010037588792866932 0 0.011369350206320952 -0.010278345299834698 0 0.011672878192417933 -0.01037836132505535 0 0.011670437621588254 -0.010037588792866932 0 0.011672878192417933 -0.01037836132505535 0 0.012081274921889191 -0.010211906493705404 0 0.012129183640455678 -0.010563480560171855 0 0.011617201537166234 -0.0081578505940242511 0 0.010473559658187187 -0.0055846142469446374 0 0.010799353136639564 -0.0054469205546763206 0 0.010863026842050946 -0.005574123977207278 0 0.010111081194339686 -0.0053850825130373082 0 0.010364373382739543 -0.0035016620274325814 0 0.011290572588523839 -0.01051877402998877 0 0.011088034958113417 -0.010909471486823611 0 0.011794817403900504 -0.010625208060504205 0 0.0095268055464075557 0.00079413230531219688 0 0.0090269705643862518 0.0010095387942199313 0 0.0077536212511968875 0.00074990611664315992 0 0.010111081194339686 -0.0053850825130373082 0 0.011617201537166234 -0.0081578505940242511 0 0.012410413016776299 -0.0052348131287396609 0 0.012328311076709541 -0.0050493420246707004 0 0.012112684218984697 -0.0051890184023610196 0 0.011617201537166234 -0.0081578505940242511 0 0.010364373382739543 -0.0035016620274325814 0 0.011829834186342534 -0.010689395836221006 0 0.012081274921889191 -0.010211906493705404 0 0.012460941625748843 -0.010441329733351995 0 0.012410413016776299 -0.0052348131287396609 0 0.012089868327923834 -0.0053766826944167817 0 0.012112684218984697 -0.0051890184023610196 0 0.011617201537166234 -0.0081578505940242511 0 0.012383079153913901 -0.0078657194680815529 0 0.011672878192417933 -0.01037836132505535 0 0.011829834186342534 -0.010689395836221006 0 0.012081274921889191 -0.010211906493705404 0 0.011759127958683746 -0.0055511728911380532 0 0.011911073725552123 -0.0052702243741810989 0 0.012089868327923834 -0.0053766826944167817 0 0.012347455097041523 -0.0078697048418168453 0 0.012383079153913901 -0.0078657194680815529 0 0.011911073725552123 -0.0052702243741810989 0 0.012089868327923834 -0.0053766826944167817 0 0.012112684218984697 -0.0051890184023610196 0 0.010364373382739543 -0.0035016620274325814 0 0.012636899707302319 -0.0053962836395435206 0 0.012328311076709541 -0.0050493420246707004 0 0.012112684218984697 -0.0051890184023610196 0 0.011805129138209152 -0.0050023134407928662 0 0.012183230939321284 -0.0048506425343297641 0 0.012068910579859498 -0.0048162811798075486 0 0.011805129138209152 -0.0050023134407928662 0 0.011911073725552123 -0.0052702243741810989 0 0.012112684218984697 -0.0051890184023610196 0 0.011805129138209152 -0.0050023134407928662 0 0.012068910579859498 -0.0048162811798075486 0 0.011805129138209152 -0.0050023134407928662 0 0.011973234197864916 -0.004819303652284751 0 0.011805129138209152 -0.0050023134407928662 0 0.011896863713478671 -0.0048543405943766316 0 0.011973234197864916 -0.004819303652284751 0 0.013149790282831189 -0.0052768749981727398 0 0.012673889122679999 -0.0022584798692512993 0 0.011911073725552123 -0.0052702243741810989 0 0.011805129138209152 -0.0050023134407928662 0 0.011734568486728526 -0.0052493234796328796 0 0.011805129138209152 -0.0050023134407928662 0 0.011625374829820453 -0.0050528274199311439 0 0.011734568486728526 -0.0052493234796328796 0 0.011805129138209152 -0.0050023134407928662 0 0.011625374829820453 -0.0050528274199311439 0 0.011896863713478671 -0.0048543405943766316 0 0.012575337420665016 -0.0037139827425863763 0 0.01341484497677098 -0.0031307770808367227 0 0.013729286539281014 -0.003116794945695305 0 0.015532482523822885 -0.0062624293688904875 0 0.015542334776332468 -0.0063041522739072783 0 0.015544702845976663 -0.0062491962868368237 0 0.013149790282831189 -0.0052768749981727398 0 0.013556242532151722 -0.0012426431847810098 0 0.011625374829820453 -0.0050528274199311439 0 0.011581563629533385 -0.0053633338295331293 0 0.011734568486728526 -0.0052493234796328796 0 0.011407983015200466 -0.0057364542619375179 0 0.011759127958683746 -0.0055511728911380532 0 0.011581563629533385 -0.0053633338295331293 0 0.011759127958683746 -0.0055511728911380532 0 0.011911073725552123 -0.0052702243741810989 0 0.011734568486728526 -0.0052493234796328796 0 0.011759127958683746 -0.0055511728911380532 0 0.011581563629533385 -0.0053633338295331293 0 0.011734568486728526 -0.0052493234796328796 0 0.011865469415170336 0.0057057618435600683 0 0.01146383104270726 0.0052774716006498464 0 0.011490604052366352 0.0064218569234306619 0 0.011865469415170336 0.0057057618435600683 0 0.011902379078658492 0.0063115351753771443 0 0.011490604052366352 0.0064218569234306619 0 0.011865469415170336 0.0057057618435600683 0 0.012218395800724551 0.0058648582743552301 0 0.011902379078658492 0.0063115351753771443 0 0.011865469415170336 0.0057057618435600683 0 0.01146383104270726 0.0052774716006498464 0 0.012034782134127345 0.0051011549942164246 0 0.013192407038427537 -0.0010262320625642053 0 0.013556242532151722 -0.0012426431847810098 0 0.010818473592207103 0.0045314530353199201 0 0.01146383104270726 0.0052774716006498464 0 0.012094988083745681 0.0045543483448712624 0 0.01146383104270726 0.0052774716006498464 0 0.012094988083745681 0.0045543483448712624 0 0.012034782134127345 0.0051011549942164246 0 0.012034782134127345 0.0051011549942164246 0 0.012491416838051135 0.0050463184474070326 0 0.012397603365076228 0.0053994787032700551 0 0.011889709746444238 -0.0048228079112931747 0 0.011973234197864916 -0.004819303652284751 0 0.012096305329040583 -0.0046839006114432619 0 0.012034782134127345 0.0051011549942164246 0 0.012491416838051135 0.0050463184474070326 0 0.012376027805595047 0.0047368694922429837 0 0.012673889122679999 -0.0022584798692512993 0 0.010112115486665402 0.0015864450680728619 0 0.012376027805595047 0.0047368694922429837 0 0.012318254319175385 0.0045288108688000366 0 0.0131767069255612 0.0049472048466737235 0 0.012094988083745681 0.0045543483448712624 0 0.012034782134127345 0.0051011549942164246 0 0.012376027805595047 0.0047368694922429837 0 0.012673889122679999 -0.0022584798692512993 0 0.01210154416054339 -0.0030762474390457319 0 0.013556242532151722 -0.0012426431847810098 0 0.012673889122679999 -0.0022584798692512993 0 0.012066067376997619 0.0045039833901498747 0 0.012376027805595047 0.0047368694922429837 0 0.012318254319175385 0.0045288108688000366 0 0.013556242532151722 -0.0012426431847810098 0 0.013943001936321591 0.0014064903285452178 0 0.012491416838051135 0.0050463184474070326 0 0.012376027805595047 0.0047368694922429837 0 0.0131767069255612 0.0049472048466737235 0 0.012491416838051135 0.0050463184474070326 0 0.012397603365076228 0.0053994787032700551 0 0.0131767069255612 0.0049472048466737235 0 0.012791122641601982 0.0057642091798081477 0 0.012397603365076228 0.0053994787032700551 0 0.0131767069255612 0.0049472048466737235 0 0.011865469415170336 0.0057057618435600683 0 0.012034782134127345 0.0051011549942164246 0 0.012397603365076228 0.0053994787032700551 0 0.011865469415170336 0.0057057618435600683 0 0.012397603365076228 0.0053994787032700551 0 0.012218395800724551 0.0058648582743552301 0 0.012791122641601982 0.0057642091798081477 0 0.012397603365076228 0.0053994787032700551 0 0.012218395800724551 0.0058648582743552301 0 0.012287875962767297 0.0061012663792527986 0 0.012218395800724551 0.0058648582743552301 0 0.011902379078658492 0.0063115351753771443 0 0.012791122641601982 0.0057642091798081477 0 0.012287875962767297 0.0061012663792527986 0 0.012218395800724551 0.0058648582743552301 0 0.012791122641601982 0.0057642091798081477 0 0.012287875962767297 0.0061012663792527986 0 0.012283337660913841 0.0064579995356167895 0 0.0095770600445048582 0.004552574476964325 0 0.010168759971245557 0.0058242699160127509 0 0.0076617152113319237 0.0028995918813757831 0 0.0071142236072478295 0.0017927004106955986 0 0.0088551901998796759 0.0025470630038958351 0 0.0065685876962389414 0.002909516140958756 0 0.0076617152113319237 0.0028995918813757831 0 0.0070742463910647875 0.0036975876414587273 0 0.0065685876962389414 0.002909516140958756 0 0.0076617152113319237 0.0028995918813757831 0 0.0071142236072478295 0.0017927004106955986 0 0.0095770600445048582 0.004552574476964325 0 0.010112115486665402 0.0015864450680728619 0 0.0077536212511968875 0.00074990611664315992 0 0.0072642766455798743 0.001677082156192402 0 0.008640138902136071 0.0018752319131753929 0 0.012068910579859498 -0.0048162811798075486 0 0.011973234197864916 -0.004819303652284751 0 0.012096305329040583 -0.0046839006114432619 0 0.012183230939321284 -0.0048506425343297641 0 0.012068910579859498 -0.0048162811798075486 0 0.012096305329040583 -0.0046839006114432619 0 0.010364373382739543 -0.0035016620274325814 0 0.010112115486665402 0.0015864450680728619 0 0.0090269705643862518 0.0010095387942199313 0 0.0077536212511968875 0.00074990611664315992 0 0.008640138902136071 0.0018752319131753929 0 0.0072642766455798743 0.001677082156192402 0 0.008640138902136071 0.0018752319131753929 0 0.0088551901998796759 0.0025470630038958351 0 0.010112115486665402 0.0015864450680728619 0 0.00766946960055834 0.002318625008558632 0 0.0076617152113319237 0.0028995918813757831 0 0.0088551901998796759 0.0025470630038958351 0 0.0085178717695731359 0.0034198003537009316 0 0.0088551901998796759 0.0025470630038958351 0 0.0085178717695731359 0.0034198003537009316 0 0.0098385444940716632 0.003832999565158016 0 0.0076617152113319237 0.0028995918813757831 0 0.0085178717695731359 0.0034198003537009316 0 0.0078541422130264382 0.0039442957017104176 0 0.0085178717695731359 0.0034198003537009316 0 0.0087358011395201624 0.0042074297161512914 0 0.0098385444940716632 0.003832999565158016 0 0.0085178717695731359 0.0034198003537009316 0 0.0087358011395201624 0.0042074297161512914 0 0.0078541422130264382 0.0039442957017104176 0 0.0087358011395201624 0.0042074297161512914 0 0.0081809450865745429 0.0047817749470036785 0 0.0078541422130264382 0.0039442957017104176 0 0.0087358011395201624 0.0042074297161512914 0 0.0089172636707554494 0.0052631370012041438 0 0.0081809450865745429 0.0047817749470036785 0 0.0089172636707554494 0.0052631370012041438 0 0.0081809450865745429 0.0047817749470036785 0 0.0078945562720564195 0.005574744831146645 0 0.0078945562720564195 0.005574744831146645 0 0.0070431310053085741 0.0057347115241323408 0 0.0073445293883478624 0.0046318331257798745 0 0.0070431310053085741 0.0057347115241323408 0 0.0073445293883478624 0.0046318331257798745 0 0.006026883754677255 0.0040546583874869185 0 0.0081809450865745429 0.0047817749470036785 0 0.0078945562720564195 0.005574744831146645 0 0.0073445293883478624 0.0046318331257798745 0 0.0073445293883478624 0.0046318331257798745 0 0.0070742463910647875 0.0036975876414587273 0 0.006026883754677255 0.0040546583874869185 0 0.0081809450865745429 0.0047817749470036785 0 0.0073445293883478624 0.0046318331257798745 0 0.0078541422130264382 0.0039442957017104176 0 0.0076617152113319237 0.0028995918813757831 0 0.0078541422130264382 0.0039442957017104176 0 0.0070742463910647875 0.0036975876414587273 0 0.0073445293883478624 0.0046318331257798745 0 0.0078541422130264382 0.0039442957017104176 0 0.0070742463910647875 0.0036975876414587273 0 0.012791122641601982 0.0057642091798081477 0 0.012283337660913841 0.0064579995356167895 0 0.012333271723139265 0.006544404402762086 0 0.0065685876962389414 0.002909516140958756 0 0.0070742463910647875 0.0036975876414587273 0 0.006026883754677255 0.0040546583874869185 0 0.012287875962767297 0.0061012663792527986 0 0.012283337660913841 0.0064579995356167895 0 0.011902379078658492 0.0063115351753771443 0 0.012283337660913841 0.0064579995356167895 0 0.012306664626655596 0.0065260911119142274 0 0.011817946407165419 0.0066515285313294634 0 0.010323629828586282 0.005979740278746799 0 0.010168759971245557 0.0058242699160127509 0 0.010168759971245557 0.0058242699160127509 0 0.011429393728331384 0.007681949963039985 0 0.010981194984850347 0.0078808471702727576 0 0.01090670367184614 0.0077258549575250253 0 0.010864676177045684 0.0078772661306758668 0 0.0089409087626922002 0.0067555388291672741 0 0.010168759971245557 0.0058242699160127509 0 0.011355320250413092 0.0068445292384132486 0 0.011790567202850931 0.0071740757236590643 0 0.011817946407165419 0.0066515285313294634 0 0.012306664626655596 0.0065260911119142274 0 0.011790567202850931 0.0071740757236590643 0 0.011817946407165419 0.0066515285313294634 0 0.011355320250413092 0.0068445292384132486 0 0.011817946407165419 0.0066515285313294634 0 0.011490604052366352 0.0064218569234306619 0 0.012283337660913841 0.0064579995356167895 0 0.011817946407165419 0.0066515285313294634 0 0.011902379078658492 0.0063115351753771443 0 0.011817946407165419 0.0066515285313294634 0 0.011902379078658492 0.0063115351753771443 0 0.011490604052366352 0.0064218569234306619 0 0.0027473308726592921 0.0051493644073559832 0 0.0022240816617181214 0.0047764516527004147 0 0.0024437302662774214 0.0054870232291924382 0 0.0081374901092695472 -0.0030676440989591183 0 0.0081886342076642332 -0.0034995869508572717 0 0.0079823680422086794 -0.0037256626270986155 0 0.0052564878862405556 0.00053902042618177788 0 0.0063514870696159574 0.0012578922173268959 0 0.0092745002719493933 -0.0031294239501180785 0 0.0081374901092695472 -0.0030676440989591183 0 0.0086580229074638745 -0.00350777538368735 0 0.0092745002719493933 -0.0031294239501180785 0 0.0093039638894588887 -0.0023237988693882465 0 0.0081374901092695472 -0.0030676440989591183 0 0.0081374901092695472 -0.0030676440989591183 0 0.0086580229074638745 -0.00350777538368735 0 0.0081886342076642332 -0.0034995869508572717 0 0.0086571356357311308 -0.0044696829551537573 0 0.0086580229074638745 -0.00350777538368735 0 0.0078909589811059794 -0.0038833740594201136 0 0.0094203906849813501 -0.0040525727296279439 0 0.0086571356357311308 -0.0044696829551537573 0 0.0086580229074638745 -0.00350777538368735 0 0.0085785358183022003 -0.0035927847810007774 0 0.0091402211108748566 -0.006337136836056809 0 0.0086580229074638745 -0.00350777538368735 0 0.0081886342076642332 -0.0034995869508572717 0 0.0079823680422086794 -0.0037256626270986155 0 0.0091402211108748566 -0.006337136836056809 0 0.0091562131374174783 -0.0048116277832037013 0 0.0081374901092695472 -0.0030676440989591183 0 0.0077836211310285354 -0.0037062721885676017 0 0.0075830073710829882 -0.0036592735414587205 0 0.0081374901092695472 -0.0030676440989591183 0 0.0071386989386263257 -0.0036684010363409987 0 0.0075830073710829882 -0.0036592735414587205 0 0.010262189800445159 -0.010424269219651429 0 0.010311782109810673 -0.010387096250253388 0 0.010282640651509248 -0.010406809286007741 0 0.0081374901092695472 -0.0030676440989591183 0 0.0079823680422086794 -0.0037256626270986155 0 0.0077836211310285354 -0.0037062721885676017 0 0.010311782109810673 -0.010387096250253388 0 0.010260023688908503 -0.010396855822351685 0 0.010225960539630747 -0.010386198397251249 0 0.0079823680422086794 -0.0037256626270986155 0 0.0077836211310285354 -0.0037062721885676017 0 0.0072816269292218594 -0.004001309358111685 0 0.010311782109810673 -0.010387096250253388 0 0.010276691246565854 -0.010399263453666581 0 0.010260023688908503 -0.010396855822351685 0 0.010311782109810673 -0.010387096250253388 0 0.010276691246565854 -0.010399263453666581 0 0.010287918215548291 -0.010398904262346218 0 0.010311782109810673 -0.010387096250253388 0 0.010287918215548291 -0.010398904262346218 0 0.010282640651509248 -0.010406809286007741 0 0.010276691246565854 -0.010399263453666581 0 0.010287918215548291 -0.010398904262346218 0 0.010278951477435554 -0.010406133536711729 0 0.010262189800445159 -0.010424269219651429 0 0.010282640651509248 -0.010406809286007741 0 0.010274050636737819 -0.010415868709439557 0 0.010287918215548291 -0.010398904262346218 0 0.010282640651509248 -0.010406809286007741 0 0.010278951477435554 -0.010406133536711729 0 0.010282640651509248 -0.010406809286007741 0 0.010278951477435554 -0.010406133536711729 0 0.010274050636737819 -0.010415868709439557 0 0.010278951477435554 -0.010406133536711729 0 0.010274050636737819 -0.010415868709439557 0 0.010273795365966081 -0.010410570025166831 0 0.01027175140724414 -0.010419368247526532 0 0.010274050636737819 -0.010415868709439557 0 0.010273795365966081 -0.010410570025166831 0 0.010276691246565854 -0.010399263453666581 0 0.010266814609802374 -0.010411271740903404 0 0.010260023688908503 -0.010396855822351685 0 0.010276691246565854 -0.010399263453666581 0 0.010278951477435554 -0.010406133536711729 0 0.010273795365966081 -0.010410570025166831 0 0.010276691246565854 -0.010399263453666581 0 0.010273795365966081 -0.010410570025166831 0 0.010266814609802374 -0.010411271740903404 0 0.01027175140724414 -0.010419368247526532 0 0.010273795365966081 -0.010410570025166831 0 0.010266814609802374 -0.010411271740903404 0 0.010255345479711147 -0.010406988622960493 0 0.010260023688908503 -0.010396855822351685 0 0.010225960539630747 -0.010386198397251249 0 0.0077836211310285354 -0.0037062721885676017 0 0.0072816269292218594 -0.004001309358111685 0 0.0075830073710829882 -0.0036592735414587205 0 0.010266814609802374 -0.010411271740903404 0 0.010255345479711147 -0.010406988622960493 0 0.010260023688908503 -0.010396855822351685 0 0.0072816269292218594 -0.004001309358111685 0 0.0071386989386263257 -0.0036684010363409987 0 0.0075830073710829882 -0.0036592735414587205 0 0.01025080101436595 -0.010416179663531113 0 0.010255345479711147 -0.010406988622960493 0 0.010225960539630747 -0.010386198397251249 0 0.0091562131374174783 -0.0048116277832037013 0 0.0063514870696159574 0.0012578922173268959 0 0.0095268055464075557 0.00079413230531219688 0 0.010229240210526088 0.0010860491022790788 0 0.010060179885921923 0.0015256502572859861 0 0.010385195130791105 0.001539333163139501 0 0.0063514870696159574 0.0012578922173268959 0 0.0090269705643862518 0.0010095387942199313 0 0.01020234419005492 0.0017903627363222514 0 0.009409853006579743 0.0017736629472675353 0 0.0095268055464075557 0.00079413230531219688 0 0.0090269705643862518 0.0010095387942199313 0 0.010060179885921923 0.0015256502572859861 0 0.0090269705643862518 0.0010095387942199313 0 0.008640138902136071 0.0018752319131753929 0 0.009409853006579743 0.0017736629472675353 0 0.008640138902136071 0.0018752319131753929 0 0.009409853006579743 0.0017736629472675353 0 0.0095238020261745014 0.0033683493413465058 0 0.01020234419005492 0.0017903627363222514 0 0.009409853006579743 0.0017736629472675353 0 0.0095238020261745014 0.0033683493413465058 0 0.008640138902136071 0.0018752319131753929 0 0.0088551901998796759 0.0025470630038958351 0 0.0098385444940716632 0.003832999565158016 0 0.0063514870696159574 0.0012578922173268959 0 0.0065521239290308097 0.0050424818732847871 0 0.0095569757686060786 0.0016330502422904872 0 0.0065521239290308097 0.0050424818732847871 0 0.0022240816617181214 0.0047764516527004147 0 0.0019710307803975434 0.0053822644692498849 0 0.0024437302662774214 0.0054870232291924382 0 0.0019710307803975434 0.0053822644692498849 0 0.0022148196571862744 0.0058460772927890958 0 0.0024437302662774214 0.0054870232291924382 0 0.0087358011395201624 0.0042074297161512914 0 0.0089172636707554494 0.0052631370012041438 0 0.0098385444940716632 0.003832999565158016 0 0.0065521239290308097 0.0050424818732847871 0 0.0032756822402787919 0.0066922078404680098 0 0.0044966804640249585 0.0076161374560443206 0 0.0047369599659397689 0.0070049023823766194 0 0.0050036496009082101 0.0074982205567837683 0 0.0089172636707554494 0.0052631370012041438 0 0.0090208168187089748 0.005841952899918422 0 0.0098385444940716632 0.003832999565158016 0 0.0044966804640249585 0.0076161374560443206 0 0.0050036496009082101 0.0074982205567837683 0 0.004903021526815445 0.0078888160905836741 0 0.0067397504345234026 0.0068069066058146065 0 0.0065521239290308097 0.0050424818732847871 0 0.0024437302662774214 0.0054870232291924382 0 0.0028604272206376687 0.0056814582856424371 0 0.0026450470542942073 0.0060493007777261435 0 0.0022148196571862744 0.0058460772927890958 0 0.0024437302662774214 0.0054870232291924382 0 0.0026450470542942073 0.0060493007777261435 0 0.0027473308726592921 0.0051493644073559832 0 0.0024437302662774214 0.0054870232291924382 0 0.0028604272206376687 0.0056814582856424371 0 0.0051003074164637655 0.0038823258320310563 0 0.0052564878862405556 0.00053902042618177788 0 0.0033660640029742192 0.0055151635048214425 0 0.0027473308726592921 0.0051493644073559832 0 0.0028604272206376687 0.0056814582856424371 0 0.0051003074164637655 0.0038823258320310563 0 0.0021254892384693432 0.0060044959070145428 0 0.0028604272206376687 0.0056814582856424371 0 0.0029534839289113543 0.0060930860950626246 0 0.0026450470542942073 0.0060493007777261435 0 0.0031587775659903949 0.0058818775119176773 0 0.0028604272206376687 0.0056814582856424371 0 0.0029534839289113543 0.0060930860950626246 0 0.0029534839289113543 0.0060930860950626246 0 0.002775839227583979 0.0063151549171641778 0 0.0026450470542942073 0.0060493007777261435 0 0.0029534839289113543 0.0060930860950626246 0 0.002775839227583979 0.0063151549171641778 0 0.0029394425765790623 0.0063476646846359645 0 0.0029394425765790623 0.0063476646846359645 0 0.0028580027383807473 0.0065359436551283619 0 0.0030327008649045119 0.0064995855134217257 0 0.002775839227583979 0.0063151549171641778 0 0.0029394425765790623 0.0063476646846359645 0 0.0028580027383807473 0.0065359436551283619 0 0.002775839227583979 0.0063151549171641778 0 0.0027259384740318522 0.0065276700703844007 0 0.0028580027383807473 0.0065359436551283619 0 0.002775839227583979 0.0063151549171641778 0 0.0027259384740318522 0.0065276700703844007 0 0.0026449621159531306 0.006376267716352562 0 0.0027259384740318522 0.0065276700703844007 0 0.0027957295900137313 0.0066854166421205213 0 0.0026344269274786725 0.0067035005959187981 0 0.0027259384740318522 0.0065276700703844007 0 0.0026449621159531306 0.006376267716352562 0 0.0026344269274786725 0.0067035005959187981 0 0.0027259384740318522 0.0065276700703844007 0 0.0027957295900137313 0.0066854166421205213 0 0.0028580027383807473 0.0065359436551283619 0 0.0027957295900137313 0.0066854166421205213 0 0.0028580027383807473 0.0065359436551283619 0 0.002990106552292782 0.0067243244214696095 0 0.0052210060987410521 0.0079792514578705433 0 0.0050661193349102428 0.0082236144612968382 0 0.0053511036090024841 0.0083044172093862303 0 0.003887386442915025 0.0071679678027596764 0 0.0038860867517171885 0.007385544631947856 0 0.0026449621159531306 0.006376267716352562 0 0.0024449273032635453 0.0062854466923743255 0 0.0026344269274786725 0.0067035005959187981 0 0.0022148196571862744 0.0058460772927890958 0 0.0024449273032635453 0.0062854466923743255 0 0.0026450470542942073 0.0060493007777261435 0 0.002775839227583979 0.0063151549171641778 0 0.0026449621159531306 0.006376267716352562 0 0.0026450470542942073 0.0060493007777261435 0 0.0026449621159531306 0.006376267716352562 0 0.0024449273032635453 0.0062854466923743255 0 0.0026450470542942073 0.0060493007777261435 0 0.0032756822402787919 0.0066922078404680098 0 0.003887386442915025 0.0071679678027596764 0 0.0050036496009082101 0.0074982205567837683 0 0.0052210060987410521 0.0079792514578705433 0 0.004903021526815445 0.0078888160905836741 0 0.0052210060987410521 0.0079792514578705433 0 0.004903021526815445 0.0078888160905836741 0 0.0050661193349102428 0.0082236144612968382 0 0.0044966804640249585 0.0076161374560443206 0 0.004903021526815445 0.0078888160905836741 0 0.0046935739158918636 0.008096769718127797 0 0.0046935739158918636 0.008096769718127797 0 0.004570216295616469 0.0083199238306643133 0 0.0048157867731577876 0.0084257889084362655 0 0.0046935739158918636 0.008096769718127797 0 0.0050661193349102428 0.0082236144612968382 0 0.0048157867731577876 0.0084257889084362655 0 0.004903021526815445 0.0078888160905836741 0 0.0046935739158918636 0.008096769718127797 0 0.0050661193349102428 0.0082236144612968382 0 0.0050661193349102428 0.0082236144612968382 0 0.0050797695004058925 0.0085517248454777452 0 0.0048157867731577876 0.0084257889084362655 0 0.0050797695004058925 0.0085517248454777452 0 0.0049513098795831347 0.0087231890055568008 0 0.0048157867731577876 0.0084257889084362655 0 0.0050797695004058925 0.0085517248454777452 0 0.0049513098795831347 0.0087231890055568008 0 0.0051941333868436362 0.0087502171692993274 0 0.0049513098795831347 0.0087231890055568008 0 0.0048157867731577876 0.0084257889084362655 0 0.0045618409093033064 0.0086455313380020739 0 0.004570216295616469 0.0083199238306643133 0 0.0048157867731577876 0.0084257889084362655 0 0.0045618409093033064 0.0086455313380020739 0 0.0049513098795831347 0.0087231890055568008 0 0.0045618409093033064 0.0086455313380020739 0 0.0048432858185884975 0.0090583768265397584 0 0.0072134492456375817 0.0085123218418604318 0 0.007225251201517199 0.0084984768841482559 0 0.0071913866086106048 0.008505252392106654 0 0.0057427589815211583 0.0085637594476962054 0 0.0060848464910235756 0.0087878835818634496 0 0.0050950517232853246 0.008918864385479305 0 0.0052036967523563463 0.0091033097558943423 0 0.0048432858185884975 0.0090583768265397584 0 0.0049513098795831347 0.0087231890055568008 0 0.0050950517232853246 0.008918864385479305 0 0.0048432858185884975 0.0090583768265397584 0 0.0049513098795831347 0.0087231890055568008 0 0.0050950517232853246 0.008918864385479305 0 0.0051941333868436362 0.0087502171692993274 0 0.0050950517232853246 0.008918864385479305 0 0.0053381012250897884 0.0089465434896680122 0 0.0052036967523563463 0.0091033097558943423 0 0.0050950517232853246 0.008918864385479305 0 0.0053381012250897884 0.0089465434896680122 0 0.0051941333868436362 0.0087502171692993274 0 0.0053381012250897884 0.0089465434896680122 0 0.0055426014273575637 0.0089202254802533375 0 0.0053647942604061897 0.0086120429908677198 0 0.0053381012250897884 0.0089465434896680122 0 0.0054532612649601858 0.0090421778118926939 0 0.0055426014273575637 0.0089202254802533375 0 0.0053381012250897884 0.0089465434896680122 0 0.0054532612649601858 0.0090421778118926939 0 0.0054250277789386009 0.0091624614121033204 0 0.0054532612649601858 0.0090421778118926939 0 0.0055426014273575637 0.0089202254802533375 0 0.0055532797070912965 0.0091391063482327908 0 0.0047497003237997673 0.00828074613139455 0 0.0056437835387969327 0.0093218839935040234 0 0.0028206201627212833 0.007166708472073814 0 0.0028285700344830786 0.0068654443298740535 0 0.0026344269274786725 0.0067035005959187981 0 0.0054225506738905865 0.008480276581710116 0 0.0053511036090024841 0.0083044172093862303 0 0.0053018262203441101 0.0083688144224573855 0 0.0047497003237997673 0.00828074613139455 0 0.0054566666549071986 0.0085831688032888525 0 0.0047497003237997673 0.00828074613139455 0 0.0038860867517171885 0.007385544631947856 0 0.0028206201627212833 0.007166708472073814 0 0.0028285700344830786 0.0068654443298740535 0 0.002990043661971004 0.0069425249855813199 0 0.0027957295900137313 0.0066854166421205213 0 0.0028285700344830786 0.0068654443298740535 0 0.002990106552292782 0.0067243244214696095 0 0.0027957295900137313 0.0066854166421205213 0 0.0028285700344830786 0.0068654443298740535 0 0.0026344269274786725 0.0067035005959187981 0 0.0050661193349102428 0.0082236144612968382 0 0.0053511036090024841 0.0083044172093862303 0 0.0053018262203441101 0.0083688144224573855 0 0.0050661193349102428 0.0082236144612968382 0 0.0050797695004058925 0.0085517248454777452 0 0.0053647942604061897 0.0086120429908677198 0 0.0050260160976853142 0.0082040110322952695 0 0.0054566666549071986 0.0085831688032888525 0 0.0053381012250897884 0.0089465434896680122 0 0.0053647942604061897 0.0086120429908677198 0 0.0051941333868436362 0.0087502171692993274 0 0.0050797695004058925 0.0085517248454777452 0 0.0053647942604061897 0.0086120429908677198 0 0.0051941333868436362 0.0087502171692993274 0 0.010861570825337074 0.0080089224172694602 0 0.010911766470479919 0.0079616625534652836 0 0.010911547138394293 0.008028475579144401 0 0.010920109042640702 0.0080727213900619581 0 0.010861570825337074 0.0080089224172694602 0 0.010895057996597598 0.0080627449108343456 0 0.010861570825337074 0.0080089224172694602 0 0.010911547138394293 0.008028475579144401 0 0.010895057996597598 0.0080627449108343456 0 0.010911547138394293 0.008028475579144401 0 0.010918712566137702 0.0080684214234134598 0 0.010895057996597598 0.0080627449108343456 0 0.011109705117733704 0.0073597630735810207 0 0.011790567202850931 0.0071740757236590643 0 0.011436639086358618 0.0076386484818905644 0 0.011429393728331384 0.007681949963039985 0 0.011143069282467936 0.0077841490693279025 0 0.010864676177045684 0.0078772661306758668 0 0.010861570825337074 0.0080089224172694602 0 0.010911766470479919 0.0079616625534652836 0 0.010981194984850347 0.0078808471702727576 0 0.010911766470479919 0.0079616625534652836 0 0.010963595422398442 0.0079917158208346311 0 0.010981194984850347 0.0078808471702727576 0 0.010864676177045684 0.0078772661306758668 0 0.010911766470479919 0.0079616625534652836 0 0.010911547138394293 0.008028475579144401 0 0.010941889952930677 0.008050562659085006 0 0.010963595422398442 0.0079917158208346311 0 0.010911766470479919 0.0079616625534652836 0 0.010911547138394293 0.008028475579144401 0 0.010963595422398442 0.0079917158208346311 0 0.010941889952930677 0.008050562659085006 0 0.010963595422398442 0.0079917158208346311 0 0.010973759234753707 0.0080611868989996453 0 0.010911547138394293 0.008028475579144401 0 0.010941889952930677 0.008050562659085006 0 0.010918712566137702 0.0080684214234134598 0 0.0083065184336600234 0.0079217210031159706 0 0.0094531691010674782 0.0083660366140334633 0 0.007239766273324409 0.0085148638567853867 0 0.0072371286635008929 0.0085141772506805106 0 0.0072456652297750732 0.0085098250928946038 0 0.010963595422398442 0.0079917158208346311 0 0.010986375118120598 0.0080329329211862865 0 0.010973759234753707 0.0080611868989996453 0 0.010986375118120598 0.0080329329211862865 0 0.01102079220126507 0.0079989010172109454 0 0.010980535863853367 0.0080961162822580299 0 0.010963595422398442 0.0079917158208346311 0 0.010986375118120598 0.0080329329211862865 0 0.01102079220126507 0.0079989010172109454 0 0.010981194984850347 0.0078808471702727576 0 0.010963595422398442 0.0079917158208346311 0 0.01102079220126507 0.0079989010172109454 0 0.0078945562720564195 0.005574744831146645 0 0.0070431310053085741 0.0057347115241323408 0 0.0080647082849674111 0.0073869804906254756 0 0.0089409087626922002 0.0067555388291672741 0 0.0083065184336600234 0.0079217210031159706 0 0.0088036683337490325 0.0051930146609657718 0 0.0083065184336600234 0.0079217210031159706 0 0.0089172636707554494 0.0052631370012041438 0 0.0078945562720564195 0.005574744831146645 0 0.0080647082849674111 0.0073869804906254756 0 0.0067397504345234026 0.0068069066058146065 0 0.0069790787271865832 0.008049966657284675 0 0.0089172636707554494 0.0052631370012041438 0 0.0090208168187089748 0.005841952899918422 0 0.0079183637450636647 0.007602123684861118 0 0.0044966804640249585 0.0076161374560443206 0 0.0046935739158918636 0.008096769718127797 0 0.0042833259034959137 0.0081884797704270609 0 0.0090208168187089748 0.005841952899918422 0 0.0079183637450636647 0.007602123684861118 0 0.0081224497091344546 0.0079395971300917721 0 0.0046935739158918636 0.008096769718127797 0 0.004570216295616469 0.0083199238306643133 0 0.0042833259034959137 0.0081884797704270609 0 0.004570216295616469 0.0083199238306643133 0 0.0045618409093033064 0.0086455313380020739 0 0.0042833259034959137 0.0081884797704270609 0 0.0072134492456375817 0.0085123218418604318 0 0.0072366471983339835 0.0085149804486706997 0 0.0072371286635008929 0.0085141772506805106 0 0.0083065184336600234 0.0079217210031159706 0 0.0069790787271865832 0.008049966657284675 0 0.007239766273324409 0.0085148638567853867 0 0.0072380132282002223 0.0085140912792807596 0 0.0072371286635008929 0.0085141772506805106 0 0.0069790787271865832 0.008049966657284675 0 0.0069750619691735169 0.0081467524327809068 0 0.0072371286635008929 0.0085141772506805106 0 0.0072309067138820538 0.0085120612586240523 0 0.0072456652297750732 0.0085098250928946038 0 0.0057427589815211583 0.0085637594476962054 0 0.0069790787271865832 0.008049966657284675 0 0.0072134492456375817 0.0085123218418604318 0 0.0072371286635008929 0.0085141772506805106 0 0.0072309067138820538 0.0085120612586240523 0 0.0072134492456375817 0.0085123218418604318 0 0.0072309067138820538 0.0085120612586240523 0 0.007225251201517199 0.0084984768841482559 0 0.0072309067138820538 0.0085120612586240523 0 0.0072456652297750732 0.0085098250928946038 0 0.007225251201517199 0.0084984768841482559 0 0.0089147417767481817 0.0086321045344623024 0 0.0088666884984599757 0.0087528186925385828 0 0.008772567154846837 0.0085829200405420653 0 0.0099666168928292196 0.0084074823020786876 0 0.0094531691010674782 0.0083660366140334633 0 0.010973703456273375 0.0081697993769642638 0 0.010990030408458945 0.0080950995777849082 0 0.010950455568629615 0.0080958290294584814 0 0.0094531691010674782 0.0083660366140334633 0 0.0078120083193084812 0.0084555435047778821 0 0.010986375118120598 0.0080329329211862865 0 0.010980535863853367 0.0080961162822580299 0 0.010973759234753707 0.0080611868989996453 0 0.0094531691010674782 0.0083660366140334633 0 0.010359603325565205 0.0083688081984744297 0 0.010990030408458945 0.0080950995777849082 0 0.010973759234753707 0.0080611868989996453 0 0.010950455568629615 0.0080958290294584814 0 0.010941889952930677 0.008050562659085006 0 0.010973759234753707 0.0080611868989996453 0 0.010950455568629615 0.0080958290294584814 0 0.010941889952930677 0.008050562659085006 0 0.010918712566137702 0.0080684214234134598 0 0.010950455568629615 0.0080958290294584814 0 0.010918712566137702 0.0080684214234134598 0 0.010950455568629615 0.0080958290294584814 0 0.010909424094228362 0.0081058447706293547 0 0.010950455568629615 0.0080958290294584814 0 0.010935057129558575 0.0081368563011879561 0 0.010909424094228362 0.0081058447706293547 0 0.010935057129558575 0.0081368563011879561 0 0.010909424094228362 0.0081058447706293547 0 0.010907665463006758 0.0081806783298705513 0 0.010973703456273375 0.0081697993769642638 0 0.010935057129558575 0.0081368563011879561 0 0.010907665463006758 0.0081806783298705513 0 0.010973703456273375 0.0081697993769642638 0 0.010950455568629615 0.0080958290294584814 0 0.010935057129558575 0.0081368563011879561 0 0.010879000839703942 0.0081353672410277057 0 0.010909424094228362 0.0081058447706293547 0 0.010907665463006758 0.0081806783298705513 0 0.010826247467464058 0.0082000331228715296 0 0.010879000839703942 0.0081353672410277057 0 0.010907665463006758 0.0081806783298705513 0 0.010898174743578197 0.008089824349744229 0 0.010909424094228362 0.0081058447706293547 0 0.010895057996597598 0.0080627449108343456 0 0.010879000839703942 0.0081353672410277057 0 0.010898174743578197 0.008089824349744229 0 0.010909424094228362 0.0081058447706293547 0 0.010918712566137702 0.0080684214234134598 0 0.010909424094228362 0.0081058447706293547 0 0.010895057996597598 0.0080627449108343456 0 0.010826247467464058 0.0082000331228715296 0 0.010880207306565436 0.0082935673136992696 0 0.010810700237510323 0.0083554697910439117 0 0.010880207306565436 0.0082935673136992696 0 0.010859444873081235 0.0083874550274041677 0 0.010810700237510323 0.0083554697910439117 0 0.010880207306565436 0.0082935673136992696 0 0.010907893814900751 0.0083813493071273459 0 0.010859444873081235 0.0083874550274041677 0 0.010826247467464058 0.0082000331228715296 0 0.010880207306565436 0.0082935673136992696 0 0.010907665463006758 0.0081806783298705513 0 0.0099666168928292196 0.0084074823020786876 0 0.010002190104656746 0.0082864135415895331 0 0.010880207306565436 0.0082935673136992696 0 0.010907665463006758 0.0081806783298705513 0 0.010948881523192061 0.0082622621570699242 0 0.010973703456273375 0.0081697993769642638 0 0.010907665463006758 0.0081806783298705513 0 0.010948881523192061 0.0082622621570699242 0 0.010880207306565436 0.0082935673136992696 0 0.010948881523192061 0.0082622621570699242 0 0.010907893814900751 0.0083813493071273459 0 0.0089713567335692329 0.0085070115513511697 0 0.0088520605499950791 0.0083867417428411962 0 0.0090311220905007015 0.0083756076756900007 0 0.010002190104656746 0.0082864135415895331 0 0.009689905940461728 0.0088876245427046471 0 0.0089713567335692329 0.0085070115513511697 0 0.0088507497681535614 0.0085010403219459834 0 0.0088520605499950791 0.0083867417428411962 0 0.0089147417767481817 0.0086321045344623024 0 0.0089713567335692329 0.0085070115513511697 0 0.0088507497681535614 0.0085010403219459834 0 0.0089147417767481817 0.0086321045344623024 0 0.0088507497681535614 0.0085010403219459834 0 0.008772567154846837 0.0085829200405420653 0 0.0088507497681535614 0.0085010403219459834 0 0.0088520605499950791 0.0083867417428411962 0 0.0086729610041115374 0.0084014484841859385 0 0.0088507497681535614 0.0085010403219459834 0 0.008772567154846837 0.0085829200405420653 0 0.0086729610041115374 0.0084014484841859385 0 0.0078120083193084812 0.0084555435047778821 0 0.0077394438876751742 0.008939886335731461 0 0.0076334751847014362 0.0098936221975005883 0 0.0081355367635978903 0.01035293984812014 0 0.0073768674629439372 0.010378312551924772 0 0.0084103172670742885 0.0094559513817554612 0 0.0077394438876751742 0.008939886335731461 0 0.0076334751847014362 0.0098936221975005883 0 0.0074742996811201718 0.0095200860449599738 0 0.0071756703632603431 0.0099097049949467882 0 0.0074742996811201718 0.0095200860449599738 0 0.0078652236207882864 0.0095390923157725026 0 0.0077658872090361859 0.009222140439164847 0 0.0076334751847014362 0.0098936221975005883 0 0.0074742996811201718 0.0095200860449599738 0 0.0078652236207882864 0.0095390923157725026 0 0.0076334751847014362 0.0098936221975005883 0 0.0078652236207882864 0.0095390923157725026 0 0.008056233030577481 0.0098481928804504491 0 0.0078652236207882864 0.0095390923157725026 0 0.0082546265061652756 0.0095461683408902993 0 0.0080738164962921577 0.0092778230289243743 0 0.0078652236207882864 0.0095390923157725026 0 0.008056233030577481 0.0098481928804504491 0 0.0082546265061652756 0.0095461683408902993 0 0.0082546265061652756 0.0095461683408902993 0 0.0086441241427477195 0.0095021230233598795 0 0.0083907759295070317 0.0092639647306792926 0 0.008056233030577481 0.0098481928804504491 0 0.0082546265061652756 0.0095461683408902993 0 0.0085344807593853017 0.0098643634673365767 0 0.008056233030577481 0.0098481928804504491 0 0.0081355367635978903 0.01035293984812014 0 0.0085344807593853017 0.0098643634673365767 0 0.0076334751847014362 0.0098936221975005883 0 0.008056233030577481 0.0098481928804504491 0 0.0081355367635978903 0.01035293984812014 0 0.0084103172670742885 0.0094559513817554612 0 0.009689905940461728 0.0088876245427046471 0 0.0081355367635978903 0.01035293984812014 0 0.008982384986856844 0.010333874749006071 0 0.0085344807593853017 0.0098643634673365767 0 0.008982384986856844 0.010333874749006071 0 0.0085344807593853017 0.0098643634673365767 0 0.0089635295648069213 0.0098130256362851751 0 0.0082546265061652756 0.0095461683408902993 0 0.0085344807593853017 0.0098643634673365767 0 0.0086441241427477195 0.0095021230233598795 0 0.0085344807593853017 0.0098643634673365767 0 0.0086441241427477195 0.0095021230233598795 0 0.0088551264303233738 0.0096344551630585494 0 0.0086441241427477195 0.0095021230233598795 0 0.0089612167576847302 0.009443372009166168 0 0.0088551264303233738 0.0096344551630585494 0 0.0089612167576847302 0.009443372009166168 0 0.0088551264303233738 0.0096344551630585494 0 0.0091852544956616336 0.0094376446017714818 0 0.0086441241427477195 0.0095021230233598795 0 0.0087167467424592998 0.0092151852658675405 0 0.008880797537883213 0.0093042073149818168 0 0.0086441241427477195 0.0095021230233598795 0 0.0089612167576847302 0.009443372009166168 0 0.008880797537883213 0.0093042073149818168 0 0.0089612167576847302 0.009443372009166168 0 0.009110099595665529 0.0092257331444561986 0 0.008880797537883213 0.0093042073149818168 0 0.0089635295648069213 0.0098130256362851751 0 0.0088551264303233738 0.0096344551630585494 0 0.0091852544956616336 0.0094376446017714818 0 0.0085344807593853017 0.0098643634673365767 0 0.0089635295648069213 0.0098130256362851751 0 0.0088551264303233738 0.0096344551630585494 0 0.009689905940461728 0.0088876245427046471 0 0.010098917699513014 0.0089959174246610658 0 0.008982384986856844 0.010333874749006071 0 0.0089635295648069213 0.0098130256362851751 0 0.0094105329056651654 0.0094451267087781125 0 0.0099086329830555438 0.0087553663587003425 0 0.0099342354288013447 0.0086583561186128425 0 0.010141897780242359 0.008411488603723356 0 0.0089635295648069213 0.0098130256362851751 0 0.0091852544956616336 0.0094376446017714818 0 0.0094105329056651654 0.0094451267087781125 0 0.0093142859294171512 0.0093640492436081624 0 0.0092563886756352898 0.0092782220077671541 0 0.0091852544956616336 0.0094376446017714818 0 0.0093142859294171512 0.0093640492436081624 0 0.0091852544956616336 0.0094376446017714818 0 0.0094105329056651654 0.0094451267087781125 0 0.0093142859294171512 0.0093640492436081624 0 0.009417330224495651 0.0092822996388181641 0 0.0094105329056651654 0.0094451267087781125 0 0.0093142859294171512 0.0093640492436081624 0 0.0092563886756352898 0.0092782220077671541 0 0.009417330224495651 0.0092822996388181641 0 0.0092563886756352898 0.0092782220077671541 0 0.0091852544956616336 0.0094376446017714818 0 0.009110099595665529 0.0092257331444561986 0 0.0089612167576847302 0.009443372009166168 0 0.0091852544956616336 0.0094376446017714818 0 0.009110099595665529 0.0092257331444561986 0 0.0098403407582455041 0.0087340840388806934 0 0.0097804221378914417 0.0088209311702679479 0 0.0098478921349148957 0.0087515746841980574 0 0.0097804221378914417 0.0088209311702679479 0 0.009791531071761209 0.0088325584714676747 0 0.0098478921349148957 0.0087515746841980574 0 0.0097804221378914417 0.0088209311702679479 0 0.009791531071761209 0.0088325584714676747 0 0.0096649695218009573 0.0089925646342323244 0 0.0099086329830555438 0.0087553663587003425 0 0.009791531071761209 0.0088325584714676747 0 0.0098478921349148957 0.0087515746841980574 0 0.0099086329830555438 0.0087553663587003425 0 0.009791531071761209 0.0088325584714676747 0 0.0096649695218009573 0.0089925646342323244 0 0.009417330224495651 0.0092822996388181641 0 0.009493323856299786 0.0095705983371904835 0 0.0096649695218009573 0.0089925646342323244 0 0.010098917699513014 0.0089959174246610658 0 0.0099495375896732612 0.0090851244859374951 0 0.010052458434359975 0.0090578060176074726 0 0.010098917699513014 0.0089959174246610658 0 0.0099086329830555438 0.0087553663587003425 0 0.0098478921349148957 0.0087515746841980574 0 0.0099342354288013447 0.0086583561186128425 0 0.0098403407582455041 0.0087340840388806934 0 0.0098478921349148957 0.0087515746841980574 0 0.0099342354288013447 0.0086583561186128425 0 0.010098917699513014 0.0089959174246610658 0 0.0105019431135773 0.0083070184527803872 0 0.01091588726790825 0.0083847944443891202 0 0.010832331130993925 0.00856666230347773 0 0.010859444873081235 0.0083874550274041677 0 0.010832331130993925 0.00856666230347773 0 0.010859444873081235 0.0083874550274041677 0 0.010810700237510323 0.0083554697910439117 0 0.009689905940461728 0.0088876245427046471 0 0.010813461683696979 0.0086237684134081241 0 0.0056311933982303919 0.0093683199280026972 0 0.0064251820767803388 0.0090027708992836703 0 0.0053048819341534117 0.0092474493676312757 0 0.0054157403412290386 0.0093402500819770393 0 0.0054250277789386009 0.0091624614121033204 0 0.0053048819341534117 0.0092474493676312757 0 0.0054157403412290386 0.0093402500819770393 0 0.005166393924333758 0.0093669911282080829 0 0.0054157403412290386 0.0093402500819770393 0 0.0056005843116740629 0.0092592887796332842 0 0.0055371964684445716 0.0092197531318355831 0 0.0054157403412290386 0.0093402500819770393 0 0.0054250277789386009 0.0091624614121033204 0 0.0055371964684445716 0.0092197531318355831 0 0.0056311933982303919 0.0093683199280026972 0 0.0056704406603094726 0.009266615972602036 0 0.0054250277789386009 0.0091624614121033204 0 0.0055371964684445716 0.0092197531318355831 0 0.0055532797070912965 0.0091391063482327908 0 0.0054532612649601858 0.0090421778118926939 0 0.0054250277789386009 0.0091624614121033204 0 0.0055532797070912965 0.0091391063482327908 0 0.0053048819341534117 0.0092474493676312757 0 0.0054250277789386009 0.0091624614121033204 0 0.0052036967523563463 0.0091033097558943423 0 0.0053048819341534117 0.0092474493676312757 0 0.0052036967523563463 0.0091033097558943423 0 0.0051895791110261403 0.0092781760481281724 0 0.0053381012250897884 0.0089465434896680122 0 0.0054250277789386009 0.0091624614121033204 0 0.0052036967523563463 0.0091033097558943423 0 0.0071913866086106048 0.008505252392106654 0 0.0071933019912470185 0.0084897542645473688 0 0.0071673815747512973 0.0084907967949682649 0 0.0060848464910235756 0.0087878835818634496 0 0.005699795730750531 0.009085251186004879 0 0.0051448681359219598 0.0092650009809301451 0 0.005699795730750531 0.009085251186004879 0 0.0052036967523563463 0.0091033097558943423 0 0.0048432858185884975 0.0090583768265397584 0 0.0051022615103501938 0.0094383239662793536 0 0.007225251201517199 0.0084984768841482559 0 0.0071913866086106048 0.008505252392106654 0 0.0071933019912470185 0.0084897542645473688 0 0.007225251201517199 0.0084984768841482559 0 0.0071933019912470185 0.0084897542645473688 0 0.0072079770757114865 0.0084767084684587417 0 0.0064251820767803388 0.0090027708992836703 0 0.0077394438876751742 0.008939886335731461 0 0.0071933019912470185 0.0084897542645473688 0 0.0071719086542670809 0.0084789692045163251 0 0.0072079770757114865 0.0084767084684587417 0 0.0071933019912470185 0.0084897542645473688 0 0.0071673815747512973 0.0084907967949682649 0 0.0071719086542670809 0.0084789692045163251 0 0.0053048819341534117 0.0092474493676312757 0 0.0051895791110261403 0.0092781760481281724 0 0.005166393924333758 0.0093669911282080829 0 0.005699795730750531 0.009085251186004879 0 0.0064251820767803388 0.0090027708992836703 0 0.0065440918959286378 0.0093195489259242648 0 0.0066206372601181505 0.0090869280765382733 0 0.0063531565688231366 0.0091219195442878657 0 0.0064251820767803388 0.0090027708992836703 0 0.0068139814287802043 0.0091236813310020589 0 0.0070234426172760493 0.0091535509595256463 0 0.0071083179058683069 0.0092143468683967538 0 0.0070759830486005751 0.0091507465343018037 0 0.0069994349896122798 0.0092217855821181104 0 0.0070234426172760493 0.0091535509595256463 0 0.0071083179058683069 0.0092143468683967538 0 0.0076334751847014362 0.0098936221975005883 0 0.0073768674629439372 0.010378312551924772 0 0.0071756703632603431 0.0099097049949467882 0 0.0077394438876751742 0.008939886335731461 0 0.0071932749649687147 0.0096294368474633251 0 0.0074742996811201718 0.0095200860449599738 0 0.0071756703632603431 0.0099097049949467882 0 0.0069882029689083101 0.0094598514639543472 0 0.0070234426172760493 0.0091535509595256463 0 0.0070759830486005751 0.0091507465343018037 0 0.0070446755531317845 0.0090874641964265972 0 0.0071932749649687147 0.0096294368474633251 0 0.0069015956353679171 0.0091344820141827394 0 0.0066206372601181505 0.0090869280765382733 0 0.0063348253551360886 0.008909411383318841 0 0.0063531565688231366 0.0091219195442878657 0 0.0066206372601181505 0.0090869280765382733 0 0.0063348253551360886 0.008909411383318841 0 0.0065453757904938318 0.0088441947238369501 0 0.0066206372601181505 0.0090869280765382733 0 0.0066941927170372211 0.0089100499880703336 0 0.0065453757904938318 0.0088441947238369501 0 0.0068139814287802043 0.0091236813310020589 0 0.0069015956353679171 0.0091344820141827394 0 0.0063348253551360886 0.008909411383318841 0 0.0063531565688231366 0.0091219195442878657 0 0.0061115562986940866 0.0090055237079186487 0 0.0061177939264113433 0.0093311761242532518 0 0.0063531565688231366 0.0091219195442878657 0 0.0061115562986940866 0.0090055237079186487 0 0.0061177939264113433 0.0093311761242532518 0 0.0065440918959286378 0.0093195489259242648 0 0.0063531565688231366 0.0091219195442878657 0 0.0061177939264113433 0.0093311761242532518 0 0.0061115562986940866 0.0090055237079186487 0 0.0057237179578548793 0.008959772333667862 0 0.0061115562986940866 0.0090055237079186487 0 0.0057237179578548793 0.008959772333667862 0 0.0060077935643282872 0.0087495627335921512 0 0.0063348253551360886 0.008909411383318841 0 0.0061115562986940866 0.0090055237079186487 0 0.0060077935643282872 0.0087495627335921512 0 0.0057237179578548793 0.008959772333667862 0 0.005350982591126415 0.0087713603677267039 0 0.0052946129984119466 0.0089808845360714162 0 0.0057237179578548793 0.008959772333667862 0 0.005350982591126415 0.0087713603677267039 0 0.0055673600534911355 0.0085618355643840068 0 0.0057237179578548793 0.008959772333667862 0 0.0052946129984119466 0.0089808845360714162 0 0.0056005843116740629 0.0092592887796332842 0 0.0061177939264113433 0.0093311761242532518 0 0.0057237179578548793 0.008959772333667862 0 0.0056005843116740629 0.0092592887796332842 0 0.0047515517382795891 0.0086389641550760083 0 0.0049856614923310099 0.0087355469072079497 0 0.0050441730135620828 0.0085789639570972558 0 0.0047515517382795891 0.0086389641550760083 0 0.0049856614923310099 0.0087355469072079497 0 0.0046113928609065706 0.0088032038738010757 0 0.005350982591126415 0.0087713603677267039 0 0.0052946129984119466 0.0089808845360714162 0 0.0049856614923310099 0.0087355469072079497 0 0.005350982591126415 0.0087713603677267039 0 0.0049856614923310099 0.0087355469072079497 0 0.0050441730135620828 0.0085789639570972558 0 0.0052946129984119466 0.0089808845360714162 0 0.0046113928609065706 0.0088032038738010757 0 0.0052326406273467581 0.0093002860939706885 0 0.0052946129984119466 0.0089808845360714162 0 0.0049856614923310099 0.0087355469072079497 0 0.0046113928609065706 0.0088032038738010757 0 0.0046113928609065706 0.0088032038738010757 0 0.0044090291140927353 0.0082011389943887521 0 0.0046582916832508346 0.0085643007205563945 0 0.0046113928609065706 0.0088032038738010757 0 0.0044090291140927353 0.0082011389943887521 0 0.0036818502070109422 0.0082074130456634524 0 0.0044090291140927353 0.0082011389943887521 0 0.0036818502070109422 0.0082074130456634524 0 0.0039152710606615588 0.0077883894102171898 0 0.0045800086831394946 0.0088001167199602461 0 0.0044911287220037585 0.008744502792626372 0 0.0036818502070109422 0.0082074130456634524 0 0.0039152710606615588 0.0077883894102171898 0 0.0035749869934761161 0.0075824269929069448 0 0.0039152710606615588 0.0077883894102171898 0 0.0035749869934761161 0.0075824269929069448 0 0.0039033426511781186 0.0073581517549925896 0 0.0044090291140927353 0.0082011389943887521 0 0.0039152710606615588 0.0077883894102171898 0 0.0042427126514839866 0.0077310259613651601 0 0.0039152710606615588 0.0077883894102171898 0 0.0042427126514839866 0.0077310259613651601 0 0.0039033426511781186 0.0073581517549925896 0 0.0042427126514839866 0.0077310259613651601 0 0.0043116338162325907 0.0073848568059426637 0 0.0045295261971790264 0.0078325043847679732 0 0.0044090291140927353 0.0082011389943887521 0 0.0042427126514839866 0.0077310259613651601 0 0.0045295261971790264 0.0078325043847679732 0 0.0052946129984119466 0.0089808845360714162 0 0.0052326406273467581 0.0093002860939706885 0 0.0056005843116740629 0.0092592887796332842 0 0.0052326406273467581 0.0093002860939706885 0 0.0056005843116740629 0.0092592887796332842 0 0.0055546404448730928 0.00925362126117351 0 0.0044911287220037585 0.008744502792626372 0 0.0042498396062041876 0.0083778842965114286 0 0.0036818502070109422 0.0082074130456634524 0 0.0035749869934761161 0.0075824269929069448 0 0.0031785887967552195 0.0076199418355138784 0 0.0035749869934761161 0.0075824269929069448 0 0.0031785887967552195 0.0076199418355138784 0 0.0033615383291147006 0.0073654708277626499 0 0.0056005843116740629 0.0092592887796332842 0 0.0055546404448730928 0.00925362126117351 0 0.0055371964684445716 0.0092197531318355831 0 0.0055546404448730928 0.00925362126117351 0 0.0055371964684445716 0.0092197531318355831 0 0.0055532797070912965 0.0091391063482327908 0 0.0028206201627212833 0.007166708472073814 0 0.0031785887967552195 0.0076199418355138784 0 0.0031683824761887225 0.0070948994218586357 0 0.0028206201627212833 0.007166708472073814 0 0.0031683824761887225 0.0070948994218586357 0 0.002990043661971004 0.0069425249855813199 0 0.0055561990063793297 0.0090151545335691551 0 0.0055546404448730928 0.00925362126117351 0 0.0055532797070912965 0.0091391063482327908 0 0.0047497003237997673 0.00828074613139455 0 0.0042498396062041876 0.0083778842965114286 0 0.0031683824761887225 0.0070948994218586357 0 0.002990043661971004 0.0069425249855813199 0 0.0031508547971026897 0.0068571903109539822 0 0.0031508547971026897 0.0068571903109539822 0 0.002990106552292782 0.0067243244214696095 0 0.0032450964257449504 0.006556805379151761 0 0.0028285700344830786 0.0068654443298740535 0 0.002990043661971004 0.0069425249855813199 0 0.002990106552292782 0.0067243244214696095 0 0.002990043661971004 0.0069425249855813199 0 0.0031508547971026897 0.0068571903109539822 0 0.002990106552292782 0.0067243244214696095 0 0.0033621573219339914 0.0068366055174323981 0 0.0035423839234608877 0.0071843805923992978 0 0.0037353085662042043 0.006899662025619503 0 0.0031683824761887225 0.0070948994218586357 0 0.0033621573219339914 0.0068366055174323981 0 0.0035423839234608877 0.0071843805923992978 0 0.0031508547971026897 0.0068571903109539822 0 0.0033621573219339914 0.0068366055174323981 0 0.0032450964257449504 0.006556805379151761 0 0.0031683824761887225 0.0070948994218586357 0 0.0031508547971026897 0.0068571903109539822 0 0.0033621573219339914 0.0068366055174323981 0 0.0031785887967552195 0.0076199418355138784 0 0.0031683824761887225 0.0070948994218586357 0 0.0033615383291147006 0.0073654708277626499 0 0.0031683824761887225 0.0070948994218586357 0 0.0035423839234608877 0.0071843805923992978 0 0.0033615383291147006 0.0073654708277626499 0 0.0035749869934761161 0.0075824269929069448 0 0.0035423839234608877 0.0071843805923992978 0 0.0033615383291147006 0.0073654708277626499 0 0.0039033426511781186 0.0073581517549925896 0 0.0040720298856571843 0.0070016733017495654 0 0.0037353085662042043 0.006899662025619503 0 0.0035423839234608877 0.0071843805923992978 0 0.0039033426511781186 0.0073581517549925896 0 0.0037353085662042043 0.006899662025619503 0 0.0035749869934761161 0.0075824269929069448 0 0.0035423839234608877 0.0071843805923992978 0 0.0039033426511781186 0.0073581517549925896 0 0.0039033426511781186 0.0073581517549925896 0 0.0043116338162325907 0.0073848568059426637 0 0.0040720298856571843 0.0070016733017495654 0 0.0042427126514839866 0.0077310259613651601 0 0.0039033426511781186 0.0073581517549925896 0 0.0043116338162325907 0.0073848568059426637 0 0.0043116338162325907 0.0073848568059426637 0 0.0040720298856571843 0.0070016733017495654 0 0.0043675361973955868 0.0070410543183622304 0 0.0040720298856571843 0.0070016733017495654 0 0.0042434518254804614 0.0067712817362559847 0 0.0043675361973955868 0.0070410543183622304 0 0.0040720298856571843 0.0070016733017495654 0 0.0039269906932855861 0.0067819108254146649 0 0.0037353085662042043 0.006899662025619503 0 0.0040720298856571843 0.0070016733017495654 0 0.0039269906932855861 0.0067819108254146649 0 0.0040564166049402292 0.00665206597169606 0 0.0040720298856571843 0.0070016733017495654 0 0.0040564166049402292 0.00665206597169606 0 0.0042434518254804614 0.0067712817362559847 0 0.0033621573219339914 0.0068366055174323981 0 0.0037353085662042043 0.006899662025619503 0 0.0035686858568614974 0.0066167302604380664 0 0.0037353085662042043 0.006899662025619503 0 0.0035686858568614974 0.0066167302604380664 0 0.0038241444645637848 0.006566830246249062 0 0.0039269906932855861 0.0067819108254146649 0 0.0037353085662042043 0.006899662025619503 0 0.0038241444645637848 0.006566830246249062 0 0.0035686858568614974 0.0066167302604380664 0 0.0038241444645637848 0.006566830246249062 0 0.0037176841434060984 0.0063396200413152809 0 0.0035686858568614974 0.0066167302604380664 0 0.0037176841434060984 0.0063396200413152809 0 0.0034718983118506561 0.0063462949324151119 0 0.0039269906932855861 0.0067819108254146649 0 0.0038241444645637848 0.006566830246249062 0 0.0040564166049402292 0.00665206597169606 0 0.0038241444645637848 0.006566830246249062 0 0.0040564166049402292 0.00665206597169606 0 0.0039338864627008474 0.0063329322180831916 0 0.0038241444645637848 0.006566830246249062 0 0.0037176841434060984 0.0063396200413152809 0 0.0039338864627008474 0.0063329322180831916 0 0.0040564166049402292 0.00665206597169606 0 0.0039338864627008474 0.0063329322180831916 0 0.00412882998530654 0.0064337989006429909 0 0.0039338864627008474 0.0063329322180831916 0 0.0040000242413461709 0.0061164548758439229 0 0.00412882998530654 0.0064337989006429909 0 0.0039338864627008474 0.0063329322180831916 0 0.0038105518967708092 0.0060995051605598994 0 0.0040000242413461709 0.0061164548758439229 0 0.0037176841434060984 0.0063396200413152809 0 0.0039338864627008474 0.0063329322180831916 0 0.0038105518967708092 0.0060995051605598994 0 0.003906656532316824 0.0058562048307875172 0 0.0038105518967708092 0.0060995051605598994 0 0.0040000242413461709 0.0061164548758439229 0 0.0036697309402934533 0.005858388049910155 0 0.0038105518967708092 0.0060995051605598994 0 0.0035964123406075077 0.0061603455485612557 0 0.0037176841434060984 0.0063396200413152809 0 0.0035964123406075077 0.0061603455485612557 0 0.0034718983118506561 0.0063462949324151119 0 0.0037176841434060984 0.0063396200413152809 0 0.0038105518967708092 0.0060995051605598994 0 0.0035964123406075077 0.0061603455485612557 0 0.0035132430632139129 0.0059690429315005546 0 0.0035964123406075077 0.0061603455485612557 0 0.0033496912939772988 0.0060772445075184135 0 0.0035964123406075077 0.0061603455485612557 0 0.0033496912939772988 0.0060772445075184135 0 0.0034718983118506561 0.0063462949324151119 0 0.0032882261235579421 0.0062895022804863631 0 0.0033496912939772988 0.0060772445075184135 0 0.0034718983118506561 0.0063462949324151119 0 0.0032882261235579421 0.0062895022804863631 0 0.0033496912939772988 0.0060772445075184135 0 0.0031617221019789457 0.0060964545028190133 0 0.0029534839289113543 0.0060930860950626246 0 0.0031617221019789457 0.0060964545028190133 0 0.0031002543522879985 0.0062825001976372858 0 0.0029534839289113543 0.0060930860950626246 0 0.0029394425765790623 0.0063476646846359645 0 0.0031002543522879985 0.0062825001976372858 0 0.0032882261235579421 0.0062895022804863631 0 0.0031617221019789457 0.0060964545028190133 0 0.0031002543522879985 0.0062825001976372858 0 0.0031002543522879985 0.0062825001976372858 0 0.0030327008649045119 0.0064995855134217257 0 0.0032450964257449504 0.006556805379151761 0 0.0032882261235579421 0.0062895022804863631 0 0.0031002543522879985 0.0062825001976372858 0 0.0032450964257449504 0.006556805379151761 0 0.0029394425765790623 0.0063476646846359645 0 0.0031002543522879985 0.0062825001976372858 0 0.0030327008649045119 0.0064995855134217257 0 0.002990106552292782 0.0067243244214696095 0 0.0030327008649045119 0.0064995855134217257 0 0.0032450964257449504 0.006556805379151761 0 0.0028580027383807473 0.0065359436551283619 0 0.002990106552292782 0.0067243244214696095 0 0.0030327008649045119 0.0064995855134217257 0 0.0033621573219339914 0.0068366055174323981 0 0.0035686858568614974 0.0066167302604380664 0 0.0032450964257449504 0.006556805379151761 0 0.0035686858568614974 0.0066167302604380664 0 0.0032450964257449504 0.006556805379151761 0 0.0034718983118506561 0.0063462949324151119 0 0.0032882261235579421 0.0062895022804863631 0 0.0032450964257449504 0.006556805379151761 0 0.0034718983118506561 0.0063462949324151119 0 0.0044575936845666847 0.0064886515618116447 0 0.0043803001879248 0.0068666685640469379 0 0.0042770852873149027 0.0064051464084600796 0 0.0044575936845666847 0.0064886515618116447 0 0.0043803001879248 0.0068666685640469379 0 0.0045857370984805981 0.0066827812786051941 0 0.0043803001879248 0.0068666685640469379 0 0.0042770852873149027 0.0064051464084600796 0 0.0041451269804906538 0.0067062706555300411 0 0.0043803001879248 0.0068666685640469379 0 0.0041451269804906538 0.0067062706555300411 0 0.0041666235447119114 0.0070971055533772783 0 0.0043803001879248 0.0068666685640469379 0 0.0045857370984805981 0.0066827812786051941 0 0.0045747904191095444 0.0069520749293267301 0 0.0047148173058175783 0.0068476042273338264 0 0.0045857370984805981 0.0066827812786051941 0 0.0045747904191095444 0.0069520749293267301 0 0.0048036347208575024 0.0065218538004080629 0 0.0047148173058175783 0.0068476042273338264 0 0.0045857370984805981 0.0066827812786051941 0 0.0048036347208575024 0.0065218538004080629 0 0.0045857370984805981 0.0066827812786051941 0 0.0046180748459355722 0.0063440727116060242 0 0.0044575936845666847 0.0064886515618116447 0 0.0045857370984805981 0.0066827812786051941 0 0.0046180748459355722 0.0063440727116060242 0 0.0044575936845666847 0.0064886515618116447 0 0.0046180748459355722 0.0063440727116060242 0 0.0044341399570399734 0.0061530676320035848 0 0.0048036347208575024 0.0065218538004080629 0 0.0048212538921531085 0.0059533244314071646 0 0.0046180748459355722 0.0063440727116060242 0 0.0046385586560046847 0.0056841091425333641 0 0.0046180748459355722 0.0063440727116060242 0 0.0044341399570399734 0.0061530676320035848 0 0.0044575936845666847 0.0064886515618116447 0 0.0044341399570399734 0.0061530676320035848 0 0.0042770852873149027 0.0064051464084600796 0 0.0044341399570399734 0.0061530676320035848 0 0.0042770852873149027 0.0064051464084600796 0 0.004260558760577406 0.0060384552945865989 0 0.0042770852873149027 0.0064051464084600796 0 0.004260558760577406 0.0060384552945865989 0 0.0041161895546105391 0.0061641258362375778 0 0.0040498249388604569 0.0058173889671735588 0 0.0041161895546105391 0.0061641258362375778 0 0.0040000242413461709 0.0061164548758439229 0 0.0041161895546105391 0.0061641258362375778 0 0.0040000242413461709 0.0061164548758439229 0 0.00412882998530654 0.0064337989006429909 0 0.0041161895546105391 0.0061641258362375778 0 0.00412882998530654 0.0064337989006429909 0 0.0043653682019900901 0.0066759354843782103 0 0.00412882998530654 0.0064337989006429909 0 0.0042434518254804614 0.0067712817362559847 0 0.0043653682019900901 0.0066759354843782103 0 0.0040564166049402292 0.00665206597169606 0 0.00412882998530654 0.0064337989006429909 0 0.0042434518254804614 0.0067712817362559847 0 0.004126940703897658 0.0062341646037178374 0 0.0041991289640142355 0.0069322237201836934 0 0.0042770852873149027 0.0064051464084600796 0 0.0041161895546105391 0.0061641258362375778 0 0.0041451269804906538 0.0067062706555300411 0 0.0041161895546105391 0.0061641258362375778 0 0.0045570506734197028 0.0067992650294975421 0 0.0043653682019900901 0.0066759354843782103 0 0.0041161895546105391 0.0061641258362375778 0 0.0041451269804906538 0.0067062706555300411 0 0.0038487518490749992 0.007050379240925113 0 0.0041451269804906538 0.0067062706555300411 0 0.0041666235447119114 0.0070971055533772783 0 0.0038487518490749992 0.007050379240925113 0 0.0038487518490749992 0.007050379240925113 0 0.0040733721535355476 0.0072627893201747899 0 0.0040622347215508716 0.0075029788547130334 0 0.0041666235447119114 0.0070971055533772783 0 0.0038487518490749992 0.007050379240925113 0 0.0040733721535355476 0.0072627893201747899 0 0.0041666235447119114 0.0070971055533772783 0 0.0040733721535355476 0.0072627893201747899 0 0.0042077394850354843 0.0073898188758736777 0 0.0043955429722788378 0.0067458973287709877 0 0.0045077195128583342 0.0074529472751392453 0 0.0045570506734197028 0.0067992650294975421 0 0.0043653682019900901 0.0066759354843782103 0 0.0042869413991136569 0.0074737224691965925 0 0.0043653682019900901 0.0066759354843782103 0 0.0043675361973955868 0.0070410543183622304 0 0.0047537009529182066 0.0074114201349288009 0 0.0042434518254804614 0.0067712817362559847 0 0.0043653682019900901 0.0066759354843782103 0 0.0043675361973955868 0.0070410543183622304 0 0.0043116338162325907 0.0073848568059426637 0 0.0043675361973955868 0.0070410543183622304 0 0.0047537009529182066 0.0074114201349288009 0 0.0043116338162325907 0.0073848568059426637 0 0.0047537009529182066 0.0074114201349288009 0 0.0045295261971790264 0.0078325043847679732 0 0.0045570506734197028 0.0067992650294975421 0 0.0042869413991136569 0.0074737224691965925 0 0.0045389275749708477 0.0077637960874331275 0 0.0038487518490749992 0.007050379240925113 0 0.0040622347215508716 0.0075029788547130334 0 0.004014516028938514 0.0078942611414963525 0 0.0041991289640142355 0.0069322237201836934 0 0.0042882415671965353 0.0078104047964118618 0 0.0040622347215508716 0.0075029788547130334 0 0.0042665340879501825 0.0076852711120075383 0 0.0042077394850354843 0.0073898188758736777 0 0.0040733721535355476 0.0072627893201747899 0 0.0040622347215508716 0.0075029788547130334 0 0.0042077394850354843 0.0073898188758736777 0 0.0040622347215508716 0.0075029788547130334 0 0.0042665340879501825 0.0076852711120075383 0 0.004014516028938514 0.0078942611414963525 0 0.0042665340879501825 0.0076852711120075383 0 0.0043714024016619675 0.0075412019412620622 0 0.0044866533244658892 0.0077885397878710112 0 0.0043714024016619675 0.0075412019412620622 0 0.00450843687610002 0.0074975427683308575 0 0.0044866533244658892 0.0077885397878710112 0 0.0043714024016619675 0.0075412019412620622 0 0.0043528923356942967 0.007247077178257128 0 0.00450843687610002 0.0074975427683308575 0 0.0042665340879501825 0.0076852711120075383 0 0.0043714024016619675 0.0075412019412620622 0 0.0042077394850354843 0.0073898188758736777 0 0.0043714024016619675 0.0075412019412620622 0 0.0042077394850354843 0.0073898188758736777 0 0.0043528923356942967 0.007247077178257128 0 0.0041666235447119114 0.0070971055533772783 0 0.0042077394850354843 0.0073898188758736777 0 0.0043528923356942967 0.007247077178257128 0 0.0043528923356942967 0.007247077178257128 0 0.0045121616761092794 0.0071742288477935016 0 0.00450843687610002 0.0074975427683308575 0 0.0043803001879248 0.0068666685640469379 0 0.0043528923356942967 0.007247077178257128 0 0.0045121616761092794 0.0071742288477935016 0 0.0043803001879248 0.0068666685640469379 0 0.0041666235447119114 0.0070971055533772783 0 0.0043528923356942967 0.007247077178257128 0 0.0047148173058175783 0.0068476042273338264 0 0.0047008243201405106 0.007100899796831199 0 0.0045747904191095444 0.0069520749293267301 0 0.0043803001879248 0.0068666685640469379 0 0.0045747904191095444 0.0069520749293267301 0 0.0045121616761092794 0.0071742288477935016 0 0.0047008243201405106 0.007100899796831199 0 0.0045747904191095444 0.0069520749293267301 0 0.0045121616761092794 0.0071742288477935016 0 0.0045121616761092794 0.0071742288477935016 0 0.0046165272082955905 0.0073670038208473003 0 0.00450843687610002 0.0074975427683308575 0 0.0047008243201405106 0.007100899796831199 0 0.0045121616761092794 0.0071742288477935016 0 0.0046165272082955905 0.0073670038208473003 0 0.0047636522901568145 0.0073753554797766942 0 0.0047008243201405106 0.007100899796831199 0 0.0046165272082955905 0.0073670038208473003 0 0.0046165272082955905 0.0073670038208473003 0 0.00450843687610002 0.0074975427683308575 0 0.0046644934855962763 0.0076723438378033621 0 0.0047636522901568145 0.0073753554797766942 0 0.0046165272082955905 0.0073670038208473003 0 0.0046644934855962763 0.0076723438378033621 0 0.00450843687610002 0.0074975427683308575 0 0.0046644934855962763 0.0076723438378033621 0 0.0044866533244658892 0.0077885397878710112 0 0.0046644934855962763 0.0076723438378033621 0 0.0046342671695468012 0.0079535157866386756 0 0.0044866533244658892 0.0077885397878710112 0 0.0046342671695468012 0.0079535157866386756 0 0.0044866533244658892 0.0077885397878710112 0 0.0045160566718143941 0.0081200109801405108 0 0.0044866533244658892 0.0077885397878710112 0 0.0043506372629095484 0.0079475045898526765 0 0.0045160566718143941 0.0081200109801405108 0 0.0042665340879501825 0.0076852711120075383 0 0.0044866533244658892 0.0077885397878710112 0 0.0043506372629095484 0.0079475045898526765 0 0.0043506372629095484 0.0079475045898526765 0 0.0043716695513853513 0.0081937843813751632 0 0.0045160566718143941 0.0081200109801405108 0 0.0043716695513853513 0.0081937843813751632 0 0.0044569123603365327 0.0084550660285813099 0 0.0045156628888970828 0.0084052450414305521 0 0.0043716695513853513 0.0081937843813751632 0 0.0045160566718143941 0.0081200109801405108 0 0.0045156628888970828 0.0084052450414305521 0 0.004690944676166247 0.0082692766765147668 0 0.0045160566718143941 0.0081200109801405108 0 0.0045156628888970828 0.0084052450414305521 0 0.004690944676166247 0.0082692766765147668 0 0.0046342671695468012 0.0079535157866386756 0 0.0045160566718143941 0.0081200109801405108 0 0.0042869413991136569 0.0074737224691965925 0 0.0045389275749708477 0.0077637960874331275 0 0.0042899024907380604 0.0081820611159571545 0 0.0047537009529182066 0.0074114201349288009 0 0.0045295261971790264 0.0078325043847679732 0 0.0048510680996703016 0.0083375770316788424 0 0.0044090291140927353 0.0082011389943887521 0 0.0045295261971790264 0.0078325043847679732 0 0.0048510680996703016 0.0083375770316788424 0 0.0045077195128583342 0.0074529472751392453 0 0.0045679148782177261 0.008240308053543529 0 0.0042665340879501825 0.0076852711120075383 0 0.0043506372629095484 0.0079475045898526765 0 0.004014516028938514 0.0078942611414963525 0 0.0043506372629095484 0.0079475045898526765 0 0.0043716695513853513 0.0081937843813751632 0 0.004014516028938514 0.0078942611414963525 0 0.0042882415671965353 0.0078104047964118618 0 0.0044306662750319371 0.0084074717272620784 0 0.0045389275749708477 0.0077637960874331275 0 0.0042899024907380604 0.0081820611159571545 0 0.0044569123603365327 0.0084550660285813099 0 0.0043716695513853513 0.0081937843813751632 0 0.004014516028938514 0.0078942611414963525 0 0.0044569123603365327 0.0084550660285813099 0 0.0044090291140927353 0.0082011389943887521 0 0.0048510680996703016 0.0083375770316788424 0 0.0046582916832508346 0.0085643007205563945 0 0.0045679148782177261 0.008240308053543529 0 0.0045748147893966218 0.0085910062995814222 0 0.0048510680996703016 0.0083375770316788424 0 0.0046582916832508346 0.0085643007205563945 0 0.004574645399397264 0.0086426980495783578 0 0.0046113928609065706 0.0088032038738010757 0 0.0046582916832508346 0.0085643007205563945 0 0.004574645399397264 0.0086426980495783578 0 0.0042899024907380604 0.0081820611159571545 0 0.004574645399397264 0.0086426980495783578 0 0.0044569123603365327 0.0084550660285813099 0 0.0044569123603365327 0.0084550660285813099 0 0.0045019417568807965 0.008563727987710705 0 0.0045156628888970828 0.0084052450414305521 0 0.004574645399397264 0.0086426980495783578 0 0.0044569123603365327 0.0084550660285813099 0 0.0045019417568807965 0.008563727987710705 0 0.004574645399397264 0.0086426980495783578 0 0.0046050299503889178 0.0085701682443133434 0 0.0045019417568807965 0.008563727987710705 0 0.0046050299503889178 0.0085701682443133434 0 0.0045019417568807965 0.008563727987710705 0 0.0044901791642211024 0.0085834445697863387 0 0.0047515517382795891 0.0086389641550760083 0 0.0046113928609065706 0.0088032038738010757 0 0.004574645399397264 0.0086426980495783578 0 0.0047515517382795891 0.0086389641550760083 0 0.004574645399397264 0.0086426980495783578 0 0.0046050299503889178 0.0085701682443133434 0 0.004690944676166247 0.0082692766765147668 0 0.0045156628888970828 0.0084052450414305521 0 0.0046512869968725265 0.0084567043496377586 0 0.0045156628888970828 0.0084052450414305521 0 0.0044901791642211024 0.0085834445697863387 0 0.0046512869968725265 0.0084567043496377586 0 0.0045019417568807965 0.008563727987710705 0 0.0045156628888970828 0.0084052450414305521 0 0.0044901791642211024 0.0085834445697863387 0 0.0044793989879102969 0.0085806530634394487 0 0.0043955186213473782 0.0085657420996432688 0 0.0044901791642211024 0.0085834445697863387 0 0.0041445372529077523 0.0086845171146914396 0 0.0042364343440605178 0.0083806370698142878 0 0.0044901791642211024 0.0085834445697863387 0 0.0044234103961313057 0.0083161003514955634 0 0.0045927337298740482 0.0084501520211135578 0 0.0044901791642211024 0.0085834445697863387 0 0.0042364343440605178 0.0083806370698142878 0 0.0044234103961313057 0.0083161003514955634 0 0.0042364343440605178 0.0083806370698142878 0 0.0042757806548825942 0.0081270530311243275 0 0.0040695426675462385 0.008144929568005237 0 0.0042364343440605178 0.0083806370698142878 0 0.0044234103961313057 0.0083161003514955634 0 0.0042757806548825942 0.0081270530311243275 0 0.0047515517382795891 0.0086389641550760083 0 0.0046050299503889178 0.0085701682443133434 0 0.0047823626165305983 0.0084743524026337919 0 0.0046050299503889178 0.0085701682443133434 0 0.0045927337298740482 0.0084501520211135578 0 0.0047823626165305983 0.0084743524026337919 0 0.0046050299503889178 0.0085701682443133434 0 0.0044901791642211024 0.0085834445697863387 0 0.0045927337298740482 0.0084501520211135578 0 0.0044234103961313057 0.0083161003514955634 0 0.0045927337298740482 0.0084501520211135578 0 0.0046672437800304107 0.0082678313037539627 0 0.0045927337298740482 0.0084501520211135578 0 0.0047823626165305983 0.0084743524026337919 0 0.0046672437800304107 0.0082678313037539627 0 0.0047823626165305983 0.0084743524026337919 0 0.0046672437800304107 0.0082678313037539627 0 0.0049583709697523584 0.0083602958024662482 0 0.0046672437800304107 0.0082678313037539627 0 0.0049235207287045522 0.0081669738663756961 0 0.0049583709697523584 0.0083602958024662482 0 0.0046672437800304107 0.0082678313037539627 0 0.0047175159774924215 0.0080671253093454777 0 0.004461493382248622 0.008018822045526449 0 0.0046672437800304107 0.0082678313037539627 0 0.0047175159774924215 0.0080671253093454777 0 0.0049235207287045522 0.0081669738663756961 0 0.0042757806548825942 0.0081270530311243275 0 0.0041892436401409494 0.0079053598471049945 0 0.0040695426675462385 0.008144929568005237 0 0.0044234103961313057 0.0083161003514955634 0 0.0046672437800304107 0.0082678313037539627 0 0.004461493382248622 0.008018822045526449 0 0.0044234103961313057 0.0083161003514955634 0 0.0042757806548825942 0.0081270530311243275 0 0.004461493382248622 0.008018822045526449 0 0.004461493382248622 0.008018822045526449 0 0.0041892436401409494 0.0079053598471049945 0 0.0043114093173510486 0.0078048981077187976 0 0.0042757806548825942 0.0081270530311243275 0 0.004461493382248622 0.008018822045526449 0 0.0041892436401409494 0.0079053598471049945 0 0.0041892436401409494 0.0079053598471049945 0 0.0043114093173510486 0.0078048981077187976 0 0.0041831034302859159 0.0077367875265886774 0 0.0043114093173510486 0.0078048981077187976 0 0.0041831034302859159 0.0077367875265886774 0 0.0042981372046685673 0.0076589150608133523 0 0.0043114093173510486 0.0078048981077187976 0 0.0042981372046685673 0.0076589150608133523 0 0.0044470396957033394 0.0077915974298550794 0 0.0041831034302859159 0.0077367875265886774 0 0.0042981372046685673 0.0076589150608133523 0 0.0040588650388126745 0.0076306494091361483 0 0.0042981372046685673 0.0076589150608133523 0 0.0044470396957033394 0.0077915974298550794 0 0.0044863896393082057 0.0076876356006420499 0 0.004461493382248622 0.008018822045526449 0 0.0043114093173510486 0.0078048981077187976 0 0.0044470396957033394 0.0077915974298550794 0 0.004461493382248622 0.008018822045526449 0 0.0044470396957033394 0.0077915974298550794 0 0.0046713965997586468 0.0079030370733439836 0 0.0047175159774924215 0.0080671253093454777 0 0.004461493382248622 0.008018822045526449 0 0.0046713965997586468 0.0079030370733439836 0 0.0047175159774924215 0.0080671253093454777 0 0.0049235207287045522 0.0081669738663756961 0 0.0049824932167747841 0.0079972288663050575 0 0.0047175159774924215 0.0080671253093454777 0 0.0046713965997586468 0.0079030370733439836 0 0.0049824932167747841 0.0079972288663050575 0 0.0046713965997586468 0.0079030370733439836 0 0.0049824932167747841 0.0079972288663050575 0 0.0049317310019760261 0.0077979413883927226 0 0.0046713965997586468 0.0079030370733439836 0 0.0044863896393082057 0.0076876356006420499 0 0.0049317310019760261 0.0077979413883927226 0 0.0044470396957033394 0.0077915974298550794 0 0.0046713965997586468 0.0079030370733439836 0 0.0044863896393082057 0.0076876356006420499 0 0.0044863896393082057 0.0076876356006420499 0 0.0049317310019760261 0.0077979413883927226 0 0.0046797786420012316 0.0075324901109429061 0 0.0049317310019760261 0.0077979413883927226 0 0.0046797786420012316 0.0075324901109429061 0 0.0049884530856229205 0.007567044995733037 0 0.0044863896393082057 0.0076876356006420499 0 0.0046797786420012316 0.0075324901109429061 0 0.0043813791938889061 0.0072678448284357062 0 0.0044863896393082057 0.0076876356006420499 0 0.0041056944278165756 0.0074018055506541273 0 0.0043813791938889061 0.0072678448284357062 0 0.0041056944278165756 0.0074018055506541273 0 0.0036543524867344249 0.0075790881097961655 0 0.0036941510367692232 0.0070570520191655228 0 0.0038893883427324394 0.008050405651148871 0 0.0036543524867344249 0.0075790881097961655 0 0.0035106204681318049 0.0078489602639495292 0 0.0038893883427324394 0.008050405651148871 0 0.0041056944278165756 0.0074018055506541273 0 0.0036543524867344249 0.0075790881097961655 0 0.0038893883427324394 0.008050405651148871 0 0.0044863896393082057 0.0076876356006420499 0 0.0041056944278165756 0.0074018055506541273 0 0.0041273457293995244 0.0079081113035740606 0 0.0044470602435361713 0.0076829431914356497 0 0.0057179291724562351 0.0078764560074179608 0 0.0060635744512788116 0.0079153186879346756 0 0.0060050256552649939 0.008018179303897895 0 0.0060635744512788116 0.0079153186879346756 0 0.0060050256552649939 0.008018179303897895 0 0.0062774653865472745 0.0079898249601409402 0 0.0060635744512788116 0.0079153186879346756 0 0.0062129984867574399 0.0079056218790811775 0 0.0057752681390975877 0.007708962089095584 0 0.0057179291724562351 0.0078764560074179608 0 0.0053624237707258701 0.0077449179186569184 0 0.0057752681390975877 0.007708962089095584 0 0.0057179291724562351 0.0078764560074179608 0 0.0060635744512788116 0.0079153186879346756 0 0.0057752681390975877 0.007708962089095584 0 0.0053624237707258701 0.0077449179186569184 0 0.0049884530856229205 0.007567044995733037 0 0.0052741818653196373 0.0074952090945879218 0 0.0049317310019760261 0.0077979413883927226 0 0.0053624237707258701 0.0077449179186569184 0 0.0049884530856229205 0.007567044995733037 0 0.0049317310019760261 0.0077979413883927226 0 0.0053624237707258701 0.0077449179186569184 0 0.0054486556138092796 0.0079777402593705082 0 0.0057179291724562351 0.0078764560074179608 0 0.0053624237707258701 0.0077449179186569184 0 0.0054486556138092796 0.0079777402593705082 0 0.0049824932167747841 0.0079972288663050575 0 0.0049317310019760261 0.0077979413883927226 0 0.0054486556138092796 0.0079777402593705082 0 0.0049824932167747841 0.0079972288663050575 0 0.0054486556138092796 0.0079777402593705082 0 0.0053718790193858666 0.0082283195440109539 0 0.0054486556138092796 0.0079777402593705082 0 0.0058194543510580931 0.0081267467458654482 0 0.0053718790193858666 0.0082283195440109539 0 0.0054486556138092796 0.0079777402593705082 0 0.0058194543510580931 0.0081267467458654482 0 0.0060050256552649939 0.008018179303897895 0 0.0057179291724562351 0.0078764560074179608 0 0.0054486556138092796 0.0079777402593705082 0 0.0060050256552649939 0.008018179303897895 0 0.0058194543510580931 0.0081267467458654482 0 0.0058513928792641393 0.0082845021412521151 0 0.006242572005135655 0.0081621926283582998 0 0.0058194543510580931 0.0081267467458654482 0 0.0060050256552649939 0.008018179303897895 0 0.006242572005135655 0.0081621926283582998 0 0.0058513928792641393 0.0082845021412521151 0 0.0061016659786141611 0.0083175912184620202 0 0.006242572005135655 0.0081621926283582998 0 0.0058194543510580931 0.0081267467458654482 0 0.0058513928792641393 0.0082845021412521151 0 0.0053718790193858666 0.0082283195440109539 0 0.0058513928792641393 0.0082845021412521151 0 0.005701895711473861 0.0085109959405760549 0 0.0053718790193858666 0.0082283195440109539 0 0.0056439253899276589 0.008378946145718354 0 0.0060531308639060017 0.0083136313170450518 0 0.0058513928792641393 0.0082845021412521151 0 0.005701895711473861 0.0085109959405760549 0 0.0061016659786141611 0.0083175912184620202 0 0.0055886161139595564 0.0082420297440953787 0 0.0059828233316029699 0.0084884604781891408 0 0.0061016659786141611 0.0083175912184620202 0 0.0049235207287045522 0.0081669738663756961 0 0.0053718790193858666 0.0082283195440109539 0 0.0049583709697523584 0.0083602958024662482 0 0.0049235207287045522 0.0081669738663756961 0 0.0049824932167747841 0.0079972288663050575 0 0.0053718790193858666 0.0082283195440109539 0 0.0056439253899276589 0.008378946145718354 0 0.0051714014935233636 0.0084332765497348808 0 0.005701895711473861 0.0085109959405760549 0 0.0053718790193858666 0.0082283195440109539 0 0.0052448114184037373 0.0085533989979488592 0 0.0053718790193858666 0.0082283195440109539 0 0.0049583709697523584 0.0083602958024662482 0 0.0052448114184037373 0.0085533989979488592 0 0.0048242203036617396 0.0084793428062717221 0 0.0051714014935233636 0.0084332765497348808 0 0.0047823626165305983 0.0084743524026337919 0 0.0049583709697523584 0.0083602958024662482 0 0.0052448114184037373 0.0085533989979488592 0 0.0047823626165305983 0.0084743524026337919 0 0.005088653095487867 0.00831905121050713 0 0.0050441730135620828 0.0085789639570972558 0 0.005088653095487867 0.00831905121050713 0 0.0050441730135620828 0.0085789639570972558 0 0.0055673600534911355 0.0085618355643840068 0 0.0047515517382795891 0.0086389641550760083 0 0.0047823626165305983 0.0084743524026337919 0 0.0050441730135620828 0.0085789639570972558 0 0.0055886161139595564 0.0082420297440953787 0 0.0055673600534911355 0.0085618355643840068 0 0.0059828233316029699 0.0084884604781891408 0 0.0055886161139595564 0.0082420297440953787 0 0.005088653095487867 0.00831905121050713 0 0.0055673600534911355 0.0085618355643840068 0 0.005350982591126415 0.0087713603677267039 0 0.0050441730135620828 0.0085789639570972558 0 0.0055673600534911355 0.0085618355643840068 0 0.0057237179578548793 0.008959772333667862 0 0.0055673600534911355 0.0085618355643840068 0 0.0060077935643282872 0.0087495627335921512 0 0.0055673600534911355 0.0085618355643840068 0 0.0060077935643282872 0.0087495627335921512 0 0.0059828233316029699 0.0084884604781891408 0 0.0060077935643282872 0.0087495627335921512 0 0.0059828233316029699 0.0084884604781891408 0 0.0062857755819797382 0.0086767379300302701 0 0.0059828233316029699 0.0084884604781891408 0 0.0062857755819797382 0.0086767379300302701 0 0.0063060154070751426 0.0084554152134375029 0 0.0062857755819797382 0.0086767379300302701 0 0.0065488269174964978 0.0086223234490887118 0 0.0063060154070751426 0.0084554152134375029 0 0.0063348253551360886 0.008909411383318841 0 0.0062857755819797382 0.0086767379300302701 0 0.0065453757904938318 0.0088441947238369501 0 0.0062857755819797382 0.0086767379300302701 0 0.0065453757904938318 0.0088441947238369501 0 0.0065488269174964978 0.0086223234490887118 0 0.0063348253551360886 0.008909411383318841 0 0.0060077935643282872 0.0087495627335921512 0 0.0062857755819797382 0.0086767379300302701 0 0.0065453757904938318 0.0088441947238369501 0 0.0066830912037664243 0.008772219239528898 0 0.0065488269174964978 0.0086223234490887118 0 0.0066941927170372211 0.0089100499880703336 0 0.0065453757904938318 0.0088441947238369501 0 0.0066830912037664243 0.008772219239528898 0 0.0069015956353679171 0.0091344820141827394 0 0.0066670625896176373 0.0087499418617252543 0 0.0068345989416490434 0.0091117075356498493 0 0.0066830912037664243 0.008772219239528898 0 0.0069766681841070812 0.0087416105755674031 0 0.0069015956353679171 0.0091344820141827394 0 0.0070750089615294219 0.0088564340397420949 0 0.0069882029689083101 0.0094598514639543472 0 0.0071702740469366984 0.0089343569418466311 0 0.0074181908445056337 0.0091335288297060384 0 0.0074742996811201718 0.0095200860449599738 0 0.0069882029689083101 0.0094598514639543472 0 0.0074181908445056337 0.0091335288297060384 0 0.0071702740469366984 0.0089343569418466311 0 0.0072398497022916706 0.0084802308931833329 0 0.0074575498230414154 0.0088135040522376671 0 0.0069766681841070812 0.0087416105755674031 0 0.0068031697786408345 0.0085543406626809697 0 0.0072398497022916706 0.0084802308931833329 0 0.0070750089615294219 0.0088564340397420949 0 0.0072234829972274428 0.0084831164300444312 0 0.0071702740469366984 0.0089343569418466311 0 0.0074181908445056337 0.0091335288297060384 0 0.0074575498230414154 0.0088135040522376671 0 0.0066830912037664243 0.008772219239528898 0 0.0065488269174964978 0.0086223234490887118 0 0.0068031697786408345 0.0085543406626809697 0 0.0066830912037664243 0.008772219239528898 0 0.0069766681841070812 0.0087416105755674031 0 0.0068031697786408345 0.0085543406626809697 0 0.0065488269174964978 0.0086223234490887118 0 0.0068031697786408345 0.0085543406626809697 0 0.0065890086344096944 0.0083834927409608666 0 0.0068031697786408345 0.0085543406626809697 0 0.0065890086344096944 0.0083834927409608666 0 0.0069182414845779675 0.0082098900840722935 0 0.0068031697786408345 0.0085543406626809697 0 0.0072398497022916706 0.0084802308931833329 0 0.0069182414845779675 0.0082098900840722935 0 0.0072398497022916706 0.0084802308931833329 0 0.0069182414845779675 0.0082098900840722935 0 0.0072922070754583715 0.0081726890857150986 0 0.0069182414845779675 0.0082098900840722935 0 0.0072922070754583715 0.0081726890857150986 0 0.0070829800360013807 0.0080781687813596161 0 0.0065890086344096944 0.0083834927409608666 0 0.0066648603164193541 0.0081747278746866717 0 0.0069182414845779675 0.0082098900840722935 0 0.0066648603164193541 0.0081747278746866717 0 0.0063758964614141185 0.0082861426695164976 0 0.006242572005135655 0.0081621926283582998 0 0.0065890086344096944 0.0083834927409608666 0 0.0066648603164193541 0.0081747278746866717 0 0.0063758964614141185 0.0082861426695164976 0 0.0063758964614141185 0.0082861426695164976 0 0.0061016659786141611 0.0083175912184620202 0 0.006242572005135655 0.0081621926283582998 0 0.0063758964614141185 0.0082861426695164976 0 0.0061016659786141611 0.0083175912184620202 0 0.0063060154070751426 0.0084554152134375029 0 0.0059828233316029699 0.0084884604781891408 0 0.0061016659786141611 0.0083175912184620202 0 0.0063060154070751426 0.0084554152134375029 0 0.0065890086344096944 0.0083834927409608666 0 0.0063758964614141185 0.0082861426695164976 0 0.0063060154070751426 0.0084554152134375029 0 0.0065488269174964978 0.0086223234490887118 0 0.0065890086344096944 0.0083834927409608666 0 0.0063060154070751426 0.0084554152134375029 0 0.0092717879462389883 0.0085268648685884376 0 0.0092177688779062714 0.0087739524992994488 0 0.0089009649012494335 0.0086230357814360316 0 0.0092717879462389883 0.0085268648685884376 0 0.0089009649012494335 0.0086230357814360316 0 0.0088966357913943996 0.0084268290365274445 0 0.0092177688779062714 0.0087739524992994488 0 0.0088425624723603331 0.0088528346129614997 0 0.0089009649012494335 0.0086230357814360316 0 0.0092717879462389883 0.0085268648685884376 0 0.0092177688779062714 0.0087739524992994488 0 0.0095205750556800472 0.0087357296543021917 0 0.0092177688779062714 0.0087739524992994488 0 0.0095205750556800472 0.0087357296543021917 0 0.0095465333259708209 0.0088484428981261062 0 0.0092177688779062714 0.0087739524992994488 0 0.0095465333259708209 0.0088484428981261062 0 0.0093127941448756073 0.0089146661299802452 0 0.0095465333259708209 0.0088484428981261062 0 0.0095521296344792898 0.0089373148374302727 0 0.0097186193337335958 0.0088648963593604899 0 0.0095465333259708209 0.0088484428981261062 0 0.0095521296344792898 0.0089373148374302727 0 0.0093127941448756073 0.0089146661299802452 0 0.0095521296344792898 0.0089373148374302727 0 0.0096649695218009573 0.0089925646342323244 0 0.0093370850040938574 0.00907059518942137 0 0.009417330224495651 0.0092822996388181641 0 0.0096649695218009573 0.0089925646342323244 0 0.0093370850040938574 0.00907059518942137 0 0.0097804221378914417 0.0088209311702679479 0 0.0096649695218009573 0.0089925646342323244 0 0.0097186193337335958 0.0088648963593604899 0 0.0095521296344792898 0.0089373148374302727 0 0.0096649695218009573 0.0089925646342323244 0 0.0097186193337335958 0.0088648963593604899 0 0.009110099595665529 0.0092257331444561986 0 0.0093370850040938574 0.00907059518942137 0 0.0091304393955309038 0.00901826343583206 0 0.0092563886756352898 0.0092782220077671541 0 0.009110099595665529 0.0092257331444561986 0 0.0093370850040938574 0.00907059518942137 0 0.0092563886756352898 0.0092782220077671541 0 0.009417330224495651 0.0092822996388181641 0 0.0093370850040938574 0.00907059518942137 0 0.0095521296344792898 0.0089373148374302727 0 0.0093370850040938574 0.00907059518942137 0 0.0093127941448756073 0.0089146661299802452 0 0.0093370850040938574 0.00907059518942137 0 0.0091304393955309038 0.00901826343583206 0 0.0093127941448756073 0.0089146661299802452 0 0.009110099595665529 0.0092257331444561986 0 0.0091304393955309038 0.00901826343583206 0 0.0089419400609083727 0.009156720897079423 0 0.0091304393955309038 0.00901826343583206 0 0.0090878061125288581 0.0089120617307081821 0 0.008891214299518807 0.0090212920015099608 0 0.0092177688779062714 0.0087739524992994488 0 0.0090878061125288581 0.0089120617307081821 0 0.0088425624723603331 0.0088528346129614997 0 0.0091304393955309038 0.00901826343583206 0 0.0090878061125288581 0.0089120617307081821 0 0.0093127941448756073 0.0089146661299802452 0 0.0092177688779062714 0.0087739524992994488 0 0.0090878061125288581 0.0089120617307081821 0 0.0093127941448756073 0.0089146661299802452 0 0.0088425624723603331 0.0088528346129614997 0 0.008891214299518807 0.0090212920015099608 0 0.0085444749577171138 0.0090181935029719131 0 0.0090878061125288581 0.0089120617307081821 0 0.0088425624723603331 0.0088528346129614997 0 0.008891214299518807 0.0090212920015099608 0 0.0091304393955309038 0.00901826343583206 0 0.008891214299518807 0.0090212920015099608 0 0.0089419400609083727 0.009156720897079423 0 0.008891214299518807 0.0090212920015099608 0 0.0087167467424592998 0.0092151852658675405 0 0.0085444749577171138 0.0090181935029719131 0 0.008891214299518807 0.0090212920015099608 0 0.0089419400609083727 0.009156720897079423 0 0.0087167467424592998 0.0092151852658675405 0 0.0089419400609083727 0.009156720897079423 0 0.0087167467424592998 0.0092151852658675405 0 0.008880797537883213 0.0093042073149818168 0 0.009110099595665529 0.0092257331444561986 0 0.0089419400609083727 0.009156720897079423 0 0.008880797537883213 0.0093042073149818168 0 0.0086441241427477195 0.0095021230233598795 0 0.0087167467424592998 0.0092151852658675405 0 0.0083907759295070317 0.0092639647306792926 0 0.0087167467424592998 0.0092151852658675405 0 0.0085444749577171138 0.0090181935029719131 0 0.0083907759295070317 0.0092639647306792926 0 0.0088425624723603331 0.0088528346129614997 0 0.0085444749577171138 0.0090181935029719131 0 0.0085971795018618003 0.0088496001429789438 0 0.0085444749577171138 0.0090181935029719131 0 0.0085971795018618003 0.0088496001429789438 0 0.0082940802461626602 0.00884771217873093 0 0.0085910862353598821 0.0087018474747741353 0 0.0085971795018618003 0.0088496001429789438 0 0.0082940802461626602 0.00884771217873093 0 0.0088425624723603331 0.0088528346129614997 0 0.0085910862353598821 0.0087018474747741353 0 0.0085971795018618003 0.0088496001429789438 0 0.0088425624723603331 0.0088528346129614997 0 0.0085910862353598821 0.0087018474747741353 0 0.0089009649012494335 0.0086230357814360316 0 0.0085910862353598821 0.0087018474747741353 0 0.0089009649012494335 0.0086230357814360316 0 0.0085612341031996633 0.0084757248982369818 0 0.0085910862353598821 0.0087018474747741353 0 0.0081775953100725954 0.0085623050041732669 0 0.0085612341031996633 0.0084757248982369818 0 0.0081775953100725954 0.0085623050041732669 0 0.0079890658286517653 0.0087845891959469572 0 0.0082940802461626602 0.00884771217873093 0 0.0085910862353598821 0.0087018474747741353 0 0.0081775953100725954 0.0085623050041732669 0 0.0082940802461626602 0.00884771217873093 0 0.0081775953100725954 0.0085623050041732669 0 0.0079890658286517653 0.0087845891959469572 0 0.0077537011022229298 0.0086166208432782426 0 0.0079890658286517653 0.0087845891959469572 0 0.0082940802461626602 0.00884771217873093 0 0.0079956512247878007 0.0089993773993194068 0 0.0079890658286517653 0.0087845891959469572 0 0.0079956512247878007 0.0089993773993194068 0 0.0077263922024190862 0.0089104490542952896 0 0.0085444749577171138 0.0090181935029719131 0 0.0082940802461626602 0.00884771217873093 0 0.0082579254208879245 0.009078666961856276 0 0.0082940802461626602 0.00884771217873093 0 0.0082579254208879245 0.009078666961856276 0 0.0079956512247878007 0.0089993773993194068 0 0.0085444749577171138 0.0090181935029719131 0 0.0082579254208879245 0.009078666961856276 0 0.0083907759295070317 0.0092639647306792926 0 0.0082546265061652756 0.0095461683408902993 0 0.0083907759295070317 0.0092639647306792926 0 0.0080738164962921577 0.0092778230289243743 0 0.0082579254208879245 0.009078666961856276 0 0.0083907759295070317 0.0092639647306792926 0 0.0080738164962921577 0.0092778230289243743 0 0.0078652236207882864 0.0095390923157725026 0 0.0080738164962921577 0.0092778230289243743 0 0.0077658872090361859 0.009222140439164847 0 0.0080738164962921577 0.0092778230289243743 0 0.0079956512247878007 0.0089993773993194068 0 0.0077658872090361859 0.009222140439164847 0 0.0082579254208879245 0.009078666961856276 0 0.0080738164962921577 0.0092778230289243743 0 0.0079956512247878007 0.0089993773993194068 0 0.0077658872090361859 0.009222140439164847 0 0.0074181908445056337 0.0091335288297060384 0 0.0077263922024190862 0.0089104490542952896 0 0.0079956512247878007 0.0089993773993194068 0 0.0077658872090361859 0.009222140439164847 0 0.0077263922024190862 0.0089104490542952896 0 0.0074742996811201718 0.0095200860449599738 0 0.0077658872090361859 0.009222140439164847 0 0.0074181908445056337 0.0091335288297060384 0 0.0074181908445056337 0.0091335288297060384 0 0.0074575498230414154 0.0088135040522376671 0 0.0077263922024190862 0.0089104490542952896 0 0.0074575498230414154 0.0088135040522376671 0 0.0077263922024190862 0.0089104490542952896 0 0.0077537011022229298 0.0086166208432782426 0 0.0079890658286517653 0.0087845891959469572 0 0.0077263922024190862 0.0089104490542952896 0 0.0077537011022229298 0.0086166208432782426 0 0.0072398497022916706 0.0084802308931833329 0 0.0074575498230414154 0.0088135040522376671 0 0.0077537011022229298 0.0086166208432782426 0 0.0072398497022916706 0.0084802308931833329 0 0.0077537011022229298 0.0086166208432782426 0 0.0078236183267801438 0.0082793523655631408 0 0.0072398497022916706 0.0084802308931833329 0 0.0072922070754583715 0.0081726890857150986 0 0.0078236183267801438 0.0082793523655631408 0 0.0072922070754583715 0.0081726890857150986 0 0.0076031480756847073 0.0080234844461534172 0 0.0078236183267801438 0.0082793523655631408 0 0.0072922070754583715 0.0081726890857150986 0 0.0076031480756847073 0.0080234844461534172 0 0.007311869180992317 0.0079994314905658392 0 0.0076031480756847073 0.0080234844461534172 0 0.0080011846036561994 0.0080225873901606046 0 0.0078236183267801438 0.0082793523655631408 0 0.0076031480756847073 0.0080234844461534172 0 0.0080011846036561994 0.0080225873901606046 0 0.0078395995652827521 0.0077498586219897705 0 0.0080011846036561994 0.0080225873901606046 0 0.0078236183267801438 0.0082793523655631408 0 0.0082753994091578839 0.0082665568012765672 0 0.0081775953100725954 0.0085623050041732669 0 0.0078236183267801438 0.0082793523655631408 0 0.0082753994091578839 0.0082665568012765672 0 0.0081775953100725954 0.0085623050041732669 0 0.0077537011022229298 0.0086166208432782426 0 0.0078236183267801438 0.0082793523655631408 0 0.0081775953100725954 0.0085623050041732669 0 0.0085612341031996633 0.0084757248982369818 0 0.0082753994091578839 0.0082665568012765672 0 0.0085612341031996633 0.0084757248982369818 0 0.0087416516948609913 0.0082379440558450808 0 0.0088966357913943996 0.0084268290365274445 0 0.0089009649012494335 0.0086230357814360316 0 0.0085612341031996633 0.0084757248982369818 0 0.0088966357913943996 0.0084268290365274445 0 0.0085612341031996633 0.0084757248982369818 0 0.0087416516948609913 0.0082379440558450808 0 0.0082753994091578839 0.0082665568012765672 0 0.0080011846036561994 0.0080225873901606046 0 0.0082753994091578839 0.0082665568012765672 0 0.0084414686176558142 0.008014275914917636 0 0.0087416516948609913 0.0082379440558450808 0 0.0082753994091578839 0.0082665568012765672 0 0.0084414686176558142 0.008014275914917636 0 0.0080011846036561994 0.0080225873901606046 0 0.0084414686176558142 0.008014275914917636 0 0.0083677221317918007 0.007719383431173025 0 0.0084414686176558142 0.008014275914917636 0 0.0087497119585912518 0.0078153440652883391 0 0.0087953282472674511 0.0080240592849470903 0 0.0084414686176558142 0.008014275914917636 0 0.0087497119585912518 0.0078153440652883391 0 0.0083677221317918007 0.007719383431173025 0 0.0087416516948609913 0.0082379440558450808 0 0.0084414686176558142 0.008014275914917636 0 0.0087953282472674511 0.0080240592849470903 0 0.0087416516948609913 0.0082379440558450808 0 0.0087953282472674511 0.0080240592849470903 0 0.0090841493696552505 0.0081142800141715075 0 0.0087953282472674511 0.0080240592849470903 0 0.0090401641730421707 0.0078782752638256182 0 0.0090841493696552505 0.0081142800141715075 0 0.0087497119585912518 0.0078153440652883391 0 0.0087953282472674511 0.0080240592849470903 0 0.0090401641730421707 0.0078782752638256182 0 0.0087497119585912518 0.0078153440652883391 0 0.0090401641730421707 0.0078782752638256182 0 0.0089969103482018514 0.0076955115588672176 0 0.0090401641730421707 0.0078782752638256182 0 0.0092304427988952574 0.0077390369314257485 0 0.0093683165344958397 0.0079521350709291835 0 0.0090401641730421707 0.0078782752638256182 0 0.0092304427988952574 0.0077390369314257485 0 0.0089969103482018514 0.0076955115588672176 0 0.0090401641730421707 0.0078782752638256182 0 0.0090841493696552505 0.0081142800141715075 0 0.0093683165344958397 0.0079521350709291835 0 0.0090841493696552505 0.0081142800141715075 0 0.0094417228644810974 0.0082825302139437566 0 0.0093683165344958397 0.0079521350709291835 0 0.0090841493696552505 0.0081142800141715075 0 0.0091148596653388772 0.0083251278106773012 0 0.0094417228644810974 0.0082825302139437566 0 0.0087416516948609913 0.0082379440558450808 0 0.0091148596653388772 0.0083251278106773012 0 0.0088966357913943996 0.0084268290365274445 0 0.0087416516948609913 0.0082379440558450808 0 0.0090841493696552505 0.0081142800141715075 0 0.0091148596653388772 0.0083251278106773012 0 0.0092717879462389883 0.0085268648685884376 0 0.0091148596653388772 0.0083251278106773012 0 0.0088966357913943996 0.0084268290365274445 0 0.0092717879462389883 0.0085268648685884376 0 0.0091148596653388772 0.0083251278106773012 0 0.0094417228644810974 0.0082825302139437566 0 0.011247550433251921 0.010322864349978908 0 0.011241830545680431 0.0093651833820711083 0 0.011641734251495834 0.0098363873793161586 0 0.011247550433251921 0.010322864349978908 0 0.010502793882749651 0.0099789484959238416 0 0.011241830545680431 0.0093651833820711083 0 0.0091268665829103215 0.0075152305223782617 0 0.0088618464608917463 0.0075450788764199915 0 0.0083348260631417315 0.007210229396218789 0 0.0092304427988952574 0.0077390369314257485 0 0.009092578636833654 0.0074975402440397958 0 0.0089969103482018514 0.0076955115588672176 0 0.0087497119585912518 0.0078153440652883391 0 0.0089969103482018514 0.0076955115588672176 0 0.0088618464608917463 0.0075450788764199915 0 0.0099318769479788301 0.0082616514460847577 0 0.0091493790385839095 0.0080394215610764038 0 0.009092578636833654 0.0074975402440397958 0 0.0089969103482018514 0.0076955115588672176 0 0.0088618464608917463 0.0075450788764199915 0 0.0088618464608917463 0.0075450788764199915 0 0.0083677221317918007 0.007719383431173025 0 0.0083348260631417315 0.007210229396218789 0 0.0099318769479788301 0.0082616514460847577 0 0.0087581968368520245 0.0086627853338475756 0 0.0087497119585912518 0.0078153440652883391 0 0.0088618464608917463 0.0075450788764199915 0 0.0083677221317918007 0.007719383431173025 0 0.0083677221317918007 0.007719383431173025 0 0.0083348260631417315 0.007210229396218789 0 0.0078395995652827521 0.0077498586219897705 0 0.0087581968368520245 0.0086627853338475756 0 0.0097644730968437041 0.0090708349633224963 0 0.0080894464844111381 0.0085742546214053906 0 0.0080940691605575175 0.0085563163276697208 0 0.0081510144505241282 0.0086270795566378723 0 0.0080894464844111381 0.0085742546214053906 0 0.0079616890962262831 0.0084399373328483285 0 0.0080940691605575175 0.0085563163276697208 0 0.0077698608775771671 0.0077980075539158568 0 0.0076360674159295988 0.0077888985091160478 0 0.007711296290210886 0.0078047790772541505 0 0.0087581968368520245 0.0086627853338475756 0 0.0075870299098895295 0.0080604475454118304 0 0.0080894464844111381 0.0085742546214053906 0 0.0079616890962262831 0.0084399373328483285 0 0.0078563843568678054 0.0084621305536027886 0 0.0079616890962262831 0.0084399373328483285 0 0.0078563843568678054 0.0084621305536027886 0 0.0076611465850151723 0.0080312490959080184 0 0.0076360674159295988 0.0077888985091160478 0 0.0076027362213162827 0.0078347850215337057 0 0.007711296290210886 0.0078047790772541505 0 0.0076360674159295988 0.0077888985091160478 0 0.0076027362213162827 0.0078347850215337057 0 0.0074827999892122087 0.0078841321116181369 0 0.0076027362213162827 0.0078347850215337057 0 0.007711296290210886 0.0078047790772541505 0 0.0076199600176713898 0.0078440558618156388 0 0.0087581968368520245 0.0086627853338475756 0 0.0080347796864451253 0.0077827515581314535 0 0.0077698608775771671 0.0077980075539158568 0 0.007711296290210886 0.0078047790772541505 0 0.0078395995652827521 0.0077498586219897705 0 0.0080011846036561994 0.0080225873901606046 0 0.0083677221317918007 0.007719383431173025 0 0.0078395995652827521 0.0077498586219897705 0 0.0076031480756847073 0.0080234844461534172 0 0.0078395995652827521 0.0077498586219897705 0 0.0075308633734511229 0.0079224910907860283 0 0.007711296290210886 0.0078047790772541505 0 0.0078395995652827521 0.0077498586219897705 0 0.0076199600176713898 0.0078440558618156388 0 0.0078395995652827521 0.0077498586219897705 0 0.0076199600176713898 0.0078440558618156388 0 0.0075308633734511229 0.0079224910907860283 0 0.0076199600176713898 0.0078440558618156388 0 0.0075308633734511229 0.0079224910907860283 0 0.0073956540555007652 0.0079297014828887975 0 0.0076031480756847073 0.0080234844461534172 0 0.0075308633734511229 0.0079224910907860283 0 0.007311869180992317 0.0079994314905658392 0 0.0075308633734511229 0.0079224910907860283 0 0.007311869180992317 0.0079994314905658392 0 0.0073956540555007652 0.0079297014828887975 0 0.0076360674159295988 0.0077888985091160478 0 0.0074827999892122087 0.0078841321116181369 0 0.0073493697605020673 0.0080272959705908579 0 0.0075870299098895295 0.0080604475454118304 0 0.0074961029342679314 0.0080675548156361101 0 0.0073956540555007652 0.0079297014828887975 0 0.0074827999892122087 0.0078841321116181369 0 0.0073069859817058392 0.0079691317022426329 0 0.0076199600176713898 0.0078440558618156388 0 0.0073956540555007652 0.0079297014828887975 0 0.0074827999892122087 0.0078841321116181369 0 0.0076027362213162827 0.0078347850215337057 0 0.0076199600176713898 0.0078440558618156388 0 0.0074827999892122087 0.0078841321116181369 0 0.0074827999892122087 0.0078841321116181369 0 0.0073069859817058392 0.0079691317022426329 0 0.0073493697605020673 0.0080272959705908579 0 0.0078563843568678054 0.0084621305536027886 0 0.0073493697605020673 0.0080272959705908579 0 0.0076611465850151723 0.0080312490959080184 0 0.0073493697605020673 0.0080272959705908579 0 0.0075911247235255514 0.0077896269249509422 0 0.0076611465850151723 0.0080312490959080184 0 0.0073493697605020673 0.0080272959705908579 0 0.0075911247235255514 0.0077896269249509422 0 0.0071060871708732015 0.0079839414030464153 0 0.0075911247235255514 0.0077896269249509422 0 0.0077828865957146314 0.0078148675817085803 0 0.0077245277945704131 0.0078572669213492503 0 0.0075911247235255514 0.0077896269249509422 0 0.0077828865957146314 0.0078148675817085803 0 0.0076611465850151723 0.0080312490959080184 0 0.0079567415557410225 0.0084494239489456384 0 0.0079591975194531414 0.0082599973704316348 0 0.0079616890962262831 0.0084399373328483285 0 0.0081500113960115105 0.0086514273527909091 0 0.0080940691605575175 0.0085563163276697208 0 0.0079616890962262831 0.0084399373328483285 0 0.0077828865957146314 0.0078148675817085803 0 0.0076611465850151723 0.0080312490959080184 0 0.0081500113960115105 0.0086514273527909091 0 0.0080940691605575175 0.0085563163276697208 0 0.0081430361944498791 0.0086442076912453952 0 0.0081500113960115105 0.0086514273527909091 0 0.0081739106134415106 0.0086994087525438801 0 0.0081430361944498791 0.0086442076912453952 0 0.0081739106134415106 0.0086994087525438801 0 0.0082025782330078338 0.0086975198733969875 0 0.0081430361944498791 0.0086442076912453952 0 0.0081739106134415106 0.0086994087525438801 0 0.0082025782330078338 0.0086975198733969875 0 0.0082356675577218586 0.0087268755048495843 0 0.0082025782330078338 0.0086975198733969875 0 0.0081430361944498791 0.0086442076912453952 0 0.0081510144505241282 0.0086270795566378723 0 0.0080940691605575175 0.0085563163276697208 0 0.0081430361944498791 0.0086442076912453952 0 0.0081510144505241282 0.0086270795566378723 0 0.0066166923224632848 0.0080668061708528693 0 0.0063621853245359608 0.0080502711100399749 0 0.006551914896380762 0.0080089319337639173 0 0.0066166923224632848 0.0080668061708528693 0 0.0068455744947661891 0.0080050337826192575 0 0.006551914896380762 0.0080089319337639173 0 0.0060050256552649939 0.008018179303897895 0 0.0063621853245359608 0.0080502711100399749 0 0.0062774653865472745 0.0079898249601409402 0 0.0060050256552649939 0.008018179303897895 0 0.0063621853245359608 0.0080502711100399749 0 0.006242572005135655 0.0081621926283582998 0 0.0063621853245359608 0.0080502711100399749 0 0.006551914896380762 0.0080089319337639173 0 0.0062774653865472745 0.0079898249601409402 0 0.0066648603164193541 0.0081747278746866717 0 0.0066166923224632848 0.0080668061708528693 0 0.006242572005135655 0.0081621926283582998 0 0.0066166923224632848 0.0080668061708528693 0 0.0063621853245359608 0.0080502711100399749 0 0.006242572005135655 0.0081621926283582998 0 0.0066648603164193541 0.0081747278746866717 0 0.0069182414845779675 0.0082098900840722935 0 0.0068717746457364988 0.0080682033268811067 0 0.0066648603164193541 0.0081747278746866717 0 0.0066166923224632848 0.0080668061708528693 0 0.0068717746457364988 0.0080682033268811067 0 0.0069182414845779675 0.0082098900840722935 0 0.0068717746457364988 0.0080682033268811067 0 0.0070829800360013807 0.0080781687813596161 0 0.0072922070754583715 0.0081726890857150986 0 0.007311869180992317 0.0079994314905658392 0 0.0070829800360013807 0.0080781687813596161 0 0.0068717746457364988 0.0080682033268811067 0 0.0070829800360013807 0.0080781687813596161 0 0.0071273992456846033 0.0079943539195109995 0 0.007311869180992317 0.0079994314905658392 0 0.0070829800360013807 0.0080781687813596161 0 0.0071273992456846033 0.0079943539195109995 0 0.007311869180992317 0.0079994314905658392 0 0.0073956540555007652 0.0079297014828887975 0 0.0071273992456846033 0.0079943539195109995 0 0.0073069859817058392 0.0079691317022426329 0 0.0071273992456846033 0.0079943539195109995 0 0.0071060871708732015 0.0079839414030464153 0 0.0071273992456846033 0.0079943539195109995 0 0.0068455744947661891 0.0080050337826192575 0 0.0071060871708732015 0.0079839414030464153 0 0.0073956540555007652 0.0079297014828887975 0 0.0073069859817058392 0.0079691317022426329 0 0.0071273992456846033 0.0079943539195109995 0 0.0073069859817058392 0.0079691317022426329 0 0.0073493697605020673 0.0080272959705908579 0 0.0071060871708732015 0.0079839414030464153 0 0.0066166923224632848 0.0080668061708528693 0 0.0068717746457364988 0.0080682033268811067 0 0.0068455744947661891 0.0080050337826192575 0 0.0068717746457364988 0.0080682033268811067 0 0.0071273992456846033 0.0079943539195109995 0 0.0068455744947661891 0.0080050337826192575 0 0.0069251191383475795 0.0080017962304970037 0 0.006972648889923742 0.0080371224312593345 0 0.0067203778421022903 0.0079996159879154108 0 0.0068455744947661891 0.0080050337826192575 0 0.0069251191383475795 0.0080017962304970037 0 0.0067203778421022903 0.0079996159879154108 0 0.0068455744947661891 0.0080050337826192575 0 0.0067203778421022903 0.0079996159879154108 0 0.006551914896380762 0.0080089319337639173 0 0.0069251191383475795 0.0080017962304970037 0 0.0071060871708732015 0.0079839414030464153 0 0.006972648889923742 0.0080371224312593345 0 0.0073109373907220025 0.0079637468784815382 0 0.0071272454337302392 0.0080068794139422188 0 0.0068455744947661891 0.0080050337826192575 0 0.0069251191383475795 0.0080017962304970037 0 0.0071060871708732015 0.0079839414030464153 0 0.007034438974450761 0.0081033849929790097 0 0.006972648889923742 0.0080371224312593345 0 0.0070689471361854899 0.0081454936555722928 0 0.007034438974450761 0.0081033849929790097 0 0.0071060871708732015 0.0079839414030464153 0 0.006972648889923742 0.0080371224312593345 0 0.006972648889923742 0.0080371224312593345 0 0.0067203778421022903 0.0079996159879154108 0 0.006893227075476671 0.0080694586640108496 0 0.0067203778421022903 0.0079996159879154108 0 0.0064144187402660445 0.0079642785305878375 0 0.0066373479278531025 0.0080198376396640528 0 0.0067203778421022903 0.0079996159879154108 0 0.006551914896380762 0.0080089319337639173 0 0.0064144187402660445 0.0079642785305878375 0 0.006551914896380762 0.0080089319337639173 0 0.0062774653865472745 0.0079898249601409402 0 0.0064144187402660445 0.0079642785305878375 0 0.0060635744512788116 0.0079153186879346756 0 0.0062774653865472745 0.0079898249601409402 0 0.0064144187402660445 0.0079642785305878375 0 0.0060635744512788116 0.0079153186879346756 0 0.0064144187402660445 0.0079642785305878375 0 0.0062129984867574399 0.0079056218790811775 0 0.0062129984867574399 0.0079056218790811775 0 0.006220293548669451 0.0079409131546051732 0 0.0066373479278531025 0.0080198376396640528 0 0.0064144187402660445 0.0079642785305878375 0 0.0062129984867574399 0.0079056218790811775 0 0.0066373479278531025 0.0080198376396640528 0 0.0066373479278531025 0.0080198376396640528 0 0.0068844999012381766 0.0080854024326323919 0 0.0067133151711338277 0.0080174847048978641 0 0.006220293548669451 0.0079409131546051732 0 0.0066373479278531025 0.0080198376396640528 0 0.0067133151711338277 0.0080174847048978641 0 0.0067203778421022903 0.0079996159879154108 0 0.0066373479278531025 0.0080198376396640528 0 0.006893227075476671 0.0080694586640108496 0 0.0066373479278531025 0.0080198376396640528 0 0.006893227075476671 0.0080694586640108496 0 0.0068844999012381766 0.0080854024326323919 0 0.006893227075476671 0.0080694586640108496 0 0.0070440604037186674 0.0081421310204296462 0 0.0068844999012381766 0.0080854024326323919 0 0.006972648889923742 0.0080371224312593345 0 0.006893227075476671 0.0080694586640108496 0 0.0070689471361854899 0.0081454936555722928 0 0.006893227075476671 0.0080694586640108496 0 0.0070689471361854899 0.0081454936555722928 0 0.0070440604037186674 0.0081421310204296462 0 0.0070689471361854899 0.0081454936555722928 0 0.0070440604037186674 0.0081421310204296462 0 0.0071971922652181034 0.0082048910426531438 0 0.0070440604037186674 0.0081421310204296462 0 0.0068844999012381766 0.0080854024326323919 0 0.0071169800057213654 0.0081485232309611751 0 0.0070440604037186674 0.0081421310204296462 0 0.0071169800057213654 0.0081485232309611751 0 0.0071971922652181034 0.0082048910426531438 0 0.0068844999012381766 0.0080854024326323919 0 0.0071169800057213654 0.0081485232309611751 0 0.0067133151711338277 0.0080174847048978641 0 0.0071169800057213654 0.0081485232309611751 0 0.0071138261151517919 0.008074392434162499 0 0.0067133151711338277 0.0080174847048978641 0 0.0071169800057213654 0.0081485232309611751 0 0.0071138261151517919 0.008074392434162499 0 0.0073338024517458399 0.0081922943116557526 0 0.0071169800057213654 0.0081485232309611751 0 0.0071971922652181034 0.0082048910426531438 0 0.007363001045783921 0.0082546231636568424 0 0.0071169800057213654 0.0081485232309611751 0 0.007363001045783921 0.0082546231636568424 0 0.0073338024517458399 0.0081922943116557526 0 0.0071138261151517919 0.008074392434162499 0 0.0073366998686607548 0.0081217990781582046 0 0.0071874565425787606 0.0079526722651653871 0 0.0071138261151517919 0.008074392434162499 0 0.0073366998686607548 0.0081217990781582046 0 0.0073338024517458399 0.0081922943116557526 0 0.0071138261151517919 0.008074392434162499 0 0.0067698500952257526 0.007879751248678464 0 0.0071874565425787606 0.0079526722651653871 0 0.0071138261151517919 0.008074392434162499 0 0.0067698500952257526 0.007879751248678464 0 0.0067133151711338277 0.0080174847048978641 0 0.0067698500952257526 0.007879751248678464 0 0.0062294183663239716 0.0078911065760445629 0 0.0067133151711338277 0.0080174847048978641 0 0.0067698500952257526 0.007879751248678464 0 0.0062294183663239716 0.0078911065760445629 0 0.006237561549823527 0.0075280920304670084 0 0.006220293548669451 0.0079409131546051732 0 0.0062294183663239716 0.0078911065760445629 0 0.0067133151711338277 0.0080174847048978641 0 0.0082295920945194348 0.0086802351432786438 0 0.0081385223711210666 0.0086761451870458785 0 0.0081702380293514325 0.0086271698726408698 0 0.0082295920945194348 0.0086802351432786438 0 0.0081621939411080091 0.0087197118218319963 0 0.0081385223711210666 0.0086761451870458785 0 0.0082295920945194348 0.0086802351432786438 0 0.0081621939411080091 0.0087197118218319963 0 0.0082667948783664135 0.0087096677847785936 0 0.0082208398045828471 0.0087213680840688007 0 0.0081621939411080091 0.0087197118218319963 0 0.0082667948783664135 0.0087096677847785936 0 0.0081739106134415106 0.0086994087525438801 0 0.0082208398045828471 0.0087213680840688007 0 0.0082356675577218586 0.0087268755048495843 0 0.0081739106134415106 0.0086994087525438801 0 0.0082208398045828471 0.0087213680840688007 0 0.0081621939411080091 0.0087197118218319963 0 0.0081500113960115105 0.0086514273527909091 0 0.0081739106134415106 0.0086994087525438801 0 0.0081621939411080091 0.0087197118218319963 0 0.0081500113960115105 0.0086514273527909091 0 0.0081621939411080091 0.0087197118218319963 0 0.0081173305004619885 0.0087278692632920263 0 0.0081173305004619885 0.0087278692632920263 0 0.0081385223711210666 0.0086761451870458785 0 0.0080759915402972941 0.0086170856499830171 0 0.0081621939411080091 0.0087197118218319963 0 0.0081173305004619885 0.0087278692632920263 0 0.0081385223711210666 0.0086761451870458785 0 0.007657470504650871 0.0079994082901662482 0 0.0078147664588089673 0.007989941529340322 0 0.0077892787248956133 0.0083952320883210266 0 0.0077828865957146314 0.0078148675817085803 0 0.007657470504650871 0.0079994082901662482 0 0.0077245277945704131 0.0078572669213492503 0 0.007657470504650871 0.0079994082901662482 0 0.0078147664588089673 0.007989941529340322 0 0.0077245277945704131 0.0078572669213492503 0 0.0079591975194531414 0.0082599973704316348 0 0.007896597201517681 0.0083498931472389699 0 0.0075911247235255514 0.0077896269249509422 0 0.0078147664588089673 0.007989941529340322 0 0.0077245277945704131 0.0078572669213492503 0 0.007034438974450761 0.0081033849929790097 0 0.0070689471361854899 0.0081454936555722928 0 0.0072773996434957206 0.0082594007978013233 0 0.0073109373907220025 0.0079637468784815382 0 0.0075592911797693436 0.0081224174003703357 0 0.0070689471361854899 0.0081454936555722928 0 0.0072773996434957206 0.0082594007978013233 0 0.0071971922652181034 0.0082048910426531438 0 0.0072773996434957206 0.0082594007978013233 0 0.0071971922652181034 0.0082048910426531438 0 0.007363001045783921 0.0082546231636568424 0 0.0072773996434957206 0.0082594007978013233 0 0.007363001045783921 0.0082546231636568424 0 0.007539297480937528 0.0083138267126947555 0 0.007363001045783921 0.0082546231636568424 0 0.0073338024517458399 0.0081922943116557526 0 0.0075456550531762603 0.0082480560106147262 0 0.007363001045783921 0.0082546231636568424 0 0.0075456550531762603 0.0082480560106147262 0 0.007539297480937528 0.0083138267126947555 0 0.0073366998686607548 0.0081217990781582046 0 0.0073338024517458399 0.0081922943116557526 0 0.0075456550531762603 0.0082480560106147262 0 0.0073366998686607548 0.0081217990781582046 0 0.0075456550531762603 0.0082480560106147262 0 0.0074843017343634403 0.0081316659165975164 0 0.0075456550531762603 0.0082480560106147262 0 0.0076871166422481435 0.0083272235852977026 0 0.007539297480937528 0.0083138267126947555 0 0.0075456550531762603 0.0082480560106147262 0 0.0076871166422481435 0.0083272235852977026 0 0.007727010636745797 0.0083145055665807214 0 0.0075456550531762603 0.0082480560106147262 0 0.007727010636745797 0.0083145055665807214 0 0.0077236586520439826 0.0082633457284634997 0 0.007727010636745797 0.0083145055665807214 0 0.0078185671057589261 0.0083811547360383883 0 0.0078642293237984693 0.0083549584180762533 0 0.0076871166422481435 0.0083272235852977026 0 0.0078185671057589261 0.0083811547360383883 0 0.0077892787248956133 0.0083952320883210266 0 0.0078185671057589261 0.0083811547360383883 0 0.0077892787248956133 0.0083952320883210266 0 0.0078858867515400697 0.0084733779980184932 0 0.0076871166422481435 0.0083272235852977026 0 0.007727010636745797 0.0083145055665807214 0 0.0078185671057589261 0.0083811547360383883 0 0.0075592911797693436 0.0081224174003703357 0 0.0077453931213368804 0.0083423197647930648 0 0.0072773996434957206 0.0082594007978013233 0 0.0077892787248956133 0.0083952320883210266 0 0.007539297480937528 0.0083138267126947555 0 0.0076871166422481435 0.0083272235852977026 0 0.0077892787248956133 0.0083952320883210266 0 0.007539297480937528 0.0083138267126947555 0 0.0081173305004619885 0.0087278692632920263 0 0.0080759915402972941 0.0086170856499830171 0 0.0078858867515400697 0.0084733779980184932 0 0.007896597201517681 0.0083498931472389699 0 0.0078869438469226852 0.0084376828345377394 0 0.007657470504650871 0.0079994082901662482 0 0.0077892787248956133 0.0083952320883210266 0 0.0078858867515400697 0.0084733779980184932 0 0.0081385223711210666 0.0086761451870458785 0 0.0080759915402972941 0.0086170856499830171 0 0.0081702380293514325 0.0086271698726408698 0 0.0078858867515400697 0.0084733779980184932 0 0.0080368310324872832 0.0084847502036685205 0 0.0081319987923955377 0.0085514957771815319 0 0.0080759915402972941 0.0086170856499830171 0 0.0078858867515400697 0.0084733779980184932 0 0.0081319987923955377 0.0085514957771815319 0 0.0078185671057589261 0.0083811547360383883 0 0.0078858867515400697 0.0084733779980184932 0 0.0079855870279977436 0.008432773006241949 0 0.0078185671057589261 0.0083811547360383883 0 0.0079855870279977436 0.008432773006241949 0 0.0078642293237984693 0.0083549584180762533 0 0.0079855870279977436 0.008432773006241949 0 0.0081452054765590153 0.0085024900424024753 0 0.0081493922718262821 0.0084726477574943431 0 0.0080368310324872832 0.0084847502036685205 0 0.0081452054765590153 0.0085024900424024753 0 0.0081319987923955377 0.0085514957771815319 0 0.0079855870279977436 0.008432773006241949 0 0.0080368310324872832 0.0084847502036685205 0 0.0081452054765590153 0.0085024900424024753 0 0.0078858867515400697 0.0084733779980184932 0 0.0079855870279977436 0.008432773006241949 0 0.0080368310324872832 0.0084847502036685205 0 0.0081452054765590153 0.0085024900424024753 0 0.0082702281512683617 0.0085675734689267743 0 0.0081319987923955377 0.0085514957771815319 0 0.0081452054765590153 0.0085024900424024753 0 0.0083026783596753216 0.0085459710164328493 0 0.0081493922718262821 0.0084726477574943431 0 0.0082702281512683617 0.0085675734689267743 0 0.0083026783596753216 0.0085459710164328493 0 0.0084025486380426596 0.0085942445741870131 0 0.0081452054765590153 0.0085024900424024753 0 0.0082702281512683617 0.0085675734689267743 0 0.0083026783596753216 0.0085459710164328493 0 0.0082702281512683617 0.0085675734689267743 0 0.008253185861326064 0.0086220690510384682 0 0.0083582103204828465 0.0086160774698238653 0 0.008253185861326064 0.0086220690510384682 0 0.0081319987923955377 0.0085514957771815319 0 0.0081702380293514325 0.0086271698726408698 0 0.0082702281512683617 0.0085675734689267743 0 0.008253185861326064 0.0086220690510384682 0 0.0081319987923955377 0.0085514957771815319 0 0.0080759915402972941 0.0086170856499830171 0 0.0081319987923955377 0.0085514957771815319 0 0.0081702380293514325 0.0086271698726408698 0 0.0082295920945194348 0.0086802351432786438 0 0.008253185861326064 0.0086220690510384682 0 0.0082927386199554368 0.0086626989724341019 0 0.0082295920945194348 0.0086802351432786438 0 0.008253185861326064 0.0086220690510384682 0 0.0081702380293514325 0.0086271698726408698 0 0.0084141562022043807 0.0085975276878719718 0 0.0082599546797089644 0.0085219382589511762 0 0.0084521466484319321 0.0086420566242016283 0 0.0082585004107747911 0.0085151873275227368 0 0.0084141562022043807 0.0085975276878719718 0 0.0082599546797089644 0.0085219382589511762 0 0.0082585004107747911 0.0085151873275227368 0 0.0084141562022043807 0.0085975276878719718 0 0.0083269383857799729 0.0085474682887630264 0 0.0083269383857799729 0.0085474682887630264 0 0.0083026783596753216 0.0085459710164328493 0 0.0084864884053360099 0.0086173641252137584 0 0.0083269383857799729 0.0085474682887630264 0 0.0083026783596753216 0.0085459710164328493 0 0.0081493922718262821 0.0084726477574943431 0 0.0082585004107747911 0.0085151873275227368 0 0.0083269383857799729 0.0085474682887630264 0 0.0081493922718262821 0.0084726477574943431 0 0.0081493922718262821 0.0084726477574943431 0 0.0080039342870191089 0.0084107931662537466 0 0.0080947838084091065 0.0084351064356641327 0 0.0082585004107747911 0.0085151873275227368 0 0.0081493922718262821 0.0084726477574943431 0 0.0080947838084091065 0.0084351064356641327 0 0.0079855870279977436 0.008432773006241949 0 0.0081493922718262821 0.0084726477574943431 0 0.0080039342870191089 0.0084107931662537466 0 0.0080039342870191089 0.0084107931662537466 0 0.007920300792937417 0.0083579574101278597 0 0.0078642293237984693 0.0083549584180762533 0 0.0079855870279977436 0.008432773006241949 0 0.0080039342870191089 0.0084107931662537466 0 0.0078642293237984693 0.0083549584180762533 0 0.0080039342870191089 0.0084107931662537466 0 0.0080947838084091065 0.0084351064356641327 0 0.007920300792937417 0.0083579574101278597 0 0.0080947838084091065 0.0084351064356641327 0 0.0082599546797089644 0.0085219382589511762 0 0.0080919516523985276 0.0084291823870023506 0 0.0080947838084091065 0.0084351064356641327 0 0.0078965999952018921 0.0083273109337491987 0 0.0080919516523985276 0.0084291823870023506 0 0.0082585004107747911 0.0085151873275227368 0 0.0080947838084091065 0.0084351064356641327 0 0.0082599546797089644 0.0085219382589511762 0 0.0078965999952018921 0.0083273109337491987 0 0.0076142041046311391 0.0081540476370753033 0 0.0078952177002752644 0.008320505310271455 0 0.0080947838084091065 0.0084351064356641327 0 0.0078965999952018921 0.0083273109337491987 0 0.007920300792937417 0.0083579574101278597 0 0.0078965999952018921 0.0083273109337491987 0 0.007920300792937417 0.0083579574101278597 0 0.0077236586520439826 0.0082633457284634997 0 0.007920300792937417 0.0083579574101278597 0 0.0078642293237984693 0.0083549584180762533 0 0.0077236586520439826 0.0082633457284634997 0 0.007727010636745797 0.0083145055665807214 0 0.0078642293237984693 0.0083549584180762533 0 0.0077236586520439826 0.0082633457284634997 0 0.0075456550531762603 0.0082480560106147262 0 0.0077236586520439826 0.0082633457284634997 0 0.0074843017343634403 0.0081316659165975164 0 0.0077236586520439826 0.0082633457284634997 0 0.0074843017343634403 0.0081316659165975164 0 0.0076142041046311391 0.0081540476370753033 0 0.0078965999952018921 0.0083273109337491987 0 0.0077236586520439826 0.0082633457284634997 0 0.0076142041046311391 0.0081540476370753033 0 0.0076142041046311391 0.0081540476370753033 0 0.0077161933669584407 0.0082211319952730025 0 0.0078952177002752644 0.008320505310271455 0 0.0077161933669584407 0.0082211319952730025 0 0.0079247411750874158 0.0083215818556384713 0 0.0078952177002752644 0.008320505310271455 0 0.0076142041046311391 0.0081540476370753033 0 0.0077161933669584407 0.0082211319952730025 0 0.0075102853059772941 0.0081076111172448465 0 0.0079247411750874158 0.0083215818556384713 0 0.0075146875267713973 0.0081041121907109992 0 0.0079294928857412371 0.0082496418511143754 0 0.0077161933669584407 0.0082211319952730025 0 0.0079247411750874158 0.0083215818556384713 0 0.0075146875267713973 0.0081041121907109992 0 0.0079247411750874158 0.0083215818556384713 0 0.0078952177002752644 0.008320505310271455 0 0.0081876724802382762 0.0084816436743633868 0 0.0079247411750874158 0.0083215818556384713 0 0.0081876724802382762 0.0084816436743633868 0 0.0081886150902224994 0.008463027240909117 0 0.0078952177002752644 0.008320505310271455 0 0.0080919516523985276 0.0084291823870023506 0 0.0081876724802382762 0.0084816436743633868 0 0.0078965999952018921 0.0083273109337491987 0 0.0078952177002752644 0.008320505310271455 0 0.0080919516523985276 0.0084291823870023506 0 0.0080919516523985276 0.0084291823870023506 0 0.0081876724802382762 0.0084816436743633868 0 0.0083233421893850572 0.008570628195719656 0 0.0082599546797089644 0.0085219382589511762 0 0.0080919516523985276 0.0084291823870023506 0 0.0083233421893850572 0.008570628195719656 0 0.0081876724802382762 0.0084816436743633868 0 0.0084112409682794535 0.0086509405563621293 0 0.0081886150902224994 0.008463027240909117 0 0.0081876724802382762 0.0084816436743633868 0 0.0084091416586652111 0.0086454609844632789 0 0.0084112409682794535 0.0086509405563621293 0 0.0081876724802382762 0.0084816436743633868 0 0.0084091416586652111 0.0086454609844632789 0 0.0083233421893850572 0.008570628195719656 0 0.0084091416586652111 0.0086454609844632789 0 0.0085007025400180136 0.0087081973583103996 0 0.0083233421893850572 0.008570628195719656 0 0.0084091416586652111 0.0086454609844632789 0 0.0085202261721631194 0.0087633652838906059 0 0.0084112409682794535 0.0086509405563621293 0 0.0085202261721631194 0.0087633652838906059 0 0.0085007025400180136 0.0087081973583103996 0 0.0086439870241478717 0.0088646220770460232 0 0.0084091416586652111 0.0086454609844632789 0 0.0085202261721631194 0.0087633652838906059 0 0.0085007025400180136 0.0087081973583103996 0 0.0085007025400180136 0.0087081973583103996 0 0.0083233421893850572 0.008570628195719656 0 0.0084521466484319321 0.0086420566242016283 0 0.0082599546797089644 0.0085219382589511762 0 0.0083233421893850572 0.008570628195719656 0 0.0084521466484319321 0.0086420566242016283 0 0.0068657544213524858 0.0076391604318218169 0 0.0066158708244055424 0.0071277297917473085 0 0.0069709614182753782 0.006786380353531807 0 0.0071531618548831347 0.0072182119795631862 0 0.0058477203201706329 0.0081697555027064328 0 0.0068657544213524858 0.0076391604318218169 0 0.0066158708244055424 0.0071277297917473085 0 0.006237561549823527 0.0075280920304670084 0 0.0066158708244055424 0.0071277297917473085 0 0.006237561549823527 0.0075280920304670084 0 0.0060434276039479035 0.0069149374652931533 0 0.0067698500952257526 0.007879751248678464 0 0.0068657544213524858 0.0076391604318218169 0 0.006237561549823527 0.0075280920304670084 0 0.0067698500952257526 0.007879751248678464 0 0.0068657544213524858 0.0076391604318218169 0 0.0071874565425787606 0.0079526722651653871 0 0.0074843017343634403 0.0081316659165975164 0 0.0071874565425787606 0.0079526722651653871 0 0.0074124039034718517 0.0080373502405104279 0 0.0073366998686607548 0.0081217990781582046 0 0.0074843017343634403 0.0081316659165975164 0 0.0071874565425787606 0.0079526722651653871 0 0.0071874565425787606 0.0079526722651653871 0 0.0074124039034718517 0.0080373502405104279 0 0.0073516210011102924 0.007916213510880888 0 0.0074843017343634403 0.0081316659165975164 0 0.0076142041046311391 0.0081540476370753033 0 0.0074124039034718517 0.0080373502405104279 0 0.0076142041046311391 0.0081540476370753033 0 0.0074124039034718517 0.0080373502405104279 0 0.0073516210011102924 0.007916213510880888 0 0.0068657544213524858 0.0076391604318218169 0 0.0071874565425787606 0.0079526722651653871 0 0.0073516210011102924 0.007916213510880888 0 0.0068657544213524858 0.0076391604318218169 0 0.0073516210011102924 0.007916213510880888 0 0.0070887413661563578 0.0076961847687712359 0 0.0073516210011102924 0.007916213510880888 0 0.0074400833847125657 0.0080694551673107517 0 0.0074729549403637144 0.0080492104255375837 0 0.0077261026234274055 0.0080417954299162788 0 0.0058477203201706329 0.0081697555027064328 0 0.0074400833847125657 0.0080694551673107517 0 0.0074350640833857617 0.0080752443812846866 0 0.0074729549403637144 0.0080492104255375837 0 0.0076142041046311391 0.0081540476370753033 0 0.0073516210011102924 0.007916213510880888 0 0.0075102853059772941 0.0081076111172448465 0 0.0073516210011102924 0.007916213510880888 0 0.0074400833847125657 0.0080694551673107517 0 0.0075102853059772941 0.0081076111172448465 0 0.0077161933669584407 0.0082211319952730025 0 0.0075102853059772941 0.0081076111172448465 0 0.0075146875267713973 0.0081041121907109992 0 0.0074400833847125657 0.0080694551673107517 0 0.0075102853059772941 0.0081076111172448465 0 0.0075146875267713973 0.0081041121907109992 0 0.0047387393414331912 0.010813861193880132 0 0.0030818170566381696 0.010719565621487603 0 0.0030818170566381696 0.010719565621487603 0 3.5754902281500325e-05 0.012587796953363711 0 0.0016816658442131065 0.01347065988419565 0 0.00013287409499698362 0.014048513700385477 0 0.00037606781965970166 0.012603631769826517 0 0.0074400833847125657 0.0080694551673107517 0 0.0075146875267713973 0.0081041121907109992 0 0.0074350640833857617 0.0080752443812846866 0 0.00024276012075675631 0.011261848825535884 0 0.00039605383021433136 0.011471997070486449 0 0.00022204878276762318 0.011655160279657545 0 0.00024276012075675631 0.011261848825535884 0 0.00038284797421990458 0.011183019681810435 0 0.00039605383021433136 0.011471997070486449 0 0.0030818170566381696 0.010719565621487603 0 0.0022901516386662547 0.0092220333376267435 0 0.0039854697569177578 0.0092215864858891366 0 0.0039567043613599135 0.0093804509129884923 0 0.0037880733014500319 0.0093001889624919499 0 0.0058477203201706329 0.0081697555027064328 0 0.0022901516386662547 0.0092220333376267435 0 0.0030818170566381696 0.010719565621487603 0 0.0058477203201706329 0.0081697555027064328 0 0.0066158708244055424 0.0071277297917473085 0 0.0069709614182753782 0.006786380353531807 0 0.0066918081612915752 0.0066758191785317523 0 0.0022901516386662547 0.0092220333376267435 0 0.0030178531886791088 0.0078506577762359996 0 0.0066158708244055424 0.0071277297917473085 0 0.0066918081612915752 0.0066758191785317523 0 0.0060434276039479035 0.0069149374652931533 0 -0.0017139716696132638 0.0097858814712957314 0 -0.00017964097375508005 0.010607951075362011 0 -0.00016867007752044787 0.0090645972043002752 0 0.0022901516386662547 0.0092220333376267435 0 -0.00023284254770776183 0.010971426756569327 0 0.00038284797421990458 0.011183019681810435 0 0.00071793641803830554 0.011296049005358112 0 0.00039605383021433136 0.011471997070486449 0 -0.00023284254770776183 0.010971426756569327 0 0.0014368276754000771 0.01144121384874469 0 -0.00017964097375508005 0.010607951075362011 0 0.0013747134212691767 0.010044492341104964 0 0.0013034170219815408 0.011418619920291789 0 0.0013747134212691767 0.010044492341104964 0 0.0019483481294728421 0.011231689678706309 0 0.0013034170219815408 0.011418619920291789 0 0.0013747134212691767 0.010044492341104964 0 0.0024135593740325948 0.010087316139464356 0 0.0019483481294728421 0.011231689678706309 0 0.0013747134212691767 0.010044492341104964 0 0.0016317762706522421 0.0081221460712210657 0 0.0026929392656111872 0.0090508518739197946 0 0.0013747134212691767 0.010044492341104964 0 -0.00016867007752044787 0.0090645972043002752 0 0.0016317762706522421 0.0081221460712210657 0 0.0013747134212691767 0.010044492341104964 0 0.0026929392656111872 0.0090508518739197946 0 0.0024135593740325948 0.010087316139464356 0 -0.00017964097375508005 0.010607951075362011 0 0.0013747134212691767 0.010044492341104964 0 -0.00016867007752044787 0.0090645972043002752 0 0.0030178531886791088 0.0078506577762359996 0 0.0035190252828488492 0.0076332954482950669 0 0.006237561549823527 0.0075280920304670084 0 0.0060434276039479035 0.0069149374652931533 0 0.0054086769822520491 0.0070368274454760491 0 0.0054086769822520491 0.0070368274454760491 0 0.0050422053131841628 0.0075091756554113483 0 0.0056801289100772258 0.0077351217850718393 0 0.006237561549823527 0.0075280920304670084 0 0.0054086769822520491 0.0070368274454760491 0 0.0056801289100772258 0.0077351217850718393 0 0.004860923700455759 0.0058316728879162765 0 0.0046055505345025966 0.0062033753870717502 0 0.005148354921477109 0.0063572583616856278 0 0.0044045730349323324 0.0074108411458122699 0 0.0048689748389567043 0.0077749949605455627 0 0.0046536527328999303 0.0074800039263541781 0 0.0037107097234719312 0.0079835645772326509 0 0.0050551797734760236 0.0067099432686971543 0 0.0050422053131841628 0.0075091756554113483 0 0.0044045730349323324 0.0074108411458122699 0 0.0046536527328999303 0.0074800039263541781 0 0.0044045730349323324 0.0074108411458122699 0 0.0040242912621242313 0.0084187302325764695 0 0.0026929392656111872 0.0090508518739197946 0 0.0054086769822520491 0.0070368274454760491 0 0.0050422053131841628 0.0075091756554113483 0 0.0044045730349323324 0.0074108411458122699 0 0.0016317762706522421 0.0081221460712210657 0 0.0044045730349323324 0.0074108411458122699 0 0.0026929392656111872 0.0090508518739197946 0 0.0035190252828488492 0.0076332954482950669 0 0.004311227680840083 0.0073972729798148316 0 0.0044045730349323324 0.0074108411458122699 0 0.0040242912621242313 0.0084187302325764695 0 0.0048689748389567043 0.0077749949605455627 0 0.0019889561685651914 0.0095620203811928612 0 0.0020391919501498751 0.0096482866662108615 0 0.0020502566459228481 0.010247559588033042 0 0.001976620638781615 0.0095248932473119448 0 0.0020391919501498751 0.0096482866662108615 0 0.0021506197303316366 0.0095742514802303093 0 0.0037107097234719312 0.0079835645772326509 0 0.0036782293829414727 0.0081244315928734514 0 0.0019889561685651914 0.0095620203811928612 0 0.0020502566459228481 0.010247559588033042 0 0.0017880376114674163 0.010589639589428724 0 0.0037107097234719312 0.0079835645772326509 0 0.0027487864820474155 0.010200011364523712 0 0.0020391919501498751 0.0096482866662108615 0 0.0020502566459228481 0.010247559588033042 0 0.0023032868579629857 0.0098090631079217928 0 0.0020502566459228481 0.010247559588033042 0 0.0017880376114674163 0.010589639589428724 0 0.0022443775539150615 0.010655752687811297 0 0.0040242912621242313 0.0084187302325764695 0 0.0048689748389567043 0.0077749949605455627 0 0.0039332719884484146 0.0096324550941364433 0 0.0040242912621242313 0.0084187302325764695 0 0.0039332719884484146 0.0096324550941364433 0 0.0026929392656111872 0.0090508518739197946 0 0.0039332719884484146 0.0096324550941364433 0 0.0026929392656111872 0.0090508518739197946 0 0.0024135593740325948 0.010087316139464356 0 0.0039332719884484146 0.0096324550941364433 0 0.0024135593740325948 0.010087316139464356 0 0.0019483481294728421 0.011231689678706309 0 0.0027487864820474155 0.010200011364523712 0 0.0021213582955515353 0.011043579566670306 0 0.0017880376114674163 0.010589639589428724 0 0.0022443775539150615 0.010655752687811297 0 0.0020842278258620291 0.011227612810921836 0 0.0017880376114674163 0.010589639589428724 0 0.0020842278258620291 0.011227612810921836 0 0.0019483481294728421 0.011231689678706309 0 0.0022443775539150615 0.010655752687811297 0 0.0028066104027635072 0.010898172160678506 0 0.0025709073014008603 0.010304445043815809 0 0.0022443775539150615 0.010655752687811297 0 0.0028066104027635072 0.010898172160678506 0 0.0020842278258620291 0.011227612810921836 0 0.0028066104027635072 0.010898172160678506 0 0.0031810928439977488 0.010317669771391215 0 0.0034703913718056034 0.011157042524591713 0 0.0031810928439977488 0.010317669771391215 0 0.0025709073014008603 0.010304445043815809 0 0.0027300686295600768 0.0096584906241596654 0 0.0031810928439977488 0.010317669771391215 0 0.0027300686295600768 0.0096584906241596654 0 0.0031998826060919377 0.0095126481958387986 0 0.0028066104027635072 0.010898172160678506 0 0.0031810928439977488 0.010317669771391215 0 0.0025709073014008603 0.010304445043815809 0 0.0025709073014008603 0.010304445043815809 0 0.0023032868579629857 0.0098090631079217928 0 0.0027300686295600768 0.0096584906241596654 0 0.0020502566459228481 0.010247559588033042 0 0.0025709073014008603 0.010304445043815809 0 0.0023032868579629857 0.0098090631079217928 0 0.0020502566459228481 0.010247559588033042 0 0.0022443775539150615 0.010655752687811297 0 0.0025709073014008603 0.010304445043815809 0 0.0038109596030926856 0.0089871199906793597 0 0.0037346500202471138 0.009055159107556018 0 0.0040846388519303299 0.010067157402348724 0 0.0034703913718056034 0.011157042524591713 0 0.0042856488192467932 0.011154667014045924 0 0.0031810928439977488 0.010317669771391215 0 0.0040846388519303299 0.010067157402348724 0 0.0034703913718056034 0.011157042524591713 0 0.0031810928439977488 0.010317669771391215 0 0.0040846388519303299 0.010067157402348724 0 0.0031998826060919377 0.0095126481958387986 0 0.0035719577244756875 0.0079474781521202808 0 0.0031933186414534521 0.0070122549514357495 0 0.0027333285419759326 0.0078210733338451941 0 0.0036569938143038451 0.0085520276681931226 0 0.0036779514521430418 0.0081611551725438453 0 0.0033464899863351817 0.0083829072436645211 0 0.0035719577244756875 0.0079474781521202808 0 0.0036569938143038451 0.0085520276681931226 0 0.0033464899863351817 0.0083829072436645211 0 0.0038109596030926856 0.0089871199906793597 0 0.0036605569689704587 0.0085623606402900794 0 0.0040846388519303299 0.010067157402348724 0 0.0036569938143038451 0.0085520276681931226 0 0.0031998826060919377 0.0095126481958387986 0 0.001976620638781615 0.0095248932473119448 0 0.0022785570469835877 0.0094104029636735576 0 0.0025236786150198073 0.0085590651606184068 0 0.0026468709548586734 0.009091337262568824 0 0.0022785570469835877 0.0094104029636735576 0 0.0027300686295600768 0.0096584906241596654 0 0.001976620638781615 0.0095248932473119448 0 0.0022785570469835877 0.0094104029636735576 0 0.0021506197303316366 0.0095742514802303093 0 0.0022785570469835877 0.0094104029636735576 0 0.0021506197303316366 0.0095742514802303093 0 0.0023032868579629857 0.0098090631079217928 0 0.0020391919501498751 0.0096482866662108615 0 0.0021506197303316366 0.0095742514802303093 0 0.0023032868579629857 0.0098090631079217928 0 0.0022785570469835877 0.0094104029636735576 0 0.0023032868579629857 0.0098090631079217928 0 0.0027300686295600768 0.0096584906241596654 0 0.0036569938143038451 0.0085520276681931226 0 0.0031998826060919377 0.0095126481958387986 0 0.003018243355923057 0.0087831252960000258 0 0.0026468709548586734 0.009091337262568824 0 0.0027300686295600768 0.0096584906241596654 0 0.003018243355923057 0.0087831252960000258 0 0.0027300686295600768 0.0096584906241596654 0 0.0031998826060919377 0.0095126481958387986 0 0.003018243355923057 0.0087831252960000258 0 0.0036569938143038451 0.0085520276681931226 0 0.003018243355923057 0.0087831252960000258 0 0.0030778582274584758 0.0078978718086283178 0 0.003018243355923057 0.0087831252960000258 0 0.0025236786150198073 0.0085590651606184068 0 0.0030778582274584758 0.0078978718086283178 0 0.0037107097234719312 0.0079835645772326509 0 0.0035518116294786344 0.0073564811574709614 0 0.0026468709548586734 0.009091337262568824 0 0.0022785570469835877 0.0094104029636735576 0 0.0025236786150198073 0.0085590651606184068 0 0.0026468709548586734 0.009091337262568824 0 0.003018243355923057 0.0087831252960000258 0 0.0025236786150198073 0.0085590651606184068 0 0.0035518116294786344 0.0073564811574709614 0 0.0036732806444334438 0.0072700486024389957 0 0.0046055505345025966 0.0062033753870717502 0 0.0047908599705308117 0.0065159658870792784 0 0.0042718542252281758 0.0065813988970355435 0 0.0047908599705308117 0.0065159658870792784 0 0.0042718542252281758 0.0065813988970355435 0 0.0045324819196281806 0.0069075185052301785 0 0.0036732806444334438 0.0072700486024389957 0 0.0037266818585805872 0.0073122306287038601 0 0.0042718542252281758 0.0065813988970355435 0 0.0045324819196281806 0.0069075185052301785 0 0.0037566695991726501 0.0073186899089964005 0 0.0045324819196281806 0.0069075185052301785 0 0.0037566695991726501 0.0073186899089964005 0 0.0043230606600994205 0.0072054252299410676 0 0.0047908599705308117 0.0065159658870792784 0 0.0045324819196281806 0.0069075185052301785 0 0.0049565605344995111 0.006806688075668422 0 0.0045324819196281806 0.0069075185052301785 0 0.0048551666221814385 0.0072040508635342615 0 0.0049565605344995111 0.006806688075668422 0 0.0036779514521430418 0.0081611551725438453 0 0.0037122116206051905 0.0077950336074843786 0 0.0038037449182648643 0.0080525849955611281 0 0.0036779514521430418 0.0081611551725438453 0 0.0035932260026905406 0.007874234605534762 0 0.0037122116206051905 0.0077950336074843786 0 0.0036569938143038451 0.0085520276681931226 0 0.0036779514521430418 0.0081611551725438453 0 0.0035932260026905406 0.007874234605534762 0 0.0036569938143038451 0.0085520276681931226 0 0.0030778582274584758 0.0078978718086283178 0 0.0035932260026905406 0.007874234605534762 0 0.0030778582274584758 0.0078978718086283178 0 0.0035932260026905406 0.007874234605534762 0 0.0037566695991726501 0.0073186899089964005 0 0.0035932260026905406 0.007874234605534762 0 0.0037566695991726501 0.0073186899089964005 0 0.0036582808915241005 0.0075781193043771801 0 0.0037566695991726501 0.0073186899089964005 0 0.0036582808915241005 0.0075781193043771801 0 0.0035742142770926366 0.0075462401154921107 0 0.0036582808915241005 0.0075781193043771801 0 0.0036846138483487643 0.0076160564139265878 0 0.0035742142770926366 0.0075462401154921107 0 0.0035932260026905406 0.007874234605534762 0 0.0036582808915241005 0.0075781193043771801 0 0.0037122116206051905 0.0077950336074843786 0 0.0037122116206051905 0.0077950336074843786 0 0.0038589548154141307 0.0075390773378358799 0 0.0038037449182648643 0.0080525849955611281 0 0.0037122116206051905 0.0077950336074843786 0 0.0036846138483487643 0.0076160564139265878 0 0.0038589548154141307 0.0075390773378358799 0 0.0036582808915241005 0.0075781193043771801 0 0.0037122116206051905 0.0077950336074843786 0 0.0036846138483487643 0.0076160564139265878 0 0.0033449860743104604 0.0080679441382299055 0 0.0039509782664951176 0.0070916481149442484 0 0.0036655120229189585 0.0065099940435826321 0 0.0041801151907763139 0.0067910688501639114 0 0.0039570121056760063 0.0068638592458656117 0 0.0036846138483487643 0.0076160564139265878 0 0.0038589548154141307 0.0075390773378358799 0 0.0035742142770926366 0.0075462401154921107 0 0.0036655120229189585 0.0065099940435826321 0 0.0036523681395817585 0.0064436244578829236 0 0.0041801151907763139 0.0067910688501639114 0 0.0036655120229189585 0.0065099940435826321 0 0.0039570121056760063 0.0068638592458656117 0 0.0037259724322510649 0.0067810592699329864 0 0.0036655120229189585 0.0065099940435826321 0 0.0037259724322510649 0.0067810592699329864 0 0.0035205373298154781 0.0067273575226031029 0 0.0033123718137129557 0.007585168934203656 0 0.0033449860743104604 0.0080679441382299055 0 0.0037566695991726501 0.0073186899089964005 0 0.0035742142770926366 0.0075462401154921107 0 0.0043230606600994205 0.0072054252299410676 0 0.0041801151907763139 0.0067910688501639114 0 0.004195710885983959 0.0069989005250425396 0 0.0039570121056760063 0.0068638592458656117 0 0.0041801151907763139 0.0067910688501639114 0 0.004195710885983959 0.0069989005250425396 0 0.0043294205799791442 0.0070924138760703375 0 0.004195710885983959 0.0069989005250425396 0 0.0043294205799791442 0.0070924138760703375 0 0.0043813791938889061 0.0072678448284357062 0 0.0041208144402287306 0.0071382296672925193 0 0.004195710885983959 0.0069989005250425396 0 0.0043813791938889061 0.0072678448284357062 0 0.0041056944278165756 0.0074018055506541273 0 0.0041208144402287306 0.0071382296672925193 0 0.0043813791938889061 0.0072678448284357062 0 0.0041208144402287306 0.0071382296672925193 0 0.004195710885983959 0.0069989005250425396 0 0.0039570121056760063 0.0068638592458656117 0 0.0041056944278165756 0.0074018055506541273 0 0.0041208144402287306 0.0071382296672925193 0 0.0036941510367692232 0.0070570520191655228 0 0.0041208144402287306 0.0071382296672925193 0 0.0039570121056760063 0.0068638592458656117 0 0.0036941510367692232 0.0070570520191655228 0 0.0036941510367692232 0.0070570520191655228 0 0.0037259724322510649 0.0067810592699329864 0 0.0035205373298154781 0.0067273575226031029 0 0.0039570121056760063 0.0068638592458656117 0 0.0036941510367692232 0.0070570520191655228 0 0.0037259724322510649 0.0067810592699329864 0 0.0045324819196281806 0.0069075185052301785 0 0.0048551666221814385 0.0072040508635342615 0 0.0043230606600994205 0.0072054252299410676 0 0.0048551666221814385 0.0072040508635342615 0 0.0043230606600994205 0.0072054252299410676 0 0.004565602361444961 0.007295070258112997 0 0.0043230606600994205 0.0072054252299410676 0 0.0043294205799791442 0.0070924138760703375 0 0.004565602361444961 0.007295070258112997 0 0.0041801151907763139 0.0067910688501639114 0 0.0043230606600994205 0.0072054252299410676 0 0.0043294205799791442 0.0070924138760703375 0 0.0039509782664951176 0.0070916481149442484 0 0.0041968238182149269 0.0072043078750912747 0 0.0046797786420012316 0.0075324901109429061 0 0.004565602361444961 0.007295070258112997 0 0.0043813791938889061 0.0072678448284357062 0 0.0043294205799791442 0.0070924138760703375 0 0.004565602361444961 0.007295070258112997 0 0.0043813791938889061 0.0072678448284357062 0 0.0046797786420012316 0.0075324901109429061 0 0.0049884530856229205 0.007567044995733037 0 0.004565602361444961 0.007295070258112997 0 0.0049884530856229205 0.007567044995733037 0 0.0048551666221814385 0.0072040508635342615 0 0.004565602361444961 0.007295070258112997 0 0.0049884530856229205 0.007567044995733037 0 0.0048551666221814385 0.0072040508635342615 0 0.0052741818653196373 0.0074952090945879218 0 0.0048551666221814385 0.0072040508635342615 0 0.0052741818653196373 0.0074952090945879218 0 0.0054554775857357735 0.0069374064897747625 0 0.0052741818653196373 0.0074952090945879218 0 0.0057752681390975877 0.007708962089095584 0 0.0054554775857357735 0.0069374064897747625 0 0.0053624237707258701 0.0077449179186569184 0 0.0052741818653196373 0.0074952090945879218 0 0.0057752681390975877 0.007708962089095584 0 0.0062129984867574399 0.0079056218790811775 0 0.006220293548669451 0.0079409131546051732 0 0.0057752681390975877 0.007708962089095584 0 0.006220293548669451 0.0079409131546051732 0 0.0057752681390975877 0.007708962089095584 0 0.0058524517777985329 0.0079095370076423307 0 0.0057378219267438428 0.007677298869841049 0 0.0054212644797222804 0.0074631278634707835 0 0.0057752681390975877 0.007708962089095584 0 0.0058524517777985329 0.0079095370076423307 0 0.0054500310704327587 0.0079615085452565855 0 0.0058524517777985329 0.0079095370076423307 0 0.0056801289100772258 0.0077351217850718393 0 0.0054500310704327587 0.0079615085452565855 0 0.0050422053131841628 0.0075091756554113483 0 0.0056801289100772258 0.0077351217850718393 0 0.0054500310704327587 0.0079615085452565855 0 0.0062294183663239716 0.0078911065760445629 0 0.0058524517777985329 0.0079095370076423307 0 0.0056801289100772258 0.0077351217850718393 0 0.006220293548669451 0.0079409131546051732 0 0.0062294183663239716 0.0078911065760445629 0 0.0058524517777985329 0.0079095370076423307 0 0.0062294183663239716 0.0078911065760445629 0 0.006237561549823527 0.0075280920304670084 0 0.0056801289100772258 0.0077351217850718393 0 0.0050422053131841628 0.0075091756554113483 0 0.0046536527328999303 0.0074800039263541781 0 0.0054500310704327587 0.0079615085452565855 0 0.0050551797734760236 0.0067099432686971543 0 0.0054212644797222804 0.0074631278634707835 0 0.005148354921477109 0.0063572583616856278 0 0.0049565605344995111 0.006806688075668422 0 0.0054554775857357735 0.0069374064897747625 0 0.0047908599705308117 0.0065159658870792784 0 0.005148354921477109 0.0063572583616856278 0 0.0049565605344995111 0.006806688075668422 0 0.0046055505345025966 0.0062033753870717502 0 0.0047908599705308117 0.0065159658870792784 0 0.005148354921477109 0.0063572583616856278 0 0.0048551666221814385 0.0072040508635342615 0 0.0049565605344995111 0.006806688075668422 0 0.0054554775857357735 0.0069374064897747625 0 0.015595268124182545 0.0033157949275382089 0 0.015307092235713133 0.0031397547150065455 0 0.015334460496250936 0.0037534534425577412 0 0.015595268124182545 0.0033157949275382089 0 0.015307092235713133 0.0031397547150065455 0 0.015611621615703127 0.0027983626946077324 0 0.015005261316087239 0.0036778396494017845 0 0.014999959843791353 0.0027988668678007125 0 0.015307092235713133 0.0031397547150065455 0 0.014806553507460648 0.0038991511836545317 0 0.014999262566381353 0.0027988230920574925 0 0.0151134516688662 0.0036371360133730757 0 0.014999999007016721 0.0036099116363582746 0 0.014999998995746631 0.0027984625288051609 0 0.015307092235713133 0.0031397547150065455 0 0.014806553507460648 0.0038991511836545317 0 0.015334460496250936 0.0037534534425577412 0 0.014806553507460648 0.0038991511836545317 0 0.015334460496250936 0.0037534534425577412 0 0.015213958571511008 0.0042555118791906066 0 0.015334460496250936 0.0037534534425577412 0 0.015466239247459674 0.0040469279696477827 0 0.015213958571511008 0.0042555118791906066 0 0.015595268124182545 0.0033157949275382089 0 0.015334460496250936 0.0037534534425577412 0 0.01572394631151151 0.0037316741636401704 0 0.015334460496250936 0.0037534534425577412 0 0.015466239247459674 0.0040469279696477827 0 0.01572394631151151 0.0037316741636401704 0 0.01596094266894283 0.0040050063868499646 0 0.01572394631151151 0.0037316741636401704 0 0.015664036429161074 0.0041347949809812249 0 0.015466239247459674 0.0040469279696477827 0 0.01572394631151151 0.0037316741636401704 0 0.015664036429161074 0.0041347949809812249 0 0.01596094266894283 0.0040050063868499646 0 0.01572394631151151 0.0037316741636401704 0 0.016168158662438099 0.0036177674266792575 0 0.016266259124124723 0.0042124486785828016 0 0.016168158662438099 0.0036177674266792575 0 0.016633011709494213 0.0038810418878429758 0 0.016266259124124723 0.0042124486785828016 0 0.016633011709494213 0.0038810418878429758 0 0.016524718448744528 0.004519395584454999 0 0.01596094266894283 0.0040050063868499646 0 0.016266259124124723 0.0042124486785828016 0 0.016168158662438099 0.0036177674266792575 0 0.01596094266894283 0.0040050063868499646 0 0.016266259124124723 0.0042124486785828016 0 0.01598355718111906 0.0043326976840425005 0 0.016168158662438099 0.0036177674266792575 0 0.016608721889521269 0.0032898760146669159 0 0.016633011709494213 0.0038810418878429758 0 0.016168158662438099 0.0036177674266792575 0 0.016265621211225646 0.0031335801487000197 0 0.015905361666959147 0.0031450534591883879 0 0.016168158662438099 0.0036177674266792575 0 0.016265621211225646 0.0031335801487000197 0 0.016608721889521269 0.0032898760146669159 0 0.016265621211225646 0.0031335801487000197 0 0.016412152701315366 0.002717130402791282 0 0.016608721889521269 0.0032898760146669159 0 0.015595268124182545 0.0033157949275382089 0 0.01572394631151151 0.0037316741636401704 0 0.015905361666959147 0.0031450534591883879 0 0.01572394631151151 0.0037316741636401704 0 0.016168158662438099 0.0036177674266792575 0 0.015905361666959147 0.0031450534591883879 0 0.015595268124182545 0.0033157949275382089 0 0.015905361666959147 0.0031450534591883879 0 0.015611621615703127 0.0027983626946077324 0 0.015972601097272342 0.0025705643855800458 0 0.015628929147355041 0.0022097145569072679 0 0.015611621615703127 0.0027983626946077324 0 0.015972601097272342 0.0025705643855800458 0 0.016412152701315366 0.002717130402791282 0 0.016005969460031067 0.0020499912566223407 0 0.015905361666959147 0.0031450534591883879 0 0.015972601097272342 0.0025705643855800458 0 0.015611621615703127 0.0027983626946077324 0 0.016265621211225646 0.0031335801487000197 0 0.015905361666959147 0.0031450534591883879 0 0.015972601097272342 0.0025705643855800458 0 0.016265621211225646 0.0031335801487000197 0 0.015972601097272342 0.0025705643855800458 0 0.016412152701315366 0.002717130402791282 0 0.016412152701315366 0.002717130402791282 0 0.016537373073543662 0.002001517975251184 0 0.016005969460031067 0.0020499912566223407 0 0.015972601097272342 0.0025705643855800458 0 0.016005969460031067 0.0020499912566223407 0 0.015628929147355041 0.0022097145569072679 0 0.016005969460031067 0.0020499912566223407 0 0.015628929147355041 0.0022097145569072679 0 0.015463580983133846 0.0017163229359905647 0 0.015628929147355041 0.0022097145569072679 0 0.015278883819507191 0.00242937106187976 0 0.015463580983133846 0.0017163229359905647 0 0.015628929147355041 0.0022097145569072679 0 0.015611621615703127 0.0027983626946077324 0 0.015278883819507191 0.00242937106187976 0 0.015307092235713133 0.0031397547150065455 0 0.015611621615703127 0.0027983626946077324 0 0.015278883819507191 0.00242937106187976 0 0.015307092235713133 0.0031397547150065455 0 0.015278883819507191 0.00242937106187976 0 0.014999262566381353 0.0027988230920574925 0 0.015278883819507191 0.00242937106187976 0 0.014999262566381353 0.0027988230920574925 0 0.015000037041410867 0.0020601031494835607 0 0.015278883819507191 0.00242937106187976 0 0.015000037041410867 0.0020601031494835607 0 0.015463580983133846 0.0017163229359905647 0 0.015000037041410867 0.0020601031494835607 0 0.015463580983133846 0.0017163229359905647 0 0.014999889170064966 0.001321874125078393 0 0.015463580983133846 0.0017163229359905647 0 0.015546669586559916 0.00099460849311847825 0 0.015986820740113636 0.0014136209400163707 0 0.015463580983133846 0.0017163229359905647 0 0.015546669586559916 0.00099460849311847825 0 0.014999889170064966 0.001321874125078393 0 0.015546669586559916 0.00099460849311847825 0 0.014999889170064966 0.001321874125078393 0 0.014999937437713561 0.00058345123648680596 0 0.015546669586559916 0.00099460849311847825 0 0.014999937437713561 0.00058345123648680596 0 0.015523875613571459 0.00033590727417004846 0 0.015546669586559916 0.00099460849311847825 0 0.015523875613571459 0.00033590727417004846 0 0.015949799349096728 0.00066789074404471124 0 0.015000117857123657 -0.00015407066115667072 0 0.014999937437713561 0.00058345123648680596 0 0.015523875613571459 0.00033590727417004846 0 0.016174205904255855 0.00045634623280046846 0 0.015949799349096728 0.00066789074404471124 0 0.016252510991354 0.00072849153804594748 0 0.015905314361785623 0.00019339325008028556 0 0.016174205904255855 0.00045634623280046846 0 0.015949799349096728 0.00066789074404471124 0 0.015905314361785623 0.00019339325008028556 0 0.015523875613571459 0.00033590727417004846 0 0.015949799349096728 0.00066789074404471124 0 0.015949799349096728 0.00066789074404471124 0 0.016191577952287841 0.0010313701869249907 0 0.015889706572900328 0.0010225883852941098 0 0.015546669586559916 0.00099460849311847825 0 0.015949799349096728 0.00066789074404471124 0 0.015889706572900328 0.0010225883852941098 0 0.015949799349096728 0.00066789074404471124 0 0.016252510991354 0.00072849153804594748 0 0.016191577952287841 0.0010313701869249907 0 0.016191577952287841 0.0010313701869249907 0 0.015986820740113636 0.0014136209400163707 0 0.016315635317453194 0.0013551201395963213 0 0.015546669586559916 0.00099460849311847825 0 0.015889706572900328 0.0010225883852941098 0 0.015986820740113636 0.0014136209400163707 0 0.016191577952287841 0.0010313701869249907 0 0.015889706572900328 0.0010225883852941098 0 0.015986820740113636 0.0014136209400163707 0 0.016005969460031067 0.0020499912566223407 0 0.015463580983133846 0.0017163229359905647 0 0.015986820740113636 0.0014136209400163707 0 0.016194205769645288 0.0016440301528522969 0 0.015986820740113636 0.0014136209400163707 0 0.016315635317453194 0.0013551201395963213 0 0.01636458965550849 0.0018436742993949479 0 0.01600768381490842 0.0014362564078582152 0 0.016537373073543662 0.002001517975251184 0 0.016005969460031067 0.0020499912566223407 0 0.015986820740113636 0.0014136209400163707 0 0.016315635317453194 0.0013551201395963213 0 0.01657920148858813 0.0013188405699001526 0 0.016504126902511098 0.0016905200545579121 0 0.016194205769645288 0.0016440301528522969 0 0.016315635317453194 0.0013551201395963213 0 0.016504126902511098 0.0016905200545579121 0 0.016729366288077755 0.0015521241689293399 0 0.01657920148858813 0.0013188405699001526 0 0.016504126902511098 0.0016905200545579121 0 0.016729366288077755 0.0015521241689293399 0 0.01657920148858813 0.0013188405699001526 0 0.016771102596000974 0.0013618005677171355 0 0.016771102596000974 0.0013618005677171355 0 0.016678272716881493 0.0011062041344600173 0 0.016828895320531202 0.0011747931620891413 0 0.01657920148858813 0.0013188405699001526 0 0.016771102596000974 0.0013618005677171355 0 0.016678272716881493 0.0011062041344600173 0 0.01657920148858813 0.0013188405699001526 0 0.016678272716881493 0.0011062041344600173 0 0.016462900031933611 0.0011258925356510069 0 0.016678272716881493 0.0011062041344600173 0 0.016462900031933611 0.0011258925356510069 0 0.016588329391113828 0.00083698055377737603 0 0.016678272716881493 0.0011062041344600173 0 0.016834385012786144 0.00099745897271751537 0 0.016828895320531202 0.0011747931620891413 0 0.016315635317453194 0.0013551201395963213 0 0.01657920148858813 0.0013188405699001526 0 0.016462900031933611 0.0011258925356510069 0 0.016191577952287841 0.0010313701869249907 0 0.016315635317453194 0.0013551201395963213 0 0.016462900031933611 0.0011258925356510069 0 0.016191577952287841 0.0010313701869249907 0 0.016462900031933611 0.0011258925356510069 0 0.016408764870578914 0.00088333416409814766 0 0.016252510991354 0.00072849153804594748 0 0.016191577952287841 0.0010313701869249907 0 0.016408764870578914 0.00088333416409814766 0 0.016252510991354 0.00072849153804594748 0 0.016408764870578914 0.00088333416409814766 0 0.016403574982727119 0.00059566431497119234 0 0.016408764870578914 0.00088333416409814766 0 0.016588329391113828 0.00083698055377737603 0 0.016403574982727119 0.00059566431497119234 0 0.016462900031933611 0.0011258925356510069 0 0.016408764870578914 0.00088333416409814766 0 0.016588329391113828 0.00083698055377737603 0 0.016678272716881493 0.0011062041344600173 0 0.016588329391113828 0.00083698055377737603 0 0.01676647256899599 0.00087037119855536095 0 0.016678272716881493 0.0011062041344600173 0 0.01676647256899599 0.00087037119855536095 0 0.016834385012786144 0.00099745897271751537 0 0.016588329391113828 0.00083698055377737603 0 0.016723209739386947 0.00069350441772712888 0 0.01676647256899599 0.00087037119855536095 0 0.016588329391113828 0.00083698055377737603 0 0.016598966442543807 0.00060697354986350674 0 0.016723209739386947 0.00069350441772712888 0 0.016588329391113828 0.00083698055377737603 0 0.016598966442543807 0.00060697354986350674 0 0.016403574982727119 0.00059566431497119234 0 0.016598966442543807 0.00060697354986350674 0 0.016723209739386947 0.00069350441772712888 0 0.01670622280578709 0.00049686995683275652 0 0.016538628992706503 0.00041214487950646096 0 0.016598966442543807 0.00060697354986350674 0 0.01670622280578709 0.00049686995683275652 0 0.016538628992706503 0.00041214487950646096 0 0.016598966442543807 0.00060697354986350674 0 0.016403574982727119 0.00059566431497119234 0 0.016329116343254926 0.00038202800129603383 0 0.016538628992706503 0.00041214487950646096 0 0.016403574982727119 0.00059566431497119234 0 0.016329116343254926 0.00038202800129603383 0 0.016174205904255855 0.00045634623280046846 0 0.016403574982727119 0.00059566431497119234 0 0.016174205904255855 0.00045634623280046846 0 0.016252510991354 0.00072849153804594748 0 0.016403574982727119 0.00059566431497119234 0 0.014383758494812156 0.0044266345100941939 0 0.014721576293411753 0.0038082410848237834 0 0.013913550599468073 0.0061249155017096685 0 0.013873488950763584 0.0057846744962605024 0 0.014262876829770749 0.0055102551354276842 0 0.013940873090766954 0.0055425027007874432 0 0.014262876829770749 0.0055102551354276842 0 0.014068415410289884 0.0054172567336200341 0 0.013940873090766954 0.0055425027007874432 0 0.013873488950763584 0.0057846744962605024 0 0.014262876829770749 0.0055102551354276842 0 0.013940873090766954 0.0055425027007874432 0 0.013852896783351725 0.0053648546292046325 0 0.013679944882989899 0.0055247532022546257 0 0.013940873090766954 0.0055425027007874432 0 0.013873488950763584 0.0057846744962605024 0 0.013556291220154903 0.0057278896851183344 0 0.01369472019866394 0.0059920590654252001 0 0.013873488950763584 0.0057846744962605024 0 0.013556291220154903 0.0057278896851183344 0 0.01667971889622407 0.00021224750731846229 0 0.01670622280578709 0.00049686995683275652 0 0.0168678782067582 0.00061851426695914448 0 0.015977332021930812 0.0011506170378285259 0 0.01564905882277472 0.0014681346715401324 0 0.015568544503916121 0.0015065468771057898 0 0.015475802931413705 0.0023336740374252803 0 0.015446993770344922 0.0016699534676421061 0 0.015568544503916121 0.0015065468771057898 0 0.015730003941874834 0.0017624550540110413 0 0.015595224066238863 0.00146855850135398 0 0.016723209739386947 0.00069350441772712888 0 0.01670622280578709 0.00049686995683275652 0 0.0168678782067582 0.00061851426695914448 0 0.01564905882277472 0.0014681346715401324 0 0.015568544503916121 0.0015065468771057898 0 0.015673255560840864 0.0012822149110168683 0 0.0168678782067582 0.00061851426695914448 0 0.016834385012786144 0.00099745897271751537 0 0.016969115003436782 0.0011210978942214501 0 0.015446993770344922 0.0016699534676421061 0 0.015568544503916121 0.0015065468771057898 0 0.015673255560840864 0.0012822149110168683 0 0.014262876829770749 0.0055102551354276842 0 0.014329108250179983 0.0051689063539595579 0 0.014487050665800364 0.0049721206699914504 0 0.0168678782067582 0.00061851426695914448 0 0.01676647256899599 0.00087037119855536095 0 0.016834385012786144 0.00099745897271751537 0 0.016315381807754433 0.00082194196593126745 0 0.015915452874818829 0.0022561694030600815 0 0.014721576293411753 0.0038082410848237834 0 0.015915452874818829 0.0022561694030600815 0 0.016723209739386947 0.00069350441772712888 0 0.0168678782067582 0.00061851426695914448 0 0.01676647256899599 0.00087037119855536095 0 0.014329108250179983 0.0051689063539595579 0 0.014207237062126586 0.0052461860671848956 0 0.014404463446131987 0.0049553847878603787 0 0.014262876829770749 0.0055102551354276842 0 0.014207237062126586 0.0052461860671848956 0 0.014068415410289884 0.0054172567336200341 0 0.014262876829770749 0.0055102551354276842 0 0.014329108250179983 0.0051689063539595579 0 0.014207237062126586 0.0052461860671848956 0 0.013940873090766954 0.0055425027007874432 0 0.014068415410289884 0.0054172567336200341 0 0.013852896783351725 0.0053648546292046325 0 0.014207237062126586 0.0052461860671848956 0 0.014068415410289884 0.0054172567336200341 0 0.013852896783351725 0.0053648546292046325 0 0.014207237062126586 0.0052461860671848956 0 0.013909503641403897 0.005135984297346379 0 0.014404463446131987 0.0049553847878603787 0 0.014207237062126586 0.0052461860671848956 0 0.013852896783351725 0.0053648546292046325 0 0.013909503641403897 0.005135984297346379 0 0.014329108250179983 0.0051689063539595579 0 0.014404463446131987 0.0049553847878603787 0 0.014487050665800364 0.0049721206699914504 0 0.014404463446131987 0.0049553847878603787 0 0.014757803146660975 0.0051820353253530542 0 0.014566936904335357 0.0050996548086260588 0 0.014404463446131987 0.0049553847878603787 0 0.014487050665800364 0.0049721206699914504 0 0.014566936904335357 0.0050996548086260588 0 0.016834385012786144 0.00099745897271751537 0 0.016969115003436782 0.0011210978942214501 0 0.016828895320531202 0.0011747931620891413 0 0.015915452874818829 0.0022561694030600815 0 0.016505519312717189 0.0012088519966628082 0 0.016771102596000974 0.0013618005677171355 0 0.016939112646000357 0.0012850794157642155 0 0.016828895320531202 0.0011747931620891413 0 0.016969115003436782 0.0011210978942214501 0 0.016939112646000357 0.0012850794157642155 0 0.016828895320531202 0.0011747931620891413 0 0.016771102596000974 0.0013618005677171355 0 0.016939112646000357 0.0012850794157642155 0 0.017013489221291977 0.0016429856007492837 0 0.015915452874818829 0.0022561694030600815 0 0.015454611684284459 0.0042618196851959217 0 0.014451361788694746 0.0054970792049839024 0 0.015454611684284459 0.0042618196851959217 0 0.014487050665800364 0.0049721206699914504 0 0.014566936904335357 0.0050996548086260588 0 0.014516219920028675 0.0052474649939007545 0 0.016965593876535512 0.0011389606415652404 0 0.016939112646000357 0.0012850794157642155 0 0.017013489221291977 0.0016429856007492837 0 0.016729366288077755 0.0015521241689293399 0 0.016771102596000974 0.0013618005677171355 0 0.017013489221291977 0.0016429856007492837 0 0.014566936904335357 0.0050996548086260588 0 0.014833452592362781 0.0053042415859073776 0 0.014756296361080152 0.0053250085050882386 0 0.014757803146660975 0.0051820353253530542 0 0.014566936904335357 0.0050996548086260588 0 0.014833452592362781 0.0053042415859073776 0 0.014757803146660975 0.0051820353253530542 0 0.014833452592362781 0.0053042415859073776 0 0.014936892489658038 0.005306543362184721 0 0.014833452592362781 0.0053042415859073776 0 0.014985164456094749 0.0053937195169954707 0 0.014964987407775208 0.0054278485473356281 0 0.014833452592362781 0.0053042415859073776 0 0.014985164456094749 0.0053937195169954707 0 0.014936892489658038 0.005306543362184721 0 0.014833452592362781 0.0053042415859073776 0 0.014964987407775208 0.0054278485473356281 0 0.014756296361080152 0.0053250085050882386 0 0.014985164456094749 0.0053937195169954707 0 0.014964987407775208 0.0054278485473356281 0 0.015112979390004611 0.005492764857365477 0 0.0152321625172316 0.0056339625842162884 0 0.015003198590424481 0.0055342150098802237 0 0.01541987200923301 0.0057229465200375647 0 0.014964987407775208 0.0054278485473356281 0 0.015112979390004611 0.005492764857365477 0 0.015116593431985789 0.0055512538639450422 0 0.014964987407775208 0.0054278485473356281 0 0.015116593431985789 0.0055512538639450422 0 0.015003198590424481 0.0055342150098802237 0 0.015116593431985789 0.0055512538639450422 0 0.0152321625172316 0.0056339625842162884 0 0.015003198590424481 0.0055342150098802237 0 0.015112979390004611 0.005492764857365477 0 0.015116593431985789 0.0055512538639450422 0 0.015271139951627833 0.0056167885934555834 0 0.015116593431985789 0.0055512538639450422 0 0.0152321625172316 0.0056339625842162884 0 0.015271139951627833 0.0056167885934555834 0 0.016238485639449005 0.0035074165772265397 0 0.016335784086679215 0.0042590659473335938 0 0.015270994140020399 0.0056877106821982149 0 0.015378074421576321 0.005601689317317915 0 0.015434968970644605 0.005573821263474779 0 0.015406450728555385 0.0054596645479906706 0 0.015355301432814293 0.0056757147216613445 0 0.015434968970644605 0.005573821263474779 0 0.015355301432814293 0.0056757147216613445 0 0.015458803884171696 0.0056371105991361989 0 0.015434968970644605 0.005573821263474779 0 0.015545569010341966 0.0055159685562172125 0 0.015458803884171696 0.0056371105991361989 0 0.015434968970644605 0.005573821263474779 0 0.015545569010341966 0.0055159685562172125 0 0.015406450728555385 0.0054596645479906706 0 0.015545569010341966 0.0055159685562172125 0 0.015406450728555385 0.0054596645479906706 0 0.01553266667649268 0.0051213223730803645 0 0.015270994140020399 0.0056877106821982149 0 0.015454611684284459 0.0042618196851959217 0 0.014964987407775208 0.0054278485473356281 0 0.015003198590424481 0.0055342150098802237 0 0.014756296361080152 0.0053250085050882386 0 0.016889946147998755 0.0019747160780877295 0 0.017013489221291977 0.0016429856007492837 0 0.016758484576957222 0.0017585868197346356 0 0.016238485639449005 0.0035074165772265397 0 0.015454611684284459 0.0042618196851959217 0 0.016729366288077755 0.0015521241689293399 0 0.017013489221291977 0.0016429856007492837 0 0.016758484576957222 0.0017585868197346356 0 0.016729366288077755 0.0015521241689293399 0 0.016758484576957222 0.0017585868197346356 0 0.016504126902511098 0.0016905200545579121 0 0.016758484576957222 0.0017585868197346356 0 0.016504126902511098 0.0016905200545579121 0 0.016666799292584588 0.0019193687284644308 0 0.016504126902511098 0.0016905200545579121 0 0.016450467837734701 0.0019777154891947846 0 0.016666799292584588 0.0019193687284644308 0 0.016889946147998755 0.0019747160780877295 0 0.016758484576957222 0.0017585868197346356 0 0.016666799292584588 0.0019193687284644308 0 0.01636458965550849 0.0018436742993949479 0 0.016785290470088639 0.0021115520536855404 0 0.016194205769645288 0.0016440301528522969 0 0.016504126902511098 0.0016905200545579121 0 0.016450467837734701 0.0019777154891947846 0 0.016412152701315366 0.002717130402791282 0 0.016537373073543662 0.002001517975251184 0 0.017046911667391546 0.0025821314223833797 0 0.016412152701315366 0.002717130402791282 0 0.017046911667391546 0.0025821314223833797 0 0.016608721889521269 0.0032898760146669159 0 0.016450467837734701 0.0019777154891947846 0 0.016666799292584588 0.0019193687284644308 0 0.016751531873085097 0.0023280614302224269 0 0.016785290470088639 0.0021115520536855404 0 0.016335784086679215 0.0042590659473335938 0 0.016889946147998755 0.0019747160780877295 0 0.016666799292584588 0.0019193687284644308 0 0.016751531873085097 0.0023280614302224269 0 0.017625717933591252 0.0031948191999629115 0 0.017084841078727278 0.0034706165835410225 0 0.01721140850399059 0.0041496055532900403 0 0.017046911667391546 0.0025821314223833797 0 0.017625717933591252 0.0031948191999629115 0 0.017084841078727278 0.0034706165835410225 0 0.0156793114738106 0.0059045365601289113 0 0.015911992331408706 0.0056886780361352831 0 0.015524931125320055 0.0057593541368730549 0 0.017046911667391546 0.0025821314223833797 0 0.016608721889521269 0.0032898760146669159 0 0.017084841078727278 0.0034706165835410225 0 0.016608721889521269 0.0032898760146669159 0 0.017084841078727278 0.0034706165835410225 0 0.016633011709494213 0.0038810418878429758 0 0.017084841078727278 0.0034706165835410225 0 0.016633011709494213 0.0038810418878429758 0 0.01721140850399059 0.0041496055532900403 0 0.016633011709494213 0.0038810418878429758 0 0.01721140850399059 0.0041496055532900403 0 0.016524718448744528 0.004519395584454999 0 0.015911992331408706 0.0056886780361352831 0 0.01561007921767334 0.0056871598215234281 0 0.015655942115741416 0.0056244728054356029 0 0.016335784086679215 0.0042590659473335938 0 0.016574920253900883 0.004941772106816073 0 0.015911992331408706 0.0056886780361352831 0 0.01561007921767334 0.0056871598215234281 0 0.015524931125320055 0.0057593541368730549 0 0.01561007921767334 0.0056871598215234281 0 0.015553645985483354 0.0056636076913227241 0 0.015655942115741416 0.0056244728054356029 0 0.01561007921767334 0.0056871598215234281 0 0.015480544344974001 0.0056997808835048871 0 0.015524931125320055 0.0057593541368730549 0 0.01561007921767334 0.0056871598215234281 0 0.015480544344974001 0.0056997808835048871 0 0.015553645985483354 0.0056636076913227241 0 0.015480544344974001 0.0056997808835048871 0 0.015553645985483354 0.0056636076913227241 0 0.015511783037849969 0.0056650305057614108 0 0.015553645985483354 0.0056636076913227241 0 0.015511783037849969 0.0056650305057614108 0 0.015591286994852007 0.0056230351859712672 0 0.015480544344974001 0.0056997808835048871 0 0.015511783037849969 0.0056650305057614108 0 0.015450222496593294 0.0056852294892368385 0 0.015511783037849969 0.0056650305057614108 0 0.015450222496593294 0.0056852294892368385 0 0.0154986502388692 0.0056635250300855365 0 0.015450222496593294 0.0056852294892368385 0 0.015469016907872725 0.0056820058621549875 0 0.0154986502388692 0.0056635250300855365 0 0.015450222496593294 0.0056852294892368385 0 0.015410599873756073 0.0056978357872385097 0 0.015394379292212089 0.0056942471960850288 0 0.015450222496593294 0.0056852294892368385 0 0.015394379292212089 0.0056942471960850288 0 0.015423715397726138 0.0056926545784599138 0 0.015480544344974001 0.0056997808835048871 0 0.015450222496593294 0.0056852294892368385 0 0.015410599873756073 0.0056978357872385097 0 0.015480544344974001 0.0056997808835048871 0 0.015410599873756073 0.0056978357872385097 0 0.01541987200923301 0.0057229465200375647 0 0.015410599873756073 0.0056978357872385097 0 0.015330591148019695 0.00568172182440354 0 0.01541987200923301 0.0057229465200375647 0 0.015394379292212089 0.0056942471960850288 0 0.015330591148019695 0.00568172182440354 0 0.015380450298811611 0.0056876018321913241 0 0.015410599873756073 0.0056978357872385097 0 0.015394379292212089 0.0056942471960850288 0 0.015330591148019695 0.00568172182440354 0 0.015271139951627833 0.0056167885934555834 0 0.015330591148019695 0.00568172182440354 0 0.015380450298811611 0.0056876018321913241 0 0.0152321625172316 0.0056339625842162884 0 0.015271139951627833 0.0056167885934555834 0 0.015330591148019695 0.00568172182440354 0 0.0152321625172316 0.0056339625842162884 0 0.015330591148019695 0.00568172182440354 0 0.01541987200923301 0.0057229465200375647 0 0.015458803884171696 0.0056371105991361989 0 0.015466968454825758 0.0057034263249464536 0 0.01541987200923301 0.0057229465200375647 0 0.015545569010341966 0.0055159685562172125 0 0.015458803884171696 0.0056371105991361989 0 0.01541987200923301 0.0057229465200375647 0 0.015355301432814293 0.0056757147216613445 0 0.015458803884171696 0.0056371105991361989 0 0.015466968454825758 0.0057034263249464536 0 0.016335784086679215 0.0042590659473335938 0 0.015779204163556316 0.0056929209568741456 0 0.015355301432814293 0.0056757147216613445 0 0.015466968454825758 0.0057034263249464536 0 0.015524931125320055 0.0057593541368730549 0 0.015480544344974001 0.0056997808835048871 0 0.015524931125320055 0.0057593541368730549 0 0.01541987200923301 0.0057229465200375647 0 0.015466968454825758 0.0057034263249464536 0 0.015524931125320055 0.0057593541368730549 0 0.01541987200923301 0.0057229465200375647 0 0.015458994134681391 0.0056691403703465048 0 0.015440661234515866 0.0056971599100657079 0 0.015456774480901957 0.0056937130392870202 0 0.015458994134681391 0.0056691403703465048 0 0.015456774480901957 0.0056937130392870202 0 0.015443631305419975 0.0057061778850076243 0 0.015458994134681391 0.0056691403703465048 0 0.015380450298811611 0.0056876018321913241 0 0.015440661234515866 0.0056971599100657079 0 0.015277798872980981 0.0056138597867421399 0 0.0153286370881678 0.0056237247182846714 0 0.015271139951627833 0.0056167885934555834 0 0.015458994134681391 0.0056691403703465048 0 0.015380450298811611 0.0056876018321913241 0 0.015394379292212089 0.0056942471960850288 0 0.015380450298811611 0.0056876018321913241 0 0.015423715397726138 0.0056926545784599138 0 0.015440661234515866 0.0056971599100657079 0 0.015423715397726138 0.0056926545784599138 0 0.015469016907872725 0.0056820058621549875 0 0.015380450298811611 0.0056876018321913241 0 0.015440661234515866 0.0056971599100657079 0 0.015423715397726138 0.0056926545784599138 0 0.015450222496593294 0.0056852294892368385 0 0.015423715397726138 0.0056926545784599138 0 0.015469016907872725 0.0056820058621549875 0 0.015440661234515866 0.0056971599100657079 0 0.015469016907872725 0.0056820058621549875 0 0.015468295057065099 0.0056847875741364209 0 0.015440661234515866 0.0056971599100657079 0 0.015468295057065099 0.0056847875741364209 0 0.015456774480901957 0.0056937130392870202 0 0.015468295057065099 0.0056847875741364209 0 0.015456774480901957 0.0056937130392870202 0 0.015461727707392356 0.0056804953884572931 0 0.015456774480901957 0.0056937130392870202 0 0.015445528734355696 0.0056912985489289388 0 0.015461727707392356 0.0056804953884572931 0 0.015456774480901957 0.0056937130392870202 0 0.015445528734355696 0.0056912985489289388 0 0.015443631305419975 0.0057061778850076243 0 0.015445528734355696 0.0056912985489289388 0 0.015428352994279224 0.0056954472521177097 0 0.015443631305419975 0.0057061778850076243 0 0.015424219445579189 0.0083701052395695821 0 0.014754856134156514 0.0092275625880659275 0 0.014664298281741804 0.008653682357736333 0 0.01540649820314394 0.007124694461132796 0 0.014825417754918108 0.0068001346951572133 0 0.015424219445579189 0.0083701052395695821 0 0.014664298281741804 0.008653682357736333 0 0.01484159331755636 0.0081444577099855035 0 0.015075667355004483 0.0054997061487573173 0 0.014840912905001778 0.0056307959586233275 0 0.014820884951482175 0.0054613351496999177 0 0.015428352994279224 0.0056954472521177097 0 0.015443631305419975 0.0057061778850076243 0 0.015406987980950504 0.0057196254092168417 0 0.015290162214258185 0.0055113612807867933 0 0.014825417754918108 0.0068001346951572133 0 0.015231748804314497 0.0055657013492633372 0 0.015075667355004483 0.0054997061487573173 0 0.015159072688272745 0.0055948607911319882 0 0.0153286370881678 0.0056237247182846714 0 0.015290162214258185 0.0055113612807867933 0 0.015159072688272745 0.0055948607911319882 0 0.014985521643914125 0.005745883820899177 0 0.015255877779822185 0.0056386164521850628 0 0.015075667355004483 0.0054997061487573173 0 0.015159072688272745 0.0055948607911319882 0 0.014985521643914125 0.005745883820899177 0 0.015075667355004483 0.0054997061487573173 0 0.014985521643914125 0.005745883820899177 0 0.014840912905001778 0.0056307959586233275 0 0.014880530240772866 0.0052322331450883166 0 0.014826627872191337 0.0053737617520366867 0 0.014747446846283948 0.0052985915972610566 0 0.014880530240772866 0.0052322331450883166 0 0.014954444650092096 0.0053039001949736703 0 0.014826627872191337 0.0053737617520366867 0 0.014880530240772866 0.0052322331450883166 0 0.014954444650092096 0.0053039001949736703 0 0.014991996014345109 0.005303591871172725 0 0.015180250911056245 0.0053830477340731471 0 0.015046446049675862 0.0054913222266575511 0 0.014954444650092096 0.0053039001949736703 0 0.014991996014345109 0.005303591871172725 0 0.015001395398079388 0.0053172919579595156 0 0.014991996014345109 0.005303591871172725 0 0.01501038881323615 0.0053721825801388602 0 0.015001395398079388 0.0053172919579595156 0 0.015231748804314497 0.0055657013492633372 0 0.015255877779822185 0.0056386164521850628 0 0.015234083580191531 0.0055994206779442545 0 0.015231748804314497 0.0055657013492633372 0 0.015159072688272745 0.0055948607911319882 0 0.015255877779822185 0.0056386164521850628 0 0.015112979390004611 0.005492764857365477 0 0.015255877779822185 0.0056386164521850628 0 0.015234083580191531 0.0055994206779442545 0 0.015124468364410032 0.0054848672739926966 0 0.015046446049675862 0.0054913222266575511 0 0.015271139951627833 0.0056167885934555834 0 0.015231748804314497 0.0055657013492633372 0 0.015234083580191531 0.0055994206779442545 0 0.015112979390004611 0.005492764857365477 0 0.015271139951627833 0.0056167885934555834 0 0.015234083580191531 0.0055994206779442545 0 0.014985164456094749 0.0053937195169954707 0 0.015112979390004611 0.005492764857365477 0 0.01501038881323615 0.0053721825801388602 0 0.015112979390004611 0.005492764857365477 0 0.014991996014345109 0.005303591871172725 0 0.01501038881323615 0.0053721825801388602 0 0.01501038881323615 0.0053721825801388602 0 0.014936892489658038 0.005306543362184721 0 0.015001395398079388 0.0053172919579595156 0 0.014985164456094749 0.0053937195169954707 0 0.01501038881323615 0.0053721825801388602 0 0.014936892489658038 0.005306543362184721 0 0.014936892489658038 0.005306543362184721 0 0.015001395398079388 0.0053172919579595156 0 0.014985452350185207 0.0051545235075702318 0 0.014757803146660975 0.0051820353253530542 0 0.014936892489658038 0.005306543362184721 0 0.014985452350185207 0.0051545235075702318 0 0.015001395398079388 0.0053172919579595156 0 0.014985452350185207 0.0051545235075702318 0 0.014978978499364687 0.0053239811678330957 0 0.012818914965380256 0.0050397752496845298 0 0.013394134038164912 0.0047109486875164192 0 0.012535241117364445 0.0046125374101591288 0 0.012818914965380256 0.0050397752496845298 0 0.013394134038164912 0.0047109486875164192 0 0.01320230370117283 0.0053287557178689111 0 0.014186207344737668 0.0049428777015852882 0 0.013729214148573742 0.0049678991060941808 0 0.014387486933770394 0.0049558170809278195 0 0.014186207344737668 0.0049428777015852882 0 0.013394134038164912 0.0047109486875164192 0 0.013555423519573744 0.0052299311016009752 0 0.01320230370117283 0.0053287557178689111 0 0.014404463446131987 0.0049553847878603787 0 0.014757803146660975 0.0051820353253530542 0 0.014985452350185207 0.0051545235075702318 0 0.013909503641403897 0.005135984297346379 0 0.014404463446131987 0.0049553847878603787 0 0.013394134038164912 0.0047109486875164192 0 0.013909503641403897 0.005135984297346379 0 0.013394134038164912 0.0047109486875164192 0 0.013555423519573744 0.0052299311016009752 0 0.013422143652535905 0.0054642661143051849 0 0.01320230370117283 0.0053287557178689111 0 0.013164267297957772 0.0056246084055763144 0 0.013852896783351725 0.0053648546292046325 0 0.013909503641403897 0.005135984297346379 0 0.013555423519573744 0.0052299311016009752 0 0.013852896783351725 0.0053648546292046325 0 0.013422143652535905 0.0054642661143051849 0 0.013555423519573744 0.0052299311016009752 0 0.013852896783351725 0.0053648546292046325 0 0.013422143652535905 0.0054642661143051849 0 0.013679944882989899 0.0055247532022546257 0 0.013422143652535905 0.0054642661143051849 0 0.013555423519573744 0.0052299311016009752 0 0.01320230370117283 0.0053287557178689111 0 0.01320230370117283 0.0053287557178689111 0 0.012686726971930006 0.0055168431220734056 0 0.012526927339410248 0.0066508257649860129 0 0.012818914965380256 0.0050397752496845298 0 0.01320230370117283 0.0053287557178689111 0 0.012686726971930006 0.0055168431220734056 0 0.013139988706511969 0.0053999574561860502 0 0.012575383876011094 0.0061205275702133442 0 0.01320230370117283 0.0053287557178689111 0 0.013164267297957772 0.0056246084055763144 0 0.012664709268146314 0.0055914438424689763 0 0.0132770880706052 0.0058355547447896195 0 0.01301385761207789 0.0059460104835621407 0 0.013164267297957772 0.0056246084055763144 0 0.01301385761207789 0.0059460104835621407 0 0.013164267297957772 0.0056246084055763144 0 0.012664709268146314 0.0055914438424689763 0 0.0132770880706052 0.0058355547447896195 0 0.013164267297957772 0.0056246084055763144 0 0.013556291220154903 0.0057278896851183344 0 0.013422143652535905 0.0054642661143051849 0 0.013556291220154903 0.0057278896851183344 0 0.013679944882989899 0.0055247532022546257 0 0.013940873090766954 0.0055425027007874432 0 0.013556291220154903 0.0057278896851183344 0 0.013679944882989899 0.0055247532022546257 0 0.013422143652535905 0.0054642661143051849 0 0.013164267297957772 0.0056246084055763144 0 0.013556291220154903 0.0057278896851183344 0 0.011338681644371853 0.0067072643227672705 0 0.011214833356354465 0.0055838292001835661 0 0.010585524070606804 0.0063443682782951894 0 0.012686726971930006 0.0055168431220734056 0 0.011928339632933924 0.0061112036469441215 0 0.012526927339410248 0.0066508257649860129 0 0.011338681644371853 0.0067072643227672705 0 0.011928339632933924 0.0061112036469441215 0 0.012526927339410248 0.0066508257649860129 0 0.012686726971930006 0.0055168431220734056 0 0.011928339632933924 0.0061112036469441215 0 0.011214833356354465 0.0055838292001835661 0 0.012686726971930006 0.0055168431220734056 0 0.011841198038530608 0.0053118637721542095 0 0.012306389977613279 0.0050673967036114478 0 0.012637984039549329 0.0055755861554909018 0 0.011571837562733488 0.005247123377135403 0 0.012818914965380256 0.0050397752496845298 0 0.012686726971930006 0.0055168431220734056 0 0.012306389977613279 0.0050673967036114478 0 0.011338681644371853 0.0067072643227672705 0 0.011928339632933924 0.0061112036469441215 0 0.011214833356354465 0.0055838292001835661 0 0.011841198038530608 0.0053118637721542095 0 0.011794468148625125 0.0045043196736761978 0 0.011420104784694867 0.0048344889252485285 0 0.011841198038530608 0.0053118637721542095 0 0.012306389977613279 0.0050673967036114478 0 0.011794468148625125 0.0045043196736761978 0 0.012306389977613279 0.0050673967036114478 0 0.012535241117364445 0.0046125374101591288 0 0.011794468148625125 0.0045043196736761978 0 0.012818914965380256 0.0050397752496845298 0 0.012306389977613279 0.0050673967036114478 0 0.012535241117364445 0.0046125374101591288 0 0.014954444650092096 0.0053039001949736703 0 0.014978978499364687 0.0053239811678330957 0 0.014826627872191337 0.0053737617520366867 0 0.014954444650092096 0.0053039001949736703 0 0.015001395398079388 0.0053172919579595156 0 0.014978978499364687 0.0053239811678330957 0 0.013729214148573742 0.0049678991060941808 0 0.013463393578595042 0.0048195301374832798 0 0.011794468148625125 0.0045043196736761978 0 0.011114311988528698 0.0043699807684735512 0 0.011420104784694867 0.0048344889252485285 0 0.014826627872191337 0.0053737617520366867 0 0.01461444277661178 0.0053645380294512716 0 0.014747446846283948 0.0052985915972610566 0 0.013463393578595042 0.0048195301374832798 0 0.011913121805443017 0.0063292397493118682 0 0.010471550827380608 0.0077379745219435915 0 0.010179897558507496 0.0080022475653326701 0 0.010224212282544288 0.0077731374586081127 0 0.010471550827380608 0.0077379745219435915 0 0.010625404886568639 0.0077715601263466643 0 0.010179897558507496 0.0080022475653326701 0 0.010471550827380608 0.0077379745219435915 0 0.010224212282544288 0.0077731374586081127 0 0.010387009655618451 0.0075880306137931985 0 0.010471550827380608 0.0077379745219435915 0 0.010656332329249691 0.0077818148850164999 0 0.01053773258982699 0.0075336231577130923 0 0.011131934056728259 0.0066026203485599309 0 0.011913121805443017 0.0063292397493118682 0 0.011913121805443017 0.0063292397493118682 0 0.010295442847023786 0.0069285102179108202 0 0.010625404886568639 0.0077715601263466643 0 0.01054982973393381 0.0085649725873455096 0 0.010179897558507496 0.0080022475653326701 0 0.011841198038530608 0.0053118637721542095 0 0.011420104784694867 0.0048344889252485285 0 0.011042824251657103 0.0052133616213714384 0 0.011114311988528698 0.0043699807684735512 0 0.011420104784694867 0.0048344889252485285 0 0.011042824251657103 0.0052133616213714384 0 0.011214833356354465 0.0055838292001835661 0 0.0098951524575841901 0.0054864019418473025 0 0.010585524070606804 0.0063443682782951894 0 0.011571837562733488 0.005247123377135403 0 0.010295442847023786 0.0069285102179108202 0 0.010295442847023786 0.0069285102179108202 0 0.0098418974049576686 0.0077302732187043109 0 0.0098951524575841901 0.0054864019418473025 0 0.0098500512073897185 0.0068068405116828235 0 0.010585524070606804 0.0063443682782951894 0 0.0099521071304496025 0.0085401747653455571 0 0.0098669835569821888 0.0086267534584545842 0 0.0098696365481845752 0.0086430371463818087 0 0.010672482804477591 0.0076402427608288428 0 0.011338681644371853 0.0067072643227672705 0 0.010585524070606804 0.0063443682782951894 0 0.010672482804477591 0.0076402427608288428 0 0.0098500512073897185 0.0068068405116828235 0 0.010585524070606804 0.0063443682782951894 0 0.0097457569599369194 0.0087913752664403131 0 0.0098514009390038172 0.0086771795215338215 0 0.0097622202134118041 0.0086759554934748885 0 0.0095205750556800472 0.0087357296543021917 0 0.0095465333259708209 0.0088484428981261062 0 0.0097457569599369194 0.0087913752664403131 0 0.0095205750556800472 0.0087357296543021917 0 0.0097457569599369194 0.0087913752664403131 0 0.0097622202134118041 0.0086759554934748885 0 0.0098403407582455041 0.0087340840388806934 0 0.0097186193337335958 0.0088648963593604899 0 0.0097457569599369194 0.0087913752664403131 0 0.0095465333259708209 0.0088484428981261062 0 0.0097186193337335958 0.0088648963593604899 0 0.0097457569599369194 0.0087913752664403131 0 0.0098726389661998454 0.0086789905649273455 0 0.0098403407582455041 0.0087340840388806934 0 0.0097457569599369194 0.0087913752664403131 0 0.0098726389661998454 0.0086789905649273455 0 0.0097457569599369194 0.0087913752664403131 0 0.0098514009390038172 0.0086771795215338215 0 0.0099493296314441294 0.0085811803516014987 0 0.0098726389661998454 0.0086789905649273455 0 0.0098514009390038172 0.0086771795215338215 0 0.0099493296314441294 0.0085811803516014987 0 0.0098514009390038172 0.0086771795215338215 0 0.0098696365481845752 0.0086430371463818087 0 0.0099493296314441294 0.0085811803516014987 0 0.0098669835569821888 0.0086267534584545842 0 0.0098696365481845752 0.0086430371463818087 0 0.0098514009390038172 0.0086771795215338215 0 0.0098696365481845752 0.0086430371463818087 0 0.0097622202134118041 0.0086759554934748885 0 0.0099521071304496025 0.0085401747653455571 0 0.0098696365481845752 0.0086430371463818087 0 0.0097527839498790982 0.0084626764317050143 0 0.0098696365481845752 0.0086430371463818087 0 0.0097622202134118041 0.0086759554934748885 0 0.0097527839498790982 0.0084626764317050143 0 0.0095205750556800472 0.0087357296543021917 0 0.0097622202134118041 0.0086759554934748885 0 0.0097527839498790982 0.0084626764317050143 0 0.0092717879462389883 0.0085268648685884376 0 0.0095205750556800472 0.0087357296543021917 0 0.0097527839498790982 0.0084626764317050143 0 0.0092717879462389883 0.0085268648685884376 0 0.0097527839498790982 0.0084626764317050143 0 0.0094417228644810974 0.0082825302139437566 0 0.0097527839498790982 0.0084626764317050143 0 0.0094417228644810974 0.0082825302139437566 0 0.0097066076826802811 0.0080099531249976288 0 0.0097527839498790982 0.0084626764317050143 0 0.010179897558507496 0.0080022475653326701 0 0.0097066076826802811 0.0080099531249976288 0 0.010295442847023786 0.0069285102179108202 0 0.0097893571818046723 0.0088965078311475081 0 0.01054982973393381 0.0085649725873455096 0 0.0097527839498790982 0.0084626764317050143 0 0.010179897558507496 0.0080022475653326701 0 0.010179897558507496 0.0080022475653326701 0 0.0099601015882495071 0.0077451577705735077 0 0.0097066076826802811 0.0080099531249976288 0 0.010179897558507496 0.0080022475653326701 0 0.0099601015882495071 0.0077451577705735077 0 0.010224212282544288 0.0077731374586081127 0 0.0099601015882495071 0.0077451577705735077 0 0.010224212282544288 0.0077731374586081127 0 0.010241082869004197 0.0075417502648264211 0 0.0094417228644810974 0.0082825302139437566 0 0.0093683165344958397 0.0079521350709291835 0 0.0097066076826802811 0.0080099531249976288 0 0.0099601015882495071 0.0077451577705735077 0 0.0097066076826802811 0.0080099531249976288 0 0.0096527481346963175 0.0076955093418092403 0 0.0093683165344958397 0.0079521350709291835 0 0.0097066076826802811 0.0080099531249976288 0 0.0096527481346963175 0.0076955093418092403 0 0.0092304427988952574 0.0077390369314257485 0 0.0093683165344958397 0.0079521350709291835 0 0.0096527481346963175 0.0076955093418092403 0 0.0099318769479788301 0.0082616514460847577 0 0.010969849294165362 0.0089196142722500968 0 0.0092304427988952574 0.0077390369314257485 0 0.009092578636833654 0.0074975402440397958 0 0.0096527481346963175 0.0076955093418092403 0 0.0099318769479788301 0.0082616514460847577 0 0.0092809968555808021 0.0075090708257447491 0 0.011247550433251921 0.010322864349978908 0 0.012024323108958745 0.01025223156016101 0 0.011641734251495834 0.0098363873793161586 0 0.0092080669652386937 0.0074923712521673749 0 0.0096527481346963175 0.0076955093418092403 0 0.0097735666642828622 0.0074231199251213707 0 0.012024323108958745 0.01025223156016101 0 0.011641734251495834 0.0098363873793161586 0 0.012026164878013782 0.0098299322644010822 0 0.012026164878013782 0.0098299322644010822 0 0.012276527524026467 0.0095532870242959582 0 0.011806700733288 0.009348835091484764 0 0.011641734251495834 0.0098363873793161586 0 0.012026164878013782 0.0098299322644010822 0 0.011806700733288 0.009348835091484764 0 0.011241830545680431 0.0093651833820711083 0 0.011641734251495834 0.0098363873793161586 0 0.011806700733288 0.009348835091484764 0 0.012276527524026467 0.0095532870242959582 0 0.012654220435390504 0.0096997070908532192 0 0.012553218650300882 0.0093765229845421804 0 0.012276527524026467 0.0095532870242959582 0 0.012363659486572171 0.0099267552486553036 0 0.012654220435390504 0.0096997070908532192 0 0.012024323108958745 0.01025223156016101 0 0.012026164878013782 0.0098299322644010822 0 0.012363659486572171 0.0099267552486553036 0 0.012026164878013782 0.0098299322644010822 0 0.012276527524026467 0.0095532870242959582 0 0.012363659486572171 0.0099267552486553036 0 0.012363659486572171 0.0099267552486553036 0 0.012760827840131654 0.010168760578724052 0 0.012654220435390504 0.0096997070908532192 0 0.0097735666642828622 0.0074231199251213707 0 0.010241082869004197 0.0075417502648264211 0 0.010393005934288851 0.0073519220877228198 0 0.0099601015882495071 0.0077451577705735077 0 0.0097735666642828622 0.0074231199251213707 0 0.010241082869004197 0.0075417502648264211 0 0.010969849294165362 0.0089196142722500968 0 0.011434341146898586 0.0080419891245367883 0 0.012024323108958745 0.01025223156016101 0 0.012363659486572171 0.0099267552486553036 0 0.012760827840131654 0.010168760578724052 0 0.0099601015882495071 0.0077451577705735077 0 0.0096527481346963175 0.0076955093418092403 0 0.0097735666642828622 0.0074231199251213707 0 0.010241082869004197 0.0075417502648264211 0 0.010387009655618451 0.0075880306137931985 0 0.010403352985894947 0.0073205606250711479 0 0.010224212282544288 0.0077731374586081127 0 0.010241082869004197 0.0075417502648264211 0 0.010387009655618451 0.0075880306137931985 0 0.010387009655618451 0.0075880306137931985 0 0.01053773258982699 0.0075336231577130923 0 0.010403352985894947 0.0073205606250711479 0 0.010471550827380608 0.0077379745219435915 0 0.010387009655618451 0.0075880306137931985 0 0.01053773258982699 0.0075336231577130923 0 0.011913121805443017 0.0063292397493118682 0 0.013547810342740031 0.006251068915261386 0 0.010656332329249691 0.0077818148850164999 0 0.01053773258982699 0.0075336231577130923 0 0.01070450850071346 0.007290943183204523 0 0.01053773258982699 0.0075336231577130923 0 0.01070450850071346 0.007290943183204523 0 0.010403352985894947 0.0073205606250711479 0 0.013547810342740031 0.006251068915261386 0 0.011434341146898586 0.0080419891245367883 0 0.010816919118886742 0.0078682177019509317 0 0.011434341146898586 0.0080419891245367883 0 0.015180250911056245 0.0053830477340731471 0 0.013547810342740031 0.006251068915261386 0 0.014880530240772866 0.0052322331450883166 0 0.014630287196812957 0.0052270707896950371 0 0.014747446846283948 0.0052985915972610566 0 0.01461444277661178 0.0053645380294512716 0 0.014630287196812957 0.0052270707896950371 0 0.014747446846283948 0.0052985915972610566 0 0.014985521643914125 0.005745883820899177 0 0.01464448415621509 0.0058056383641000688 0 0.014840912905001778 0.0056307959586233275 0 0.01464448415621509 0.0058056383641000688 0 0.014840912905001778 0.0056307959586233275 0 0.014656827413748678 0.0056591767006836328 0 0.014840912905001778 0.0056307959586233275 0 0.014656827413748678 0.0056591767006836328 0 0.014820884951482175 0.0054613351496999177 0 0.012760827840131654 0.010168760578724052 0 0.013105051980250861 0.0097203913348582523 0 0.012654220435390504 0.0096997070908532192 0 0.013106570805945005 0.0075176969633449515 0 0.012662561917715925 0.0075539175991037695 0 0.013151867052982803 0.0069363491078862846 0 0.013547810342740031 0.006251068915261386 0 0.013705127554395716 0.0075357149957148914 0 0.011434341146898586 0.0080419891245367883 0 0.013705127554395716 0.0075357149957148914 0 0.013105051980250861 0.0097203913348582523 0 0.012654220435390504 0.0096997070908532192 0 0.012850100805318326 0.0093921937504674365 0 0.013105051980250861 0.0097203913348582523 0 0.012850100805318326 0.0093921937504674365 0 0.013148924373010535 0.0090921274405076618 0 0.012654220435390504 0.0096997070908532192 0 0.012850100805318326 0.0093921937504674365 0 0.012553218650300882 0.0093765229845421804 0 0.012850100805318326 0.0093921937504674365 0 0.012633896857717569 0.0090211015985780987 0 0.012553218650300882 0.0093765229845421804 0 0.012850100805318326 0.0093921937504674365 0 0.012633896857717569 0.0090211015985780987 0 0.013148924373010535 0.0090921274405076618 0 0.012856066188460587 0.0090692868378720766 0 0.013950656124222532 0.0087593655844914707 0 0.014039920387732236 0.0077834332047604458 0 0.014058707888818923 0.0075672826958853396 0 0.014198471463157395 0.0075859175088847678 0 0.013705127554395716 0.0075357149957148914 0 0.013950656124222532 0.0087593655844914707 0 0.013705127554395716 0.0075357149957148914 0 0.014825417754918108 0.0068001346951572133 0 0.013950656124222532 0.0087593655844914707 0 0.014825417754918108 0.0068001346951572133 0 0.014163327815978769 0.0091347657975389841 0 0.014754856134156514 0.0092275625880659275 0 0.014664298281741804 0.008653682357736333 0 0.014163327815978769 0.0091347657975389841 0 0.014664298281741804 0.008653682357736333 0 0.014202713088913993 0.0082875527785739016 0 0.013950656124222532 0.0087593655844914707 0 0.01418693993573799 0.0085436567552691477 0 0.014664298281741804 0.008653682357736333 0 0.014202713088913993 0.0082875527785739016 0 0.01484159331755636 0.0081444577099855035 0 0.014113753944167425 0.0093401526603841701 0 0.014202713088913993 0.0082875527785739016 0 0.013678532497895564 0.0087989042864928847 0 0.014202713088913993 0.0082875527785739016 0 0.013678532497895564 0.0087989042864928847 0 0.013043218328856779 0.0084484703346570204 0 0.01316975760669812 0.0091837806625568123 0 0.013678532497895564 0.0087989042864928847 0 0.013043218328856779 0.0084484703346570204 0 0.01316975760669812 0.0091837806625568123 0 0.014113753944167425 0.0093401526603841701 0 0.013678532497895564 0.0087989042864928847 0 0.013043218328856779 0.0084484703346570204 0 0.012169210435253555 0.0089503616674733999 0 0.011971813915153019 0.0087559178839420621 0 0.01013336010328296 0.0087388880486959954 0 0.010859666204109492 0.0082714547362014151 0 0.013043218328856779 0.0084484703346570204 0 0.011971813915153019 0.0087559178839420621 0 0.013220777197235857 0.0077582406211670401 0 0.0082833856314793869 0.0087618344124085635 0 0.0083146674445552828 0.008745443183196408 0 0.008497331363261135 0.0087782208995814785 0 0.01316975760669812 0.0091837806625568123 0 0.013043218328856779 0.0084484703346570204 0 0.012169210435253555 0.0089503616674733999 0 0.012856066188460587 0.0090692868378720766 0 0.012289235864124117 0.0089807960422980601 0 0.0082555058072177091 0.0087371237238906899 0 0.0082833856314793869 0.0087618344124085635 0 0.0083146674445552828 0.008745443183196408 0 0.0082025782330078338 0.0086975198733969875 0 0.0082555058072177091 0.0087371237238906899 0 0.0082356675577218586 0.0087268755048495843 0 0.0082555058072177091 0.0087371237238906899 0 0.0082356675577218586 0.0087268755048495843 0 0.0083146674445552828 0.008745443183196408 0 0.0082025782330078338 0.0086975198733969875 0 0.0082555058072177091 0.0087371237238906899 0 0.0082833856314793869 0.0087618344124085635 0 0.012169210435253555 0.0089503616674733999 0 0.011971813915153019 0.0087559178839420621 0 0.012072747401335005 0.009207753695985494 0 0.011971813915153019 0.0087559178839420621 0 0.012072747401335005 0.009207753695985494 0 0.011806700733288 0.009348835091484764 0 0.0097644730968437041 0.0090708349633224963 0 0.01013336010328296 0.0087388880486959954 0 0.011241830545680431 0.0093651833820711083 0 0.011971813915153019 0.0087559178839420621 0 0.011806700733288 0.009348835091484764 0 0.0082025782330078338 0.0086975198733969875 0 0.0081510144505241282 0.0086270795566378723 0 0.0082833856314793869 0.0087618344124085635 0 0.012276527524026467 0.0095532870242959582 0 0.012072747401335005 0.009207753695985494 0 0.011806700733288 0.009348835091484764 0 0.012276527524026467 0.0095532870242959582 0 0.012072747401335005 0.009207753695985494 0 0.012347561354956457 0.0092291705440714199 0 0.012276527524026467 0.0095532870242959582 0 0.012553218650300882 0.0093765229845421804 0 0.012347561354956457 0.0092291705440714199 0 0.012633896857717569 0.0090211015985780987 0 0.012553218650300882 0.0093765229845421804 0 0.012347561354956457 0.0092291705440714199 0 0.012633896857717569 0.0090211015985780987 0 0.012169210435253555 0.0089503616674733999 0 0.012347561354956457 0.0092291705440714199 0 0.012169210435253555 0.0089503616674733999 0 0.012072747401335005 0.009207753695985494 0 0.012347561354956457 0.0092291705440714199 0 0.0084284269483053155 0.0087275340755587107 0 0.0084887983317738364 0.0087095011608940773 0 0.0084174612341773661 0.0086981631359150068 0 0.0084284269483053155 0.0087275340755587107 0 0.0084174612341773661 0.0086981631359150068 0 0.0083492811635884866 0.0087152379699777707 0 0.0084284269483053155 0.0087275340755587107 0 0.0084923922705720557 0.0087344638784595235 0 0.0084887983317738364 0.0087095011608940773 0 0.0084887983317738364 0.0087095011608940773 0 0.0084174612341773661 0.0086981631359150068 0 0.0084833890494290798 0.0086815743636276341 0 0.0084174612341773661 0.0086981631359150068 0 0.00832769476133155 0.0086897414404197414 0 0.0084157585082090137 0.0086732089174901966 0 0.0084174612341773661 0.0086981631359150068 0 0.00832769476133155 0.0086897414404197414 0 0.0083492811635884866 0.0087152379699777707 0 0.0082295920945194348 0.0086802351432786438 0 0.00832769476133155 0.0086897414404197414 0 0.0082927386199554368 0.0086626989724341019 0 0.0082295920945194348 0.0086802351432786438 0 0.00832769476133155 0.0086897414404197414 0 0.0082667948783664135 0.0087096677847785936 0 0.00832769476133155 0.0086897414404197414 0 0.0082667948783664135 0.0087096677847785936 0 0.0083492811635884866 0.0087152379699777707 0 0.0083492811635884866 0.0087152379699777707 0 0.0082881396361681545 0.008728541214749419 0 0.008367773609888789 0.0087382247556775216 0 0.0082667948783664135 0.0087096677847785936 0 0.0083492811635884866 0.0087152379699777707 0 0.0082881396361681545 0.008728541214749419 0 0.0082208398045828471 0.0087213680840688007 0 0.0082667948783664135 0.0087096677847785936 0 0.0082881396361681545 0.008728541214749419 0 0.0082356675577218586 0.0087268755048495843 0 0.0082881396361681545 0.008728541214749419 0 0.0083146674445552828 0.008745443183196408 0 0.0082208398045828471 0.0087213680840688007 0 0.0082356675577218586 0.0087268755048495843 0 0.0082881396361681545 0.008728541214749419 0 0.0082881396361681545 0.008728541214749419 0 0.0083146674445552828 0.008745443183196408 0 0.008367773609888789 0.0087382247556775216 0 0.0084284269483053155 0.0087275340755587107 0 0.008367773609888789 0.0087382247556775216 0 0.008497331363261135 0.0087782208995814785 0 0.0083146674445552828 0.008745443183196408 0 0.008367773609888789 0.0087382247556775216 0 0.008497331363261135 0.0087782208995814785 0 0.0084284269483053155 0.0087275340755587107 0 0.0083492811635884866 0.0087152379699777707 0 0.008367773609888789 0.0087382247556775216 0 0.0084284269483053155 0.0087275340755587107 0 0.0084923922705720557 0.0087344638784595235 0 0.008497331363261135 0.0087782208995814785 0 0.014202713088913993 0.0082875527785739016 0 0.013043218328856779 0.0084484703346570204 0 0.013220777197235857 0.0077582406211670401 0 0.013220777197235857 0.0077582406211670401 0 0.014179205461977373 0.0075756073347100243 0 0.014446937536617138 0.0069302075257355843 0 0.014202713088913993 0.0082875527785739016 0 0.013220777197235857 0.0077582406211670401 0 0.014179205461977373 0.0075756073347100243 0 0.014202713088913993 0.0082875527785739016 0 0.01484159331755636 0.0081444577099855035 0 0.0146996408906116 0.0076787127852860869 0 0.014202713088913993 0.0082875527785739016 0 0.014179205461977373 0.0075756073347100243 0 0.0146996408906116 0.0076787127852860869 0 0.014179205461977373 0.0075756073347100243 0 0.0146996408906116 0.0076787127852860869 0 0.014521937125111066 0.0073318616268866531 0 0.0146996408906116 0.0076787127852860869 0 0.014754784777096918 0.0071391592145736765 0 0.015310227852437529 0.0075675642643722252 0 0.014754784777096918 0.0071391592145736765 0 0.014521937125111066 0.0073318616268866531 0 0.014446937536617138 0.0069302075257355843 0 0.0146996408906116 0.0076787127852860869 0 0.014754784777096918 0.0071391592145736765 0 0.014521937125111066 0.0073318616268866531 0 0.014179205461977373 0.0075756073347100243 0 0.014521937125111066 0.0073318616268866531 0 0.014446937536617138 0.0069302075257355843 0 0.0086698290079090818 0.0087315431644189138 0 0.0086104099533592156 0.0087091723438945737 0 0.0086768375523818726 0.0087021990836048651 0 0.014754784777096918 0.0071391592145736765 0 0.014446937536617138 0.0069302075257355843 0 0.015144568497941543 0.0068444059394043629 0 0.010859666204109492 0.0082714547362014151 0 0.011539342153981271 0.0078490743228193244 0 0.008497331363261135 0.0087782208995814785 0 0.0086698290079090818 0.0087315431644189138 0 0.0085553124315807753 0.0087278116594930906 0 0.0084923922705720557 0.0087344638784595235 0 0.008497331363261135 0.0087782208995814785 0 0.0085553124315807753 0.0087278116594930906 0 0.0084923922705720557 0.0087344638784595235 0 0.0084887983317738364 0.0087095011608940773 0 0.0085553124315807753 0.0087278116594930906 0 0.0086698290079090818 0.0087315431644189138 0 0.0085553124315807753 0.0087278116594930906 0 0.0086104099533592156 0.0087091723438945737 0 0.0085553124315807753 0.0087278116594930906 0 0.0086104099533592156 0.0087091723438945737 0 0.0085568307553079113 0.0086900195164334795 0 0.0084887983317738364 0.0087095011608940773 0 0.0085553124315807753 0.0087278116594930906 0 0.0085568307553079113 0.0086900195164334795 0 0.0086104099533592156 0.0087091723438945737 0 0.0085568307553079113 0.0086900195164334795 0 0.00863387758413201 0.0086901783307861691 0 0.00863387758413201 0.0086901783307861691 0 0.0085957618395283257 0.0086786777032680385 0 0.0086506115404110552 0.0086803248276997036 0 0.0085957618395283257 0.0086786777032680385 0 0.0085718076634431293 0.0086639359204713998 0 0.0085394564048633347 0.008673643811656178 0 0.0085568307553079113 0.0086900195164334795 0 0.00863387758413201 0.0086901783307861691 0 0.0085957618395283257 0.0086786777032680385 0 0.0085568307553079113 0.0086900195164334795 0 0.0085957618395283257 0.0086786777032680385 0 0.0085394564048633347 0.008673643811656178 0 0.0086768375523818726 0.0087021990836048651 0 0.0086959235986989528 0.0086908822747462453 0 0.0087494857216090707 0.0086987561402196625 0 0.0086698290079090818 0.0087315431644189138 0 0.0086768375523818726 0.0087021990836048651 0 0.0087494857216090707 0.0086987561402196625 0 0.011539342153981271 0.0078490743228193244 0 0.01217733878821289 0.0075682686837778264 0 0.0086104099533592156 0.0087091723438945737 0 0.00863387758413201 0.0086901783307861691 0 0.0086768375523818726 0.0087021990836048651 0 0.00863387758413201 0.0086901783307861691 0 0.0086768375523818726 0.0087021990836048651 0 0.0086959235986989528 0.0086908822747462453 0 0.0086959235986989528 0.0086908822747462453 0 0.0086970083310256904 0.0086939679207205748 0 0.0087390768449016921 0.0087154413187595595 0 0.00863387758413201 0.0086901783307861691 0 0.0086959235986989528 0.0086908822747462453 0 0.0086506115404110552 0.0086803248276997036 0 0.0086959235986989528 0.0086908822747462453 0 0.0086970083310256904 0.0086939679207205748 0 0.0086506115404110552 0.0086803248276997036 0 0.0085957618395283257 0.0086786777032680385 0 0.0086506115404110552 0.0086803248276997036 0 0.0085718076634431293 0.0086639359204713998 0 0.0086970083310256904 0.0086939679207205748 0 0.0086506115404110552 0.0086803248276997036 0 0.0086416348936520174 0.0086750830721256007 0 0.0086506115404110552 0.0086803248276997036 0 0.0085718076634431293 0.0086639359204713998 0 0.0086416348936520174 0.0086750830721256007 0 0.0085228279997469989 0.0086374266087986245 0 0.0085718076634431293 0.0086639359204713998 0 0.0086416348936520174 0.0086750830721256007 0 0.0085228279997469989 0.0086374266087986245 0 0.008464357434839009 0.0086505134950859743 0 0.0084339108290123165 0.0086239397837391055 0 0.0085228279997469989 0.0086374266087986245 0 0.0085718076634431293 0.0086639359204713998 0 0.008464357434839009 0.0086505134950859743 0 0.0085718076634431293 0.0086639359204713998 0 0.0085394564048633347 0.008673643811656178 0 0.008464357434839009 0.0086505134950859743 0 0.0085394564048633347 0.008673643811656178 0 0.008464357434839009 0.0086505134950859743 0 0.0084833890494290798 0.0086815743636276341 0 0.0084174612341773661 0.0086981631359150068 0 0.0084833890494290798 0.0086815743636276341 0 0.0084157585082090137 0.0086732089174901966 0 0.008464357434839009 0.0086505134950859743 0 0.0084833890494290798 0.0086815743636276341 0 0.0084157585082090137 0.0086732089174901966 0 0.0084887983317738364 0.0087095011608940773 0 0.0085568307553079113 0.0086900195164334795 0 0.0084833890494290798 0.0086815743636276341 0 0.0085568307553079113 0.0086900195164334795 0 0.0085394564048633347 0.008673643811656178 0 0.0084833890494290798 0.0086815743636276341 0 0.008253185861326064 0.0086220690510384682 0 0.0083547100850939592 0.0086525318403008322 0 0.0082927386199554368 0.0086626989724341019 0 0.00832769476133155 0.0086897414404197414 0 0.0083547100850939592 0.0086525318403008322 0 0.0082927386199554368 0.0086626989724341019 0 0.008464357434839009 0.0086505134950859743 0 0.0083547100850939592 0.0086525318403008322 0 0.0084157585082090137 0.0086732089174901966 0 0.00832769476133155 0.0086897414404197414 0 0.0083547100850939592 0.0086525318403008322 0 0.0084157585082090137 0.0086732089174901966 0 0.008464357434839009 0.0086505134950859743 0 0.0083547100850939592 0.0086525318403008322 0 0.0083582103204828465 0.0086160774698238653 0 0.008253185861326064 0.0086220690510384682 0 0.0083547100850939592 0.0086525318403008322 0 0.0083582103204828465 0.0086160774698238653 0 0.0083582103204828465 0.0086160774698238653 0 0.0084339108290123165 0.0086239397837391055 0 0.0084025486380426596 0.0085942445741870131 0 0.0082702281512683617 0.0085675734689267743 0 0.0083582103204828465 0.0086160774698238653 0 0.0084025486380426596 0.0085942445741870131 0 0.008464357434839009 0.0086505134950859743 0 0.0083582103204828465 0.0086160774698238653 0 0.0084339108290123165 0.0086239397837391055 0 0.0085228279997469989 0.0086374266087986245 0 0.0084339108290123165 0.0086239397837391055 0 0.0084025486380426596 0.0085942445741870131 0 0.0083026783596753216 0.0085459710164328493 0 0.0084025486380426596 0.0085942445741870131 0 0.0084864884053360099 0.0086173641252137584 0 0.0085228279997469989 0.0086374266087986245 0 0.0084025486380426596 0.0085942445741870131 0 0.0084864884053360099 0.0086173641252137584 0 0.0084141562022043807 0.0085975276878719718 0 0.0083269383857799729 0.0085474682887630264 0 0.0084864884053360099 0.0086173641252137584 0 0.0085228279997469989 0.0086374266087986245 0 0.0086362163996316407 0.0086806980231809751 0 0.0086416348936520174 0.0086750830721256007 0 0.0085228279997469989 0.0086374266087986245 0 0.0084864884053360099 0.0086173641252137584 0 0.0086362163996316407 0.0086806980231809751 0 0.0086362163996316407 0.0086806980231809751 0 0.0086418919449123954 0.0087082037286509879 0 0.0087602649014679578 0.0087831144595994087 0 0.0086418919449123954 0.0087082037286509879 0 0.0085656276765425973 0.0086869356624491179 0 0.008745871632680615 0.0088356425322317633 0 0.0084864884053360099 0.0086173641252137584 0 0.0086362163996316407 0.0086806980231809751 0 0.0086418919449123954 0.0087082037286509879 0 0.0084864884053360099 0.0086173641252137584 0 0.0086418919449123954 0.0087082037286509879 0 0.0085656276765425973 0.0086869356624491179 0 0.0084141562022043807 0.0085975276878719718 0 0.0084864884053360099 0.0086173641252137584 0 0.0085656276765425973 0.0086869356624491179 0 0.0084141562022043807 0.0085975276878719718 0 0.0084521466484319321 0.0086420566242016283 0 0.0085656276765425973 0.0086869356624491179 0 0.0086212221613530208 0.0087774581580776136 0 0.008745871632680615 0.0088356425322317633 0 0.0088153901696880685 0.0089768988188672072 0 0.0084521466484319321 0.0086420566242016283 0 0.0085656276765425973 0.0086869356624491179 0 0.0086212221613530208 0.0087774581580776136 0 0.0085007025400180136 0.0087081973583103996 0 0.0084521466484319321 0.0086420566242016283 0 0.0086212221613530208 0.0087774581580776136 0 0.0085656276765425973 0.0086869356624491179 0 0.0086212221613530208 0.0087774581580776136 0 0.008745871632680615 0.0088356425322317633 0 0.008745871632680615 0.0088356425322317633 0 0.0090261574857409699 0.0091308767147316623 0 0.0087602649014679578 0.0087831144595994087 0 0.0086418919449123954 0.0087082037286509879 0 0.008745871632680615 0.0088356425322317633 0 0.0087602649014679578 0.0087831144595994087 0 0.008745871632680615 0.0088356425322317633 0 0.0088153901696880685 0.0089768988188672072 0 0.0090261574857409699 0.0091308767147316623 0 0.0088153901696880685 0.0089768988188672072 0 0.0090261574857409699 0.0091308767147316623 0 0.0090962736836910259 0.0091866892658318128 0 0.0088153901696880685 0.0089768988188672072 0 0.0086439870241478717 0.0088646220770460232 0 0.008789462919876527 0.0090449791689249329 0 0.0085202261721631194 0.0087633652838906059 0 0.0086439870241478717 0.0088646220770460232 0 0.0086229446634870002 0.0089174739928575639 0 0.0085007025400180136 0.0087081973583103996 0 0.0086212221613530208 0.0087774581580776136 0 0.0086439870241478717 0.0088646220770460232 0 0.0086212221613530208 0.0087774581580776136 0 0.0088153901696880685 0.0089768988188672072 0 0.0086439870241478717 0.0088646220770460232 0 0.0090261574857409699 0.0091308767147316623 0 0.0087882568854543673 0.0089162502200148472 0 0.0088421846291209388 0.009053343441506826 0 0.0090261574857409699 0.0091308767147316623 0 0.0087602649014679578 0.0087831144595994087 0 0.0087845393742768743 0.0088169150135657404 0 0.0090261574857409699 0.0091308767147316623 0 0.0087845393742768743 0.0088169150135657404 0 0.0087882568854543673 0.0089162502200148472 0 0.0087845393742768743 0.0088169150135657404 0 0.0087882568854543673 0.0089162502200148472 0 0.0087508790347363627 0.0087672710857633895 0 0.0087845393742768743 0.0088169150135657404 0 0.0087165641481650596 0.0087185764722081584 0 0.0087508790347363627 0.0087672710857633895 0 0.0087602649014679578 0.0087831144595994087 0 0.0087845393742768743 0.0088169150135657404 0 0.0087165641481650596 0.0087185764722081584 0 0.0086362163996316407 0.0086806980231809751 0 0.0087602649014679578 0.0087831144595994087 0 0.0087165641481650596 0.0087185764722081584 0 0.0086362163996316407 0.0086806980231809751 0 0.0087165641481650596 0.0087185764722081584 0 0.0086416348936520174 0.0086750830721256007 0 0.0086970083310256904 0.0086939679207205748 0 0.0087165641481650596 0.0087185764722081584 0 0.0086416348936520174 0.0086750830721256007 0 0.0086970083310256904 0.0086939679207205748 0 0.0087165641481650596 0.0087185764722081584 0 0.0087390768449016921 0.0087154413187595595 0 0.0087165641481650596 0.0087185764722081584 0 0.0087390768449016921 0.0087154413187595595 0 0.0087508790347363627 0.0087672710857633895 0 0.0087390768449016921 0.0087154413187595595 0 0.0087518445967555009 0.0087508860962847886 0 0.0087508790347363627 0.0087672710857633895 0 0.0087390768449016921 0.0087154413187595595 0 0.0087518445967555009 0.0087508860962847886 0 0.0087662464783250394 0.0087198932206452012 0 0.0087518445967555009 0.0087508860962847886 0 0.0087535713788283332 0.0087606560783040112 0 0.0087662464783250394 0.0087198932206452012 0 0.0087518445967555009 0.0087508860962847886 0 0.0087520298131530082 0.0087920090027934876 0 0.0087568468454963903 0.0088242545032239088 0 0.0087518445967555009 0.0087508860962847886 0 0.0087520298131530082 0.0087920090027934876 0 0.0087535713788283332 0.0087606560783040112 0 0.0087520298131530082 0.0087920090027934876 0 0.0087568468454963903 0.0088242545032239088 0 0.0087553810407046597 0.0088495127690229897 0 0.0087520298131530082 0.0087920090027934876 0 0.0087553810407046597 0.0088495127690229897 0 0.0087452669692371279 0.0088009506703607826 0 0.0087518445967555009 0.0087508860962847886 0 0.0087508790347363627 0.0087672710857633895 0 0.0087568468454963903 0.0088242545032239088 0 0.0087882568854543673 0.0089162502200148472 0 0.0087568468454963903 0.0088242545032239088 0 0.0087805523558418391 0.0089267840639173264 0 0.0087882568854543673 0.0089162502200148472 0 0.0087508790347363627 0.0087672710857633895 0 0.0087568468454963903 0.0088242545032239088 0 0.0087568468454963903 0.0088242545032239088 0 0.0087553810407046597 0.0088495127690229897 0 0.0087805523558418391 0.0089267840639173264 0 0.0087553810407046597 0.0088495127690229897 0 0.0087805523558418391 0.0089267840639173264 0 0.008757439002369017 0.008957673143295309 0 0.0087882568854543673 0.0089162502200148472 0 0.0087805523558418391 0.0089267840639173264 0 0.0088421846291209388 0.009053343441506826 0 0.015587194587301895 0.0085566107367214695 0 0.01586661536455827 0.0083623922144704672 0 0.015868991063365898 0.0088473805686051475 0 0.012112978838510617 0.0086228117061823897 0 0.012332324227435536 0.0088990868261278281 0 0.0087553810407046597 0.0088495127690229897 0 0.0087276916399695627 0.0088520727676149186 0 0.008757439002369017 0.008957673143295309 0 0.0087553810407046597 0.0088495127690229897 0 0.0087276916399695627 0.0088520727676149186 0 0.0087452669692371279 0.0088009506703607826 0 0.015587194587301895 0.0085566107367214695 0 0.01586661536455827 0.0083623922144704672 0 0.015570579259990305 0.0081765611881293217 0 0.01586661536455827 0.0083623922144704672 0 0.015813619756235915 0.0079577143391387183 0 0.015570579259990305 0.0081765611881293217 0 0.014190019938371226 0.0081820660895770905 0 0.016149809338709711 0.0078213027679991248 0 0.012112978838510617 0.0086228117061823897 0 0.014190019938371226 0.0081820660895770905 0 0.015761066034633779 0.0075201835325112276 0 0.016131627406570391 0.0075626442542517753 0 0.015570579259990305 0.0081765611881293217 0 0.0087276916399695627 0.0088520727676149186 0 0.0087452669692371279 0.0088009506703607826 0 0.0087434629118550641 0.0087638685500851937 0 0.0087452669692371279 0.0088009506703607826 0 0.0087535713788283332 0.0087606560783040112 0 0.0087434629118550641 0.0087638685500851937 0 0.0087520298131530082 0.0087920090027934876 0 0.0087452669692371279 0.0088009506703607826 0 0.0087535713788283332 0.0087606560783040112 0 0.0087535713788283332 0.0087606560783040112 0 0.0087434629118550641 0.0087638685500851937 0 0.0087662464783250394 0.0087198932206452012 0 0.016016738588930376 0.0071768639820814243 0 0.015981304069204432 0.0069997510294031538 0 0.016079011147457772 0.0067658279079559295 0 0.016016738588930376 0.0071768639820814243 0 0.016079011147457772 0.0067658279079559295 0 0.016121696039388803 0.0066088692432237769 0 0.014190019938371226 0.0081820660895770905 0 0.012106674584514674 0.0077379422236245454 0 0.014190019938371226 0.0081820660895770905 0 0.015451741230740893 0.0070375933396209928 0 0.015761066034633779 0.0075201835325112276 0 0.016131627406570391 0.0075626442542517753 0 0.015981304069204432 0.0069997510294031538 0 0.015761066034633779 0.0075201835325112276 0 0.015981304069204432 0.0069997510294031538 0 0.015635470774172225 0.0070755639702321915 0 0.016111167546207367 0.0065598844398296633 0 0.015986859643801747 0.0065427413965466873 0 0.016020623146209226 0.0068527458362363531 0 0.015981304069204432 0.0069997510294031538 0 0.016111167546207367 0.0065598844398296633 0 0.015635470774172225 0.0070755639702321915 0 0.016094495297486855 0.0064661600991741622 0 0.016111167546207367 0.0065598844398296633 0 0.015986859643801747 0.0065427413965466873 0 0.016107007217528755 0.0066010125585090219 0 0.015832179340630359 0.0069761864186969908 0 0.016094495297486855 0.0064661600991741622 0 0.016061667061901042 0.0062870280426010538 0 0.016134602877342499 0.0065742985936997076 0 0.016094495297486855 0.0064661600991741622 0 0.016061667061901042 0.0062870280426010538 0 0.015986859643801747 0.0065427413965466873 0 0.015743221931067038 0.0059390195879182994 0 0.016091455359248125 0.0064267433660857689 0 0.016061667061901042 0.0062870280426010538 0 0.016134602877342499 0.0065742985936997076 0 0.016141538407904873 0.0065996506471412584 0 0.016084023034349946 0.0065772506311693709 0 0.016134602877342499 0.0065742985936997076 0 0.016105242084716719 0.0065390115844972058 0 0.016084023034349946 0.0065772506311693709 0 0.016057386931046545 0.0066276223509965917 0 0.016019721580028744 0.0066050494904689545 0 0.016084023034349946 0.0065772506311693709 0 0.016056243626140776 0.0065622047021936941 0 0.016019721580028744 0.0066050494904689545 0 0.016084023034349946 0.0065772506311693709 0 0.016057386931046545 0.0066276223509965917 0 0.016134602877342499 0.0065742985936997076 0 0.016057386931046545 0.0066276223509965917 0 0.016134602877342499 0.0065742985936997076 0 0.016129303218456983 0.0066608956162139427 0 0.016081469897791457 0.006454836069811511 0 0.016091455359248125 0.0064267433660857689 0 0.016094495297486855 0.0064661600991741622 0 0.016105242084716719 0.0065390115844972058 0 0.016111167546207367 0.0065598844398296633 0 0.016094495297486855 0.0064661600991741622 0 0.016134602877342499 0.0065742985936997076 0 0.016105242084716719 0.0065390115844972058 0 0.016084023034349946 0.0065772506311693709 0 0.016105242084716719 0.0065390115844972058 0 0.016056243626140776 0.0065622047021936941 0 0.016105242084716719 0.0065390115844972058 0 0.016056243626140776 0.0065622047021936941 0 0.016091540319551755 0.0065599570072191957 0 0.016105242084716719 0.0065390115844972058 0 0.016091540319551755 0.0065599570072191957 0 0.016111167546207367 0.0065598844398296633 0 0.016091540319551755 0.0065599570072191957 0 0.016111167546207367 0.0065598844398296633 0 0.016079011147457772 0.0067658279079559295 0 0.015981304069204432 0.0069997510294031538 0 0.016111167546207367 0.0065598844398296633 0 0.016079011147457772 0.0067658279079559295 0 0.016091540319551755 0.0065599570072191957 0 0.016079011147457772 0.0067658279079559295 0 0.016121696039388803 0.0066088692432237769 0 0.016091540319551755 0.0065599570072191957 0 0.016121696039388803 0.0066088692432237769 0 0.015926709524313989 0.0065613425751041279 0 0.016121696039388803 0.0066088692432237769 0 0.01552407406353251 0.0064367588003788967 0 0.015926709524313989 0.0065613425751041279 0 0.012106674584514674 0.0077379422236245454 0 0.01217733878821289 0.0075682686837778264 0 0.0087390768449016921 0.0087154413187595595 0 0.0087662464783250394 0.0087198932206452012 0 0.0087494857216090707 0.0086987561402196625 0 0.0086959235986989528 0.0086908822747462453 0 0.0087390768449016921 0.0087154413187595595 0 0.0087494857216090707 0.0086987561402196625 0 0.014446937536617138 0.0069302075257355843 0 0.01552407406353251 0.0064367588003788967 0 0.015144568497941543 0.0068444059394043629 0 0.01552407406353251 0.0064367588003788967 0 0.01570010734651707 0.0069474414672480106 0 0.015144568497941543 0.0068444059394043629 0 0.01552407406353251 0.0064367588003788967 0 0.015926709524313989 0.0065613425751041279 0 0.015882717793914203 0.0067248173442025199 0 0.01552407406353251 0.0064367588003788967 0 0.015882717793914203 0.0067248173442025199 0 0.01570010734651707 0.0069474414672480106 0 0.016056243626140776 0.0065622047021936941 0 0.016091540319551755 0.0065599570072191957 0 0.015926709524313989 0.0065613425751041279 0 0.016056243626140776 0.0065622047021936941 0 0.015926709524313989 0.0065613425751041279 0 0.016019721580028744 0.0066050494904689545 0 0.016057386931046545 0.0066276223509965917 0 0.015882717793914203 0.0067248173442025199 0 0.016129303218456983 0.0066608956162139427 0 0.016057386931046545 0.0066276223509965917 0 0.015882717793914203 0.0067248173442025199 0 0.016019721580028744 0.0066050494904689545 0 0.015926709524313989 0.0065613425751041279 0 0.015882717793914203 0.0067248173442025199 0 0.016019721580028744 0.0066050494904689545 0 0.015720101618657879 0.0069422500984635564 0 0.016091455359248125 0.0064267433660857689 0 0.015706449078547593 0.0069318193763677543 0 0.016051866670967484 0.0075253676541241618 0 0.016660556212744149 0.0067218690386243243 0 0.015882717793914203 0.0067248173442025199 0 0.01570010734651707 0.0069474414672480106 0 0.016129303218456983 0.0066608956162139427 0 0.015767541005689476 0.0065451949432373709 0 0.016091455359248125 0.0064267433660857689 0 0.015706449078547593 0.0069318193763677543 0 0.015310227852437529 0.0075675642643722252 0 0.016051866670967484 0.0075253676541241618 0 0.014754784777096918 0.0071391592145736765 0 0.01570010734651707 0.0069474414672480106 0 0.015144568497941543 0.0068444059394043629 0 0.014754784777096918 0.0071391592145736765 0 0.015706449078547593 0.0069318193763677543 0 0.015310227852437529 0.0075675642643722252 0 0.014824587913423917 0.0071245139977604401 0 0.015720101618657879 0.0069422500984635564 0 0.015424219445579189 0.0083701052395695821 0 0.015310227852437529 0.0075675642643722252 0 0.016051866670967484 0.0075253676541241618 0 0.015424219445579189 0.0083701052395695821 0 0.01484159331755636 0.0081444577099855035 0 0.015310227852437529 0.0075675642643722252 0 0.01484159331755636 0.0081444577099855035 0 0.0146996408906116 0.0076787127852860869 0 0.015310227852437529 0.0075675642643722252 0 0.015445528734355696 0.0056912985489289388 0 0.015428352994279224 0.0056954472521177097 0 0.015440902770156847 0.0056690304547262179 0 0.01540649820314394 0.007124694461132796 0 0.015767541005689476 0.0065451949432373709 0 0.015445528734355696 0.0056912985489289388 0 0.015440902770156847 0.0056690304547262179 0 0.015461727707392356 0.0056804953884572931 0 0.015440902770156847 0.0056690304547262179 0 0.015461727707392356 0.0056804953884572931 0 0.015470109534936971 0.0056608955215484997 0 0.015440902770156847 0.0056690304547262179 0 0.015470109534936971 0.0056608955215484997 0 0.015474461403252556 0.0056396083300597876 0 0.015461727707392356 0.0056804953884572931 0 0.015470109534936971 0.0056608955215484997 0 0.015491783006478925 0.0056603953516208188 0 0.015470109534936971 0.0056608955215484997 0 0.015491783006478925 0.0056603953516208188 0 0.015492119963441374 0.0056424871802637448 0 0.015468295057065099 0.0056847875741364209 0 0.015461727707392356 0.0056804953884572931 0 0.015491783006478925 0.0056603953516208188 0 0.015469016907872725 0.0056820058621549875 0 0.015468295057065099 0.0056847875741364209 0 0.015509642854378246 0.0056608258884966222 0 0.015468295057065099 0.0056847875741364209 0 0.015491783006478925 0.0056603953516208188 0 0.015509642854378246 0.0056608258884966222 0 0.015509642854378246 0.0056608258884966222 0 0.015542748327917084 0.0056389178586542634 0 0.0154986502388692 0.0056635250300855365 0 0.015469016907872725 0.0056820058621549875 0 0.015509642854378246 0.0056608258884966222 0 0.0154986502388692 0.0056635250300855365 0 0.015509642854378246 0.0056608258884966222 0 0.015575012850330127 0.0056296957836299896 0 0.015542748327917084 0.0056389178586542634 0 0.015509642854378246 0.0056608258884966222 0 0.015529281619648351 0.0056436256866956068 0 0.015575012850330127 0.0056296957836299896 0 0.015491783006478925 0.0056603953516208188 0 0.015509642854378246 0.0056608258884966222 0 0.015529281619648351 0.0056436256866956068 0 0.015491783006478925 0.0056603953516208188 0 0.015529281619648351 0.0056436256866956068 0 0.015514636330843164 0.0056398717541557486 0 0.015529281619648351 0.0056436256866956068 0 0.015583683377839217 0.0056238187521353376 0 0.015545047788175243 0.0056255023424756833 0 0.015545047788175243 0.0056255023424756833 0 0.015514832258048047 0.0056224142567724376 0 0.015514636330843164 0.0056398717541557486 0 0.015529281619648351 0.0056436256866956068 0 0.015545047788175243 0.0056255023424756833 0 0.015514636330843164 0.0056398717541557486 0 0.015529281619648351 0.0056436256866956068 0 0.015583683377839217 0.0056238187521353376 0 0.015575012850330127 0.0056296957836299896 0 0.015604865308526006 0.0055866438365652143 0 0.015583683377839217 0.0056238187521353376 0 0.015545047788175243 0.0056255023424756833 0 0.015604865308526006 0.0055866438365652143 0 0.015583683377839217 0.0056238187521353376 0 0.015638937957966493 0.0056269394662739215 0 0.015604865308526006 0.0055866438365652143 0 0.015545047788175243 0.0056255023424756833 0 0.015514832258048047 0.0056224142567724376 0 0.015514832258048047 0.0056224142567724376 0 0.01547304973317478 0.0056004396346492832 0 0.015474461403252556 0.0056396083300597876 0 0.015604865308526006 0.0055866438365652143 0 0.015514832258048047 0.0056224142567724376 0 0.01547304973317478 0.0056004396346492832 0 0.015440902770156847 0.0056690304547262179 0 0.01547304973317478 0.0056004396346492832 0 0.015474461403252556 0.0056396083300597876 0 0.015470109534936971 0.0056608955215484997 0 0.015474461403252556 0.0056396083300597876 0 0.015492119963441374 0.0056424871802637448 0 0.015514832258048047 0.0056224142567724376 0 0.015474461403252556 0.0056396083300597876 0 0.015492119963441374 0.0056424871802637448 0 0.015491783006478925 0.0056603953516208188 0 0.015492119963441374 0.0056424871802637448 0 0.015514636330843164 0.0056398717541557486 0 0.015514832258048047 0.0056224142567724376 0 0.015492119963441374 0.0056424871802637448 0 0.015514636330843164 0.0056398717541557486 0 0.015683090542631159 0.0055605294676628371 0 0.015690820587450621 0.0055336733693507664 0 0.01572404567146973 0.0055261168467695253 0 0.015683090542631159 0.0055605294676628371 0 0.015655386300068672 0.005570780044175226 0 0.015653716115739021 0.0055954770097070309 0 0.015655386300068672 0.005570780044175226 0 0.015620703308225126 0.0055896466768470274 0 0.015643555074509954 0.0055706496982665839 0 0.015683090542631159 0.0055605294676628371 0 0.015655386300068672 0.005570780044175226 0 0.015690820587450621 0.0055336733693507664 0 0.015655386300068672 0.005570780044175226 0 0.015690820587450621 0.0055336733693507664 0 0.015643555074509954 0.0055706496982665839 0 0.015690820587450621 0.0055336733693507664 0 0.015779041725609445 0.0054589564436566757 0 0.015753191872212378 0.0055148334608081523 0 0.015690820587450621 0.0055336733693507664 0 0.015779041725609445 0.0054589564436566757 0 0.01572404567146973 0.0055261168467695253 0 0.015779041725609445 0.0054589564436566757 0 0.01572404567146973 0.0055261168467695253 0 0.015768052698987175 0.005528633974716657 0 0.015768052698987175 0.005528633974716657 0 0.015709723000253493 0.0055615611032042303 0 0.015706322744904376 0.0056073017728868304 0 0.01572404567146973 0.0055261168467695253 0 0.015768052698987175 0.005528633974716657 0 0.015709723000253493 0.0055615611032042303 0 0.015683090542631159 0.0055605294676628371 0 0.01572404567146973 0.0055261168467695253 0 0.015709723000253493 0.0055615611032042303 0 0.015683090542631159 0.0055605294676628371 0 0.015709723000253493 0.0055615611032042303 0 0.015682333632543378 0.005587290426689053 0 0.015683090542631159 0.0055605294676628371 0 0.015682333632543378 0.005587290426689053 0 0.015653716115739021 0.0055954770097070309 0 0.015709723000253493 0.0055615611032042303 0 0.015682333632543378 0.005587290426689053 0 0.015706322744904376 0.0056073017728868304 0 0.015682333632543378 0.005587290426689053 0 0.015706322744904376 0.0056073017728868304 0 0.015681793563278396 0.0056260297271500522 0 0.015706322744904376 0.0056073017728868304 0 0.015681793563278396 0.0056260297271500522 0 0.015687505840198426 0.0056591558791538928 0 0.015681793563278396 0.0056260297271500522 0 0.015687505840198426 0.0056591558791538928 0 0.015680924801489957 0.0056684696158743131 0 0.015682333632543378 0.005587290426689053 0 0.015681793563278396 0.0056260297271500522 0 0.015666960394750112 0.0056302762883653585 0 0.015666960394750112 0.0056302762883653585 0 0.015638937957966493 0.0056269394662739215 0 0.015678198235511684 0.00568781233256323 0 0.015666960394750112 0.0056302762883653585 0 0.015638937957966493 0.0056269394662739215 0 0.015653716115739021 0.0055954770097070309 0 0.015681793563278396 0.0056260297271500522 0 0.015666960394750112 0.0056302762883653585 0 0.015680924801489957 0.0056684696158743131 0 0.015666960394750112 0.0056302762883653585 0 0.015678198235511684 0.00568781233256323 0 0.015680924801489957 0.0056684696158743131 0 0.015682333632543378 0.005587290426689053 0 0.015666960394750112 0.0056302762883653585 0 0.015653716115739021 0.0055954770097070309 0 0.015604865308526006 0.0055866438365652143 0 0.015638937957966493 0.0056269394662739215 0 0.015678198235511684 0.00568781233256323 0 0.015583683377839217 0.0056238187521353376 0 0.015638937957966493 0.0056269394662739215 0 0.015575012850330127 0.0056296957836299896 0 0.015638937957966493 0.0056269394662739215 0 0.015575012850330127 0.0056296957836299896 0 0.015620302304802918 0.0056021597977028072 0 0.015638937957966493 0.0056269394662739215 0 0.015653716115739021 0.0055954770097070309 0 0.015620302304802918 0.0056021597977028072 0 0.015655386300068672 0.005570780044175226 0 0.015653716115739021 0.0055954770097070309 0 0.015620302304802918 0.0056021597977028072 0 0.015655386300068672 0.005570780044175226 0 0.015620302304802918 0.0056021597977028072 0 0.015620703308225126 0.0055896466768470274 0 0.015620703308225126 0.0055896466768470274 0 0.015583549630500917 0.0056140341634130257 0 0.015600821558441056 0.0056010499326154149 0 0.015620302304802918 0.0056021597977028072 0 0.015620703308225126 0.0055896466768470274 0 0.015583549630500917 0.0056140341634130257 0 0.015583549630500917 0.0056140341634130257 0 0.015600821558441056 0.0056010499326154149 0 0.015551509494323273 0.0056329157763818569 0 0.015575012850330127 0.0056296957836299896 0 0.015583549630500917 0.0056140341634130257 0 0.015542748327917084 0.0056389178586542634 0 0.015575012850330127 0.0056296957836299896 0 0.015620302304802918 0.0056021597977028072 0 0.015583549630500917 0.0056140341634130257 0 0.015583549630500917 0.0056140341634130257 0 0.015542748327917084 0.0056389178586542634 0 0.015551509494323273 0.0056329157763818569 0 0.015542748327917084 0.0056389178586542634 0 0.0154986502388692 0.0056635250300855365 0 0.015551509494323273 0.0056329157763818569 0 0.015511783037849969 0.0056650305057614108 0 0.015551509494323273 0.0056329157763818569 0 0.015591286994852007 0.0056230351859712672 0 0.015600821558441056 0.0056010499326154149 0 0.015551509494323273 0.0056329157763818569 0 0.015591286994852007 0.0056230351859712672 0 0.015511783037849969 0.0056650305057614108 0 0.0154986502388692 0.0056635250300855365 0 0.015551509494323273 0.0056329157763818569 0 0.015553645985483354 0.0056636076913227241 0 0.015591286994852007 0.0056230351859712672 0 0.015655942115741416 0.0056244728054356029 0 0.015591286994852007 0.0056230351859712672 0 0.015650218003440113 0.0055735236929469545 0 0.015655942115741416 0.0056244728054356029 0 0.015600821558441056 0.0056010499326154149 0 0.015591286994852007 0.0056230351859712672 0 0.015650218003440113 0.0055735236929469545 0 0.015690820587450621 0.0055336733693507664 0 0.015650218003440113 0.0055735236929469545 0 0.015643555074509954 0.0055706496982665839 0 0.015600821558441056 0.0056010499326154149 0 0.015650218003440113 0.0055735236929469545 0 0.015643555074509954 0.0055706496982665839 0 0.015620703308225126 0.0055896466768470274 0 0.015600821558441056 0.0056010499326154149 0 0.015643555074509954 0.0055706496982665839 0 0.015690820587450621 0.0055336733693507664 0 0.015650218003440113 0.0055735236929469545 0 0.015753191872212378 0.0055148334608081523 0 0.015650218003440113 0.0055735236929469545 0 0.015655942115741416 0.0056244728054356029 0 0.015753191872212378 0.0055148334608081523 0 0.015911992331408706 0.0056886780361352831 0 0.015655942115741416 0.0056244728054356029 0 0.015753191872212378 0.0055148334608081523 0 0.015911992331408706 0.0056886780361352831 0 0.016281716619733388 0.0051033292506716416 0 0.015931478709970585 0.0053686475806028252 0 0.015911992331408706 0.0056886780361352831 0 0.015753191872212378 0.0055148334608081523 0 0.015931478709970585 0.0053686475806028252 0 0.016574920253900883 0.004941772106816073 0 0.016332590155138365 0.0050566521148835419 0 0.01721140850399059 0.0041496055532900403 0 0.016524718448744528 0.004519395584454999 0 0.016281716619733388 0.0051033292506716416 0 0.016524718448744528 0.004519395584454999 0 0.016281716619733388 0.0051033292506716416 0 0.016432336653531061 0.0049379193784674039 0 0.016281716619733388 0.0051033292506716416 0 0.015969993820310616 0.0052679435105219526 0 0.016432336653531061 0.0049379193784674039 0 0.015557392636995942 0.0054896962254958673 0 0.015592952576728108 0.0053914169382485964 0 0.015664561926719618 0.0051783178575082831 0 0.01578635556501801 0.0054000227324581124 0 0.016012642977033812 0.0050385631387466568 0 0.015779041725609445 0.0054589564436566757 0 0.015753191872212378 0.0055148334608081523 0 0.015931478709970585 0.0053686475806028252 0 0.015779041725609445 0.0054589564436566757 0 0.015931478709970585 0.0053686475806028252 0 0.015969993820310616 0.0052679435105219526 0 0.016281716619733388 0.0051033292506716416 0 0.015931478709970585 0.0053686475806028252 0 0.015969993820310616 0.0052679435105219526 0 0.015779041725609445 0.0054589564436566757 0 0.015768052698987175 0.005528633974716657 0 0.015969993820310616 0.0052679435105219526 0 0.015504667145952175 0.0059695700533696728 0 0.01542914466953094 0.0061425541796528201 0 0.015557392636995942 0.0054896962254958673 0 0.015592952576728108 0.0053914169382485964 0 0.015521491579609678 0.0057298604624362722 0 0.014770204962597821 0.0063768895685497101 0 0.015185298446180965 0.0067183137690667548 0 0.015427005696657175 0.0065536119194181371 0 0.015504667145952175 0.0059695700533696728 0 0.015305617487388184 0.0070478682032009297 0 0.015257357744760631 0.0070277241641629835 0 0.015292727983175965 0.007255349002637663 0 0.015486663553056914 0.0072266700177875762 0 0.015292727983175965 0.007255349002637663 0 0.015486663553056914 0.0072266700177875762 0 0.015366241272452584 0.0073742271702830903 0 0.015257357744760631 0.0070277241641629835 0 0.015292727983175965 0.007255349002637663 0 0.015108801371810154 0.0072467305529635411 0 0.015292727983175965 0.007255349002637663 0 0.015366241272452584 0.0073742271702830903 0 0.015218594742911444 0.0074046642983797454 0 0.015292727983175965 0.007255349002637663 0 0.015218594742911444 0.0074046642983797454 0 0.015108801371810154 0.0072467305529635411 0 0.015305617487388184 0.0070478682032009297 0 0.015644991818737377 0.0071472417560521345 0 0.015185298446180965 0.0067183137690667548 0 0.01554002915763013 0.0067899931826274611 0 0.015654200075853678 0.0071610301308213655 0 0.01554002915763013 0.0067899931826274611 0 0.015427005696657175 0.0065536119194181371 0 0.015763634193476414 0.0067771358010976666 0 0.01554002915763013 0.0067899931826274611 0 0.015763634193476414 0.0067771358010976666 0 0.015654200075853678 0.0071610301308213655 0 0.015185298446180965 0.0067183137690667548 0 0.01554002915763013 0.0067899931826274611 0 0.015427005696657175 0.0065536119194181371 0 0.015557392636995942 0.0054896962254958673 0 0.015521491579609678 0.0057298604624362722 0 0.015669585135433185 0.0057954261300657544 0 0.015768052698987175 0.005528633974716657 0 0.015969993820310616 0.0052679435105219526 0 0.015669585135433185 0.0057954261300657544 0 0.01578635556501801 0.0054000227324581124 0 0.015704899680313671 0.0057290969923762839 0 0.015768052698987175 0.005528633974716657 0 0.015706322744904376 0.0056073017728868304 0 0.015669585135433185 0.0057954261300657544 0 0.015706322744904376 0.0056073017728868304 0 0.015684021726814143 0.005722316515110821 0 0.015669585135433185 0.0057954261300657544 0 0.015706322744904376 0.0056073017728868304 0 0.015687505840198426 0.0056591558791538928 0 0.015684021726814143 0.005722316515110821 0 0.015521491579609678 0.0057298604624362722 0 0.015669585135433185 0.0057954261300657544 0 0.015986859643801747 0.0065427413965466873 0 0.015743221931067038 0.0059390195879182994 0 0.015694595204348256 0.0058691771281688121 0 0.016061667061901042 0.0062870280426010538 0 0.015711620897591646 0.0058271814348811474 0 0.015986859643801747 0.0065427413965466873 0 0.015604865308526006 0.0055866438365652143 0 0.015678198235511684 0.00568781233256323 0 0.015711620897591646 0.0058271814348811474 0 0.015678198235511684 0.00568781233256323 0 0.015680924801489957 0.0056684696158743131 0 0.015688954874883015 0.0057245472366442944 0 0.015687505840198426 0.0056591558791538928 0 0.015680924801489957 0.0056684696158743131 0 0.015685977047394332 0.0056927450517178999 0 0.015680924801489957 0.0056684696158743131 0 0.015688954874883015 0.0057245472366442944 0 0.015685977047394332 0.0056927450517178999 0 0.015687505840198426 0.0056591558791538928 0 0.015685977047394332 0.0056927450517178999 0 0.015684021726814143 0.005722316515110821 0 0.015688954874883015 0.0057245472366442944 0 0.015685977047394332 0.0056927450517178999 0 0.015684021726814143 0.005722316515110821 0 0.015688954874883015 0.0057245472366442944 0 0.015684021726814143 0.005722316515110821 0 0.015688148398140544 0.0057667466234166678 0 0.015688954874883015 0.0057245472366442944 0 0.015688148398140544 0.0057667466234166678 0 0.015711620897591646 0.0058271814348811474 0 0.015684021726814143 0.005722316515110821 0 0.015688148398140544 0.0057667466234166678 0 0.015669585135433185 0.0057954261300657544 0 0.015688148398140544 0.0057667466234166678 0 0.015711620897591646 0.0058271814348811474 0 0.015669585135433185 0.0057954261300657544 0 0.015678198235511684 0.00568781233256323 0 0.015688954874883015 0.0057245472366442944 0 0.015711620897591646 0.0058271814348811474 0 0.015711620897591646 0.0058271814348811474 0 0.015669585135433185 0.0057954261300657544 0 0.015986859643801747 0.0065427413965466873 0 0.015427005696657175 0.0065536119194181371 0 0.015986859643801747 0.0065427413965466873 0 0.015763634193476414 0.0067771358010976666 0 0.01542914466953094 0.0061425541796528201 0 0.01604036948209191 0.0065118531936499535 0 0.015986859643801747 0.0065427413965466873 0 0.015763634193476414 0.0067771358010976666 0 0.016020623146209226 0.0068527458362363531 0 0.015832179340630359 0.0069761864186969908 0 0.01542778550410772 0.0076269200590527147 0 0.016020623146209226 0.0068527458362363531 0 0.015654200075853678 0.0071610301308213655 0 0.01568059865708232 0.0074379577759831079 0 0.015635470774172225 0.0070755639702321915 0 0.015156129534120509 0.007843588001603943 0 0.015492570695323039 0.0077147506953822702 0 0.015763634193476414 0.0067771358010976666 0 0.016020623146209226 0.0068527458362363531 0 0.015654200075853678 0.0071610301308213655 0 0.015761066034633779 0.0075201835325112276 0 0.015635470774172225 0.0070755639702321915 0 0.015492570695323039 0.0077147506953822702 0 0.015486663553056914 0.0072266700177875762 0 0.015654200075853678 0.0071610301308213655 0 0.015570255801018274 0.0073578352204168515 0 0.015654200075853678 0.0071610301308213655 0 0.015570255801018274 0.0073578352204168515 0 0.01568059865708232 0.0074379577759831079 0 0.015156129534120509 0.007843588001603943 0 0.015337266643633151 0.0080405800368367666 0 0.015223951602510014 0.0083292166579739691 0 0.015570255801018274 0.0073578352204168515 0 0.01568059865708232 0.0074379577759831079 0 0.015493183060839001 0.0078677454843902126 0 0.015156129534120509 0.007843588001603943 0 0.015223951602510014 0.0083292166579739691 0 0.015033380630140805 0.0082792435942249248 0 0.015337266643633151 0.0080405800368367666 0 0.015570579259990305 0.0081765611881293217 0 0.015223951602510014 0.0083292166579739691 0 0.015761066034633779 0.0075201835325112276 0 0.015492570695323039 0.0077147506953822702 0 0.015570579259990305 0.0081765611881293217 0 0.015156129534120509 0.007843588001603943 0 0.015492570695323039 0.0077147506953822702 0 0.015337266643633151 0.0080405800368367666 0 0.015492570695323039 0.0077147506953822702 0 0.015337266643633151 0.0080405800368367666 0 0.015570579259990305 0.0081765611881293217 0 0.015587194587301895 0.0085566107367214695 0 0.015570579259990305 0.0081765611881293217 0 0.015223951602510014 0.0083292166579739691 0 0.015223951602510014 0.0083292166579739691 0 0.015331688768653821 0.0087436465962551779 0 0.015107420530059961 0.0085560220955194603 0 0.015587194587301895 0.0085566107367214695 0 0.015331688768653821 0.0087436465962551779 0 0.015489892412607146 0.0091248781879890231 0 0.015587194587301895 0.0085566107367214695 0 0.015223951602510014 0.0083292166579739691 0 0.015331688768653821 0.0087436465962551779 0 0.015107420530059961 0.0085560220955194603 0 0.015103243958495228 0.0083511244956695051 0 0.015102132555960652 0.0086462020847031945 0 0.015223951602510014 0.0083292166579739691 0 0.015107420530059961 0.0085560220955194603 0 0.015033380630140805 0.0082792435942249248 0 0.015107420530059961 0.0085560220955194603 0 0.015033380630140805 0.0082792435942249248 0 0.015103243958495228 0.0083511244956695051 0 0.01525389313321451 0.0080686250975034474 0 0.015099074133832761 0.0083233778891545762 0 0.015247358399007231 0.0076676656410552962 0 0.015493183060839001 0.0078677454843902126 0 0.015103243958495228 0.0083511244956695051 0 0.015247358399007231 0.0076676656410552962 0 0.015493183060839001 0.0078677454843902126 0 0.01547945547689634 0.0074266733091992495 0 0.015570255801018274 0.0073578352204168515 0 0.015493183060839001 0.0078677454843902126 0 0.01547945547689634 0.0074266733091992495 0 0.01542778550410772 0.0076269200590527147 0 0.01525389313321451 0.0080686250975034474 0 0.015486663553056914 0.0072266700177875762 0 0.015570255801018274 0.0073578352204168515 0 0.01547945547689634 0.0074266733091992495 0 0.015486663553056914 0.0072266700177875762 0 0.01547945547689634 0.0074266733091992495 0 0.015366241272452584 0.0073742271702830903 0 0.015247358399007231 0.0076676656410552962 0 0.01547945547689634 0.0074266733091992495 0 0.015366241272452584 0.0073742271702830903 0 0.015247358399007231 0.0076676656410552962 0 0.015366241272452584 0.0073742271702830903 0 0.015218594742911444 0.0074046642983797454 0 0.015247358399007231 0.0076676656410552962 0 0.015218594742911444 0.0074046642983797454 0 0.014990352809301428 0.0075261919903967809 0 0.014990352809301428 0.0075261919903967809 0 0.014756889536507962 0.0075192405032938614 0 0.014766178040495478 0.0078448689024163271 0 0.014990352809301428 0.0075261919903967809 0 0.014756889536507962 0.0075192405032938614 0 0.014805050996689875 0.0072636444874212974 0 0.014990352809301428 0.0075261919903967809 0 0.014766178040495478 0.0078448689024163271 0 0.014971518105822926 0.0080013022976364485 0 0.015247358399007231 0.0076676656410552962 0 0.014990352809301428 0.0075261919903967809 0 0.014971518105822926 0.0080013022976364485 0 0.015247358399007231 0.0076676656410552962 0 0.014971518105822926 0.0080013022976364485 0 0.015103243958495228 0.0083511244956695051 0 0.014971518105822926 0.0080013022976364485 0 0.015103243958495228 0.0083511244956695051 0 0.01491121862368338 0.0083215638335129068 0 0.014766178040495478 0.0078448689024163271 0 0.014971518105822926 0.0080013022976364485 0 0.01491121862368338 0.0083215638335129068 0 0.01491121862368338 0.0083215638335129068 0 0.015097155235232067 0.0086144591329241817 0 0.015003417533028401 0.0085538171465872111 0 0.015103243958495228 0.0083511244956695051 0 0.01491121862368338 0.0083215638335129068 0 0.015097155235232067 0.0086144591329241817 0 0.015103243958495228 0.0083511244956695051 0 0.015097155235232067 0.0086144591329241817 0 0.015102132555960652 0.0086462020847031945 0 0.01499941039014977 0.0072975896000502891 0 0.015518424137820097 0.0075123607069989551 0 0.015499162306135369 0.0066897991191817085 0 0.01491121862368338 0.0083215638335129068 0 0.014806357496891112 0.0084769645001159192 0 0.015003417533028401 0.0085538171465872111 0 0.015142732116436252 0.0079716141764851287 0 0.015030674254493828 0.007389541856527999 0 0.01491121862368338 0.0083215638335129068 0 0.014806357496891112 0.0084769645001159192 0 0.014555003281390892 0.008098021326469123 0 0.014766178040495478 0.0078448689024163271 0 0.01491121862368338 0.0083215638335129068 0 0.014555003281390892 0.008098021326469123 0 0.01499941039014977 0.0072975896000502891 0 0.015499162306135369 0.0066897991191817085 0 0.015000129091543231 0.0065781983349089473 0 0.015000129091543231 0.0065781983349089473 0 0.0154193892395574 0.0059430567341686585 0 0.014999957094931697 0.0058593170251163493 0 0.015499162306135369 0.0066897991191817085 0 0.015000129091543231 0.0065781983349089473 0 0.0154193892395574 0.0059430567341686585 0 0.015030674254493828 0.007389541856527999 0 0.014918624005876721 0.0067626997039191093 0 0.014766178040495478 0.0078448689024163271 0 0.014555003281390892 0.008098021326469123 0 0.014418575079047695 0.0076290699936991243 0 0.014756889536507962 0.0075192405032938614 0 0.014418575079047695 0.0076290699936991243 0 0.014582428434687881 0.0073310444728681527 0 0.014756889536507962 0.0075192405032938614 0 0.014766178040495478 0.0078448689024163271 0 0.014418575079047695 0.0076290699936991243 0 0.0154193892395574 0.0059430567341686585 0 0.014999957094931697 0.0058593170251163493 0 0.015324378585847382 0.0052097714711907923 0 0.014918624005876721 0.0067626997039191093 0 0.014841271841278479 0.0062935690137122446 0 0.014999957094931697 0.0058593170251163493 0 0.015324378585847382 0.0052097714711907923 0 0.015000008224809075 0.0051403258251343257 0 0.015324378585847382 0.0052097714711907923 0 0.015000008224809075 0.0051403258251343257 0 0.015225846100477329 0.0044780560267814809 0 0.014841271841278479 0.0062935690137122446 0 0.014785219362081601 0.0051319263178206389 0 0.014348511941120244 0.0071760561451807686 0 0.014577111238371993 0.0070640037347330402 0 0.014292943849980458 0.0067308957033066132 0 0.014577111238371993 0.0070640037347330402 0 0.014292943849980458 0.0067308957033066132 0 0.01464263108856742 0.0068317034190706954 0 0.014577111238371993 0.0070640037347330402 0 0.014787101326854271 0.0070383730356839494 0 0.01464263108856742 0.0068317034190706954 0 0.014418575079047695 0.0076290699936991243 0 0.014348511941120244 0.0071760561451807686 0 0.014582428434687881 0.0073310444728681527 0 0.014577111238371993 0.0070640037347330402 0 0.014582428434687881 0.0073310444728681527 0 0.014805050996689875 0.0072636444874212974 0 0.014348511941120244 0.0071760561451807686 0 0.014577111238371993 0.0070640037347330402 0 0.014582428434687881 0.0073310444728681527 0 0.014756889536507962 0.0075192405032938614 0 0.014582428434687881 0.0073310444728681527 0 0.014805050996689875 0.0072636444874212974 0 0.014990352809301428 0.0075261919903967809 0 0.014805050996689875 0.0072636444874212974 0 0.015108801371810154 0.0072467305529635411 0 0.015218594742911444 0.0074046642983797454 0 0.014990352809301428 0.0075261919903967809 0 0.015108801371810154 0.0072467305529635411 0 0.014805050996689875 0.0072636444874212974 0 0.015108801371810154 0.0072467305529635411 0 0.014990755959304601 0.0071007192490691743 0 0.015504667145952175 0.0059695700533696728 0 0.015546566572965444 0.0060184037478297698 0 0.015257357744760631 0.0070277241641629835 0 0.015108801371810154 0.0072467305529635411 0 0.014990755959304601 0.0071007192490691743 0 0.015257357744760631 0.0070277241641629835 0 0.014990755959304601 0.0071007192490691743 0 0.014967885475343366 0.006936936786901467 0 0.016446278411567958 0.0051905725578608678 0 0.015988212956178208 0.005063141429952408 0 0.015989785455094156 0.004789644610977797 0 0.014967885475343366 0.006936936786901467 0 0.014787101326854271 0.0070383730356839494 0 0.01464263108856742 0.0068317034190706954 0 0.014577111238371993 0.0070640037347330402 0 0.014805050996689875 0.0072636444874212974 0 0.014787101326854271 0.0070383730356839494 0 0.014805050996689875 0.0072636444874212974 0 0.014990755959304601 0.0071007192490691743 0 0.014787101326854271 0.0070383730356839494 0 0.014990755959304601 0.0071007192490691743 0 0.014967885475343366 0.006936936786901467 0 0.014787101326854271 0.0070383730356839494 0 0.015988212956178208 0.005063141429952408 0 0.015989785455094156 0.004789644610977797 0 0.015488890037452692 0.0049488541696992459 0 0.015612481965059656 0.0050802245645742237 0 0.015664561926719618 0.0051783178575082831 0 0.01558480395777094 0.0044889946626803998 0 0.015989785455094156 0.004789644610977797 0 0.015483687048171459 0.0043454543702223574 0 0.015573062349607526 0.0046726073164314146 0 0.015546566572965444 0.0060184037478297698 0 0.015033731682653576 0.005919521902362143 0 0.015989785455094156 0.004789644610977797 0 0.015488890037452692 0.0049488541696992459 0 0.015573062349607526 0.0046726073164314146 0 0.015592952576728108 0.0053914169382485964 0 0.015612481965059656 0.0050802245645742237 0 0.015664561926719618 0.0051783178575082831 0 0.015504667145952175 0.0059695700533696728 0 0.015870990309531905 0.0048482384030977882 0 0.016266259124124723 0.0042124486785828016 0 0.016524718448744528 0.004519395584454999 0 0.016432336653531061 0.0049379193784674039 0 0.016266259124124723 0.0042124486785828016 0 0.016432336653531061 0.0049379193784674039 0 0.01598355718111906 0.0043326976840425005 0 0.015870990309531905 0.0048482384030977882 0 0.015489133660788261 0.0044450042720316487 0 0.015612481965059656 0.0050802245645742237 0 0.01558480395777094 0.0044889946626803998 0 0.015483687048171459 0.0043454543702223574 0 0.016432336653531061 0.0049379193784674039 0 0.01558480395777094 0.0044889946626803998 0 0.01598355718111906 0.0043326976840425005 0 0.016012642977033812 0.0050385631387466568 0 0.015575777366344055 0.0045520290299538354 0 0.01596094266894283 0.0040050063868499646 0 0.01598355718111906 0.0043326976840425005 0 0.015664036429161074 0.0041347949809812249 0 0.01558480395777094 0.0044889946626803998 0 0.015664036429161074 0.0041347949809812249 0 0.015483687048171459 0.0043454543702223574 0 0.01558480395777094 0.0044889946626803998 0 0.01598355718111906 0.0043326976840425005 0 0.015664036429161074 0.0041347949809812249 0 0.015466239247459674 0.0040469279696477827 0 0.015664036429161074 0.0041347949809812249 0 0.015483687048171459 0.0043454543702223574 0 0.015466239247459674 0.0040469279696477827 0 0.015483687048171459 0.0043454543702223574 0 0.015213958571511008 0.0042555118791906066 0 0.015483687048171459 0.0043454543702223574 0 0.015573062349607526 0.0046726073164314146 0 0.015320919121409362 0.0046067503628929524 0 0.015483687048171459 0.0043454543702223574 0 0.015213958571511008 0.0042555118791906066 0 0.015320919121409362 0.0046067503628929524 0 0.0151134516688662 0.0036371360133730757 0 0.014999994115531766 0.0044213658009281519 0 0.015225909186153441 0.0044767915919397393 0 0.0151134516688662 0.0036371360133730757 0 0.014999999007016721 0.0036099116363582746 0 0.014999994115531766 0.0044213658009281519 0 0.015213958571511008 0.0042555118791906066 0 0.01490524851842326 0.0048373947304925632 0 0.015320919121409362 0.0046067503628929524 0 0.015005261316087239 0.0036778396494017845 0 0.014785219362081601 0.0051319263178206389 0 0.014806553507460648 0.0038991511836545317 0 0.015213958571511008 0.0042555118791906066 0 0.01490524851842326 0.0048373947304925632 0 0.015000008224809075 0.0051403258251343257 0 0.014999990837769123 0.004421370731801654 0 0.015225846100477329 0.0044780560267814809 0 0.014999938155251805 0.0044221204721143449 0 0.014785219362081601 0.0051319263178206389 0 0.014785219362081601 0.0051319263178206389 0 0.015033731682653576 0.005919521902362143 0 0.01490524851842326 0.0048373947304925632 0 0.015488890037452692 0.0049488541696992459 0 0.015320919121409362 0.0046067503628929524 0 0.015488890037452692 0.0049488541696992459 0 0.015573062349607526 0.0046726073164314146 0 0.015320919121409362 0.0046067503628929524 0 0.015222716440532637 0.01043131344815487 0 0.015342269537552911 0.010322227728426794 0 0.015257734977925774 0.010026715012636456 0 0.015222716440532637 0.01043131344815487 0 0.015254374358620386 0.010859784665008705 0 0.015342269537552911 0.010322227728426794 0 0.015222716440532637 0.01043131344815487 0 0.014999816204228236 0.010521748287218942 0 0.015257734977925774 0.010026715012636456 0 0.015222716440532637 0.01043131344815487 0 0.014999816204228236 0.010521748287218942 0 0.015254374358620386 0.010859784665008705 0 0.014999816204228236 0.010521748287218942 0 0.015254374358620386 0.010859784665008705 0 0.014999784533224437 0.011327732685569452 0 0.015254374358620386 0.010859784665008705 0 0.015411542548371899 0.010459468773711551 0 0.015412524287332047 0.010842654241793655 0 0.015254374358620386 0.010859784665008705 0 0.015411542548371899 0.010459468773711551 0 0.015342269537552911 0.010322227728426794 0 0.015411542548371899 0.010459468773711551 0 0.015467174117136117 0.010345522864733368 0 0.015412524287332047 0.010842654241793655 0 0.015411542548371899 0.010459468773711551 0 0.015379170679262758 0.010147255104880636 0 0.015413153109824732 0.010247479127985676 0 0.015411542548371899 0.010459468773711551 0 0.015342269537552911 0.010322227728426794 0 0.015379170679262758 0.010147255104880636 0 0.015342269537552911 0.010322227728426794 0 0.015348468866458237 0.0099418001923310944 0 0.015379170679262758 0.010147255104880636 0 0.015379170679262758 0.010147255104880636 0 0.015278487046220465 0.0099239797510452948 0 0.015327660403953577 0.010046291610653841 0 0.015348468866458237 0.0099418001923310944 0 0.015379170679262758 0.010147255104880636 0 0.015278487046220465 0.0099239797510452948 0 0.015348468866458237 0.0099418001923310944 0 0.015278487046220465 0.0099239797510452948 0 0.015262216487879047 0.00980433627606952 0 0.015278487046220465 0.0099239797510452948 0 0.015196917161407175 0.009833774862430875 0 0.015147094154818141 0.0098363310045283987 0 0.015278487046220465 0.0099239797510452948 0 0.015262216487879047 0.00980433627606952 0 0.015196917161407175 0.009833774862430875 0 0.015348468866458237 0.0099418001923310944 0 0.015262216487879047 0.00980433627606952 0 0.01536444041650542 0.0096635598726378703 0 0.01536444041650542 0.0096635598726378703 0 0.015257734977925774 0.010026715012636456 0 0.015196505252095498 0.0095098079095473059 0 0.015348468866458237 0.0099418001923310944 0 0.01536444041650542 0.0096635598726378703 0 0.015257734977925774 0.010026715012636456 0 0.015342269537552911 0.010322227728426794 0 0.015348468866458237 0.0099418001923310944 0 0.015257734977925774 0.010026715012636456 0 0.014999816204228236 0.010521748287218942 0 0.015257734977925774 0.010026715012636456 0 0.014999792749548553 0.0097157995623037736 0 0.015257734977925774 0.010026715012636456 0 0.014999792749548553 0.0097157995623037736 0 0.015196505252095498 0.0095098079095473059 0 0.015196505252095498 0.0095098079095473059 0 0.014999848729522917 0.008909712742303174 0 0.015303343906817278 0.0091408411800389163 0 0.014999792749548553 0.0097157995623037736 0 0.015196505252095498 0.0095098079095473059 0 0.014999848729522917 0.008909712742303174 0 0.01536444041650542 0.0096635598726378703 0 0.015303343906817278 0.0091408411800389163 0 0.015390322199427375 0.0092460982297027962 0 0.015303343906817278 0.0091408411800389163 0 0.01550951586016912 0.0086862615085211113 0 0.015390322199427375 0.0092460982297027962 0 0.01536444041650542 0.0096635598726378703 0 0.015196505252095498 0.0095098079095473059 0 0.015303343906817278 0.0091408411800389163 0 0.015295489862157801 0.0087145961354860788 0 0.015395447230805603 0.0091783693258404749 0 0.015303343906817278 0.0091408411800389163 0 0.01550951586016912 0.0086862615085211113 0 0.015250456321513848 0.0088144102623657454 0 0.01550951586016912 0.0086862615085211113 0 0.015250456321513848 0.0088144102623657454 0 0.015210836741480495 0.0085012890069749766 0 0.014999848729522917 0.008909712742303174 0 0.015210836741480495 0.0085012890069749766 0 0.014999902440971557 0.0081035113867220648 0 0.014999848729522917 0.008909712742303174 0 0.015303343906817278 0.0091408411800389163 0 0.015250456321513848 0.0088144102623657454 0 0.014999848729522917 0.008909712742303174 0 0.015250456321513848 0.0088144102623657454 0 0.015210836741480495 0.0085012890069749766 0 0.015210836741480495 0.0085012890069749766 0 0.014999902440971557 0.0081035113867220648 0 0.01533027912359539 0.0079488755327257032 0 0.01550951586016912 0.0086862615085211113 0 0.015210836741480495 0.0085012890069749766 0 0.01533027912359539 0.0079488755327257032 0 0.015091072471834647 0.0087558100555994063 0 0.01514826270750903 0.0085316257171398537 0 0.015046934672449911 0.0082500470569243107 0 0.015295489862157801 0.0087145961354860788 0 0.015195966821731122 0.0081068858988444324 0 0.015091072471834647 0.0087558100555994063 0 0.01514826270750903 0.0085316257171398537 0 0.015130803313491309 0.0085979179617136289 0 0.015518424137820097 0.0075123607069989551 0 0.01514826270750903 0.0085316257171398537 0 0.015046934672449911 0.0082500470569243107 0 0.015142732116436252 0.0079716141764851287 0 0.015157711821137768 0.0084489786989334868 0 0.014806357496891112 0.0084769645001159192 0 0.01514826270750903 0.0085316257171398537 0 0.015003417533028401 0.0085538171465872111 0 0.01514826270750903 0.0085316257171398537 0 0.015003417533028401 0.0085538171465872111 0 0.015130803313491309 0.0085979179617136289 0 0.01499941039014977 0.0072975896000502891 0 0.015518424137820097 0.0075123607069989551 0 0.015046934672449911 0.0082500470569243107 0 0.015000034092376768 0.0072971905933211468 0 0.014999902440971557 0.0081035113867220648 0 0.01533027912359539 0.0079488755327257032 0 0.015000037160647942 0.0072974758942652273 0 0.015195966821731122 0.0081068858988444324 0 0.015097155235232067 0.0086144591329241817 0 0.015234722625885967 0.0087454138488834692 0 0.015102132555960652 0.0086462020847031945 0 0.015097155235232067 0.0086144591329241817 0 0.015003417533028401 0.0085538171465872111 0 0.015130803313491309 0.0085979179617136289 0 0.015097155235232067 0.0086144591329241817 0 0.015242562306214735 0.0087208023098393934 0 0.015130803313491309 0.0085979179617136289 0 0.015091072471834647 0.0087558100555994063 0 0.015242562306214735 0.0087208023098393934 0 0.015130803313491309 0.0085979179617136289 0 0.015097155235232067 0.0086144591329241817 0 0.015242562306214735 0.0087208023098393934 0 0.015234722625885967 0.0087454138488834692 0 0.015280631950700263 0.0094030201217796452 0 0.015112647976418153 0.0091395782423848281 0 0.015242562306214735 0.0087208023098393934 0 0.015436360259625857 0.0089667044936526281 0 0.015234722625885967 0.0087454138488834692 0 0.015152194816025926 0.0098199620794792285 0 0.015147094154818141 0.0098363310045283987 0 0.014953510612176334 0.0095512662542110698 0 0.015091072471834647 0.0087558100555994063 0 0.015296195230257756 0.0088922437515789564 0 0.015390322199427375 0.0092460982297027962 0 0.015091072471834647 0.0087558100555994063 0 0.015242562306214735 0.0087208023098393934 0 0.015296195230257756 0.0088922437515789564 0 0.015242562306214735 0.0087208023098393934 0 0.015296195230257756 0.0088922437515789564 0 0.015436360259625857 0.0089667044936526281 0 0.01536444041650542 0.0096635598726378703 0 0.015436360259625857 0.0089667044936526281 0 0.015390322199427375 0.0092460982297027962 0 0.015262216487879047 0.00980433627606952 0 0.01536444041650542 0.0096635598726378703 0 0.015152194816025926 0.0098199620794792285 0 0.015325801898680082 0.0096420868151249756 0 0.015280631950700263 0.0094030201217796452 0 0.015296195230257756 0.0088922437515789564 0 0.015436360259625857 0.0089667044936526281 0 0.015390322199427375 0.0092460982297027962 0 0.015152194816025926 0.0098199620794792285 0 0.015196917161407175 0.009833774862430875 0 0.015147094154818141 0.0098363310045283987 0 0.015262216487879047 0.00980433627606952 0 0.015152194816025926 0.0098199620794792285 0 0.015196917161407175 0.009833774862430875 0 0.015147094154818141 0.0098363310045283987 0 0.015123466143405354 0.0097232925399220339 0 0.015196224698137945 0.0099548258319496815 0 0.015123466143405354 0.0097232925399220339 0 0.015185787909769832 0.0097733124169784961 0 0.015196224698137945 0.0099548258319496815 0 0.015123466143405354 0.0097232925399220339 0 0.015160800779628805 0.0094464619578898314 0 0.015185787909769832 0.0097733124169784961 0 0.015123466143405354 0.0097232925399220339 0 0.014953510612176334 0.0095512662542110698 0 0.015160800779628805 0.0094464619578898314 0 0.015147094154818141 0.0098363310045283987 0 0.015123466143405354 0.0097232925399220339 0 0.014953510612176334 0.0095512662542110698 0 0.015112647976418153 0.0091395782423848281 0 0.015107808144609257 0.0088970318623543942 0 0.014953510612176334 0.0095512662542110698 0 0.015160800779628805 0.0094464619578898314 0 0.015078941167306653 0.0088774088569440416 0 0.015160800779628805 0.0094464619578898314 0 0.015078941167306653 0.0088774088569440416 0 0.01525765835156127 0.0091432587388570637 0 0.015107420530059961 0.0085560220955194603 0 0.015078941167306653 0.0088774088569440416 0 0.01525765835156127 0.0091432587388570637 0 0.015234722625885967 0.0087454138488834692 0 0.015078941167306653 0.0088774088569440416 0 0.015102132555960652 0.0086462020847031945 0 0.015107420530059961 0.0085560220955194603 0 0.015078941167306653 0.0088774088569440416 0 0.015102132555960652 0.0086462020847031945 0 0.015331688768653821 0.0087436465962551779 0 0.015489892412607146 0.0091248781879890231 0 0.01525765835156127 0.0091432587388570637 0 0.015331688768653821 0.0087436465962551779 0 0.015107420530059961 0.0085560220955194603 0 0.01525765835156127 0.0091432587388570637 0 0.015160800779628805 0.0094464619578898314 0 0.01525765835156127 0.0091432587388570637 0 0.015278879345060248 0.0094872991564265274 0 0.015489892412607146 0.0091248781879890231 0 0.01525765835156127 0.0091432587388570637 0 0.015278879345060248 0.0094872991564265274 0 0.015489892412607146 0.0091248781879890231 0 0.015278879345060248 0.0094872991564265274 0 0.015311662962120385 0.0097422601473911713 0 0.015278879345060248 0.0094872991564265274 0 0.015185787909769832 0.0097733124169784961 0 0.015311662962120385 0.0097422601473911713 0 0.015160800779628805 0.0094464619578898314 0 0.015278879345060248 0.0094872991564265274 0 0.015185787909769832 0.0097733124169784961 0 0.015185787909769832 0.0097733124169784961 0 0.015127404450456175 0.010053984025451499 0 0.015196224698137945 0.0099548258319496815 0 0.015185787909769832 0.0097733124169784961 0 0.015127404450456175 0.010053984025451499 0 0.015311662962120385 0.0097422601473911713 0 0.015127404450456175 0.010053984025451499 0 0.015019152564821557 0.010253740508287588 0 0.015311662962120385 0.0097422601473911713 0 0.015127404450456175 0.010053984025451499 0 0.015002593098730553 0.010050087774250767 0 0.015174266202111489 0.010056370615165955 0 0.015127404450456175 0.010053984025451499 0 0.015002593098730553 0.010050087774250767 0 0.015019152564821557 0.010253740508287588 0 0.015002593098730553 0.010050087774250767 0 0.01489688231975915 0.0098842713987952 0 0.01463110601850314 0.0099158922936863209 0 0.015002593098730553 0.010050087774250767 0 0.015174266202111489 0.010056370615165955 0 0.01489688231975915 0.0098842713987952 0 0.015127404450456175 0.010053984025451499 0 0.015174266202111489 0.010056370615165955 0 0.015196224698137945 0.0099548258319496815 0 0.015196224698137945 0.0099548258319496815 0 0.015264677430843763 0.0099879813256918658 0 0.015269256942102778 0.010045603404796327 0 0.015174266202111489 0.010056370615165955 0 0.015196224698137945 0.0099548258319496815 0 0.015269256942102778 0.010045603404796327 0 0.015278487046220465 0.0099239797510452948 0 0.015147094154818141 0.0098363310045283987 0 0.015264677430843763 0.0099879813256918658 0 0.015147094154818141 0.0098363310045283987 0 0.015196224698137945 0.0099548258319496815 0 0.015264677430843763 0.0099879813256918658 0 0.015278487046220465 0.0099239797510452948 0 0.015264677430843763 0.0099879813256918658 0 0.015327660403953577 0.010046291610653841 0 0.015264677430843763 0.0099879813256918658 0 0.01534721375275646 0.010100378084225885 0 0.015327660403953577 0.010046291610653841 0 0.015379170679262758 0.010147255104880636 0 0.01534721375275646 0.010100378084225885 0 0.015327660403953577 0.010046291610653841 0 0.015264677430843763 0.0099879813256918658 0 0.01534721375275646 0.010100378084225885 0 0.015269256942102778 0.010045603404796327 0 0.01534721375275646 0.010100378084225885 0 0.015269256942102778 0.010045603404796327 0 0.015332168824819119 0.010091724504334629 0 0.015174266202111489 0.010056370615165955 0 0.015269256942102778 0.010045603404796327 0 0.015332168824819119 0.010091724504334629 0 0.01534721375275646 0.010100378084225885 0 0.015332168824819119 0.010091724504334629 0 0.015413153109824732 0.010247479127985676 0 0.015379170679262758 0.010147255104880636 0 0.01534721375275646 0.010100378084225885 0 0.015413153109824732 0.010247479127985676 0 0.015332168824819119 0.010091724504334629 0 0.015413153109824732 0.010247479127985676 0 0.015467174117136117 0.010345522864733368 0 0.015411542548371899 0.010459468773711551 0 0.015413153109824732 0.010247479127985676 0 0.015467174117136117 0.010345522864733368 0 0.015332168824819119 0.010091724504334629 0 0.015467174117136117 0.010345522864733368 0 0.015280067867153788 0.010035978754767269 0 0.015280067867153788 0.010035978754767269 0 0.01489688231975915 0.0098842713987952 0 0.0147844923227737 0.0096972335950777332 0 0.015332168824819119 0.010091724504334629 0 0.015280067867153788 0.010035978754767269 0 0.01489688231975915 0.0098842713987952 0 0.015174266202111489 0.010056370615165955 0 0.015332168824819119 0.010091724504334629 0 0.01489688231975915 0.0098842713987952 0 0.014064041792304209 0.00961407939343897 0 0.014183191797050155 0.009575975324844577 0 0.01339920657516579 0.0094684764283661238 0 0.014064041792304209 0.00961407939343897 0 0.01339920657516579 0.0094684764283661238 0 0.01342479982114385 0.0095710891652939795 0 0.01489688231975915 0.0098842713987952 0 0.014064041792304209 0.00961407939343897 0 0.014183191797050155 0.009575975324844577 0 0.01489688231975915 0.0098842713987952 0 0.014064041792304209 0.00961407939343897 0 0.01463110601850314 0.0099158922936863209 0 0.01489688231975915 0.0098842713987952 0 0.014183191797050155 0.009575975324844577 0 0.0147844923227737 0.0096972335950777332 0 0.014183191797050155 0.009575975324844577 0 0.014109335820755589 0.0094269950360838777 0 0.0147844923227737 0.0096972335950777332 0 0.014183191797050155 0.009575975324844577 0 0.013733073192250912 0.0094198026657373608 0 0.014109335820755589 0.0094269950360838777 0 0.014183191797050155 0.009575975324844577 0 0.013733073192250912 0.0094198026657373608 0 0.01339920657516579 0.0094684764283661238 0 0.013733073192250912 0.0094198026657373608 0 0.01323465336588505 0.0093394920172298803 0 0.01339920657516579 0.0094684764283661238 0 0.013733073192250912 0.0094198026657373608 0 0.01323465336588505 0.0093394920172298803 0 0.013661484077222797 0.0092295334809773168 0 0.01323465336588505 0.0093394920172298803 0 0.013184469181289666 0.009399468089945252 0 0.01339920657516579 0.0094684764283661238 0 0.01339920657516579 0.0094684764283661238 0 0.013101121168269241 0.0093981313719065946 0 0.013152496589310005 0.0094191350368081697 0 0.013184469181289666 0.009399468089945252 0 0.01339920657516579 0.0094684764283661238 0 0.013152496589310005 0.0094191350368081697 0 0.01339920657516579 0.0094684764283661238 0 0.013101121168269241 0.0093981313719065946 0 0.01342479982114385 0.0095710891652939795 0 0.013101121168269241 0.0093981313719065946 0 0.012778803934247376 0.0090308835942339485 0 0.01342479982114385 0.0095710891652939795 0 0.013101121168269241 0.0093981313719065946 0 0.013162212924777655 0.0092504301073583189 0 0.013152496589310005 0.0094191350368081697 0 0.013101121168269241 0.0093981313719065946 0 0.012778803934247376 0.0090308835942339485 0 0.013162212924777655 0.0092504301073583189 0 0.01231162227830959 0.0086187895580016414 0 0.012312666655557884 0.0077948099960207674 0 0.012778803934247376 0.0090308835942339485 0 0.012292253586232912 0.0085258640098566651 0 0.013162212924777655 0.0092504301073583189 0 0.012778803934247376 0.0090308835942339485 0 0.012744687475859153 0.0089534684706350526 0 0.012443629307644741 0.0087395261626883134 0 0.012778803934247376 0.0090308835942339485 0 0.012744687475859153 0.0089534684706350526 0 0.01342479982114385 0.0095710891652939795 0 0.0133434274751375 0.0097464874191148954 0 0.013368376324543844 0.0094564489446177426 0 0.01383462799920456 0.010323552582062027 0 0.014252904442796907 0.0099615928895101184 0 0.01342479982114385 0.0095710891652939795 0 0.01383462799920456 0.010323552582062027 0 0.014252904442796907 0.0099615928895101184 0 0.015019152564821557 0.010253740508287588 0 0.014064041792304209 0.00961407939343897 0 0.014252904442796907 0.0099615928895101184 0 0.01342479982114385 0.0095710891652939795 0 0.014064041792304209 0.00961407939343897 0 0.014252904442796907 0.0099615928895101184 0 0.01463110601850314 0.0099158922936863209 0 0.015002593098730553 0.010050087774250767 0 0.01463110601850314 0.0099158922936863209 0 0.015019152564821557 0.010253740508287588 0 0.014252904442796907 0.0099615928895101184 0 0.01463110601850314 0.0099158922936863209 0 0.015019152564821557 0.010253740508287588 0 0.015667889900306264 0.010354043363144119 0 0.012564845374632851 0.0095174761814178013 0 0.015019152564821557 0.010253740508287588 0 0.015767234739205483 0.0098652074402369953 0 0.015311662962120385 0.0097422601473911713 0 0.0133434274751375 0.0097464874191148954 0 0.012564845374632851 0.0095174761814178013 0 0.012744687475859153 0.0089534684706350526 0 0.012729968553967288 0.0088956590092964527 0 0.012443629307644741 0.0087395261626883134 0 0.01383462799920456 0.010323552582062027 0 0.015019152564821557 0.010253740508287588 0 0.01394413234375279 0.011279350981626302 0 0.012564845374632851 0.0095174761814178013 0 0.012290364771329694 0.0091422469068656205 0 0.015767234739205483 0.0098652074402369953 0 0.015311662962120385 0.0097422601473911713 0 0.015824983178330837 0.0093273434642314294 0 0.0088576784320961045 0.0090176258993285591 0 0.0088147727816874095 0.0090143330547313317 0 0.0088232428448533368 0.0090186490150741139 0 0.015489892412607146 0.0091248781879890231 0 0.015311662962120385 0.0097422601473911713 0 0.015824983178330837 0.0093273434642314294 0 0.012290364771329694 0.0091422469068656205 0 0.012332324227435536 0.0088990868261278281 0 0.0088147727816874095 0.0090143330547313317 0 0.008757439002369017 0.008957673143295309 0 0.0087991838089856132 0.0089975793233817453 0 0.015587194587301895 0.0085566107367214695 0 0.015489892412607146 0.0091248781879890231 0 0.015868991063365898 0.0088473805686051475 0 0.015489892412607146 0.0091248781879890231 0 0.015824983178330837 0.0093273434642314294 0 0.015868991063365898 0.0088473805686051475 0 0.0087805523558418391 0.0089267840639173264 0 0.0087991838089856132 0.0089975793233817453 0 0.0088421846291209388 0.009053343441506826 0 0.0087805523558418391 0.0089267840639173264 0 0.008757439002369017 0.008957673143295309 0 0.0087991838089856132 0.0089975793233817453 0 0.0088147727816874095 0.0090143330547313317 0 0.0087991838089856132 0.0089975793233817453 0 0.0088232428448533368 0.0090186490150741139 0 0.0087991838089856132 0.0089975793233817453 0 0.0088232428448533368 0.0090186490150741139 0 0.0088421846291209388 0.009053343441506826 0 0.012034494414343991 0.0093089020929284852 0 0.011461997319871652 0.0089056183145808203 0 0.010487850962009906 0.0096373837964848063 0 0.010112701300586741 0.00912816329013026 0 0.0097532922868217731 0.0092732160508724546 0 0.012034494414343991 0.0093089020929284852 0 0.011461997319871652 0.0089056183145808203 0 0.012443629307644741 0.0087395261626883134 0 0.012729968553967288 0.0088956590092964527 0 0.012034494414343991 0.0093089020929284852 0 0.012443629307644741 0.0087395261626883134 0 0.012564845374632851 0.0095174761814178013 0 0.010112701300586741 0.00912816329013026 0 0.012778803934247376 0.0090308835942339485 0 0.012443629307644741 0.0087395261626883134 0 0.012292253586232912 0.0085258640098566651 0 0.011461997319871652 0.0089056183145808203 0 0.012443629307644741 0.0087395261626883134 0 0.012292253586232912 0.0085258640098566651 0 0.011461997319871652 0.0089056183145808203 0 0.012292253586232912 0.0085258640098566651 0 0.01041462748199125 0.0081994014753525787 0 0.01041462748199125 0.0081994014753525787 0 0.010157188954169354 0.0088544733578815992 0 0.009314508716085584 0.0085423793013156054 0 0.010157188954169354 0.0088544733578815992 0 0.0094703528131680689 0.0090624309073266216 0 0.0094031410798157897 0.0088731135559439248 0 0.011461997319871652 0.0089056183145808203 0 0.01041462748199125 0.0081994014753525787 0 0.010157188954169354 0.0088544733578815992 0 0.011461997319871652 0.0089056183145808203 0 0.010157188954169354 0.0088544733578815992 0 0.010487850962009906 0.0096373837964848063 0 0.009564662974387593 0.0093184265330491425 0 0.010487850962009906 0.0096373837964848063 0 0.0094703528131680689 0.0090624309073266216 0 0.010157188954169354 0.0088544733578815992 0 0.010487850962009906 0.0096373837964848063 0 0.0094703528131680689 0.0090624309073266216 0 0.00912992424156241 0.0091602483440452725 0 0.0097532922868217731 0.0092732160508724546 0 0.0090261574857409699 0.0091308767147316623 0 0.009564662974387593 0.0093184265330491425 0 0.0090962736836910259 0.0091866892658318128 0 0.0090261574857409699 0.0091308767147316623 0 0.009564662974387593 0.0093184265330491425 0 0.010487850962009906 0.0096373837964848063 0 0.0086646551365596319 0.0090491817006523294 0 0.008789462919876527 0.0090449791689249329 0 0.0088696498991429704 0.0091018453668477856 0 0.0086646551365596319 0.0090491817006523294 0 0.0086229446634870002 0.0089174739928575639 0 0.008789462919876527 0.0090449791689249329 0 0.0086646551365596319 0.0090491817006523294 0 0.0086229446634870002 0.0089174739928575639 0 0.0085506543071960182 0.0090002687604732526 0 0.0086439870241478717 0.0088646220770460232 0 0.0086229446634870002 0.0089174739928575639 0 0.008789462919876527 0.0090449791689249329 0 0.0088153901696880685 0.0089768988188672072 0 0.008789462919876527 0.0090449791689249329 0 0.0090962736836910259 0.0091866892658318128 0 0.009564662974387593 0.0093184265330491425 0 0.0090962736836910259 0.0091866892658318128 0 0.0094703528131680689 0.0090624309073266216 0 0.008789462919876527 0.0090449791689249329 0 0.0090962736836910259 0.0091866892658318128 0 0.0088696498991429704 0.0091018453668477856 0 0.0090962736836910259 0.0091866892658318128 0 0.0091356839325839011 0.0090410350894738478 0 0.0088696498991429704 0.0091018453668477856 0 0.0090962736836910259 0.0091866892658318128 0 0.0094703528131680689 0.0090624309073266216 0 0.0091356839325839011 0.0090410350894738478 0 0.0094703528131680689 0.0090624309073266216 0 0.0091356839325839011 0.0090410350894738478 0 0.0094031410798157897 0.0088731135559439248 0 0.0091356839325839011 0.0090410350894738478 0 0.0088616755948830832 0.0090388890780362489 0 0.009013785735593801 0.0088684051717054322 0 0.0091356839325839011 0.0090410350894738478 0 0.009013785735593801 0.0088684051717054322 0 0.0094031410798157897 0.0088731135559439248 0 0.0091356839325839011 0.0090410350894738478 0 0.0088616755948830832 0.0090388890780362489 0 0.0088696498991429704 0.0091018453668477856 0 0.0088616755948830832 0.0090388890780362489 0 0.0085445555674769774 0.0092443563000957369 0 0.008812025493015057 0.0086667820330044061 0 0.0088616755948830832 0.0090388890780362489 0 0.0088696498991429704 0.0091018453668477856 0 0.0086924114198918146 0.0091229299550446095 0 0.0086646551365596319 0.0090491817006523294 0 0.0088696498991429704 0.0091018453668477856 0 0.0086924114198918146 0.0091229299550446095 0 0.0085445555674769774 0.0092443563000957369 0 0.0085310557171636905 0.0093449829521301316 0 0.0085506543071960182 0.0090002687604732526 0 0.0086646551365596319 0.0090491817006523294 0 0.0086008785749099714 0.0090969194679907887 0 0.0085506543071960182 0.0090002687604732526 0 0.0086646551365596319 0.0090491817006523294 0 0.0086008785749099714 0.0090969194679907887 0 0.0086924114198918146 0.0091229299550446095 0 0.0086008785749099714 0.0090969194679907887 0 0.0086924114198918146 0.0091229299550446095 0 0.0085445555674769774 0.0092443563000957369 0 0.0086008785749099714 0.0090969194679907887 0 0.0085445555674769774 0.0092443563000957369 0 0.0085506543071960182 0.0090002687604732526 0 0.0088616755948830832 0.0090388890780362489 0 0.0086924114198918146 0.0091229299550446095 0 0.0085445555674769774 0.0092443563000957369 0 0.0085445555674769774 0.0092443563000957369 0 0.0084923582686213511 0.0092242075947267729 0 0.0085310557171636905 0.0093449829521301316 0 0.0086825175567814741 0.0090319458331124536 0 0.0084775529083246995 0.0092587726891133499 0 0.0085445555674769774 0.0092443563000957369 0 0.0084923582686213511 0.0092242075947267729 0 0.0088728977580474558 0.0090237285248795512 0 0.0084923582686213511 0.0092242075947267729 0 0.0088728977580474558 0.0090237285248795512 0 0.0081741886798234811 0.0088801839392518202 0 0.0088616755948830832 0.0090388890780362489 0 0.009013785735593801 0.0088684051717054322 0 0.008812025493015057 0.0086667820330044061 0 0.0086858014623698212 0.0090808109957135792 0 0.0084775529083246995 0.0092587726891133499 0 0.0088728977580474558 0.0090237285248795512 0 0.0081741886798234811 0.0088801839392518202 0 0.0080995953543536899 0.0084765052556986537 0 0.010157188954169354 0.0088544733578815992 0 0.0094031410798157897 0.0088731135559439248 0 0.009314508716085584 0.0085423793013156054 0 0.009013785735593801 0.0088684051717054322 0 0.0094031410798157897 0.0088731135559439248 0 0.009314508716085584 0.0085423793013156054 0 0.009013785735593801 0.0088684051717054322 0 0.0088745611984951695 0.0087480769401187437 0 0.009314508716085584 0.0085423793013156054 0 0.0088745611984951695 0.0087480769401187437 0 0.009314508716085584 0.0085423793013156054 0 0.0092807796977039253 0.008046349685448222 0 0.01041462748199125 0.0081994014753525787 0 0.009314508716085584 0.0085423793013156054 0 0.0092807796977039253 0.008046349685448222 0 0.0084775529083246995 0.0092587726891133499 0 0.0079478568719150659 0.0086561302984121246 0 0.0077929055254947191 0.010194824063440999 0 0.0076406457746885908 0.010506084912179253 0 0.0080482206261900113 0.010481468816986276 0 0.0084775529083246995 0.0092587726891133499 0 0.0084354017530127237 0.0093502520707084875 0 0.0076406457746885908 0.010506084912179253 0 0.0077701577361702252 0.010766603462449727 0 0.0080482206261900113 0.010481468816986276 0 0.0077701577361702252 0.010766603462449727 0 0.0077058775855798328 0.011058927436453474 0 0.0079965728445141639 0.010913156681639705 0 0.0073823011131737698 0.01438057026314684 0 0.0077481549418826345 0.0147562049279211 0 0.0075050105607612876 0.010811538115308614 0 0.0075205979352526995 0.011027545348535454 0 0.0077058775855798328 0.011058927436453474 0 0.0077701577361702252 0.010766603462449727 0 0.0075050105607612876 0.010811538115308614 0 0.0077058775855798328 0.011058927436453474 0 0.0076406457746885908 0.010506084912179253 0 0.0077701577361702252 0.010766603462449727 0 0.0075050105607612876 0.010811538115308614 0 0.0084354017530127237 0.0093502520707084875 0 0.0085938403239954764 0.0087009236483840315 0 0.01041462748199125 0.0081994014753525787 0 0.011217852559810601 0.0069654803682658454 0 0.0098296529807261005 0.0069993956146417102 0 0.01041462748199125 0.0081994014753525787 0 0.0092807796977039253 0.008046349685448222 0 0.0098296529807261005 0.0069993956146417102 0 0.012292253586232912 0.0085258640098566651 0 0.01041462748199125 0.0081994014753525787 0 0.011217852559810601 0.0069654803682658454 0 0.012312666655557884 0.0077948099960207674 0 0.010086355509068952 0.0098189318287628738 0 0.0085938403239954764 0.0087009236483840315 0 0.010086355509068952 0.0098189318287628738 0 0.011217852559810601 0.0069654803682658454 0 0.0098296529807261005 0.0069993956146417102 0 0.010446884123407496 0.0058785143756388668 0 0.0075050105607612876 0.010811538115308614 0 0.0075205979352526995 0.011027545348535454 0 0.0073793556151375552 0.011114200514813656 0 0.010017632597166107 0.013228479950267465 0 0.01027804316355155 0.013644442379721695 0 0.0096626881095481666 0.013939537963105731 0 0.010086355509068952 0.0098189318287628738 0 0.010649823816547494 0.014505682119203956 0 0.010086355509068952 0.0098189318287628738 0 0.0087454705458948796 0.015452491016937644 0 0.0075205979352526995 0.011027545348535454 0 0.0073793556151375552 0.011114200514813656 0 0.0074302087715559509 0.011202963581681918 0 0.013162212924777655 0.0092504301073583189 0 0.013175821670415068 0.0094223472590166044 0 0.013152496589310005 0.0094191350368081697 0 0.013175821670415068 0.0094223472590166044 0 0.013152496589310005 0.0094191350368081697 0 0.013139972229792695 0.0094302685304595811 0 0.013184469181289666 0.009399468089945252 0 0.013152496589310005 0.0094191350368081697 0 0.013139972229792695 0.0094302685304595811 0 0.01323465336588505 0.0093394920172298803 0 0.013184469181289666 0.009399468089945252 0 0.013139972229792695 0.0094302685304595811 0 0.01032801142799508 0.01835878822787837 0 0.0095338642522869669 0.018545180281379737 0 0.0098120723146131548 0.018090363428436309 0 0.01032801142799508 0.01835878822787837 0 0.0094326419606672457 0.018723409791018154 0 0.0095338642522869669 0.018545180281379737 0 0.011928495118981825 0.013774702352481159 0 0.010649823816547494 0.014505682119203956 0 0.010649823816547494 0.014505682119203956 0 0.0096363661936624805 0.01688678893985145 0 0.0094327843065125268 0.018721051748679114 0 0.0095338642522869669 0.018545180281379737 0 0.0091361883854533862 0.018459718973103639 0 0.0090507533396577619 0.018887236056710895 0 0.0091361883854533862 0.018459718973103639 0 0.0085190199272568816 0.018121691999159494 0 0.0087454705458948796 0.015452491016937644 0 0.0081825491300445558 0.018354122241686636 0 0.0090507533396577619 0.018887236056710895 0 0.0094327843065125268 0.018721051748679114 0 0.0091361883854533862 0.018459718973103639 0 0.0087454705458948796 0.015452491016937644 0 0.010649823816547494 0.014505682119203956 0 0.0095338642522869669 0.018545180281379737 0 0.0091361883854533862 0.018459718973103639 0 0.0091570399824760368 0.01802417810499081 0 0.0072711725941707944 0.017724811151624043 0 0.0074594308940151921 0.01791411842760867 0 0.0071772965323148316 0.01799133643033261 0 0.0077362880763934003 0.017799390918535059 0 0.0075565504425194737 0.017769113362484313 0 0.0076163932533933748 0.017602580517090776 0 0.0075565504425194737 0.017769113362484313 0 0.0072711725941707944 0.017724811151624043 0 0.0076163932533933748 0.017602580517090776 0 0.0075565504425194737 0.017769113362484313 0 0.0072711725941707944 0.017724811151624043 0 0.0074594308940151921 0.01791411842760867 0 0.0075205979352526995 0.011027545348535454 0 0.0074302087715559509 0.011202963581681918 0 0.0077058775855798328 0.011058927436453474 0 0.0077362880763934003 0.017799390918535059 0 0.0075565504425194737 0.017769113362484313 0 0.0074594308940151921 0.01791411842760867 0 0.0087454705458948796 0.015452491016937644 0 0.0073823011131737698 0.01438057026314684 0 0.0080053629385181818 0.01740378855783804 0 0.0085190199272568816 0.018121691999159494 0 0.0088063933503620493 0.017446347106219319 0 0.0080053629385181818 0.01740378855783804 0 0.0088063933503620493 0.017446347106219319 0 0.0082937273751573764 0.016918123731557409 0 0.007539620636127068 0.017330571788819776 0 0.0070615459951178855 0.017193009118376148 0 0.0072659246825918103 0.017513107768954636 0 0.007539620636127068 0.017330571788819776 0 0.0076163932533933748 0.017602580517090776 0 0.0072659246825918103 0.017513107768954636 0 0.0072711725941707944 0.017724811151624043 0 0.0076163932533933748 0.017602580517090776 0 0.0072659246825918103 0.017513107768954636 0 0.0077168589148867255 0.017247612954860235 0 0.0081825491300445558 0.018354122241686636 0 0.0091361883854533862 0.018459718973103639 0 0.0085190199272568816 0.018121691999159494 0 0.0091570399824760368 0.01802417810499081 0 0.0091570399824760368 0.01802417810499081 0 0.0096481673819724667 0.017575299929169695 0 0.0088063933503620493 0.017446347106219319 0 0.0085190199272568816 0.018121691999159494 0 0.0091570399824760368 0.01802417810499081 0 0.0088063933503620493 0.017446347106219319 0 0.0098120723146131548 0.018090363428436309 0 0.0096481673819724667 0.017575299929169695 0 0.010427903190367734 0.017645118491145771 0 0.0095338642522869669 0.018545180281379737 0 0.0091570399824760368 0.01802417810499081 0 0.0098120723146131548 0.018090363428436309 0 0.0091570399824760368 0.01802417810499081 0 0.0098120723146131548 0.018090363428436309 0 0.0096481673819724667 0.017575299929169695 0 0.0096481673819724667 0.017575299929169695 0 0.0095676266729409747 0.016957988827990107 0 0.010419556904398922 0.016951496512213653 0 0.0096481673819724667 0.017575299929169695 0 0.0088063933503620493 0.017446347106219319 0 0.0095676266729409747 0.016957988827990107 0 0.0088063933503620493 0.017446347106219319 0 0.0089008605861058306 0.016911533277340237 0 0.0095676266729409747 0.016957988827990107 0 0.0089795760834010686 0.016834764607904094 0 0.0094388974217479178 0.016439147665172727 0 0.0089008605861058306 0.016911533277340237 0 0.0095676266729409747 0.016957988827990107 0 0.0096017337804208108 0.01624640497923666 0 0.0095676266729409747 0.016957988827990107 0 0.0096017337804208108 0.01624640497923666 0 0.010231589534860376 0.016325194477192918 0 0.0094388974217479178 0.016439147665172727 0 0.010515090783707227 0.015800887468581343 0 0.0094051417753037332 0.016532628219353081 0 0.0094766467183622864 0.015877447473096856 0 0.0099480801313566632 0.016122246155432944 0 0.0094051417753037332 0.016532628219353081 0 0.0089369500103075074 0.016213955878630049 0 0.0094766467183622864 0.015877447473096856 0 0.0089008605861058306 0.016911533277340237 0 0.0094051417753037332 0.016532628219353081 0 0.0089369500103075074 0.016213955878630049 0 0.0089008605861058306 0.016911533277340237 0 0.0089369500103075074 0.016213955878630049 0 0.0082955820421324634 0.016344487085985362 0 0.0089369500103075074 0.016213955878630049 0 0.0082955820421324634 0.016344487085985362 0 0.0086416290737719309 0.015929105356626207 0 0.0088063933503620493 0.017446347106219319 0 0.0089008605861058306 0.016911533277340237 0 0.0082937273751573764 0.016918123731557409 0 0.0089008605861058306 0.016911533277340237 0 0.0082955820421324634 0.016344487085985362 0 0.0082937273751573764 0.016918123731557409 0 0.0082955820421324634 0.016344487085985362 0 0.0082937273751573764 0.016918123731557409 0 0.0074456739734265424 0.016800806557980753 0 0.0077168589148867255 0.017247612954860235 0 0.0074741464097399955 0.016863087333867002 0 0.007539620636127068 0.017330571788819776 0 0.0074456739734265424 0.016800806557980753 0 0.0070615459951178855 0.017193009118376148 0 0.0080053629385181818 0.01740378855783804 0 0.0082937273751573764 0.016918123731557409 0 0.0074456739734265424 0.016800806557980753 0 0.0082955820421324634 0.016344487085985362 0 0.0074456739734265424 0.016800806557980753 0 0.0074681439241555576 0.016085007103310487 0 0.0073863611752967287 0.016570674468321795 0 0.0080829140596372223 0.01629244206977452 0 0.00744853049972423 0.015934825776999666 0 0.0082955820421324634 0.016344487085985362 0 0.0074681439241555576 0.016085007103310487 0 0.0083128631575841369 0.015533480694421396 0 0.0074358870694634441 0.016328574270299295 0 0.0081982197989872337 0.015911395709172327 0 0.0082955820421324634 0.016344487085985362 0 0.0086416290737719309 0.015929105356626207 0 0.0083128631575841369 0.015533480694421396 0 0.0080829140596372223 0.01629244206977452 0 0.0081529601626969209 0.015664587893372179 0 0.0087750593137188703 0.015954540060433051 0 0.0080829140596372223 0.01629244206977452 0 0.00744853049972423 0.015934825776999666 0 0.0081529601626969209 0.015664587893372179 0 0.00744853049972423 0.015934825776999666 0 0.0076855306545416408 0.015414177028302953 0 0.0081529601626969209 0.015664587893372179 0 0.0076855306545416408 0.015414177028302953 0 0.0081529601626969209 0.015664587893372179 0 0.0082382299825156553 0.014999950862386655 0 0.0081529601626969209 0.015664587893372179 0 0.0082382299825156553 0.014999950862386655 0 0.0086613174813803175 0.015410718833049132 0 0.0076855306545416408 0.015414177028302953 0 0.0082382299825156553 0.014999950862386655 0 0.0074070822819371383 0.014999941605667033 0 0.0090692374038427344 0.014999947020499685 0 0.0091015415294571096 0.015447236495571516 0 0.0094245369784560391 0.015261923207736677 0 0.0090692374038427344 0.014999947020499685 0 0.0086613174813803175 0.015410718833049132 0 0.0091015415294571096 0.015447236495571516 0 0.0091015415294571096 0.015447236495571516 0 0.0093445235088107682 0.015488035727243214 0 0.0094245369784560391 0.015261923207736677 0 0.0090695300884834334 0.015000115902079565 0 0.0094058761229365469 0.015245499256961491 0 0.0082382299825156553 0.014999950862386655 0 0.0090692374038427344 0.014999947020499685 0 0.0086613174813803175 0.015410718833049132 0 0.0081529601626969209 0.015664587893372179 0 0.0086613174813803175 0.015410718833049132 0 0.0087750593137188703 0.015954540060433051 0 0.0086613174813803175 0.015410718833049132 0 0.0091015415294571096 0.015447236495571516 0 0.0087750593137188703 0.015954540060433051 0 0.0089753436337845372 0.015452319622984318 0 0.0096997219210991845 0.015154160945044662 0 0.0091015415294571096 0.015447236495571516 0 0.0093193839430354211 0.015589353412132502 0 0.0087750593137188703 0.015954540060433051 0 0.0093193839430354211 0.015589353412132502 0 0.0087750593137188703 0.015954540060433051 0 0.0094330624520514352 0.01558147314598881 0 0.0096236746119010546 0.014947697627938404 0 0.0091412339465140602 0.015002799404350989 0 0.010045171878431489 0.014432665771907428 0 0.0091015415294571096 0.015447236495571516 0 0.0093193839430354211 0.015589353412132502 0 0.0093445235088107682 0.015488035727243214 0 0.0096236746119010546 0.014947697627938404 0 0.0099788743145787905 0.014727160807828576 0 0.010045171878431489 0.014432665771907428 0 0.0096236746119010546 0.014947697627938404 0 0.010030435943748549 0.014867347989834235 0 0.0099788743145787905 0.014727160807828576 0 0.0096236746119010546 0.014947697627938404 0 0.0099689734010933641 0.015196446226392662 0 0.010030435943748549 0.014867347989834235 0 0.0096236746119010546 0.014947697627938404 0 0.0095125268122921419 0.015415328560626794 0 0.0091412339465140602 0.015002799404350989 0 0.0096236746119010546 0.014947697627938404 0 0.0095125268122921419 0.015415328560626794 0 0.0099689734010933641 0.015196446226392662 0 0.0095125268122921419 0.015415328560626794 0 0.01006855860424022 0.015719766351886655 0 0.0099689734010933641 0.015196446226392662 0 0.0083128631575841369 0.015533480694421396 0 0.0091412339465140602 0.015002799404350989 0 0.0090120713705797856 0.015621835353581961 0 0.0095125268122921419 0.015415328560626794 0 0.0091412339465140602 0.015002799404350989 0 0.0090120713705797856 0.015621835353581961 0 0.0081982197989872337 0.015911395709172327 0 0.0089753436337845372 0.015452319622984318 0 0.0086416290737719309 0.015929105356626207 0 0.0083128631575841369 0.015533480694421396 0 0.0090120713705797856 0.015621835353581961 0 0.0089369500103075074 0.016213955878630049 0 0.0086416290737719309 0.015929105356626207 0 0.0090120713705797856 0.015621835353581961 0 0.0089369500103075074 0.016213955878630049 0 0.0090120713705797856 0.015621835353581961 0 0.0094766467183622864 0.015877447473096856 0 0.0095125268122921419 0.015415328560626794 0 0.0095831991245771443 0.015938072614911831 0 0.01006855860424022 0.015719766351886655 0 0.0090938931201697114 0.015668143400855719 0 0.0094978897663656504 0.01586534625466569 0 0.0095125268122921419 0.015415328560626794 0 0.0090120713705797856 0.015621835353581961 0 0.0095831991245771443 0.015938072614911831 0 0.0094978897663656504 0.01586534625466569 0 0.010515090783707227 0.015800887468581343 0 0.01006855860424022 0.015719766351886655 0 0.010901174824425116 0.015679944266792915 0 0.010464322050934474 0.015308936957466853 0 0.011543948411521555 0.015291351742803704 0 0.010515090783707227 0.015800887468581343 0 0.0090690908711901098 0.015000192666217622 0 0.0094760167091050753 0.01530964382143086 0 0.010988258066719315 0.014999685128243968 0 0.01006855860424022 0.015719766351886655 0 0.010901174824425116 0.015679944266792915 0 0.010161018427585192 0.016241725153531054 0 0.0095831991245771443 0.015938072614911831 0 0.01006855860424022 0.015719766351886655 0 0.010161018427585192 0.016241725153531054 0 0.012115951701786502 0.014979532181787929 0 0.012218216065916295 0.015207381248676016 0 0.011726256092698771 0.015265259582610873 0 0.012115951701786502 0.014979532181787929 0 0.012488733889910762 0.01502814353392014 0 0.012218216065916295 0.015207381248676016 0 0.010901174824425116 0.015679944266792915 0 0.010801965125429254 0.0150754129932283 0 0.011644660519850534 0.015116244958471201 0 0.010801965125429254 0.0150754129932283 0 0.010619747106224375 0.014377465367341229 0 0.011644660519850534 0.015116244958471201 0 0.010901174824425116 0.015679944266792915 0 0.010801965125429254 0.0150754129932283 0 0.010464322050934474 0.015308936957466853 0 0.01006855860424022 0.015719766351886655 0 0.0099689734010933641 0.015196446226392662 0 0.010464322050934474 0.015308936957466853 0 0.010801965125429254 0.0150754129932283 0 0.010464322050934474 0.015308936957466853 0 0.010380612888033037 0.014893875467883367 0 0.0099689734010933641 0.015196446226392662 0 0.010464322050934474 0.015308936957466853 0 0.010380612888033037 0.014893875467883367 0 0.0099689734010933641 0.015196446226392662 0 0.010380612888033037 0.014893875467883367 0 0.010030435943748549 0.014867347989834235 0 0.0098883158068858966 0.015625052512067403 0 0.0094760167091050753 0.01530964382143086 0 0.010513833197521926 0.01558451197273134 0 0.010380612888033037 0.014893875467883367 0 0.010030435943748549 0.014867347989834235 0 0.010216693630706252 0.014661029983908652 0 0.010030435943748549 0.014867347989834235 0 0.0099788743145787905 0.014727160807828576 0 0.010216693630706252 0.014661029983908652 0 0.0099788743145787905 0.014727160807828576 0 0.010216693630706252 0.014661029983908652 0 0.010045171878431489 0.014432665771907428 0 0.0094270675607439607 0.015580534535185086 0 0.0093445235088107682 0.015488035727243214 0 0.0094245369784560391 0.015261923207736677 0 0.0095458195096554208 0.015221376193976472 0 0.0096997219210991845 0.015154160945044662 0 0.0093193839430354211 0.015589353412132502 0 0.0094270675607439607 0.015580534535185086 0 0.0093445235088107682 0.015488035727243214 0 0.0094270675607439607 0.015580534535185086 0 0.0098245753851482678 0.015542055326514566 0 0.0094245369784560391 0.015261923207736677 0 0.010216693630706252 0.014661029983908652 0 0.010045171878431489 0.014432665771907428 0 0.010619747106224375 0.014377465367341229 0 0.0096997219210991845 0.015154160945044662 0 0.010575320178502778 0.015250786496124817 0 0.010380612888033037 0.014893875467883367 0 0.010216693630706252 0.014661029983908652 0 0.010619747106224375 0.014377465367341229 0 0.010575320178502778 0.015250786496124817 0 0.011463638898797911 0.015489112694520975 0 0.010801965125429254 0.0150754129932283 0 0.010380612888033037 0.014893875467883367 0 0.010619747106224375 0.014377465367341229 0 0.010575320178502778 0.015250786496124817 0 0.012370640819432861 0.015146427147863297 0 0.010575320178502778 0.015250786496124817 0 0.0094058761229365469 0.015245499256961491 0 0.0094760167091050753 0.01530964382143086 0 0.010988258066719315 0.014999685128243968 0 0.010513833197521926 0.01558451197273134 0 0.010988258066719315 0.014999685128243968 0 0.010513833197521926 0.01558451197273134 0 0.01127349752665209 0.015619834918040712 0 0.010988258066719315 0.014999685128243968 0 0.011439797627697139 0.015255922452914052 0 0.01127349752665209 0.015619834918040712 0 0.01226844010379508 0.015356748985720113 0 0.012527756218447622 0.015363634806332552 0 0.012325790364756064 0.015591139376403057 0 0.011979623489506963 0.015379416031822867 0 0.01226844010379508 0.015356748985720113 0 0.012325790364756064 0.015591139376403057 0 0.012527756218447622 0.015363634806332552 0 0.012325790364756064 0.015591139376403057 0 0.012541191688648033 0.015370983340516555 0 0.01292178218991794 0.015113877703121691 0 0.012546060852782513 0.015287151134140479 0 0.012541191688648033 0.015370983340516555 0 0.012370640819432861 0.015146427147863297 0 0.012627914598899476 0.015425999108083217 0 0.011463638898797911 0.015489112694520975 0 0.011892179756303555 0.015471614927238626 0 0.012655040626490989 0.015162715177603392 0 0.01292178218991794 0.015113877703121691 0 0.012546060852782513 0.015287151134140479 0 0.012655040626490989 0.015162715177603392 0 0.012682449799345607 0.015049091963598138 0 0.01292178218991794 0.015113877703121691 0 0.012759026449315043 0.014949077007392338 0 0.012682449799345607 0.015049091963598138 0 0.01292178218991794 0.015113877703121691 0 0.012742435146109347 0.015008417862029921 0 0.012370640819432861 0.015146427147863297 0 0.012759026449315043 0.014949077007392338 0 0.012682449799345607 0.015049091963598138 0 0.012760506129597211 0.014908877063571913 0 0.011543948411521555 0.015291351742803704 0 0.012370640819432861 0.015146427147863297 0 0.012759026449315043 0.014949077007392338 0 0.012501421515442252 0.014728788004774642 0 0.012488733889910762 0.01502814353392014 0 0.012488733889910762 0.01502814353392014 0 0.012566713912081164 0.015273062435055518 0 0.012218216065916295 0.015207381248676016 0 0.012115951701786502 0.014979532181787929 0 0.012501421515442252 0.014728788004774642 0 0.012488733889910762 0.01502814353392014 0 0.012488733889910762 0.01502814353392014 0 0.012679318048499288 0.015047970920077668 0 0.012566713912081164 0.015273062435055518 0 0.012759026449315043 0.014949077007392338 0 0.012488733889910762 0.01502814353392014 0 0.012679318048499288 0.015047970920077668 0 0.012759026449315043 0.014949077007392338 0 0.012760506129597211 0.014908877063571913 0 0.012679318048499288 0.015047970920077668 0 0.012679318048499288 0.015047970920077668 0 0.012845056002797521 0.015144757135288366 0 0.012566713912081164 0.015273062435055518 0 0.012760506129597211 0.014908877063571913 0 0.012679318048499288 0.015047970920077668 0 0.012845056002797521 0.015144757135288366 0 0.012597410075577532 0.015727403493163553 0 0.012566713912081164 0.015273062435055518 0 0.013054074316260007 0.015435179761031443 0 0.012845056002797521 0.015144757135288366 0 0.012566713912081164 0.015273062435055518 0 0.013054074316260007 0.015435179761031443 0 0.012597410075577532 0.015727403493163553 0 0.013114134606891923 0.016024136791229097 0 0.013054074316260007 0.015435179761031443 0 0.012336758772719071 0.016473435730442399 0 0.014287102151504017 0.013300071908501907 0 0.012193508054845969 0.016585026828547098 0 0.011252697008338816 0.016143130324173503 0 0.011289777942396665 0.017126801708837083 0 0.012336758772719071 0.016473435730442399 0 0.011782619399744282 0.015768034027365378 0 0.012566713912081164 0.015273062435055518 0 0.012167747195296614 0.015483868737129166 0 0.012218216065916295 0.015207381248676016 0 0.012597410075577532 0.015727403493163553 0 0.012566713912081164 0.015273062435055518 0 0.012167747195296614 0.015483868737129166 0 0.012167747195296614 0.015483868737129166 0 0.012218216065916295 0.015207381248676016 0 0.011726256092698771 0.015265259582610873 0 0.011782619399744282 0.015768034027365378 0 0.010515090783707227 0.015800887468581343 0 0.011252697008338816 0.016143130324173503 0 0.010317232890411646 0.015677452017169587 0 0.010231589534860376 0.016325194477192918 0 0.0096017337804208108 0.01624640497923666 0 0.010317232890411646 0.015677452017169587 0 0.010231589534860376 0.016325194477192918 0 0.0095676266729409747 0.016957988827990107 0 0.010419556904398922 0.016951496512213653 0 0.010231589534860376 0.016325194477192918 0 0.011252697008338816 0.016143130324173503 0 0.010419556904398922 0.016951496512213653 0 0.010231589534860376 0.016325194477192918 0 0.011252697008338816 0.016143130324173503 0 0.010419556904398922 0.016951496512213653 0 0.011289777942396665 0.017126801708837083 0 0.011289777942396665 0.017126801708837083 0 0.010427903190367734 0.017645118491145771 0 0.011264989035687857 0.017944127763585567 0 0.0096481673819724667 0.017575299929169695 0 0.010419556904398922 0.016951496512213653 0 0.010427903190367734 0.017645118491145771 0 0.010419556904398922 0.016951496512213653 0 0.011289777942396665 0.017126801708837083 0 0.010427903190367734 0.017645118491145771 0 0.01032801142799508 0.01835878822787837 0 0.0098120723146131548 0.018090363428436309 0 0.010427903190367734 0.017645118491145771 0 0.01032801142799508 0.01835878822787837 0 0.010427903190367734 0.017645118491145771 0 0.011264989035687857 0.017944127763585567 0 0.011928495118981825 0.013774702352481159 0 0.012438482785942073 0.013608645203525336 0 0.012438482785942073 0.013608645203525336 0 0.01316090371528701 0.013361728868432583 0 0.013661484077222797 0.0092295334809773168 0 0.014109335820755589 0.0094269950360838777 0 0.014231469053005473 0.0092189059381532368 0 0.013733073192250912 0.0094198026657373608 0 0.013661484077222797 0.0092295334809773168 0 0.014109335820755589 0.0094269950360838777 0 0.014109335820755589 0.0094269950360838777 0 0.014231469053005473 0.0092189059381532368 0 0.0147844923227737 0.0096972335950777332 0 0.012193508054845969 0.016585026828547098 0 0.012206678061813522 0.017498925453701009 0 0.013152543199476631 0.017033432511384734 0 0.01316090371528701 0.013361728868432583 0 0.014287102151504017 0.013300071908501907 0 0.014231469053005473 0.0092189059381532368 0 0.014819806227262687 0.0092377682190322146 0 0.0147844923227737 0.0096972335950777332 0 0.011289777942396665 0.017126801708837083 0 0.011264989035687857 0.017944127763585567 0 0.012206678061813522 0.017498925453701009 0 0.012193508054845969 0.016585026828547098 0 0.011289777942396665 0.017126801708837083 0 0.012206678061813522 0.017498925453701009 0 0.016381672120876985 0.010634975451571008 0 0.01554741522985458 0.010171979183945747 0 0.015705059646122319 0.010968400549552091 0 0.014287102151504017 0.013300071908501907 0 0.015808432125460094 0.0092258465168186376 0 0.014819806227262687 0.0092377682190322146 0 0.0147844923227737 0.0096972335950777332 0 0.01554741522985458 0.010171979183945747 0 0.015280067867153788 0.010035978754767269 0 0.0147844923227737 0.0096972335950777332 0 0.01554741522985458 0.010171979183945747 0 0.015467174117136117 0.010345522864733368 0 0.015280067867153788 0.010035978754767269 0 0.01554741522985458 0.010171979183945747 0 0.015467174117136117 0.010345522864733368 0 0.01554741522985458 0.010171979183945747 0 0.015461136944709571 0.010803119661739831 0 0.015467174117136117 0.010345522864733368 0 0.015461136944709571 0.010803119661739831 0 0.015412524287332047 0.010842654241793655 0 0.01554741522985458 0.010171979183945747 0 0.015461136944709571 0.010803119661739831 0 0.015705059646122319 0.010968400549552091 0 0.014981576477567907 0.013386893537763142 0 0.014841066773803863 0.013360807682950736 0 0.015461136944709571 0.010803119661739831 0 0.015562701709644099 0.011383255162505693 0 0.015705059646122319 0.010968400549552091 0 0.014503268604114033 0.015432149883726962 0 0.014020328613657117 0.015355674188695018 0 0.013778854916587062 0.015754181340239624 0 0.015461136944709571 0.010803119661739831 0 0.015562701709644099 0.011383255162505693 0 0.015428670200687321 0.011410457745490928 0 0.014329819314930178 0.015101961809724109 0 0.015473098393376891 0.013717577890068606 0 0.014503268604114033 0.015432149883726962 0 0.01439806405309766 0.015037502839277742 0 0.015265906589466282 0.015057145793168532 0 0.014329819314930178 0.015101961809724109 0 0.013667009010528921 0.014996368419055207 0 0.01439806405309766 0.015037502839277742 0 0.014020328613657117 0.015355674188695018 0 0.013596042358679044 0.015049378619769075 0 0.014503268604114033 0.015432149883726962 0 0.01439806405309766 0.015037502839277742 0 0.014020328613657117 0.015355674188695018 0 0.014020328613657117 0.015355674188695018 0 0.013778854916587062 0.015754181340239624 0 0.013596042358679044 0.015049378619769075 0 0.013778854916587062 0.015754181340239624 0 0.013054074316260007 0.015435179761031443 0 0.013596042358679044 0.015049378619769075 0 0.014287102151504017 0.013300071908501907 0 0.014841066773803863 0.013360807682950736 0 0.013114134606891923 0.016024136791229097 0 0.013778854916587062 0.015754181340239624 0 0.013054074316260007 0.015435179761031443 0 0.013054074316260007 0.015435179761031443 0 0.013144624715526175 0.015058827279986227 0 0.013596042358679044 0.015049378619769075 0 0.012845056002797521 0.015144757135288366 0 0.013054074316260007 0.015435179761031443 0 0.013144624715526175 0.015058827279986227 0 0.012760506129597211 0.014908877063571913 0 0.012845056002797521 0.015144757135288366 0 0.013144624715526175 0.015058827279986227 0 0.012760506129597211 0.014908877063571913 0 0.013144624715526175 0.015058827279986227 0 0.013630726470882955 0.014381842496178097 0 0.013596042358679044 0.015049378619769075 0 0.013630726470882955 0.014381842496178097 0 0.014143008222048028 0.014578870626737244 0 0.013144624715526175 0.015058827279986227 0 0.013596042358679044 0.015049378619769075 0 0.013630726470882955 0.014381842496178097 0 0.012454179920795243 0.01532273379420627 0 0.012488421791518663 0.015312906367599275 0 0.012484026948198067 0.015347038939615389 0 0.012795250366882487 0.014900939066208948 0 0.013068692322552358 0.014855218471650101 0 0.012454179920795243 0.01532273379420627 0 0.012589673543853742 0.015188701892888247 0 0.012488421791518663 0.015312906367599275 0 0.012760506129597211 0.014908877063571913 0 0.012454179920795243 0.01532273379420627 0 0.012589673543853742 0.015188701892888247 0 0.012682449799345607 0.015049091963598138 0 0.012760506129597211 0.014908877063571913 0 0.012589673543853742 0.015188701892888247 0 0.012655040626490989 0.015162715177603392 0 0.012682449799345607 0.015049091963598138 0 0.012589673543853742 0.015188701892888247 0 0.012589673543853742 0.015188701892888247 0 0.012546060852782513 0.015287151134140479 0 0.012488421791518663 0.015312906367599275 0 0.012655040626490989 0.015162715177603392 0 0.012589673543853742 0.015188701892888247 0 0.012546060852782513 0.015287151134140479 0 0.012527756218447622 0.015363634806332552 0 0.012541191688648033 0.015370983340516555 0 0.01239931682712261 0.015371068112396828 0 0.011185146729919767 0.014999924397744458 0 0.01174540115782326 0.015140549895140951 0 0.012813383890612155 0.01500025391055281 0 0.012546060852782513 0.015287151134140479 0 0.012541191688648033 0.015370983340516555 0 0.01247232809268764 0.015336480943755563 0 0.012541191688648033 0.015370983340516555 0 0.01247232809268764 0.015336480943755563 0 0.01239931682712261 0.015371068112396828 0 0.012546060852782513 0.015287151134140479 0 0.01247232809268764 0.015336480943755563 0 0.012488421791518663 0.015312906367599275 0 0.01247232809268764 0.015336480943755563 0 0.012488421791518663 0.015312906367599275 0 0.012484026948198067 0.015347038939615389 0 0.012454179920795243 0.01532273379420627 0 0.012484026948198067 0.015347038939615389 0 0.0126377226033018 0.015381319807548087 0 0.012484026948198067 0.015347038939615389 0 0.012525185258904933 0.015295745886837428 0 0.0126377226033018 0.015381319807548087 0 0.01247232809268764 0.015336480943755563 0 0.012484026948198067 0.015347038939615389 0 0.01239931682712261 0.015371068112396828 0 0.012484026948198067 0.015347038939615389 0 0.01239931682712261 0.015371068112396828 0 0.012525185258904933 0.015295745886837428 0 0.012013778274408415 0.015112339892094272 0 0.012636923754468461 0.015222515808922924 0 0.012525185258904933 0.015295745886837428 0 0.012342023994299726 0.015070565427487902 0 0.01274469495218895 0.01518668735258783 0 0.01239931682712261 0.015371068112396828 0 0.012525185258904933 0.015295745886837428 0 0.012342023994299726 0.015070565427487902 0 0.011071304872719595 0.014995714370959761 0 0.012013778274408415 0.015112339892094272 0 0.011439797627697139 0.015255922452914052 0 0.012342023994299726 0.015070565427487902 0 0.011900206977606605 0.015280670609311653 0 0.011892179756303555 0.015471614927238626 0 0.012352853125570523 0.015396557649859269 0 0.010987726667727273 0.015000037444993241 0 0.011185146729919767 0.014999924397744458 0 0.01174540115782326 0.015140549895140951 0 0.010988258066719315 0.014999685128243968 0 0.011439797627697139 0.015255922452914052 0 0.012342023994299726 0.015070565427487902 0 0.01127349752665209 0.015619834918040712 0 0.01239931682712261 0.015371068112396828 0 0.011754059162802253 0.015384549866534014 0 0.011439797627697139 0.015255922452914052 0 0.011754059162802253 0.015384549866534014 0 0.011900206977606605 0.015280670609311653 0 0.011439797627697139 0.015255922452914052 0 0.01127349752665209 0.015619834918040712 0 0.011754059162802253 0.015384549866534014 0 0.01239931682712261 0.015371068112396828 0 0.011754059162802253 0.015384549866534014 0 0.011900206977606605 0.015280670609311653 0 0.01239931682712261 0.015371068112396828 0 0.012342023994299726 0.015070565427487902 0 0.011900206977606605 0.015280670609311653 0 0.01174540115782326 0.015140549895140951 0 0.012813383890612155 0.01500025391055281 0 0.012505074049617605 0.015264231585013339 0 0.012636923754468461 0.015222515808922924 0 0.01321146110331531 0.015314528038672328 0 0.01274469495218895 0.01518668735258783 0 0.012955126151778039 0.01537383108633327 0 0.013258930049400049 0.015319030868868584 0 0.012813383890612155 0.01500025391055281 0 0.012505074049617605 0.015264231585013339 0 0.013258930049400049 0.015319030868868584 0 0.012525185258904933 0.015295745886837428 0 0.01274469495218895 0.01518668735258783 0 0.0126377226033018 0.015381319807548087 0 0.0126377226033018 0.015381319807548087 0 0.012955126151778039 0.01537383108633327 0 0.012824592925875443 0.015552841102046987 0 0.01274469495218895 0.01518668735258783 0 0.0126377226033018 0.015381319807548087 0 0.012955126151778039 0.01537383108633327 0 0.013647198522907588 0.014831013630388525 0 0.01424756171600047 0.014820012470589668 0 0.012955126151778039 0.01537383108633327 0 0.012824592925875443 0.015552841102046987 0 0.013449219623397754 0.015573829916342955 0 0.014455066831350111 0.014115857554473255 0 0.01448283280099023 0.014489036552560355 0 0.014865479166468354 0.014368089735402687 0 0.012454179920795243 0.01532273379420627 0 0.0126377226033018 0.015381319807548087 0 0.012824592925875443 0.015552841102046987 0 0.014455066831350111 0.014115857554473255 0 0.014143008222048028 0.014578870626737244 0 0.01448283280099023 0.014489036552560355 0 0.013630726470882955 0.014381842496178097 0 0.014455066831350111 0.014115857554473255 0 0.014143008222048028 0.014578870626737244 0 0.013068692322552358 0.014855218471650101 0 0.013647198522907588 0.014831013630388525 0 0.014445491069520996 0.014891829768798336 0 0.013596042358679044 0.015049378619769075 0 0.014143008222048028 0.014578870626737244 0 0.014445491069520996 0.014891829768798336 0 0.014143008222048028 0.014578870626737244 0 0.01448283280099023 0.014489036552560355 0 0.014445491069520996 0.014891829768798336 0 0.01448283280099023 0.014489036552560355 0 0.014865479166468354 0.014368089735402687 0 0.012813383890612155 0.01500025391055281 0 0.015000420552139548 0.01499842830371381 0 0.014247757214661282 0.015341602663719683 0 0.015190606656273585 0.014204765506710531 0 0.014865479166468354 0.014368089735402687 0 0.015018439532156997 0.014695758085012424 0 0.014445491069520996 0.014891829768798336 0 0.014865479166468354 0.014368089735402687 0 0.015018439532156997 0.014695758085012424 0 0.015717622780086496 0.013339065512867296 0 0.015770353974736289 0.012980039891760125 0 0.01635072007050117 0.013026943546483274 0 0.015190606656273585 0.014204765506710531 0 0.015297921142457493 0.014246598185029656 0 0.015018439532156997 0.014695758085012424 0 0.015507073231319762 0.013813621566407983 0 0.015473098393376891 0.013717577890068606 0 0.014455066831350111 0.014115857554473255 0 0.014865479166468354 0.014368089735402687 0 0.01504828259947143 0.014067782211941405 0 0.015190606656273585 0.014204765506710531 0 0.014865479166468354 0.014368089735402687 0 0.01504828259947143 0.014067782211941405 0 0.012813383890612155 0.01500025391055281 0 0.013258930049400049 0.015319030868868584 0 0.014247757214661282 0.015341602663719683 0 0.013449219623397754 0.015573829916342955 0 0.013258930049400049 0.015319030868868584 0 0.014247757214661282 0.015341602663719683 0 0.012955126151778039 0.01537383108633327 0 0.013449219623397754 0.015573829916342955 0 0.013258930049400049 0.015319030868868584 0 0.015190606656273585 0.014204765506710531 0 0.01504828259947143 0.014067782211941405 0 0.015330936753101239 0.014276261056151988 0 0.01424756171600047 0.014820012470589668 0 0.014753425108880874 0.01481669346339509 0 0.014999860200888589 0.014850304690606993 0 0.014753425108880874 0.01481669346339509 0 0.014999922781529021 0.014849903030930676 0 0.015330936753101239 0.014276261056151988 0 0.014999914919350113 0.014298224065963193 0 0.014999176047154717 0.014852833031752026 0 0.015000420552139548 0.01499842830371381 0 0.014247757214661282 0.015341602663719683 0 0.015190606656273585 0.014204765506710531 0 0.015330936753101239 0.014276261056151988 0 0.015257951892582514 0.014127553271310806 0 0.015330936753101239 0.014276261056151988 0 0.014999914919350113 0.014298224065963193 0 0.015257951892582514 0.014127553271310806 0 0.014999914919350113 0.014298224065963193 0 0.015000122349995553 0.013747495579699016 0 0.015257951892582514 0.014127553271310806 0 0.015000122349995553 0.013747495579699016 0 0.015257951892582514 0.014127553271310806 0 0.015297921142457493 0.014246598185029656 0 0.015190606656273585 0.014204765506710531 0 0.015257951892582514 0.014127553271310806 0 0.015297921142457493 0.014246598185029656 0 0.015717622780086496 0.013339065512867296 0 0.015422616839528572 0.013133127856346478 0 0.015770353974736289 0.012980039891760125 0 0.014999974964459085 0.013746626607102788 0 0.015507073231319762 0.013813621566407983 0 0.014999990886088917 0.013746770368229222 0 0.015089982050021676 0.012883893531095383 0 0.014999901892298776 0.012939690565515688 0 0.014999990886088917 0.013746770368229222 0 0.015717622780086496 0.013339065512867296 0 0.015422616839528572 0.013133127856346478 0 0.014999990886088917 0.013746770368229222 0 0.015422616839528572 0.013133127856346478 0 0.015089982050021676 0.012883893531095383 0 0.015422616839528572 0.013133127856346478 0 0.015089982050021676 0.012883893531095383 0 0.015770353974736289 0.012980039891760125 0 0.015089982050021676 0.012883893531095383 0 0.014999901892298776 0.012939690565515688 0 0.015235404880713808 0.012121007371015487 0 0.014999901892298776 0.012939690565515688 0 0.015235404880713808 0.012121007371015487 0 0.014999790031767553 0.012133691766577227 0 0.015049701710276074 0.012821069061719165 0 0.015575795038778361 0.012474374839513745 0 0.015089982050021676 0.012883893531095383 0 0.015235404880713808 0.012121007371015487 0 0.015313021671535773 0.012146690828731202 0 0.015235404880713808 0.012121007371015487 0 0.015313021671535773 0.012146690828731202 0 0.015360662656175368 0.011796800909540885 0 0.015575795038778361 0.012474374839513745 0 0.015473098393376891 0.013717577890068606 0 0.015313021671535773 0.012146690828731202 0 0.015427150569079343 0.011792002087588913 0 0.015360662656175368 0.011796800909540885 0 0.015562701709644099 0.011383255162505693 0 0.015427150569079343 0.011792002087588913 0 0.015428670200687321 0.011410457745490928 0 0.014981576477567907 0.013386893537763142 0 0.015473098393376891 0.013717577890068606 0 0.015427150569079343 0.011792002087588913 0 0.015428670200687321 0.011410457745490928 0 0.015360662656175368 0.011796800909540885 0 0.015428670200687321 0.011410457745490928 0 0.015360662656175368 0.011796800909540885 0 0.015366966596924873 0.011453117720782913 0 0.015235404880713808 0.012121007371015487 0 0.015360662656175368 0.011796800909540885 0 0.015366966596924873 0.011453117720782913 0 0.015366966596924873 0.011453117720782913 0 0.015419223733025721 0.011087846154606637 0 0.015412524287332047 0.010842654241793655 0 0.015366966596924873 0.011453117720782913 0 0.015412524287332047 0.010842654241793655 0 0.015251580831338492 0.011453928970834125 0 0.015461136944709571 0.010803119661739831 0 0.015419223733025721 0.011087846154606637 0 0.015412524287332047 0.010842654241793655 0 0.015461136944709571 0.010803119661739831 0 0.015428670200687321 0.011410457745490928 0 0.015419223733025721 0.011087846154606637 0 0.015428670200687321 0.011410457745490928 0 0.015366966596924873 0.011453117720782913 0 0.015419223733025721 0.011087846154606637 0 0.015254374358620386 0.010859784665008705 0 0.015412524287332047 0.010842654241793655 0 0.015251580831338492 0.011453928970834125 0 0.015254374358620386 0.010859784665008705 0 0.014999784533224437 0.011327732685569452 0 0.015251580831338492 0.011453928970834125 0 0.014999784533224437 0.011327732685569452 0 0.014999790031767553 0.012133691766577227 0 0.015251580831338492 0.011453928970834125 0 0.015235404880713808 0.012121007371015487 0 0.014999790031767553 0.012133691766577227 0 0.015251580831338492 0.011453928970834125 0 0.015235404880713808 0.012121007371015487 0 0.015366966596924873 0.011453117720782913 0 0.015251580831338492 0.011453928970834125 0 0.0014755163198098388 0.013899964024008905 0 0.0012057437764985441 0.014122477002348664 0 0.00154398204345422 0.014504289074771705 0 0.0014755163198098388 0.013899964024008905 0 0.0017126120291403905 0.014233612721679181 0 0.00154398204345422 0.014504289074771705 0 0.0014755163198098388 0.013899964024008905 0 0.0017126120291403905 0.014233612721679181 0 0.0017525378931258924 0.013608953753417908 0 0.0019409606670814804 0.014112391645250412 0 0.0017126120291403905 0.014233612721679181 0 0.0017525378931258924 0.013608953753417908 0 0.0019409606670814804 0.014112391645250412 0 0.0017126120291403905 0.014233612721679181 0 0.001870542562384787 0.014566898319271333 0 0.0019409606670814804 0.014112391645250412 0 0.0017525378931258924 0.013608953753417908 0 0.0021617203715105318 0.013645496538837029 0 0.0014755163198098388 0.013899964024008905 0 0.0017525378931258924 0.013608953753417908 0 0.0014142920104691624 0.013294377508516451 0 0.0011967636496605439 0.013536995920011277 0 0.00096440974004848143 0.013364271223259788 0 0.0010580678578945184 0.012943814786422318 0 0.0011967636496605439 0.013536995920011277 0 0.0014142920104691624 0.013294377508516451 0 0.0010580678578945184 0.012943814786422318 0 0.0014755163198098388 0.013899964024008905 0 0.0011967636496605439 0.013536995920011277 0 0.0014142920104691624 0.013294377508516451 0 0.00096440974004848143 0.013364271223259788 0 0.00077520823628641925 0.013504632738208882 0 0.00080062792429602767 0.013031101706118379 0 0.00077520823628641925 0.013504632738208882 0 0.00080062792429602767 0.013031101706118379 0 0.00059620448677929019 0.013197591720753877 0 0.0011967636496605439 0.013536995920011277 0 0.00096440974004848143 0.013364271223259788 0 0.00097845240452104458 0.013791243327133501 0 0.00096440974004848143 0.013364271223259788 0 0.00077520823628641925 0.013504632738208882 0 0.00097845240452104458 0.013791243327133501 0 0.00077520823628641925 0.013504632738208882 0 0.000696442144825461 0.013789864760667086 0 0.00097845240452104458 0.013791243327133501 0 0.000696442144825461 0.013789864760667086 0 0.00097845240452104458 0.013791243327133501 0 0.00084258775150511682 0.014116986546831013 0 0.00097845240452104458 0.013791243327133501 0 0.00084258775150511682 0.014116986546831013 0 0.0012057437764985441 0.014122477002348664 0 0.000696442144825461 0.013789864760667086 0 0.00084258775150511682 0.014116986546831013 0 0.00056989068572690113 0.014019424056667826 0 0.0011967636496605439 0.013536995920011277 0 0.00097845240452104458 0.013791243327133501 0 0.0012057437764985441 0.014122477002348664 0 0.0014755163198098388 0.013899964024008905 0 0.0011967636496605439 0.013536995920011277 0 0.0012057437764985441 0.014122477002348664 0 0.0012057437764985441 0.014122477002348664 0 0.001281111957127461 0.014474973552284017 0 0.00154398204345422 0.014504289074771705 0 0.0012057437764985441 0.014122477002348664 0 0.001281111957127461 0.014474973552284017 0 0.0010380801527142801 0.014450230555458831 0 0.001281111957127461 0.014474973552284017 0 0.0010380801527142801 0.014450230555458831 0 0.0012718578998628727 0.014779277383775815 0 0.001281111957127461 0.014474973552284017 0 0.0012718578998628727 0.014779277383775815 0 0.00154398204345422 0.014504289074771705 0 0.00070540779156115204 0.014379359134186006 0 0.0010380801527142801 0.014450230555458831 0 0.00097656658325214808 0.014853807475796137 0 0.00084258775150511682 0.014116986546831013 0 0.00070540779156115204 0.014379359134186006 0 0.00056989068572690113 0.014019424056667826 0 0.00084258775150511682 0.014116986546831013 0 0.00070540779156115204 0.014379359134186006 0 0.0010380801527142801 0.014450230555458831 0 0.00084258775150511682 0.014116986546831013 0 0.0012057437764985441 0.014122477002348664 0 0.0010380801527142801 0.014450230555458831 0 0.00097656658325214808 0.014853807475796137 0 0.00051899878719163578 0.014736887572983822 0 0.00092902702643423015 0.015351875864760105 0 0.00070540779156115204 0.014379359134186006 0 0.00097656658325214808 0.014853807475796137 0 0.00051899878719163578 0.014736887572983822 0 0.0012718578998628727 0.014779277383775815 0 0.00154398204345422 0.014504289074771705 0 0.0014437184354861058 0.015024547556414272 0 0.0010380801527142801 0.014450230555458831 0 0.00097656658325214808 0.014853807475796137 0 0.0012718578998628727 0.014779277383775815 0 0.00097656658325214808 0.014853807475796137 0 0.0012080098588888024 0.014968804920424555 0 0.0011466789467036141 0.015165706847454949 0 0.00097656658325214808 0.014853807475796137 0 0.0012718578998628727 0.014779277383775815 0 0.0012080098588888024 0.014968804920424555 0 0.0012718578998628727 0.014779277383775815 0 0.0012080098588888024 0.014968804920424555 0 0.0014437184354861058 0.015024547556414272 0 0.00154398204345422 0.014504289074771705 0 0.0017436066337115565 0.014895869034908622 0 0.0014437184354861058 0.015024547556414272 0 0.0017126120291403905 0.014233612721679181 0 0.00154398204345422 0.014504289074771705 0 0.001870542562384787 0.014566898319271333 0 0.00154398204345422 0.014504289074771705 0 0.001870542562384787 0.014566898319271333 0 0.0017436066337115565 0.014895869034908622 0 0.001870542562384787 0.014566898319271333 0 0.0017436066337115565 0.014895869034908622 0 0.0019911282228466149 0.014920224122517324 0 0.0019911282228466149 0.014920224122517324 0 0.0018444732232768186 0.0151080989824084 0 0.0020407078207129565 0.014882918704490966 0 0.0019911282228466149 0.014920224122517324 0 0.0020407078207129565 0.014882918704490966 0 0.0022071536994252429 0.014517100414928865 0 0.001870542562384787 0.014566898319271333 0 0.0019911282228466149 0.014920224122517324 0 0.0022071536994252429 0.014517100414928865 0 0.0017825506357858211 0.015108565723403914 0 0.0018444732232768186 0.0151080989824084 0 0.0020407078207129565 0.014882918704490966 0 0.0020407078207129565 0.014882918704490966 0 0.0021851617286639488 0.014781675196525755 0 0.0022071536994252429 0.014517100414928865 0 0.0017825506357858211 0.015108565723403914 0 0.0020407078207129565 0.014882918704490966 0 0.0021851617286639488 0.014781675196525755 0 0.0017825506357858211 0.015108565723403914 0 0.0021851617286639488 0.014781675196525755 0 0.0017254056285863646 0.015079376285337393 0 0.0021851617286639488 0.014781675196525755 0 0.0026458320991197852 0.014286103916747193 0 0.0019721219739920358 0.015027202001748686 0 0.0021851617286639488 0.014781675196525755 0 0.0026458320991197852 0.014286103916747193 0 0.0022071536994252429 0.014517100414928865 0 0.0026458320991197852 0.014286103916747193 0 0.0037137526528722297 0.012918452406050988 0 0.0042122557338702031 0.014346549150298357 0 0.0024586583164804151 0.014244691432054693 0 0.003411790288801442 0.015000978172762662 0 0.0019409606670814804 0.014112391645250412 0 0.0022071536994252429 0.014517100414928865 0 0.0021617203715105318 0.013645496538837029 0 0.0019409606670814804 0.014112391645250412 0 0.001870542562384787 0.014566898319271333 0 0.0022071536994252429 0.014517100414928865 0 0.0026458320991197852 0.014286103916747193 0 0.0022071536994252429 0.014517100414928865 0 0.0021617203715105318 0.013645496538837029 0 0.0021617203715105318 0.013645496538837029 0 0.00263633117618918 0.01294764948539206 0 0.0021476626025547178 0.012656631241049801 0 0.0021617203715105318 0.013645496538837029 0 0.0021476626025547178 0.012656631241049801 0 0.0018960517773025133 0.013149468645014532 0 0.0026458320991197852 0.014286103916747193 0 0.0021617203715105318 0.013645496538837029 0 0.00263633117618918 0.01294764948539206 0 0.00263633117618918 0.01294764948539206 0 0.0021476626025547178 0.012656631241049801 0 0.0024526761828241772 0.01207791661531305 0 0.0026458320991197852 0.014286103916747193 0 0.00263633117618918 0.01294764948539206 0 0.0037137526528722297 0.012918452406050988 0 0.00263633117618918 0.01294764948539206 0 0.0037137526528722297 0.012918452406050988 0 0.0031493230443860464 0.01208944339985153 0 0.0037137526528722297 0.012918452406050988 0 0.0039202647030304313 0.011871689447547304 0 0.0045742474753749747 0.012144274456926406 0 0.0039202647030304313 0.011871689447547304 0 0.0042856488192467932 0.011154667014045924 0 0.0045742474753749747 0.012144274456926406 0 0.0037137526528722297 0.012918452406050988 0 0.0039202647030304313 0.011871689447547304 0 0.0031493230443860464 0.01208944339985153 0 0.0039202647030304313 0.011871689447547304 0 0.0031493230443860464 0.01208944339985153 0 0.0034703913718056034 0.011157042524591713 0 0.0039202647030304313 0.011871689447547304 0 0.0034703913718056034 0.011157042524591713 0 0.0042856488192467932 0.011154667014045924 0 0.00263633117618918 0.01294764948539206 0 0.0031493230443860464 0.01208944339985153 0 0.0024526761828241772 0.01207791661531305 0 0.0031493230443860464 0.01208944339985153 0 0.0024526761828241772 0.01207791661531305 0 0.0028763770695410338 0.011544078837543379 0 0.0028066104027635072 0.010898172160678506 0 0.0034703913718056034 0.011157042524591713 0 0.0028763770695410338 0.011544078837543379 0 0.0031493230443860464 0.01208944339985153 0 0.0034703913718056034 0.011157042524591713 0 0.0028763770695410338 0.011544078837543379 0 0.0028066104027635072 0.010898172160678506 0 0.0028763770695410338 0.011544078837543379 0 0.0020842278258620291 0.011227612810921836 0 0.0024526761828241772 0.01207791661531305 0 0.0028763770695410338 0.011544078837543379 0 0.0020842278258620291 0.011227612810921836 0 0.0020842278258620291 0.011227612810921836 0 0.0019080165180371605 0.011534746901316228 0 0.0019475888507459499 0.01200053356447409 0 0.0020842278258620291 0.011227612810921836 0 0.0019080165180371605 0.011534746901316228 0 0.0019483481294728421 0.011231689678706309 0 0.0019080165180371605 0.011534746901316228 0 0.0019483481294728421 0.011231689678706309 0 0.001611032908511376 0.011775969207235433 0 0.001611032908511376 0.011775969207235433 0 0.0016055964827533453 0.01239618725944109 0 0.0013269284265324498 0.012191485620795499 0 0.001611032908511376 0.011775969207235433 0 0.0019475888507459499 0.01200053356447409 0 0.0016055964827533453 0.01239618725944109 0 0.0019080165180371605 0.011534746901316228 0 0.001611032908511376 0.011775969207235433 0 0.0019475888507459499 0.01200053356447409 0 0.0024526761828241772 0.01207791661531305 0 0.0020842278258620291 0.011227612810921836 0 0.0019475888507459499 0.01200053356447409 0 0.0021476626025547178 0.012656631241049801 0 0.0024526761828241772 0.01207791661531305 0 0.0019475888507459499 0.01200053356447409 0 0.0021476626025547178 0.012656631241049801 0 0.0019475888507459499 0.01200053356447409 0 0.0018415580479196969 0.012630842342013282 0 0.0021476626025547178 0.012656631241049801 0 0.0018415580479196969 0.012630842342013282 0 0.0018960517773025133 0.013149468645014532 0 0.0019475888507459499 0.01200053356447409 0 0.0018415580479196969 0.012630842342013282 0 0.0016055964827533453 0.01239618725944109 0 0.0016055964827533453 0.01239618725944109 0 0.0016283592198520409 0.012940510775961842 0 0.0013553474545320832 0.012709127489157984 0 0.0018415580479196969 0.012630842342013282 0 0.0016055964827533453 0.01239618725944109 0 0.0016283592198520409 0.012940510775961842 0 0.0017525378931258924 0.013608953753417908 0 0.0014142920104691624 0.013294377508516451 0 0.0016283592198520409 0.012940510775961842 0 0.0014142920104691624 0.013294377508516451 0 0.0016283592198520409 0.012940510775961842 0 0.0013553474545320832 0.012709127489157984 0 0.0017525378931258924 0.013608953753417908 0 0.0021617203715105318 0.013645496538837029 0 0.0018960517773025133 0.013149468645014532 0 0.0017525378931258924 0.013608953753417908 0 0.0016283592198520409 0.012940510775961842 0 0.0018960517773025133 0.013149468645014532 0 0.0018415580479196969 0.012630842342013282 0 0.0016283592198520409 0.012940510775961842 0 0.0018960517773025133 0.013149468645014532 0 0.00075788331586869469 0.012684905316434082 0 0.0010580678578945184 0.012943814786422318 0 0.00088642017819745632 0.012427702489587763 0 0.00075788331586869469 0.012684905316434082 0 0.00080062792429602767 0.013031101706118379 0 0.0010580678578945184 0.012943814786422318 0 0.00096440974004848143 0.013364271223259788 0 0.00080062792429602767 0.013031101706118379 0 0.0010580678578945184 0.012943814786422318 0 0.0014142920104691624 0.013294377508516451 0 0.0010580678578945184 0.012943814786422318 0 0.0013553474545320832 0.012709127489157984 0 0.0010580678578945184 0.012943814786422318 0 0.0011257836478969477 0.012497287501355998 0 0.0013553474545320832 0.012709127489157984 0 0.0011257836478969477 0.012497287501355998 0 0.0013553474545320832 0.012709127489157984 0 0.0013269284265324498 0.012191485620795499 0 0.0016055964827533453 0.01239618725944109 0 0.0013553474545320832 0.012709127489157984 0 0.0013269284265324498 0.012191485620795499 0 0.0011257836478969477 0.012497287501355998 0 0.0010153162556147532 0.012181814771532544 0 0.0013269284265324498 0.012191485620795499 0 0.0011257836478969477 0.012497287501355998 0 0.0010153162556147532 0.012181814771532544 0 0.00088642017819745632 0.012427702489587763 0 0.0010153162556147532 0.012181814771532544 0 0.00088642017819745632 0.012427702489587763 0 0.00077395406267704876 0.012022875734114372 0 0.0010580678578945184 0.012943814786422318 0 0.0011257836478969477 0.012497287501355998 0 0.00088642017819745632 0.012427702489587763 0 0.00075788331586869469 0.012684905316434082 0 0.00088642017819745632 0.012427702489587763 0 0.00060291631608242282 0.012292616237823186 0 0.00088642017819745632 0.012427702489587763 0 0.00077395406267704876 0.012022875734114372 0 0.00060291631608242282 0.012292616237823186 0 0.0010153162556147532 0.012181814771532544 0 0.00077395406267704876 0.012022875734114372 0 0.0010175875588185556 0.011853563016753501 0 0.00077395406267704876 0.012022875734114372 0 0.0010175875588185556 0.011853563016753501 0 0.00064857730208006843 0.011658448851379486 0 0.0010153162556147532 0.012181814771532544 0 0.0010175875588185556 0.011853563016753501 0 0.0013269284265324498 0.012191485620795499 0 0.0010175875588185556 0.011853563016753501 0 0.0013269284265324498 0.012191485620795499 0 0.0012856635157460726 0.011736615518991449 0 0.001611032908511376 0.011775969207235433 0 0.0013269284265324498 0.012191485620795499 0 0.0012856635157460726 0.011736615518991449 0 0.0019483481294728421 0.011231689678706309 0 0.001611032908511376 0.011775969207235433 0 0.0013034170219815408 0.011418619920291789 0 0.001611032908511376 0.011775969207235433 0 0.0012856635157460726 0.011736615518991449 0 0.0013034170219815408 0.011418619920291789 0 0.0010175875588185556 0.011853563016753501 0 0.0012856635157460726 0.011736615518991449 0 0.00098416185741375707 0.011578281319523317 0 0.0012856635157460726 0.011736615518991449 0 0.0013034170219815408 0.011418619920291789 0 0.00098416185741375707 0.011578281319523317 0 0.00071793641803830554 0.011296049005358112 0 0.00098416185741375707 0.011578281319523317 0 0.00064857730208006843 0.011658448851379486 0 0.00071793641803830554 0.011296049005358112 0 0.0013034170219815408 0.011418619920291789 0 0.00098416185741375707 0.011578281319523317 0 0.0010175875588185556 0.011853563016753501 0 0.00098416185741375707 0.011578281319523317 0 0.00064857730208006843 0.011658448851379486 0 0.00071793641803830554 0.011296049005358112 0 0.00064857730208006843 0.011658448851379486 0 0.00039605383021433136 0.011471997070486449 0 0.00064857730208006843 0.011658448851379486 0 0.00038318403450446971 0.011695351520027613 0 0.00039605383021433136 0.011471997070486449 0 0.00077395406267704876 0.012022875734114372 0 0.00064857730208006843 0.011658448851379486 0 0.00049983711632887345 0.011885606547944037 0 0.00064857730208006843 0.011658448851379486 0 0.00049983711632887345 0.011885606547944037 0 0.00038318403450446971 0.011695351520027613 0 0.00049983711632887345 0.011885606547944037 0 0.00025470002208127736 0.011771156227050208 0 0.00042676232984419744 0.012052973404605398 0 0.00049983711632887345 0.011885606547944037 0 0.00025470002208127736 0.011771156227050208 0 0.00038318403450446971 0.011695351520027613 0 0.00038318403450446971 0.011695351520027613 0 0.00026930551022271896 0.011697486544620668 0 0.00022204878276762318 0.011655160279657545 0 0.00025470002208127736 0.011771156227050208 0 0.00026930551022271896 0.011697486544620668 0 8.0487663410290451e-05 0.011662994352794595 0 0.00025470002208127736 0.011771156227050208 0 0.00038318403450446971 0.011695351520027613 0 0.00026930551022271896 0.011697486544620668 0 0.00038318403450446971 0.011695351520027613 0 0.00039605383021433136 0.011471997070486449 0 0.00022204878276762318 0.011655160279657545 0 0.0016816658442131065 0.01347065988419565 0 0.00037606781965970166 0.012603631769826517 0 0.0012033074151842186 0.01204777591047349 0 0.0016816658442131065 0.01347065988419565 0 0.0012033074151842186 0.01204777591047349 0 0.0036898953797653562 0.012743416935822397 0 0.0012033074151842186 0.01204777591047349 0 0.0011113959546418361 0.011153060253304562 0 0.0022782333844278174 0.011225331525797466 0 0.0012033074151842186 0.01204777591047349 0 0.00055792264484365675 0.011554296987799126 0 0.0011113959546418361 0.011153060253304562 0 0.00037606781965970166 0.012603631769826517 0 0.0012033074151842186 0.01204777591047349 0 0.00055792264484365675 0.011554296987799126 0 3.5754902281500325e-05 0.012587796953363711 0 0.00058535510164450918 0.011375904001273819 0 0.00026930551022271896 0.011697486544620668 0 0.00022204878276762318 0.011655160279657545 0 0.00055792264484365675 0.011554296987799126 0 0.00026930551022271896 0.011697486544620668 0 0.00055792264484365675 0.011554296987799126 0 8.0487663410290451e-05 0.011662994352794595 0 0.00055792264484365675 0.011554296987799126 0 0.00061049381928554244 0.01122694487220172 0 8.0487663410290451e-05 0.011662994352794595 0 0.0022039883878439623 0.013192468657603174 0 -0.00036052944092002185 0.01123055810309535 0 0.00055792264484365675 0.011554296987799126 0 0.00061049381928554244 0.01122694487220172 0 0.0011113959546418361 0.011153060253304562 0 0.00061049381928554244 0.01122694487220172 0 0.0011113959546418361 0.011153060253304562 0 0.00081661671132891389 0.010396159522541647 0 0.00061049381928554244 0.01122694487220172 0 0.00081661671132891389 0.010396159522541647 0 8.0487663410290451e-05 0.011662994352794595 0 0.0011113959546418361 0.011153060253304562 0 0.0015011884431827003 0.010968166063830394 0 0.0009811438641728848 0.010312895325651822 0 0.0011113959546418361 0.011153060253304562 0 0.0015011884431827003 0.010968166063830394 0 0.0022782333844278174 0.011225331525797466 0 0.0012542156139141922 0.0099916046848031285 0 0.0022024547532003415 0.011251577378816418 0 0.0012542156139141922 0.0099916046848031285 0 0.0017994935020494243 0.010554592509813882 0 0.0037611486884605526 0.01309442115748013 0 0.0037482830110940495 0.013075309216301545 0 0.0039589786951184777 0.013019162943550105 0 0.0020757125966901217 0.0082114771913008415 0 0.00024969788667469867 0.0079181659465827926 0 0.003018441916435171 0.0066519748177845213 0 0.0017994935020494243 0.010554592509813882 0 0.0034395234139380495 0.0096566021170957275 0 0.0012270314830724336 0.0094916706319050602 0 0.0020757125966901217 0.0082114771913008415 0 0.00024969788667469867 0.0079181659465827926 0 0.0011113959546418361 0.011153060253304562 0 0.0009811438641728848 0.010312895325651822 0 0.00081661671132891389 0.010396159522541647 0 0.00081661671132891389 0.010396159522541647 0 0.00086163913346850381 0.010049922119255096 0 8.0487663410290451e-05 0.011662994352794595 0 -0.00081520806884924075 0.012777917532081701 0 1.632299871033873e-05 0.012647249921901305 0 -5.9125807850675021e-05 0.012317363267433672 0 -0.00081520806884924075 0.012777917532081701 0 -5.9125807850675021e-05 0.012317363267433672 0 8.0487663410290451e-05 0.011662994352794595 0 0.0010349430885697871 0.010282109012065135 0 0.00081661671132891389 0.010396159522541647 0 0.00086163913346850381 0.010049922119255096 0 0.0017994935020494243 0.010554592509813882 0 0.0015281810248373314 0.010613624716745849 0 0.0017994935020494243 0.010554592509813882 0 0.0022039883878439623 0.013192468657603174 0 -0.00081520806884924075 0.012777917532081701 0 1.632299871033873e-05 0.012647249921901305 0 3.4171994673069499e-06 0.013143730632854934 0 1.632299871033873e-05 0.012647249921901305 0 -5.9125807850675021e-05 0.012317363267433672 0 0.00031043130266633547 0.012243535169361421 0 1.632299871033873e-05 0.012647249921901305 0 0.00031206096739939536 0.012853766954214457 0 0.00031043130266633547 0.012243535169361421 0 1.632299871033873e-05 0.012647249921901305 0 0.00031206096739939536 0.012853766954214457 0 3.4171994673069499e-06 0.013143730632854934 0 0.00031206096739939536 0.012853766954214457 0 0.00055819244000361416 0.012700260324613915 0 0.00059620448677929019 0.013197591720753877 0 0.00080062792429602767 0.013031101706118379 0 0.00055819244000361416 0.012700260324613915 0 0.00059620448677929019 0.013197591720753877 0 0.00075788331586869469 0.012684905316434082 0 0.00055819244000361416 0.012700260324613915 0 0.00060291631608242282 0.012292616237823186 0 0.00075788331586869469 0.012684905316434082 0 0.00080062792429602767 0.013031101706118379 0 0.00055819244000361416 0.012700260324613915 0 0.00031206096739939536 0.012853766954214457 0 0.00055819244000361416 0.012700260324613915 0 0.00031043130266633547 0.012243535169361421 0 0.00060291631608242282 0.012292616237823186 0 0.00042676232984419744 0.012052973404605398 0 0.00031043130266633547 0.012243535169361421 0 0.00055819244000361416 0.012700260324613915 0 0.00060291631608242282 0.012292616237823186 0 0.00031043130266633547 0.012243535169361421 0 0.00077395406267704876 0.012022875734114372 0 0.00049983711632887345 0.011885606547944037 0 0.00060291631608242282 0.012292616237823186 0 0.00049983711632887345 0.011885606547944037 0 0.00060291631608242282 0.012292616237823186 0 0.00042676232984419744 0.012052973404605398 0 0.00025470002208127736 0.011771156227050208 0 8.0487663410290451e-05 0.011662994352794595 0 0.00031043130266633547 0.012243535169361421 0 0.00025470002208127736 0.011771156227050208 0 0.00042676232984419744 0.012052973404605398 0 0.00031043130266633547 0.012243535169361421 0 -5.9125807850675021e-05 0.012317363267433672 0 8.0487663410290451e-05 0.011662994352794595 0 0.00031043130266633547 0.012243535169361421 0 0.0085310557171636905 0.0093449829521301316 0 0.0071937164934272272 0.0097862849379979806 0 0.0063608754853278016 0.011401438257107623 0 0.0083884536152936343 0.009444498430054616 0 0.0073283385144914098 0.0099914851457805522 0 0.0085310557171636905 0.0093449829521301316 0 0.0085036709024236979 0.0088316050946818086 0 0.0084149234381173457 0.0086008420205177516 0 0.0085310557171636905 0.0093449829521301316 0 0.0071937164934272272 0.0097862849379979806 0 0.0080142488437466401 0.0092617493345184612 0 0.0085310557171636905 0.0093449829521301316 0 0.0085506543071960182 0.0090002687604732526 0 0.0085036709024236979 0.0088316050946818086 0 0.0086229446634870002 0.0089174739928575639 0 0.0085506543071960182 0.0090002687604732526 0 0.0085292576007999898 0.0088155770897834461 0 0.0085506543071960182 0.0090002687604732526 0 0.0085292576007999898 0.0088155770897834461 0 0.0085036709024236979 0.0088316050946818086 0 0.0085202261721631194 0.0087633652838906059 0 0.0086229446634870002 0.0089174739928575639 0 0.0085292576007999898 0.0088155770897834461 0 0.0085292576007999898 0.0088155770897834461 0 0.0085036709024236979 0.0088316050946818086 0 0.0084112409682794535 0.0086509405563621293 0 0.0085202261721631194 0.0087633652838906059 0 0.0085292576007999898 0.0088155770897834461 0 0.0084112409682794535 0.0086509405563621293 0 0.0085036709024236979 0.0088316050946818086 0 0.0084112409682794535 0.0086509405563621293 0 0.0084149234381173457 0.0086008420205177516 0 0.0084112409682794535 0.0086509405563621293 0 0.0084149234381173457 0.0086008420205177516 0 0.0081886150902224994 0.008463027240909117 0 0.0071937164934272272 0.0097862849379979806 0 0.0063608754853278016 0.011401438257107623 0 0.0057891840158648799 0.0089166262475554609 0 0.0063608754853278016 0.011401438257107623 0 0.0043381892415176228 0.010674217562476081 0 0.0057891840158648799 0.0089166262475554609 0 0.0063608754853278016 0.011401438257107623 0 0.0043381892415176228 0.010674217562476081 0 0.0036898953797653562 0.012743416935822397 0 0.0079247411750874158 0.0083215818556384713 0 0.0081886150902224994 0.008463027240909117 0 0.0079294928857412371 0.0082496418511143754 0 0.0084149234381173457 0.0086008420205177516 0 0.0081886150902224994 0.008463027240909117 0 0.0079294928857412371 0.0082496418511143754 0 0.0073283385144914098 0.0099914851457805522 0 0.0057762020442750153 0.010500988089368102 0 0.0047387393414331912 0.010813861193880132 0 0.0057762020442750153 0.010500988089368102 0 0.0043381892415176228 0.010674217562476081 0 0.0036898953797653562 0.012743416935822397 0 0.0022782333844278174 0.011225331525797466 0 0.0012033074151842186 0.01204777591047349 0 0.0036898953797653562 0.012743416935822397 0 0.0022782333844278174 0.011225331525797466 0 0.0043381892415176228 0.010674217562476081 0 0.0022782333844278174 0.011225331525797466 0 0.0035652008761587503 0.0090107744238113897 0 0.0012270314830724336 0.0094916706319050602 0 0.0022782333844278174 0.011225331525797466 0 0.0035652008761587503 0.0090107744238113897 0 0.0012270314830724336 0.0094916706319050602 0 0.0020757125966901217 0.0082114771913008415 0 0.0035652008761587503 0.0090107744238113897 0 0.0020757125966901217 0.0082114771913008415 0 0.0035652008761587503 0.0090107744238113897 0 0.003018441916435171 0.0066519748177845213 0 0.0035652008761587503 0.0090107744238113897 0 0.0053204833367271123 0.0073814171876447291 0 0.0057891840158648799 0.0089166262475554609 0 0.0035652008761587503 0.0090107744238113897 0 0.0053204833367271123 0.0073814171876447291 0 0.003018441916435171 0.0066519748177845213 0 0.0043381892415176228 0.010674217562476081 0 0.0035652008761587503 0.0090107744238113897 0 0.0057891840158648799 0.0089166262475554609 0 0.0071937164934272272 0.0097862849379979806 0 0.0070557670765135291 0.008533430271741093 0 0.0057891840158648799 0.0089166262475554609 0 0.0053204833367271123 0.0073814171876447291 0 0.0057891840158648799 0.0089166262475554609 0 0.0069215286760780604 0.0076288695929133824 0 0.0053204833367271123 0.0073814171876447291 0 0.0069215286760780604 0.0076288695929133824 0 0.0068076464599421491 0.0065989012204665329 0 0.0070557670765135291 0.008533430271741093 0 0.0069215286760780604 0.0076288695929133824 0 0.0073898949409184587 0.0080521551643310228 0 0.0070557670765135291 0.008533430271741093 0 0.0057891840158648799 0.0089166262475554609 0 0.0069215286760780604 0.0076288695929133824 0 0.0069215286760780604 0.0076288695929133824 0 0.0073898949409184587 0.0080521551643310228 0 0.0078880091087912066 0.0077834136355452929 0 0.0088728977580474558 0.0090237285248795512 0 0.0077836467960215967 0.0075984600911884375 0 0.0078880091087912066 0.0077834136355452929 0 0.0070557670765135291 0.008533430271741093 0 0.0073898949409184587 0.0080521551643310228 0 0.0076797173534124677 0.0085096718128971124 0 0.007759177219085792 0.008193867191434322 0 0.0073898949409184587 0.0080521551643310228 0 0.0076797173534124677 0.0085096718128971124 0 0.007759177219085792 0.008193867191434322 0 0.0073898949409184587 0.0080521551643310228 0 0.0078880091087912066 0.0077834136355452929 0 0.0078529957246163216 0.0077349237464387583 0 0.0066190273535121419 0.0067169425513378504 0 0.0069215286760780604 0.0076288695929133824 0 0.0078880091087912066 0.0077834136355452929 0 0.0068076464599421491 0.0065989012204665329 0 0.0077836467960215967 0.0075984600911884375 0 0.0078880091087912066 0.0077834136355452929 0 0.0072239361919167961 0.0071787900298372854 0 0.007759177219085792 0.008193867191434322 0 0.0078880091087912066 0.0077834136355452929 0 0.0080995953543536899 0.0084765052556986537 0 0.007759177219085792 0.008193867191434322 0 0.0080995953543536899 0.0084765052556986537 0 0.0076797173534124677 0.0085096718128971124 0 0.0088728977580474558 0.0090237285248795512 0 0.0078880091087912066 0.0077834136355452929 0 0.0080995953543536899 0.0084765052556986537 0 0.0081741886798234811 0.0088801839392518202 0 0.0076797173534124677 0.0085096718128971124 0 0.0076539574400025226 0.0089908238909969414 0 0.0081741886798234811 0.0088801839392518202 0 0.0080995953543536899 0.0084765052556986537 0 0.0076797173534124677 0.0085096718128971124 0 0.0070557670765135291 0.008533430271741093 0 0.0076797173534124677 0.0085096718128971124 0 0.0076539574400025226 0.0089908238909969414 0 0.0071937164934272272 0.0097862849379979806 0 0.0070557670765135291 0.008533430271741093 0 0.0076539574400025226 0.0089908238909969414 0 0.0071937164934272272 0.0097862849379979806 0 0.0076539574400025226 0.0089908238909969414 0 0.0080142488437466401 0.0092617493345184612 0 0.0084923582686213511 0.0092242075947267729 0 0.0085310557171636905 0.0093449829521301316 0 0.0080142488437466401 0.0092617493345184612 0 0.0084923582686213511 0.0092242075947267729 0 0.0081741886798234811 0.0088801839392518202 0 0.0080142488437466401 0.0092617493345184612 0 0.0081741886798234811 0.0088801839392518202 0 0.0076539574400025226 0.0089908238909969414 0 0.0080142488437466401 0.0092617493345184612 0 0.0077701577361702252 0.010766603462449727 0 0.0080482206261900113 0.010481468816986276 0 0.0079965728445141639 0.010913156681639705 0 0.0080482206261900113 0.010481468816986276 0 0.0079965728445141639 0.010913156681639705 0 0.0082877202208771449 0.01076459184490826 0 0.0079478568719150659 0.0086561302984121246 0 0.0063820298417268887 0.011579168929026145 0 0.0053204833367271123 0.0073814171876447291 0 0.0068076464599421491 0.0065989012204665329 0 0.0056420702488276355 0.0054907302235840507 0 0.0077836467960215967 0.0075984600911884375 0 0.0072239361919167961 0.0071787900298372854 0 0.0066405945776841771 0.0065795936110467548 0 0.0072239361919167961 0.0071787900298372854 0 0.0066405945776841771 0.0065795936110467548 0 0.0065521636513327288 0.0066232485101670674 0 0.0066190273535121419 0.0067169425513378504 0 0.0055621599768372557 0.010589522422194362 0 0.0063820298417268887 0.011579168929026145 0 0.0055621599768372557 0.010589522422194362 0 0.0077481549418826345 0.0147562049279211 0 0.0063820298417268887 0.011579168929026145 0 0.0071772965323148316 0.01799133643033261 0 0.0069530230579510754 0.018029127813841504 0 0.0069890030979808011 0.017932255244166473 0 0.0055621599768372557 0.010589522422194362 0 0.0047107374625277258 0.016376148189923601 0 0.0041158287499337663 0.012942020250065927 0 0.0039864830065003678 0.012939906799779518 0 0.0039863910936491576 0.012868118192469765 0 0.0046307341973569295 0.013306438309722241 0 0.0055967103265583485 0.014590306889911631 0 0.0068932444837155309 0.015569975318484244 0 0.0069530230579510754 0.018029127813841504 0 0.0069890030979808011 0.017932255244166473 0 0.0068659090213488974 0.017957673453517994 0 0.0066067005799062117 0.016513056443522175 0 0.005515053837587729 0.017356986173308185 0 0.0063820298417268887 0.011579168929026145 0 0.0066067005799062117 0.016513056443522175 0 0.004464838138278718 0.013383655832100052 0 0.0046307341973569295 0.013306438309722241 0 0.0055967103265583485 0.014590306889911631 0 0.0053204833367271123 0.0073814171876447291 0 0.0056420702488276355 0.0054907302235840507 0 0.003018441916435171 0.0066519748177845213 0 0.0055621599768372557 0.010589522422194362 0 0.0034395234139380495 0.0096566021170957275 0 0.0041158287499337663 0.012942020250065927 0 0.0039589786951184777 0.013019162943550105 0 0.0039864830065003678 0.012939906799779518 0 0.0039589786951184777 0.013019162943550105 0 0.0039864830065003678 0.012939906799779518 0 0.0038811280832006059 0.012957633133833578 0 0.0047107374625277258 0.016376148189923601 0 0.0039653121615403492 0.015212734627283181 0 0.0039864830065003678 0.012939906799779518 0 0.0039863910936491576 0.012868118192469765 0 0.0038811280832006059 0.012957633133833578 0 0.0037977498881843407 0.017490463839791793 0 0.0038813865035749752 0.017318151756105557 0 0.0039115172477185035 0.017517491402055663 0 0.0039590204790639991 0.017580872724647541 0 0.0039705591605637787 0.01762038853807861 0 0.003957813048453049 0.017623163351824275 0 0.0037977498881843407 0.017490463839791793 0 0.0039115172477185035 0.017517491402055663 0 0.0039705591605637787 0.01762038853807861 0 0.0047107374625277258 0.016376148189923601 0 0.003848610154031761 0.017842478780521181 0 0.0039590204790639991 0.017580872724647541 0 0.0039575816309189047 0.017584478651468598 0 0.003957813048453049 0.017623163351824275 0 0.0055967103265583485 0.014590306889911631 0 0.0068932444837155309 0.015569975318484244 0 0.0067287605706971322 0.015795193256749225 0 0.0047107374625277258 0.016376148189923601 0 0.005515053837587729 0.017356986173308185 0 0.005515053837587729 0.017356986173308185 0 0.0046919770649753532 0.018155667310456047 0 0.0058921302784463213 0.018987832130303934 0 0.0056719786959975264 0.018436203638295109 0 0.0054316088575542074 0.018546127653332127 0 0.0057297571420152488 0.018208120537957041 0 0.0059257866285034625 0.01850364950125764 0 0.0063925307759763496 0.018316904086187528 0 0.0058921302784463213 0.018987832130303934 0 0.0056719786959975264 0.018436203638295109 0 0.0059257866285034625 0.01850364950125764 0 0.0056719786959975264 0.018436203638295109 0 0.0057297571420152488 0.018208120537957041 0 0.0054220096014592836 0.018258804761484431 0 0.0056719786959975264 0.018436203638295109 0 0.0057297571420152488 0.018208120537957041 0 0.0059257866285034625 0.01850364950125764 0 0.0058921302784463213 0.018987832130303934 0 0.0059257866285034625 0.01850364950125764 0 0.0063925307759763496 0.018316904086187528 0 0.005515053837587729 0.017356986173308185 0 0.0067108085542743308 0.018173315289488984 0 0.0067790130558434188 0.017879643590594234 0 0.0068906259397181801 0.017729414692803407 0 0.0069103893990492262 0.017858746140123748 0 0.0068659090213488974 0.017957673453517994 0 0.0067790130558434188 0.017879643590594234 0 0.0069103893990492262 0.017858746140123748 0 0.0069890030979808011 0.017932255244166473 0 0.0068659090213488974 0.017957673453517994 0 0.0069103893990492262 0.017858746140123748 0 0.0072711725941707944 0.017724811151624043 0 0.0071772965323148316 0.01799133643033261 0 0.0070459615673250627 0.017804012932041303 0 0.0071772965323148316 0.01799133643033261 0 0.0069890030979808011 0.017932255244166473 0 0.0070459615673250627 0.017804012932041303 0 0.0069890030979808011 0.017932255244166473 0 0.0069103893990492262 0.017858746140123748 0 0.0070459615673250627 0.017804012932041303 0 0.0068906259397181801 0.017729414692803407 0 0.0070459615673250627 0.017804012932041303 0 0.0069185464257552447 0.017580151052022677 0 0.0068906259397181801 0.017729414692803407 0 0.0069103893990492262 0.017858746140123748 0 0.0070459615673250627 0.017804012932041303 0 0.0072711725941707944 0.017724811151624043 0 0.0070459615673250627 0.017804012932041303 0 0.0069185464257552447 0.017580151052022677 0 0.0040911555888447203 0.017488893964639284 0 0.0041018107222293891 0.017317714590868984 0 0.0041218707222406082 0.017549872039494797 0 0.00011048341700608311 0.013709401602530945 0 -0.00026761583192866069 0.013561764247097517 0 0.00013541206605390522 0.014280679779012579 0 0.0019178165811294578 0.015685222144453784 0 0.0021760983470047479 0.015941990745909847 0 0.00011048341700608311 0.013709401602530945 0 0.00028336913786503054 0.014080954374796584 0 0.00013541206605390522 0.014280679779012579 0 0.00028336913786503054 0.014080954374796584 0 0.00056989068572690113 0.014019424056667826 0 0.00038899462238586223 0.01390200157984864 0 0.00070540779156115204 0.014379359134186006 0 0.00028336913786503054 0.014080954374796584 0 0.00056989068572690113 0.014019424056667826 0 0.000696442144825461 0.013789864760667086 0 0.00056989068572690113 0.014019424056667826 0 0.00047020120558458067 0.01369891365368321 0 0.000696442144825461 0.013789864760667086 0 0.00047020120558458067 0.01369891365368321 0 0.00058710682830167876 0.013489388800091824 0 0.00056989068572690113 0.014019424056667826 0 0.00047020120558458067 0.01369891365368321 0 0.00038899462238586223 0.01390200157984864 0 0.00011048341700608311 0.013709401602530945 0 0.00047020120558458067 0.01369891365368321 0 0.00038899462238586223 0.01390200157984864 0 0.00011048341700608311 0.013709401602530945 0 0.00028336913786503054 0.014080954374796584 0 0.00038899462238586223 0.01390200157984864 0 0.00011048341700608311 0.013709401602530945 0 0.00047020120558458067 0.01369891365368321 0 0.00035135855462020671 0.013323359453295859 0 0.00047020120558458067 0.01369891365368321 0 0.00058710682830167876 0.013489388800091824 0 0.00035135855462020671 0.013323359453295859 0 0.00077520823628641925 0.013504632738208882 0 0.000696442144825461 0.013789864760667086 0 0.00058710682830167876 0.013489388800091824 0 0.00077520823628641925 0.013504632738208882 0 0.00058710682830167876 0.013489388800091824 0 0.00059620448677929019 0.013197591720753877 0 0.00058710682830167876 0.013489388800091824 0 0.00059620448677929019 0.013197591720753877 0 0.00035135855462020671 0.013323359453295859 0 0.00031206096739939536 0.012853766954214457 0 0.00059620448677929019 0.013197591720753877 0 0.00035135855462020671 0.013323359453295859 0 0.00031206096739939536 0.012853766954214457 0 0.00035135855462020671 0.013323359453295859 0 3.4171994673069499e-06 0.013143730632854934 0 0.00011048341700608311 0.013709401602530945 0 0.00035135855462020671 0.013323359453295859 0 3.4171994673069499e-06 0.013143730632854934 0 0.00011048341700608311 0.013709401602530945 0 -0.00026761583192866069 0.013561764247097517 0 3.4171994673069499e-06 0.013143730632854934 0 -0.00081520806884924075 0.012777917532081701 0 -0.00026761583192866069 0.013561764247097517 0 3.4171994673069499e-06 0.013143730632854934 0 0.0039818238547578693 0.017081113736337673 0 0.0041018107222293891 0.017317714590868984 0 0.0039908372574986497 0.017274501455205635 0 0.0022039883878439623 0.013192468657603174 0 0.0019178165811294578 0.015685222144453784 0 0.0041018107222293891 0.017317714590868984 0 0.0039908372574986497 0.017274501455205635 0 0.0040027141511840107 0.017377884382687711 0 0.0022039883878439623 0.013192468657603174 0 0.0039653121615403492 0.015212734627283181 0 0.0037482830110940495 0.013075309216301545 0 0.0039589786951184777 0.013019162943550105 0 0.0038811280832006059 0.012957633133833578 0 0.0039818238547578693 0.017081113736337673 0 0.0039908372574986497 0.017274501455205635 0 0.0038813865035749752 0.017318151756105557 0 0.0039908372574986497 0.017274501455205635 0 0.0038813865035749752 0.017318151756105557 0 0.0040027141511840107 0.017377884382687711 0 0.0038813865035749752 0.017318151756105557 0 0.0039115172477185035 0.017517491402055663 0 0.0039901557488174538 0.017495138937853628 0 0.0038813865035749752 0.017318151756105557 0 0.0040027141511840107 0.017377884382687711 0 0.0039901557488174538 0.017495138937853628 0 0.0040911555888447203 0.017488893964639284 0 0.0041018107222293891 0.017317714590868984 0 0.0040574562414991255 0.017488792455518119 0 0.0041018107222293891 0.017317714590868984 0 0.0040027141511840107 0.017377884382687711 0 0.0040574562414991255 0.017488792455518119 0 0.0040027141511840107 0.017377884382687711 0 0.0040574562414991255 0.017488792455518119 0 0.0039901557488174538 0.017495138937853628 0 0.0040574562414991255 0.017488792455518119 0 0.0040488363736576414 0.017552535499758267 0 0.004087055463162825 0.017576143021313897 0 0.0040488363736576414 0.017552535499758267 0 0.0040243648420968548 0.017580226158605234 0 0.0039901557488174538 0.017495138937853628 0 0.0040574562414991255 0.017488792455518119 0 0.0040488363736576414 0.017552535499758267 0 0.0039901557488174538 0.017495138937853628 0 0.0040488363736576414 0.017552535499758267 0 0.0040243648420968548 0.017580226158605234 0 0.0040760059589472443 0.017609439085942598 0 0.0040488363736576414 0.017552535499758267 0 0.0040760059589472443 0.017609439085942598 0 0.004087055463162825 0.017576143021313897 0 0.0039115172477185035 0.017517491402055663 0 0.0039901557488174538 0.017495138937853628 0 0.0039762401479194473 0.017563317382700724 0 0.0040243648420968548 0.017580226158605234 0 0.0039901557488174538 0.017495138937853628 0 0.0039762401479194473 0.017563317382700724 0 0.0039762401479194473 0.017563317382700724 0 0.0039705591605637787 0.01762038853807861 0 0.0040054962573884039 0.017599620175037939 0 0.0040243648420968548 0.017580226158605234 0 0.0039762401479194473 0.017563317382700724 0 0.0040054962573884039 0.017599620175037939 0 0.0039115172477185035 0.017517491402055663 0 0.0039762401479194473 0.017563317382700724 0 0.0039705591605637787 0.01762038853807861 0 0.0040243648420968548 0.017580226158605234 0 0.0040054962573884039 0.017599620175037939 0 0.0040502359901260958 0.01763212036009058 0 0.0039705591605637787 0.01762038853807861 0 0.0040054962573884039 0.017599620175037939 0 0.0040502359901260958 0.01763212036009058 0 0.0039705591605637787 0.01762038853807861 0 0.003957813048453049 0.017623163351824275 0 0.0040904410422888358 0.017670926966119209 0 0.0046919770649753532 0.018155667310456047 0 0.0044980062006253867 0.017865020045683053 0 0.0039705591605637787 0.01762038853807861 0 0.0040502359901260958 0.01763212036009058 0 0.0040904410422888358 0.017670926966119209 0 0.0056719786959975264 0.018436203638295109 0 0.0054316088575542074 0.018546127653332127 0 0.0054220096014592836 0.018258804761484431 0 0.0054316088575542074 0.018546127653332127 0 0.0054220096014592836 0.018258804761484431 0 0.0049295538373479346 0.018127324485379188 0 0.0041010417461109939 0.017641988894135974 0 0.004154723665091827 0.01765968299999501 0 0.0040904410422888358 0.017670926966119209 0 0.0040760059589472443 0.017609439085942598 0 0.0041010417461109939 0.017641988894135974 0 0.0040827138228375906 0.017652532055629555 0 0.0040760059589472443 0.017609439085942598 0 0.0040502359901260958 0.01763212036009058 0 0.0041010417461109939 0.017641988894135974 0 0.0040243648420968548 0.017580226158605234 0 0.0040760059589472443 0.017609439085942598 0 0.0040502359901260958 0.01763212036009058 0 0.0040502359901260958 0.01763212036009058 0 0.0041010417461109939 0.017641988894135974 0 0.0040904410422888358 0.017670926966119209 0 0.0041010417461109939 0.017641988894135974 0 0.0040827138228375906 0.017652532055629555 0 0.004154723665091827 0.01765968299999501 0 0.0040260885918569746 0.017667315939884735 0 0.0040827138228375906 0.017652532055629555 0 0.004154723665091827 0.01765968299999501 0 0.0040827138228375906 0.017652532055629555 0 0.0041218707222406082 0.017549872039494797 0 0.0039931724264481439 0.01769961693594424 0 0.0040827138228375906 0.017652532055629555 0 0.004087055463162825 0.017576143021313897 0 0.0041218707222406082 0.017549872039494797 0 0.0040760059589472443 0.017609439085942598 0 0.0040827138228375906 0.017652532055629555 0 0.004087055463162825 0.017576143021313897 0 0.0040911555888447203 0.017488893964639284 0 0.0040574562414991255 0.017488792455518119 0 0.004087055463162825 0.017576143021313897 0 0.0040911555888447203 0.017488893964639284 0 0.004087055463162825 0.017576143021313897 0 0.0041218707222406082 0.017549872039494797 0 0.00070540779156115204 0.014379359134186006 0 0.00028336913786503054 0.014080954374796584 0 0.00051899878719163578 0.014736887572983822 0 0.0021760983470047479 0.015941990745909847 0 0.0020025002312390973 0.016169708305534134 0 0.00028336913786503054 0.014080954374796584 0 0.00013541206605390522 0.014280679779012579 0 0.00081576998543706413 0.01526707688650795 0 -8.6438835470717079e-05 0.013590564426946937 0 0.0020025002312390973 0.016169708305534134 0 0.0040260885918569746 0.017667315939884735 0 0.0039931724264481439 0.01769961693594424 0 0.0038886530522198545 0.017633843037774141 0 0.0040260885918569746 0.017667315939884735 0 0.0040827138228375906 0.017652532055629555 0 0.0039931724264481439 0.01769961693594424 0 0.0020025002312390973 0.016169708305534134 0 0.0034216890350764616 0.017614449472971309 0 0.0039931724264481439 0.01769961693594424 0 0.0038886530522198545 0.017633843037774141 0 0.0036462605465742834 0.017612529032849891 0 0.0040260885918569746 0.017667315939884735 0 0.0038886530522198545 0.017633843037774141 0 0.004017412162887965 0.017577757186060965 0 0.0038886530522198545 0.017633843037774141 0 0.0037920944696327348 0.017494843962219387 0 0.004017412162887965 0.017577757186060965 0 0.0038886530522198545 0.017633843037774141 0 0.0037920944696327348 0.017494843962219387 0 0.0036462605465742834 0.017612529032849891 0 0.0037920944696327348 0.017494843962219387 0 0.0038574195823888793 0.017256102524539327 0 0.003596019189840502 0.01730648302597125 0 0.0037920944696327348 0.017494843962219387 0 0.003596019189840502 0.01730648302597125 0 0.0036462605465742834 0.017612529032849891 0 0.0037920944696327348 0.017494843962219387 0 0.0038574195823888793 0.017256102524539327 0 0.004017412162887965 0.017577757186060965 0 0.0038574195823888793 0.017256102524539327 0 0.003596019189840502 0.01730648302597125 0 0.0035760705779854267 0.016950427015422674 0 0.0042598958623438878 0.017200694328152251 0 0.0043246634576793053 0.017587977701432202 0 0.004017412162887965 0.017577757186060965 0 0.0038574195823888793 0.017256102524539327 0 0.0042598958623438878 0.017200694328152251 0 0.004017412162887965 0.017577757186060965 0 0.0043246634576793053 0.017587977701432202 0 0.004017412162887965 0.017577757186060965 0 0.004154723665091827 0.01765968299999501 0 0.0040260885918569746 0.017667315939884735 0 0.004017412162887965 0.017577757186060965 0 0.004154723665091827 0.01765968299999501 0 0.0043246634576793053 0.017587977701432202 0 0.0049295538373479346 0.018127324485379188 0 0.0051617654238765931 0.017598548785515592 0 0.0043246634576793053 0.017587977701432202 0 0.004154723665091827 0.01765968299999501 0 0.0040904410422888358 0.017670926966119209 0 0.0043199336100808901 0.01761917592742317 0 0.0044980062006253867 0.017865020045683053 0 0.0053278503105612897 0.01797480262908515 0 0.0051617654238765931 0.017598548785515592 0 0.005755512991513648 0.017751253613119446 0 0.0057297571420152488 0.018208120537957041 0 0.0054220096014592836 0.018258804761484431 0 0.0053278503105612897 0.01797480262908515 0 0.0054220096014592836 0.018258804761484431 0 0.0049295538373479346 0.018127324485379188 0 0.0053278503105612897 0.01797480262908515 0 0.0049295538373479346 0.018127324485379188 0 0.0053278503105612897 0.01797480262908515 0 0.0051617654238765931 0.017598548785515592 0 0.0051617654238765931 0.017598548785515592 0 0.0048421921632185319 0.016964110732179377 0 0.0055646604756718577 0.017284525999274949 0 0.0051617654238765931 0.017598548785515592 0 0.005755512991513648 0.017751253613119446 0 0.0055646604756718577 0.017284525999274949 0 0.0043246634576793053 0.017587977701432202 0 0.0051617654238765931 0.017598548785515592 0 0.0048421921632185319 0.016964110732179377 0 0.0042598958623438878 0.017200694328152251 0 0.0043246634576793053 0.017587977701432202 0 0.0048421921632185319 0.016964110732179377 0 0.0048421921632185319 0.016964110732179377 0 0.0055646604756718577 0.017284525999274949 0 0.005714750313146685 0.016866401074403008 0 0.0048421921632185319 0.016964110732179377 0 0.0052842802803196465 0.016530139551080222 0 0.005714750313146685 0.016866401074403008 0 0.0048421921632185319 0.016964110732179377 0 0.0052842802803196465 0.016530139551080222 0 0.0046121255849449526 0.016554163700554386 0 0.0048200132869178191 0.016937187757991551 0 0.0044258008949674939 0.01640557808201764 0 0.0042365663160073832 0.016225182308334456 0 0.0035460891203291456 0.016537004485528601 0 0.0040698577794683992 0.016769109480708078 0 0.0048421921632185319 0.016964110732179377 0 0.0042365663160073832 0.016225182308334456 0 0.0040698577794683992 0.016769109480708078 0 0.0042365663160073832 0.016225182308334456 0 0.0035460891203291456 0.016537004485528601 0 0.0035954293433880773 0.016073537460261057 0 0.0035460891203291456 0.016537004485528601 0 0.0035954293433880773 0.016073537460261057 0 0.0032486922903617846 0.016276469115151185 0 0.0038574195823888793 0.017256102524539327 0 0.0035760705779854267 0.016950427015422674 0 0.0040698577794683992 0.016769109480708078 0 0.0035460891203291456 0.016537004485528601 0 0.0035760705779854267 0.016950427015422674 0 0.0040698577794683992 0.016769109480708078 0 0.0035460891203291456 0.016537004485528601 0 0.0035760705779854267 0.016950427015422674 0 0.003249659646927213 0.01664146584441439 0 0.0038574195823888793 0.017256102524539327 0 0.0042598958623438878 0.017200694328152251 0 0.0040698577794683992 0.016769109480708078 0 0.0042598958623438878 0.017200694328152251 0 0.0048421921632185319 0.016964110732179377 0 0.0040698577794683992 0.016769109480708078 0 0.0063925307759763496 0.018316904086187528 0 0.0069185464257552447 0.017580151052022677 0 0.0063362033913748382 0.017248325898184376 0 0.0070615459951178855 0.017193009118376148 0 0.0072659246825918103 0.017513107768954636 0 0.0069185464257552447 0.017580151052022677 0 0.0072711725941707944 0.017724811151624043 0 0.0072659246825918103 0.017513107768954636 0 0.0069185464257552447 0.017580151052022677 0 0.0067108085542743308 0.018173315289488984 0 0.0069038072500876577 0.017557430651279873 0 0.0070615459951178855 0.017193009118376148 0 0.0069185464257552447 0.017580151052022677 0 0.0063362033913748382 0.017248325898184376 0 0.0063925307759763496 0.018316904086187528 0 0.0063362033913748382 0.017248325898184376 0 0.005755512991513648 0.017751253613119446 0 0.0057297571420152488 0.018208120537957041 0 0.0063925307759763496 0.018316904086187528 0 0.005755512991513648 0.017751253613119446 0 0.0057297571420152488 0.018208120537957041 0 0.0053278503105612897 0.01797480262908515 0 0.005755512991513648 0.017751253613119446 0 0.0063362033913748382 0.017248325898184376 0 0.005755512991513648 0.017751253613119446 0 0.0055646604756718577 0.017284525999274949 0 0.0063362033913748382 0.017248325898184376 0 0.0055646604756718577 0.017284525999274949 0 0.005714750313146685 0.016866401074403008 0 0.0052842802803196465 0.016530139551080222 0 0.005714750313146685 0.016866401074403008 0 0.0058722878166283504 0.016500239735402239 0 0.005714750313146685 0.016866401074403008 0 0.0058722878166283504 0.016500239735402239 0 0.0062480322813373308 0.016713187480946936 0 0.0058722878166283504 0.016500239735402239 0 0.0062480322813373308 0.016713187480946936 0 0.0063987185773917042 0.016331234250588758 0 0.0062480322813373308 0.016713187480946936 0 0.0067669248129018072 0.016736908166514432 0 0.0063987185773917042 0.016331234250588758 0 0.0063362033913748382 0.017248325898184376 0 0.005714750313146685 0.016866401074403008 0 0.0062480322813373308 0.016713187480946936 0 0.0063362033913748382 0.017248325898184376 0 0.0062480322813373308 0.016713187480946936 0 0.0067669248129018072 0.016736908166514432 0 0.0070615459951178855 0.017193009118376148 0 0.0063362033913748382 0.017248325898184376 0 0.0067669248129018072 0.016736908166514432 0 0.0074358870694634441 0.016328574270299295 0 0.0068214323217724079 0.016702021580100489 0 0.0074456739734265424 0.016800806557980753 0 0.0074681439241555576 0.016085007103310487 0 0.0067669248129018072 0.016736908166514432 0 0.0073863611752967287 0.016570674468321795 0 0.0067669248129018072 0.016736908166514432 0 0.0069331956439302699 0.016297517770184278 0 0.0074456739734265424 0.016800806557980753 0 0.0070615459951178855 0.017193009118376148 0 0.0067669248129018072 0.016736908166514432 0 0.00744853049972423 0.015934825776999666 0 0.0069331956439302699 0.016297517770184278 0 0.0067054061115541276 0.015816384575278428 0 0.0073863611752967287 0.016570674468321795 0 0.00744853049972423 0.015934825776999666 0 0.0069331956439302699 0.016297517770184278 0 0.0067669248129018072 0.016736908166514432 0 0.0069331956439302699 0.016297517770184278 0 0.0063987185773917042 0.016331234250588758 0 0.0069331956439302699 0.016297517770184278 0 0.0067054061115541276 0.015816384575278428 0 0.0063987185773917042 0.016331234250588758 0 0.0062287926286097575 0.015945414665517205 0 0.0063987185773917042 0.016331234250588758 0 0.0056983205790919261 0.01606988406674513 0 0.0067054061115541276 0.015816384575278428 0 0.0062287926286097575 0.015945414665517205 0 0.0063987185773917042 0.016331234250588758 0 0.0052842802803196465 0.016530139551080222 0 0.0058722878166283504 0.016500239735402239 0 0.0056983205790919261 0.01606988406674513 0 0.0058722878166283504 0.016500239735402239 0 0.0063987185773917042 0.016331234250588758 0 0.0056983205790919261 0.01606988406674513 0 0.0062287926286097575 0.015945414665517205 0 0.0056983205790919261 0.01606988406674513 0 0.0061057253626288594 0.015561184498133885 0 0.0067054061115541276 0.015816384575278428 0 0.0061057253626288594 0.015561184498133885 0 0.0065759999621685661 0.01499994256080887 0 0.0056983205790919261 0.01606988406674513 0 0.0061057253626288594 0.015561184498133885 0 0.0055042275514202614 0.015494419349190158 0 0.0057449132363549061 0.014999929840949904 0 0.0061057253626288594 0.015561184498133885 0 0.0055042275514202614 0.015494419349190158 0 0.0057449132363549061 0.014999929840949904 0 0.0061057253626288594 0.015561184498133885 0 0.0065759999621685661 0.01499994256080887 0 0.0067054061115541276 0.015816384575278428 0 0.0062287926286097575 0.015945414665517205 0 0.0061057253626288594 0.015561184498133885 0 0.0067054061115541276 0.015816384575278428 0 0.0065759999621685661 0.01499994256080887 0 0.0071908941553558339 0.015465632104366937 0 0.0065759999621685661 0.01499994256080887 0 0.0074070822819371383 0.014999941605667033 0 0.0071908941553558339 0.015465632104366937 0 0.0076855306545416408 0.015414177028302953 0 0.0074070822819371383 0.014999941605667033 0 0.0071908941553558339 0.015465632104366937 0 0.00744853049972423 0.015934825776999666 0 0.0067054061115541276 0.015816384575278428 0 0.0071908941553558339 0.015465632104366937 0 0.00744853049972423 0.015934825776999666 0 0.0076855306545416408 0.015414177028302953 0 0.0071908941553558339 0.015465632104366937 0 0.0042103203898940546 0.016095901488097128 0 0.0049604822098216692 0.016237723314978369 0 0.0049445915875751378 0.015750432156928271 0 0.0039454868292400939 0.015879606788712957 0 0.0035222429451073549 0.015417367945704389 0 0.0036766989213727333 0.015658992749502571 0 0.0032898635983267242 0.015277420692509616 0 0.0030811356857029177 0.015850633335982429 0 0.0042365663160073832 0.016225182308334456 0 0.0036766989213727333 0.015658992749502571 0 0.0035954293433880773 0.016073537460261057 0 0.0036766989213727333 0.015658992749502571 0 0.0035954293433880773 0.016073537460261057 0 0.0030811356857029177 0.015850633335982429 0 0.0046121255849449526 0.016554163700554386 0 0.0042103203898940546 0.016095901488097128 0 0.0049604822098216692 0.016237723314978369 0 0.0044258008949674939 0.01640557808201764 0 0.0039454868292400939 0.015879606788712957 0 0.0052842802803196465 0.016530139551080222 0 0.0046121255849449526 0.016554163700554386 0 0.0049604822098216692 0.016237723314978369 0 0.0052842802803196465 0.016530139551080222 0 0.0056983205790919261 0.01606988406674513 0 0.0049604822098216692 0.016237723314978369 0 0.0056983205790919261 0.01606988406674513 0 0.0049604822098216692 0.016237723314978369 0 0.0049445915875751378 0.015750432156928271 0 0.0049445915875751378 0.015750432156928271 0 0.004913838857271125 0.014999957927097867 0 0.0043864850801627019 0.015506705344325864 0 0.0049445915875751378 0.015750432156928271 0 0.0055042275514202614 0.015494419349190158 0 0.004913838857271125 0.014999957927097867 0 0.0056983205790919261 0.01606988406674513 0 0.0049445915875751378 0.015750432156928271 0 0.0055042275514202614 0.015494419349190158 0 0.0057449132363549061 0.014999929840949904 0 0.0055042275514202614 0.015494419349190158 0 0.004913838857271125 0.014999957927097867 0 0.004913838857271125 0.014999957927097867 0 0.0043864850801627019 0.015506705344325864 0 0.0040827850625689771 0.014999944076959265 0 0.0042103203898940546 0.016095901488097128 0 0.0049445915875751378 0.015750432156928271 0 0.0043864850801627019 0.015506705344325864 0 0.0042103203898940546 0.016095901488097128 0 0.0043864850801627019 0.015506705344325864 0 0.0037410741935856055 0.015577569882766356 0 0.0043864850801627019 0.015506705344325864 0 0.0040827850625689771 0.014999944076959265 0 0.0037410741935856055 0.015577569882766356 0 0.003251616586138849 0.015000049179166936 0 0.0035222429451073549 0.015417367945704389 0 0.0040827850625689771 0.014999944076959265 0 0.0032516665423809013 0.014999995170764372 0 0.0037410741935856055 0.015577569882766356 0 0.0032506618051105158 0.014999781221566755 0 0.0027353176211117282 0.015280693216365202 0 0.0032898635983267242 0.015277420692509616 0 0.0032506618051105158 0.014999781221566755 0 0.0027353176211117282 0.015280693216365202 0 0.0023589710088844605 0.014999837095462874 0 0.0027353176211117282 0.015280693216365202 0 0.0032898635983267242 0.015277420692509616 0 0.0025843601935932881 0.015629053733823877 0 0.0023589710088844605 0.014999837095462874 0 0.0021403853625226524 0.015353448919002748 0 0.0014662443274689504 0.014999882882101214 0 0.0027353176211117282 0.015280693216365202 0 0.0023589710088844605 0.014999837095462874 0 0.0021403853625226524 0.015353448919002748 0 0.0027353176211117282 0.015280693216365202 0 0.0021403853625226524 0.015353448919002748 0 0.0025843601935932881 0.015629053733823877 0 0.0021403853625226524 0.015353448919002748 0 0.0019406790488534788 0.015672852519532696 0 0.0016116884027613694 0.015389622407725139 0 0.0019406790488534788 0.015672852519532696 0 0.0021445827322534557 0.015879875423128211 0 0.0025843601935932881 0.015629053733823877 0 0.0021403853625226524 0.015353448919002748 0 0.0019406790488534788 0.015672852519532696 0 0.0025843601935932881 0.015629053733823877 0 0.0021445827322534557 0.015879875423128211 0 0.0017715868843362112 0.015955002830747373 0 0.0020436282542763925 0.016196276789804041 0 0.0021445827322534557 0.015879875423128211 0 0.0025843601935932881 0.015629053733823877 0 0.0025083286513127591 0.015959248180766807 0 0.0021445827322534557 0.015879875423128211 0 0.0025083286513127591 0.015959248180766807 0 0.0020436282542763925 0.016196276789804041 0 0.0019406790488534788 0.015672852519532696 0 0.0021445827322534557 0.015879875423128211 0 0.0017715868843362112 0.015955002830747373 0 0.0019406790488534788 0.015672852519532696 0 0.0017715868843362112 0.015955002830747373 0 0.0015498732478798484 0.015740465551910596 0 0.0032898635983267242 0.015277420692509616 0 0.0025843601935932881 0.015629053733823877 0 0.0030811356857029177 0.015850633335982429 0 0.0025843601935932881 0.015629053733823877 0 0.0025083286513127591 0.015959248180766807 0 0.0030811356857029177 0.015850633335982429 0 0.0025083286513127591 0.015959248180766807 0 0.0030811356857029177 0.015850633335982429 0 0.0027312228660154093 0.016343781192147851 0 0.0035954293433880773 0.016073537460261057 0 0.0030811356857029177 0.015850633335982429 0 0.0032486922903617846 0.016276469115151185 0 0.0030811356857029177 0.015850633335982429 0 0.0032486922903617846 0.016276469115151185 0 0.0027312228660154093 0.016343781192147851 0 0.0032486922903617846 0.016276469115151185 0 0.003249659646927213 0.01664146584441439 0 0.0027312228660154093 0.016343781192147851 0 0.0035460891203291456 0.016537004485528601 0 0.0032486922903617846 0.016276469115151185 0 0.003249659646927213 0.01664146584441439 0 0.0029499764642483195 0.016905127632416472 0 0.0027552597615999939 0.016409777477109713 0 0.003249659646927213 0.01664146584441439 0 0.003164344215931824 0.017113223128194719 0 0.0027312228660154093 0.016343781192147851 0 0.0035760705779854267 0.016950427015422674 0 0.003249659646927213 0.01664146584441439 0 0.003164344215931824 0.017113223128194719 0 0.003596019189840502 0.01730648302597125 0 0.0035760705779854267 0.016950427015422674 0 0.003164344215931824 0.017113223128194719 0 0.0028035513626900629 0.016904905523666691 0 0.0025992921325418026 0.016910337385271073 0 0.0027312228660154093 0.016343781192147851 0 0.0020546180362371689 0.016451109115616477 0 0.002011111446402205 0.016201489097459339 0 0.0025083286513127591 0.015959248180766807 0 0.0027312228660154093 0.016343781192147851 0 0.0020436282542763925 0.016196276789804041 0 0.0025992921325418026 0.016910337385271073 0 0.0027312228660154093 0.016343781192147851 0 0.0020436282542763925 0.016196276789804041 0 0.0017715868843362112 0.015955002830747373 0 0.0020436282542763925 0.016196276789804041 0 0.0018296640639886973 0.016059927537058542 0 0.0017715868843362112 0.015955002830747373 0 0.0018296640639886973 0.016059927537058542 0 0.0016569106407774206 0.015989454826707751 0 0.0018094034897373824 0.016009831110808691 0 0.001707728592419697 0.015959715225925389 0 0.0016569106407774206 0.015989454826707751 0 0.0018296640639886973 0.016059927537058542 0 0.0018094034897373824 0.016009831110808691 0 0.0016569106407774206 0.015989454826707751 0 0.0014942087762586556 0.01603011753586597 0 0.0020436282542763925 0.016196276789804041 0 0.0018094034897373824 0.016009831110808691 0 0.0020436282542763925 0.016196276789804041 0 0.0018296640639886973 0.016059927537058542 0 0.0018094034897373824 0.016009831110808691 0 0.0014942087762586556 0.01603011753586597 0 0.0018094034897373824 0.016009831110808691 0 0.0016671126246846431 0.015898074555551551 0 0.0018094034897373824 0.016009831110808691 0 0.0016671126246846431 0.015898074555551551 0 0.0017630218199323777 0.015802363590312018 0 0.0016671126246846431 0.015898074555551551 0 0.0017630218199323777 0.015802363590312018 0 0.0015374544161901344 0.015788376535666438 0 0.0018094034897373824 0.016009831110808691 0 0.001707728592419697 0.015959715225925389 0 0.0017630218199323777 0.015802363590312018 0 0.001707728592419697 0.015959715225925389 0 0.0017630218199323777 0.015802363590312018 0 0.0016398543641889731 0.01598935024991946 0 0.0017436066337115565 0.014895869034908622 0 0.001603211097849868 0.015221944928517389 0 0.0018886360884595552 0.015100784265074225 0 0.0016389784287628515 0.015510845670012924 0 0.0017555441347615907 0.015530748520972625 0 0.0017436066337115565 0.014895869034908622 0 0.001603211097849868 0.015221944928517389 0 0.0014437184354861058 0.015024547556414272 0 0.0016389784287628515 0.015510845670012924 0 0.0011923618415420685 0.015476158156681963 0 0.001603211097849868 0.015221944928517389 0 0.0014437184354861058 0.015024547556414272 0 0.0011867106306398666 0.015463999522172979 0 0.0014437184354861058 0.015024547556414272 0 0.0011867106306398666 0.015463999522172979 0 0.0011466789467036141 0.015165706847454949 0 0.0012080098588888024 0.014968804920424555 0 0.0014437184354861058 0.015024547556414272 0 0.0011466789467036141 0.015165706847454949 0 0.0020025002312390973 0.016169708305534134 0 0.0018037378496547167 0.016147230659502607 0 0.002812937050992692 0.017029665630741129 0 0.0028219191511440608 0.017087294530071101 0 0.0028079262380709654 0.017089764632640506 0 0.00097656658325214808 0.014853807475796137 0 0.0011466789467036141 0.015165706847454949 0 0.00092902702643423015 0.015351875864760105 0 0.0011867106306398666 0.015463999522172979 0 0.0011466789467036141 0.015165706847454949 0 0.00092902702643423015 0.015351875864760105 0 0.0028035513626900629 0.016904905523666691 0 0.0028219191511440608 0.017087294530071101 0 0.0028079262380709654 0.017089764632640506 0 0.0020546180362371689 0.016451109115616477 0 0.0018037378496547167 0.016147230659502607 0 0.0029499764642483195 0.016905127632416472 0 0.0034216890350764616 0.017614449472971309 0 0.003596019189840502 0.01730648302597125 0 0.003164344215931824 0.017113223128194719 0 0.0036462605465742834 0.017612529032849891 0 0.0028035513626900629 0.016904905523666691 0 0.0025992921325418026 0.016910337385271073 0 0.0028079262380709654 0.017089764632640506 0 0.0017630218199323777 0.015802363590312018 0 0.0011867106306398666 0.015463999522172979 0 0.0015374544161901344 0.015788376535666438 0 0.0014942087762586556 0.01603011753586597 0 0.0011867106306398666 0.015463999522172979 0 0.00092902702643423015 0.015351875864760105 0 0.0014942087762586556 0.01603011753586597 0 0.0011867106306398666 0.015463999522172979 0 0.0015374544161901344 0.015788376535666438 0 0.0014942087762586556 0.01603011753586597 0 0.0016671126246846431 0.015898074555551551 0 0.0015374544161901344 0.015788376535666438 0 0.0013088630053083375 0.01574928622752016 0 0.0015291312983273793 0.015376563389247002 0 0.0013553332431654871 0.015828136920061974 0 0.0015291312983273793 0.015376563389247002 0 0.0012853436600936278 0.015646393191059576 0 0.0014658178128227092 0.015405112315151034 0 0.0013088630053083375 0.01574928622752016 0 0.0015291312983273793 0.015376563389247002 0 0.0012853436600936278 0.015646393191059576 0 0.0017825506357858211 0.015108565723403914 0 0.0015291312983273793 0.015376563389247002 0 0.0014658178128227092 0.015405112315151034 0 0.0017825506357858211 0.015108565723403914 0 0.0018444732232768186 0.0151080989824084 0 0.0015291312983273793 0.015376563389247002 0 0.0018444732232768186 0.0151080989824084 0 0.0015291312983273793 0.015376563389247002 0 0.0019230357949999719 0.015055807162633173 0 0.0015817343832068796 0.015388554571488085 0 0.0016628964928828238 0.015445524458898541 0 0.0019911282228466149 0.014920224122517324 0 0.0018444732232768186 0.0151080989824084 0 0.0019230357949999719 0.015055807162633173 0 0.0017436066337115565 0.014895869034908622 0 0.0019911282228466149 0.014920224122517324 0 0.0018886360884595552 0.015100784265074225 0 0.0016628964928828238 0.015445524458898541 0 0.0017555441347615907 0.015530748520972625 0 0.0019911282228466149 0.014920224122517324 0 0.0019230357949999719 0.015055807162633173 0 0.0018886360884595552 0.015100784265074225 0 0.0013553332431654871 0.015828136920061974 0 0.0016398543641889731 0.01598935024991946 0 0.0015178476968810467 0.015918538402060905 0 0.001707728592419697 0.015959715225925389 0 0.0016398543641889731 0.01598935024991946 0 0.0015178476968810467 0.015918538402060905 0 0.0013088630053083375 0.01574928622752016 0 0.0013553332431654871 0.015828136920061974 0 0.0013721597615223608 0.015887800703132799 0 0.0013553332431654871 0.015828136920061974 0 0.0015178476968810467 0.015918538402060905 0 0.0013721597615223608 0.015887800703132799 0 0.0015178476968810467 0.015918538402060905 0 0.0013721597615223608 0.015887800703132799 0 0.0016569106407774206 0.015989454826707751 0 0.001707728592419697 0.015959715225925389 0 0.0015178476968810467 0.015918538402060905 0 0.0016569106407774206 0.015989454826707751 0 0.0017715868843362112 0.015955002830747373 0 0.0016569106407774206 0.015989454826707751 0 0.0013368572007601714 0.015896152180362902 0 0.0013721597615223608 0.015887800703132799 0 0.0016569106407774206 0.015989454826707751 0 0.0013368572007601714 0.015896152180362902 0 0.0013721597615223608 0.015887800703132799 0 0.0013368572007601714 0.015896152180362902 0 0.0010695804868414509 0.01585478412378992 0 0.0013088630053083375 0.01574928622752016 0 0.0013721597615223608 0.015887800703132799 0 0.0010695804868414509 0.01585478412378992 0 0.0013088630053083375 0.01574928622752016 0 0.0010695804868414509 0.01585478412378992 0 0.0012853436600936278 0.015646393191059576 0 0.0013368572007601714 0.015896152180362902 0 0.00092943515539668862 0.015820778887261345 0 0.0011759162323439366 0.015578884267999119 0 0.0010695804868414509 0.01585478412378992 0 0.00092943515539668862 0.015820778887261345 0 0.00061386390681349233 0.015958504910174951 0 0.0013368572007601714 0.015896152180362902 0 0.0010695804868414509 0.01585478412378992 0 0.00092943515539668862 0.015820778887261345 0 0.00092943515539668862 0.015820778887261345 0 0.0011759162323439366 0.015578884267999119 0 0.00049122806419435883 0.015533831882250496 0 0.00092943515539668862 0.015820778887261345 0 0.00049122806419435883 0.015533831882250496 0 0.00061386390681349233 0.015958504910174951 0 0.0013368572007601714 0.015896152180362902 0 0.0015498732478798484 0.015740465551910596 0 0.0011759162323439366 0.015578884267999119 0 0.0017715868843362112 0.015955002830747373 0 0.0013368572007601714 0.015896152180362902 0 0.0015498732478798484 0.015740465551910596 0 0.0019406790488534788 0.015672852519532696 0 0.0015498732478798484 0.015740465551910596 0 0.0016116884027613694 0.015389622407725139 0 0.0015498732478798484 0.015740465551910596 0 0.0016116884027613694 0.015389622407725139 0 0.0011759162323439366 0.015578884267999119 0 0.0016116884027613694 0.015389622407725139 0 0.0011759162323439366 0.015578884267999119 0 0.0014662443274689504 0.014999882882101214 0 0.0011759162323439366 0.015578884267999119 0 0.0014662443274689504 0.014999882882101214 0 0.00057391155889366862 0.014999920586429584 0 0.0021403853625226524 0.015353448919002748 0 0.0016116884027613694 0.015389622407725139 0 0.0014662443274689504 0.014999882882101214 0 0.0011759162323439366 0.015578884267999119 0 0.00049122806419435883 0.015533831882250496 0 0.00057391155889366862 0.014999920586429584 0 0.00049122806419435883 0.015533831882250496 0 0.00057391155889366862 0.014999920586429584 0 -0.00031862442466657642 0.014999790492172151 0 0.00049122806419435883 0.015533831882250496 0 -0.00031862442466657642 0.014999790492172151 0 -7.2639537058572033e-05 0.015595718975747762 0 -0.00031862442466657642 0.014999790492172151 0 -0.00093037076333466753 0.015396474054345927 0 -7.2639537058572033e-05 0.015595718975747762 0 -0.00031862442466657642 0.014999790492172151 0 -0.0012114349271079917 0.014999856632413723 0 -0.00093037076333466753 0.015396474054345927 0 -0.0012114349271079917 0.014999856632413723 0 -0.0016918931392125225 0.015342264574568307 0 -0.00093037076333466753 0.015396474054345927 0 -0.0012114349271079917 0.014999856632413723 0 -0.0016918931392125225 0.015342264574568307 0 -0.0021040751753538616 0.014999868612730649 0 -0.0016918931392125225 0.015342264574568307 0 -0.00093037076333466753 0.015396474054345927 0 -0.0014465277730872682 0.015642828032277054 0 -0.00093037076333466753 0.015396474054345927 0 -0.0014465277730872682 0.015642828032277054 0 -0.00081925946705888118 0.016137671806908654 0 -0.0014465277730872682 0.015642828032277054 0 -0.00081925946705888118 0.016137671806908654 0 -0.0016759742523271344 0.015909587126231913 0 9.412735713570625e-05 0.015889863715160112 0 -0.00054723390193842948 0.015596442002057414 0 0.00084286074440550682 0.015633557239934273 0 0.0010390384698262555 0.015690902841270071 0 0.00059678143534857013 0.015265675079096907 0 0.00084286074440550682 0.015633557239934273 0 0.00059678143534857013 0.015265675079096907 0 0.0005853067391757311 0.015823502370410476 0 0.00084286074440550682 0.015633557239934273 0 0.0010390384698262555 0.015690902841270071 0 0.00098717307336926362 0.015713642097195737 0 0.0010390384698262555 0.015690902841270071 0 0.00061386390681349233 0.015958504910174951 0 0.0010115471364478285 0.015709493779909205 0 9.412735713570625e-05 0.015889863715160112 0 0.00055882463629546291 0.015960463864089815 0 0.00049122806419435883 0.015533831882250496 0 0.00061386390681349233 0.015958504910174951 0 -7.2639537058572033e-05 0.015595718975747762 0 -0.00081925946705888118 0.016137671806908654 0 0.00061386390681349233 0.015958504910174951 0 -7.2639537058572033e-05 0.015595718975747762 0 -0.00093037076333466753 0.015396474054345927 0 -0.00081925946705888118 0.016137671806908654 0 -7.2639537058572033e-05 0.015595718975747762 0 -0.0023911993855515257 0.015068163844385361 0 -0.0025426264648276214 0.01542009026229578 0 -0.0030169711128164522 0.014874674401713936 0 -0.0023911993855515257 0.015068163844385361 0 -0.0021939241125123153 0.015335970343227819 0 -0.0025426264648276214 0.01542009026229578 0 -0.0028825372089852498 0.015284756987451714 0 -0.0035757695502329624 0.015200548212124434 0 -0.003343983334908571 0.015503352004786381 0 -0.0029970114557847441 0.015000017913904711 0 -0.0038895909286375649 0.014999993403271399 0 -0.003343983334908571 0.015503352004786381 0 -0.0029970114557847441 0.015000017913904711 0 -0.0025735185721779265 0.015473082106617497 0 -0.0023911993855515257 0.015068163844385361 0 -0.0021939241125123153 0.015335970343227819 0 -0.0020135290552603657 0.015247206468124304 0 -0.0028825372089852498 0.015284756987451714 0 -0.0022940991039351478 0.015351491166614871 0 -0.0021939241125123153 0.015335970343227819 0 -0.0020135290552603657 0.015247206468124304 0 -0.0018660155847426143 0.015502945569740004 0 -0.0029970114557847441 0.015000017913904711 0 -0.0025735185721779265 0.015473082106617497 0 -0.0021040751753538616 0.014999868612730649 0 -0.0016918931392125225 0.015342264574568307 0 -0.0025735185721779265 0.015473082106617497 0 -0.0021040751753538616 0.014999868612730649 0 -0.0016918931392125225 0.015342264574568307 0 -0.0014465277730872682 0.015642828032277054 0 -0.0018660155847426143 0.015502945569740004 0 -0.0017393254048151312 0.01534555437054202 0 -0.0022940991039351478 0.015351491166614871 0 -0.0016918931392125225 0.015342264574568307 0 -0.0020135290552603657 0.015247206468124304 0 -0.0018660155847426143 0.015502945569740004 0 -0.0014465277730872682 0.015642828032277054 0 -0.0018660155847426143 0.015502945569740004 0 -0.0016759742523271344 0.015909587126231913 0 0.00059678143534857013 0.015265675079096907 0 -0.00030165757222992332 0.015697584322482052 0 0.0005853067391757311 0.015823502370410476 0 0.00059678143534857013 0.015265675079096907 0 -0.00030165757222992332 0.015697584322482052 0 -0.00094681110143755246 0.01508455877256175 0 -0.00054723390193842948 0.015596442002057414 0 -0.0015328194402066675 0.015381268706946852 0 -0.0021939241125123153 0.015335970343227819 0 -0.0018660155847426143 0.015502945569740004 0 -0.0021390856004250723 0.015623370981718203 0 -0.0018660155847426143 0.015502945569740004 0 -0.0016759742523271344 0.015909587126231913 0 -0.0021390856004250723 0.015623370981718203 0 -0.0021939241125123153 0.015335970343227819 0 -0.0021390856004250723 0.015623370981718203 0 -0.0025426264648276214 0.01542009026229578 0 -0.0015328194402066675 0.015381268706946852 0 -0.0024610457403646236 0.015394749067839665 0 -0.00030165757222992332 0.015697584322482052 0 -0.00094681110143755246 0.01508455877256175 0 -0.0017824006773236121 0.015957717704561086 0 -0.00094681110143755246 0.01508455877256175 0 -0.0017824006773236121 0.015957717704561086 0 -0.0025426264648276214 0.01542009026229578 0 -0.0017824006773236121 0.015957717704561086 0 -0.0025426264648276214 0.01542009026229578 0 -0.0026405973892699558 0.016061152853266678 0 -0.0015262519693815689 0.01599157533525385 0 -0.0013170489225127343 0.016652608754663008 0 -0.0020769549163811921 0.016603730175630087 0 -0.0015262519693815689 0.01599157533525385 0 -0.00088336050083948254 0.016263018546009027 0 -0.0013170489225127343 0.016652608754663008 0 -0.0017824006773236121 0.015957717704561086 0 -0.0023133639009165698 0.016799228948528644 0 -0.0026405973892699558 0.016061152853266678 0 -0.0019014450164946549 0.016386922803770559 0 -0.00062226372268185529 0.016143720531173272 0 -0.0017824006773236121 0.015957717704561086 0 -0.0023133639009165698 0.016799228948528644 0 -0.0009086007718029426 0.016595009447696207 0 -0.00030165757222992332 0.015697584322482052 0 -0.0017824006773236121 0.015957717704561086 0 -0.0009086007718029426 0.016595009447696207 0 -0.0015262519693815689 0.01599157533525385 0 -0.00088336050083948254 0.016263018546009027 0 -0.00032520983660950202 0.015712050648592199 0 -0.00088336050083948254 0.016263018546009027 0 -0.00068776768340724371 0.016880334013245374 0 -0.0013170489225127343 0.016652608754663008 0 -0.00088336050083948254 0.016263018546009027 0 -0.00032520983660950202 0.015712050648592199 0 -0.00068776768340724371 0.016880334013245374 0 0.00042840559340601338 0.01587956759082905 0 0.00051832322326274033 0.015835686818174398 0 0.00041560719244468738 0.015821719989008227 0 -0.00032520983660950202 0.015712050648592199 0 0.00042840559340601338 0.01587956759082905 0 -0.00068776768340724371 0.016880334013245374 0 0.00039470588291433515 0.015903027941767119 0 -0.00012480316490866237 0.016334194684678192 0 -0.00062226372268185529 0.016143720531173272 0 0.00047624112010240266 0.0158606502313016 0 -0.00030165757222992332 0.015697584322482052 0 -0.0009086007718029426 0.016595009447696207 0 0.0005853067391757311 0.015823502370410476 0 -0.00032520983660950202 0.015712050648592199 0 0.00042840559340601338 0.01587956759082905 0 0.0005853067391757311 0.015823502370410476 0 0.00042840559340601338 0.01587956759082905 0 0.0005853067391757311 0.015823502370410476 0 0.00076570655732356935 0.015774840205214732 0 0.00042840559340601338 0.01587956759082905 0 0.00051832322326274033 0.015835686818174398 0 0.00076570655732356935 0.015774840205214732 0 0.00051832322326274033 0.015835686818174398 0 0.00057536961258790125 0.015980758172093743 0 0.0010558520711278572 0.015712088063448044 0 0.00051832322326274033 0.015835686818174398 0 0.00057536961258790125 0.015980758172093743 0 0.00044770867837638393 0.015895283975781896 0 0.00044770867837638393 0.015895283975781896 0 0.0003756550579619798 0.015873675220053052 0 0.00038818394827279997 0.01593989152301949 0 0.00087355875201027022 0.015684009992174949 0 0.00059062116372706407 0.015734810521831771 0 0.00057536961258790125 0.015980758172093743 0 0.00044770867837638393 0.015895283975781896 0 0.00038818394827279997 0.01593989152301949 0 0.00051832322326274033 0.015835686818174398 0 0.00044770867837638393 0.015895283975781896 0 0.00041560719244468738 0.015821719989008227 0 0.00044770867837638393 0.015895283975781896 0 0.00041560719244468738 0.015821719989008227 0 0.0003756550579619798 0.015873675220053052 0 -0.00068776768340724371 0.016880334013245374 0 -0.00079311359999228472 0.016885817355854021 0 -0.0013170489225127343 0.016652608754663008 0 -0.00012480316490866237 0.016334194684678192 0 -0.00028685646710809731 0.0163134252977883 0 -0.00068776768340724371 0.016880334013245374 0 -0.00079311359999228472 0.016885817355854021 0 -0.00083461774909550531 0.016843411590012458 0 0.00041560719244468738 0.015821719989008227 0 0.0003756550579619798 0.015873675220053052 0 0.00031921666396805853 0.015844252191334146 0 0.00041560719244468738 0.015821719989008227 0 0.00031921666396805853 0.015844252191334146 0 0.00024898009601481594 0.015808867428492499 0 0.0003756550579619798 0.015873675220053052 0 0.00031921666396805853 0.015844252191334146 0 0.00030628261652878631 0.015881944200478986 0 -0.00081100209286571882 0.016884135804273261 0 -0.001273011209069749 0.017386033473153307 0 -0.00079311359999228472 0.016885817355854021 0 -0.00083461774909550531 0.016843411590012458 0 -0.00062646477180472817 0.01680652598489343 0 0.00031921666396805853 0.015844252191334146 0 0.00024898009601481594 0.015808867428492499 0 0.00023715641681995242 0.015860260193616187 0 0.00031921666396805853 0.015844252191334146 0 0.00023715641681995242 0.015860260193616187 0 0.00030628261652878631 0.015881944200478986 0 0.00024898009601481594 0.015808867428492499 0 0.00014270357307892819 0.015875401038364951 0 0.00023715641681995242 0.015860260193616187 0 -0.0015533788838825902 0.017086327498881389 0 -0.0019481534874008883 0.017252415088282961 0 -0.0019302336095127276 0.017703978363924972 0 -0.00079311359999228472 0.016885817355854021 0 -0.0015533788838825902 0.017086327498881389 0 -0.0019302336095127276 0.017703978363924972 0 -0.00079311359999228472 0.016885817355854021 0 -0.0015533788838825902 0.017086327498881389 0 -0.0013170489225127343 0.016652608754663008 0 -0.0013170489225127343 0.016652608754663008 0 -0.0020122045581534615 0.016954718820328684 0 -0.0020769549163811921 0.016603730175630087 0 -0.0015533788838825902 0.017086327498881389 0 -0.0013170489225127343 0.016652608754663008 0 -0.0020122045581534615 0.016954718820328684 0 0.0010695804868414509 0.01585478412378992 0 0.0010115471364478285 0.015709493779909205 0 0.0012853436600936278 0.015646393191059576 0 0.0010695804868414509 0.01585478412378992 0 0.00061386390681349233 0.015958504910174951 0 0.0010115471364478285 0.015709493779909205 0 0.0010115471364478285 0.015709493779909205 0 0.00098717307336926362 0.015713642097195737 0 0.0012260265081424607 0.015603955766607568 0 0.0010115471364478285 0.015709493779909205 0 0.0012260265081424607 0.015603955766607568 0 0.0012853436600936278 0.015646393191059576 0 0.0010390384698262555 0.015690902841270071 0 0.0010115471364478285 0.015709493779909205 0 0.00098717307336926362 0.015713642097195737 0 0.0005853067391757311 0.015823502370410476 0 0.00098717307336926362 0.015713642097195737 0 0.00076570655732356935 0.015774840205214732 0 0.00084286074440550682 0.015633557239934273 0 0.0005853067391757311 0.015823502370410476 0 0.00098717307336926362 0.015713642097195737 0 0.00098717307336926362 0.015713642097195737 0 0.00076570655732356935 0.015774840205214732 0 0.0010558520711278572 0.015712088063448044 0 0.00051832322326274033 0.015835686818174398 0 0.00076570655732356935 0.015774840205214732 0 0.0010558520711278572 0.015712088063448044 0 0.00098717307336926362 0.015713642097195737 0 0.0010558520711278572 0.015712088063448044 0 0.0012260265081424607 0.015603955766607568 0 0.0010558520711278572 0.015712088063448044 0 0.001219414574019925 0.015482842311359921 0 0.0013321877622236272 0.015453494028101844 0 0.0010558520711278572 0.015712088063448044 0 0.0013321877622236272 0.015453494028101844 0 0.0012260265081424607 0.015603955766607568 0 0.00087355875201027022 0.015684009992174949 0 0.0010346561460665492 0.015698445114106861 0 0.0011732030475488516 0.015384255764647062 0 0.0010558520711278572 0.015712088063448044 0 0.001219414574019925 0.015482842311359921 0 0.0011732030475488516 0.015384255764647062 0 0.001219414574019925 0.015482842311359921 0 0.0013671871784645168 0.015438603931212828 0 0.001219414574019925 0.015482842311359921 0 0.0013321877622236272 0.015453494028101844 0 0.0013671871784645168 0.015438603931212828 0 0.0013321877622236272 0.015453494028101844 0 0.0014658178128227092 0.015405112315151034 0 0.0015677001351022493 0.015259376224172323 0 0.0013321877622236272 0.015453494028101844 0 0.0012260265081424607 0.015603955766607568 0 0.0014658178128227092 0.015405112315151034 0 0.0012260265081424607 0.015603955766607568 0 0.0012853436600936278 0.015646393191059576 0 0.0014658178128227092 0.015405112315151034 0 0.0017825506357858211 0.015108565723403914 0 0.0014658178128227092 0.015405112315151034 0 0.0015677001351022493 0.015259376224172323 0 0.0017825506357858211 0.015108565723403914 0 0.0015677001351022493 0.015259376224172323 0 0.0017254056285863646 0.015079376285337393 0 0.0013321877622236272 0.015453494028101844 0 0.0015677001351022493 0.015259376224172323 0 0.0015051257732405161 0.015298144137304343 0 0.0015677001351022493 0.015259376224172323 0 0.0015051257732405161 0.015298144137304343 0 0.0017254056285863646 0.015079376285337393 0 0.0015051257732405161 0.015298144137304343 0 0.0017254056285863646 0.015079376285337393 0 0.0015700260071969127 0.015203477287697192 0 0.0021851617286639488 0.014781675196525755 0 0.0017254056285863646 0.015079376285337393 0 0.0019721219739920358 0.015027202001748686 0 0.0017254056285863646 0.015079376285337393 0 0.0016643932287228494 0.01516427961072752 0 0.0019721219739920358 0.015027202001748686 0 0.0017254056285863646 0.015079376285337393 0 0.0016643932287228494 0.01516427961072752 0 0.0015700260071969127 0.015203477287697192 0 0.0022033378822250769 0.012406090420354298 0 0.0037364818220680081 0.0087440468795661266 0 0.0022033378822250769 0.012406090420354298 0 0.003411790288801442 0.015000978172762662 0 0.0054328454232833723 0.014419844987490769 0 0.0042122557338702031 0.014346549150298357 0 0.0050004404063852554 0.013263181003165635 0 0.0010249778491645317 0.0045337819149873755 0 0.00076300373243749027 0.0050066193842896968 0 0.0013203882814780167 0.0052660647721799944 0 0.001845925006158184 0.0046248738719921632 0 0.0010249778491645317 0.0045337819149873755 0 0.0013203882814780167 0.0052660647721799944 0 0.0015569326215532035 0.015886905751080434 0 0.0012701521039370633 0.015906170283550933 0 0.0014692544589937119 0.015698403565575281 0 0.0022033378822250769 0.012406090420354298 0 0.0016093096991421311 0.016003516274497993 0 0.0022033378822250769 0.012406090420354298 0 0.0010087147679493458 0.0099754991821802939 0 0.0014692544589937119 0.015698403565575281 0 0.0013671871784645168 0.015438603931212828 0 0.0011200613752580023 0.015649213532740305 0 0.0012701521039370633 0.015906170283550933 0 0.0014692544589937119 0.015698403565575281 0 0.0011200613752580023 0.015649213532740305 0 0.0016093096991421311 0.016003516274497993 0 0.0013255213706008316 0.015207942686167942 0 0.0015051257732405161 0.015298144137304343 0 0.0015700260071969127 0.015203477287697192 0 0.0013671871784645168 0.015438603931212828 0 0.0013321877622236272 0.015453494028101844 0 0.0015051257732405161 0.015298144137304343 0 0.0013671871784645168 0.015438603931212828 0 0.0011732030475488516 0.015384255764647062 0 0.0013671871784645168 0.015438603931212828 0 0.0011200613752580023 0.015649213532740305 0 0.0011732030475488516 0.015384255764647062 0 0.00079088848961021523 0.015510966814995315 0 0.0011200613752580023 0.015649213532740305 0 0.00079088848961021523 0.015510966814995315 0 0.0006993670937568996 0.015809965504855132 0 0.0011200613752580023 0.015649213532740305 0 0.0006993670937568996 0.015809965504855132 0 0.0011200613752580023 0.015649213532740305 0 0.00089778895651357142 0.015971748339061065 0 0.00019956868412325589 0.015896767835980367 0 0.00014270357307892819 0.015875401038364951 0 8.5178605406389899e-05 0.015901232826675177 0 0.00019956868412325589 0.015896767835980367 0 0.00014270357307892819 0.015875401038364951 0 0.00023715641681995242 0.015860260193616187 0 0.00019956868412325589 0.015896767835980367 0 0.00023715641681995242 0.015860260193616187 0 0.00030628261652878631 0.015881944200478986 0 0.00019956868412325589 0.015896767835980367 0 0.00029494347315481962 0.015910150648257505 0 0.00018946930294411584 0.015921214577710362 0 0.00019956868412325589 0.015896767835980367 0 0.00029494347315481962 0.015910150648257505 0 0.00030628261652878631 0.015881944200478986 0 0.0003756550579619798 0.015873675220053052 0 0.00038818394827279997 0.01593989152301949 0 0.00030628261652878631 0.015881944200478986 0 0.00038818394827279997 0.01593989152301949 0 0.00029494347315481962 0.015910150648257505 0 0.00030628261652878631 0.015881944200478986 0 0.00059062116372706407 0.015734810521831771 0 0.00032650078230922968 0.015902655756138317 0 0.0006993670937568996 0.015809965504855132 0 0.00030601959070282166 0.015910781560054963 0 0.00037631185849158966 0.016033157308848446 0 0.00079088848961021523 0.015510966814995315 0 0.0006993670937568996 0.015809965504855132 0 0.00030601959070282166 0.015910781560054963 0 0.00038818394827279997 0.01593989152301949 0 0.00029494347315481962 0.015910150648257505 0 0.00030601959070282166 0.015910781560054963 0 0.00030601959070282166 0.015910781560054963 0 0.00018946930294411584 0.015921214577710362 0 3.1468536962564505e-05 0.016008023486411414 0 0.00029494347315481962 0.015910150648257505 0 0.00030601959070282166 0.015910781560054963 0 0.00018946930294411584 0.015921214577710362 0 0.00019956868412325589 0.015896767835980367 0 0.00018946930294411584 0.015921214577710362 0 7.0067512417646758e-05 0.015928077395255608 0 0.00030601959070282166 0.015910781560054963 0 0.00037631185849158966 0.016033157308848446 0 3.1468536962564505e-05 0.016008023486411414 0 -2.8428115364853351e-05 0.010300045124354269 0 -0.00058297051557877676 0.010334060903298458 0 -0.00047649653043371575 0.0045821758975556296 0 -0.00080005564723972756 0.0048754377919483904 0 -0.0010245744630841109 0.0046530302923181088 0 -0.00047649653043371575 0.0045821758975556296 0 -0.000505956270220686 0.0048541419051409008 0 -0.00080005564723972756 0.0048754377919483904 0 -0.00047649653043371575 0.0045821758975556296 0 -0.00018469468320253025 0.0048383109249017344 0 0.00021622201376085695 0.004520338583703625 0 -2.8428115364853351e-05 0.010300045124354269 0 0.00058326328277055609 0.010278938754043737 0 -0.00047649653043371575 0.0045821758975556296 0 -0.00018469468320253025 0.0048383109249017344 0 -0.000505956270220686 0.0048541419051409008 0 -0.00018469468320253025 0.0048383109249017344 0 -0.00054361051120759213 0.0051233545375719237 0 -0.00022431268013191146 0.0051897374799800148 0 -0.00018469468320253025 0.0048383109249017344 0 -0.000505956270220686 0.0048541419051409008 0 -0.00054361051120759213 0.0051233545375719237 0 -0.00080005564723972756 0.0048754377919483904 0 -0.00082716745351572743 0.0052384423866306722 0 -0.00054361051120759213 0.0051233545375719237 0 -0.000505956270220686 0.0048541419051409008 0 -0.00080005564723972756 0.0048754377919483904 0 -0.00054361051120759213 0.0051233545375719237 0 0.0010087147679493458 0.0099754991821802939 0 0.00058326328277055609 0.010278938754043737 0 0.0012701521039370633 0.015906170283550933 0 0.0011200613752580023 0.015649213532740305 0 0.00089778895651357142 0.015971748339061065 0 0.0006993670937568996 0.015809965504855132 0 0.00037631185849158966 0.016033157308848446 0 0.00089778895651357142 0.015971748339061065 0 -0.00018469468320253025 0.0048383109249017344 0 0.00021622201376085695 0.004520338583703625 0 0.00022251653758145691 0.0051358224960837556 0 -0.00018469468320253025 0.0048383109249017344 0 0.00022251653758145691 0.0051358224960837556 0 -0.00022431268013191146 0.0051897374799800148 0 0.0010249778491645317 0.0045337819149873755 0 0.00021622201376085695 0.004520338583703625 0 0.00076300373243749027 0.0050066193842896968 0 0.00021622201376085695 0.004520338583703625 0 0.00076300373243749027 0.0050066193842896968 0 0.00022251653758145691 0.0051358224960837556 0 0.00076300373243749027 0.0050066193842896968 0 0.00022251653758145691 0.0051358224960837556 0 0.00052439770353537472 0.0056038526598136545 0 0.00022251653758145691 0.0051358224960837556 0 -0.00017572291192919861 0.0055299221606440688 0 0.00052439770353537472 0.0056038526598136545 0 0.00022251653758145691 0.0051358224960837556 0 -0.00017572291192919861 0.0055299221606440688 0 -0.00022431268013191146 0.0051897374799800148 0 -0.00017572291192919861 0.0055299221606440688 0 0.00052439770353537472 0.0056038526598136545 0 -0.0001037591948823401 0.0060964385171670349 0 -0.00082716745351572743 0.0052384423866306722 0 -0.00060924886585279122 0.0054014620367685857 0 -0.00094326181908865533 0.0054752171501620027 0 -0.00082716745351572743 0.0052384423866306722 0 -0.00060924886585279122 0.0054014620367685857 0 -0.00054361051120759213 0.0051233545375719237 0 -0.00017572291192919861 0.0055299221606440688 0 -0.00060924886585279122 0.0054014620367685857 0 -0.00022431268013191146 0.0051897374799800148 0 -0.00060924886585279122 0.0054014620367685857 0 -0.00054361051120759213 0.0051233545375719237 0 -0.00022431268013191146 0.0051897374799800148 0 -0.00017572291192919861 0.0055299221606440688 0 -0.00074344741647254617 0.0056871692852726837 0 -0.0001037591948823401 0.0060964385171670349 0 -0.00017572291192919861 0.0055299221606440688 0 -0.00060924886585279122 0.0054014620367685857 0 -0.00074344741647254617 0.0056871692852726837 0 -0.00060924886585279122 0.0054014620367685857 0 -0.00074344741647254617 0.0056871692852726837 0 -0.00094326181908865533 0.0054752171501620027 0 -0.00078037409160679248 0.005642511641644401 0 -0.0010947091873948652 0.0052578885173239741 0 -0.00074344741647254617 0.0056871692852726837 0 -0.001065636342591051 0.0061129741178077594 0 -0.0006289464541170323 0.006229052451786855 0 -0.00074344741647254617 0.0056871692852726837 0 -0.001065636342591051 0.0061129741178077594 0 -0.0015887388133628438 0.0058000479737651007 0 -0.00074344741647254617 0.0056871692852726837 0 -0.0006289464541170323 0.006229052451786855 0 -0.0001037591948823401 0.0060964385171670349 0 -0.00037916976934110233 0.0066130147145782121 0 -0.0006289464541170323 0.006229052451786855 0 -0.00086561029762066558 0.0066244704204579605 0 -0.00037916976934110233 0.0066130147145782121 0 -0.0006289464541170323 0.006229052451786855 0 -0.0001037591948823401 0.0060964385171670349 0 -0.001065636342591051 0.0061129741178077594 0 -0.0006289464541170323 0.006229052451786855 0 -0.00086561029762066558 0.0066244704204579605 0 -0.001065636342591051 0.0061129741178077594 0 -0.00086561029762066558 0.0066244704204579605 0 -0.0014212711309158979 0.0063227929590661787 0 0.00052439770353537472 0.0056038526598136545 0 0.00062842516854877016 0.0063023958709434299 0 -0.0001037591948823401 0.0060964385171670349 0 0.00052439770353537472 0.0056038526598136545 0 0.00062842516854877016 0.0063023958709434299 0 0.0011152928950179147 0.0059145273727650447 0 -0.00037916976934110233 0.0066130147145782121 0 -0.0001037591948823401 0.0060964385171670349 0 7.4281271964120755e-05 0.006915749113521134 0 0.00062842516854877016 0.0063023958709434299 0 -0.0001037591948823401 0.0060964385171670349 0 7.4281271964120755e-05 0.006915749113521134 0 0.00062842516854877016 0.0063023958709434299 0 0.0010471685785638832 0.0072742348359737452 0 7.4281271964120755e-05 0.006915749113521134 0 0.00062842516854877016 0.0063023958709434299 0 0.0014522552676129793 0.0065699783123942344 0 0.0010471685785638832 0.0072742348359737452 0 0.00062842516854877016 0.0063023958709434299 0 0.0014522552676129793 0.0065699783123942344 0 0.0011152928950179147 0.0059145273727650447 0 0.0014522552676129793 0.0065699783123942344 0 0.0022743941750786195 0.0067998252536009048 0 0.0017802900592753398 0.0058990070630326715 0 0.0014522552676129793 0.0065699783123942344 0 0.0011152928950179147 0.0059145273727650447 0 0.0017802900592753398 0.0058990070630326715 0 0.0014522552676129793 0.0065699783123942344 0 0.0022743941750786195 0.0067998252536009048 0 0.0018110568980229703 0.0073679269193210606 0 0.0037346500202471138 0.009055159107556018 0 0.0036468188975464031 0.0092575787222349288 0 0.0031933186414534521 0.0070122549514357495 0 0.0022743941750786195 0.0067998252536009048 0 0.0027073485330919417 0.0061278920189261083 0 0.0022743941750786195 0.0067998252536009048 0 0.0027073485330919417 0.0061278920189261083 0 0.0017802900592753398 0.0058990070630326715 0 0.0027073485330919417 0.0061278920189261083 0 0.0022381851487664494 0.0053516476749656998 0 0.0017802900592753398 0.0058990070630326715 0 0.0036468188975464031 0.0092575787222349288 0 0.0037364818220680081 0.0087440468795661266 0 0.0037137526528722297 0.012918452406050988 0 0.0045742474753749747 0.012144274456926406 0 0.0050004404063852554 0.013263181003165635 0 0.0037137526528722297 0.012918452406050988 0 0.0042122557338702031 0.014346549150298357 0 0.0050004404063852554 0.013263181003165635 0 0.0022381851487664494 0.0053516476749656998 0 0.0013203882814780167 0.0052660647721799944 0 0.0017802900592753398 0.0058990070630326715 0 0.001845925006158184 0.0046248738719921632 0 0.0022381851487664494 0.0053516476749656998 0 0.0013203882814780167 0.0052660647721799944 0 0.00076300373243749027 0.0050066193842896968 0 0.00052439770353537472 0.0056038526598136545 0 0.0013203882814780167 0.0052660647721799944 0 0.00052439770353537472 0.0056038526598136545 0 0.0013203882814780167 0.0052660647721799944 0 0.0011152928950179147 0.0059145273727650447 0 0.0013203882814780167 0.0052660647721799944 0 0.0011152928950179147 0.0059145273727650447 0 0.0017802900592753398 0.0058990070630326715 0 -0.0075324819018277407 0.0085560015503089761 0 -0.0074969245151315254 0.0086401990170056463 0 -0.0076653443005036898 0.0087599140893122804 0 -0.007441772746165724 0.0085451622673124519 0 -0.0075324819018277407 0.0085560015503089761 0 -0.0074969245151315254 0.0086401990170056463 0 -0.007441772746165724 0.0085451622673124519 0 -0.0075324819018277407 0.0085560015503089761 0 -0.0074448901048182279 0.0084645665405076887 0 -0.0074969245151315254 0.0086401990170056463 0 -0.0073751864731520468 0.0085832838867976897 0 -0.0073857670960753652 0.0086653591792492397 0 -0.007441772746165724 0.0085451622673124519 0 -0.0074969245151315254 0.0086401990170056463 0 -0.0073751864731520468 0.0085832838867976897 0 -0.0073751864731520468 0.0085832838867976897 0 -0.0073048544136000383 0.0086020757536266375 0 -0.0072679860969406479 0.0085310679842617292 0 -0.0073751864731520468 0.0085832838867976897 0 -0.0073048544136000383 0.0086020757536266375 0 -0.0073857670960753652 0.0086653591792492397 0 -0.0072616495493260467 0.0086428356975732194 0 -0.0073048544136000383 0.0086020757536266375 0 -0.0073857670960753652 0.0086653591792492397 0 -0.0072616495493260467 0.0086428356975732194 0 -0.0073048544136000383 0.0086020757536266375 0 -0.0072297018378477945 0.0085833791816600225 0 -0.0072616495493260467 0.0086428356975732194 0 -0.0072297018378477945 0.0085833791816600225 0 -0.0071639516536039557 0.0086080264907066172 0 -0.0073048544136000383 0.0086020757536266375 0 -0.0072297018378477945 0.0085833791816600225 0 -0.0072679860969406479 0.0085310679842617292 0 -0.0072297018378477945 0.0085833791816600225 0 -0.0072679860969406479 0.0085310679842617292 0 -0.0071766209682894589 0.0085402176685496056 0 -0.0072679860969406479 0.0085310679842617292 0 -0.0071766209682894589 0.0085402176685496056 0 -0.0071980814040406944 0.0084853095976693514 0 -0.0073751864731520468 0.0085832838867976897 0 -0.0072679860969406479 0.0085310679842617292 0 -0.0073541951402748855 0.0084821777692129334 0 -0.007441772746165724 0.0085451622673124519 0 -0.0073751864731520468 0.0085832838867976897 0 -0.0073541951402748855 0.0084821777692129334 0 -0.0073541951402748855 0.0084821777692129334 0 -0.0072621381010233672 0.0084534093276813927 0 -0.0073096065516491957 0.0083941076286935638 0 -0.0073541951402748855 0.0084821777692129334 0 -0.0073096065516491957 0.0083941076286935638 0 -0.0073802047143059638 0.0084114081210601068 0 -0.0072679860969406479 0.0085310679842617292 0 -0.0073541951402748855 0.0084821777692129334 0 -0.0072621381010233672 0.0084534093276813927 0 -0.0072679860969406479 0.0085310679842617292 0 -0.0072621381010233672 0.0084534093276813927 0 -0.0071980814040406944 0.0084853095976693514 0 -0.0072621381010233672 0.0084534093276813927 0 -0.0072037390287143467 0.008431348515302528 0 -0.0071980814040406944 0.0084853095976693514 0 -0.0072621381010233672 0.0084534093276813927 0 -0.0072383910889593289 0.0083972574679056292 0 -0.0073096065516491957 0.0083941076286935638 0 -0.0072621381010233672 0.0084534093276813927 0 -0.0072037390287143467 0.008431348515302528 0 -0.0072383910889593289 0.0083972574679056292 0 -0.0072037390287143467 0.008431348515302528 0 -0.0072383910889593289 0.0083972574679056292 0 -0.0071749288281638662 0.0083766577254270943 0 -0.0072383910889593289 0.0083972574679056292 0 -0.0072434115824824034 0.0083369266749325852 0 -0.0071749288281638662 0.0083766577254270943 0 -0.0072383910889593289 0.0083972574679056292 0 -0.0072434115824824034 0.0083369266749325852 0 -0.0073096065516491957 0.0083941076286935638 0 -0.0072434115824824034 0.0083369266749325852 0 -0.0071749288281638662 0.0083766577254270943 0 -0.0071866240759706742 0.0083265370095932673 0 -0.0073096065516491957 0.0083941076286935638 0 -0.0073802047143059638 0.0084114081210601068 0 -0.0073559810977712921 0.0083387840284264332 0 -0.0072434115824824034 0.0083369266749325852 0 -0.0073096065516491957 0.0083941076286935638 0 -0.0072967068415816516 0.0083275946452601394 0 -0.0073096065516491957 0.0083941076286935638 0 -0.0073559810977712921 0.0083387840284264332 0 -0.0072967068415816516 0.0083275946452601394 0 -0.0074361916814068519 0.0083771702003345421 0 -0.0073802047143059638 0.0084114081210601068 0 -0.0073559810977712921 0.0083387840284264332 0 -0.0074361916814068519 0.0083771702003345421 0 -0.0073802047143059638 0.0084114081210601068 0 -0.0074448901048182279 0.0084645665405076887 0 -0.007441772746165724 0.0085451622673124519 0 -0.0073541951402748855 0.0084821777692129334 0 -0.0074448901048182279 0.0084645665405076887 0 -0.0073541951402748855 0.0084821777692129334 0 -0.0073802047143059638 0.0084114081210601068 0 -0.0074448901048182279 0.0084645665405076887 0 -0.0075324819018277407 0.0085560015503089761 0 -0.0074448901048182279 0.0084645665405076887 0 -0.0075287693984293861 0.0084275788432931625 0 -0.0074361916814068519 0.0083771702003345421 0 -0.0075287693984293861 0.0084275788432931625 0 -0.0074957515124641685 0.0083154534903494663 0 -0.0074361916814068519 0.0083771702003345421 0 -0.0074448901048182279 0.0084645665405076887 0 -0.0075287693984293861 0.0084275788432931625 0 -0.0075287693984293861 0.0084275788432931625 0 -0.0076278332746434986 0.0083800572757187844 0 -0.0074957515124641685 0.0083154534903494663 0 -0.0076278332746434986 0.0083800572757187844 0 -0.0076193180848137696 0.0085116938198343713 0 -0.0077487267021992545 0.0084736643931333649 0 -0.0075324819018277407 0.0085560015503089761 0 -0.0075287693984293861 0.0084275788432931625 0 -0.0076193180848137696 0.0085116938198343713 0 -0.0075287693984293861 0.0084275788432931625 0 -0.0076278332746434986 0.0083800572757187844 0 -0.0076193180848137696 0.0085116938198343713 0 -0.0076189732959447247 0.0093770309269091846 0 -0.007434634624481907 0.0095971751950574228 0 -0.0073442865010162634 0.0092853540775875171 0 -0.0077005503384737304 0.008888631848454235 0 -0.0075045062830181933 0.0092071750037236322 0 -0.0076189732959447247 0.0093770309269091846 0 -0.0074724530217300201 0.0098145172119446806 0 -0.007434634624481907 0.0095971751950574228 0 -0.0076278332746434986 0.0083800572757187844 0 -0.0077487267021992545 0.0084736643931333649 0 -0.0077187554986490586 0.008320143724841295 0 -0.0076189732959447247 0.0093770309269091846 0 -0.0074527500547718235 0.0089193299887387421 0 -0.0073442865010162634 0.0092853540775875171 0 -0.0076189732959447247 0.0093770309269091846 0 -0.0076653443005036898 0.0087599140893122804 0 -0.0074527500547718235 0.0089193299887387421 0 -0.0075324819018277407 0.0085560015503089761 0 -0.0076193180848137696 0.0085116938198343713 0 -0.0076653443005036898 0.0087599140893122804 0 -0.0077005503384737304 0.008888631848454235 0 -0.0076582284413281004 0.0088105190472834508 0 -0.0076193180848137696 0.0085116938198343713 0 -0.0077487267021992545 0.0084736643931333649 0 -0.0076653443005036898 0.0087599140893122804 0 -0.0076089534769051862 0.0086712708845603902 0 -0.0076653443005036898 0.0087599140893122804 0 -0.0075984644327316388 0.0087076840477147283 0 -0.0076089534769051862 0.0086712708845603902 0 -0.0074527500547718235 0.0089193299887387421 0 -0.0072684890008076208 0.0085815050774803951 0 -0.0076089534769051862 0.0086712708845603902 0 -0.0076653443005036898 0.0087599140893122804 0 -0.0074527500547718235 0.0089193299887387421 0 -0.0076089534769051862 0.0086712708845603902 0 -0.0074310695627089604 0.0083526372980988941 0 -0.0072684890008076208 0.0085815050774803951 0 -0.0074310695627089604 0.0083526372980988941 0 -0.0076799301736879093 0.0085690973441532002 0 -0.0076225036178587165 0.0082297276177951025 0 -0.0076089534769051862 0.0086712708845603902 0 -0.0076799301736879093 0.0085690973441532002 0 -0.0075984644327316388 0.0087076840477147283 0 -0.0076089534769051862 0.0086712708845603902 0 -0.0074310695627089604 0.0083526372980988941 0 -0.0076799301736879093 0.0085690973441532002 0 -0.0063067626207508817 0.0074390356549698796 0 -0.0068192619071017592 0.0073369508341315746 0 -0.0076799301736879093 0.0085690973441532002 0 -0.0079610702406494177 0.0085829863543621775 0 -0.0076225036178587165 0.0082297276177951025 0 -0.0075614497328104421 0.0087439663248126409 0 -0.0075984644327316388 0.0087076840477147283 0 -0.0073669007355875284 0.0087689865133900938 0 -0.0080842333956919026 0.00847587700567058 0 -0.0063067626207508817 0.0074390356549698796 0 -0.0076799301736879093 0.0085690973441532002 0 -0.0075614497328104421 0.0087439663248126409 0 -0.0075984644327316388 0.0087076840477147283 0 -0.0075984644327316388 0.0087076840477147283 0 -0.0073857670960753652 0.0086653591792492397 0 -0.0073669007355875284 0.0087689865133900938 0 -0.0074969245151315254 0.0086401990170056463 0 -0.0076653443005036898 0.0087599140893122804 0 -0.0075984644327316388 0.0087076840477147283 0 -0.0074969245151315254 0.0086401990170056463 0 -0.0075984644327316388 0.0087076840477147283 0 -0.0073857670960753652 0.0086653591792492397 0 -0.0072722080647885934 0.008690279242195632 0 -0.0073669007355875284 0.0087689865133900938 0 -0.0070885200742115987 0.0086802853133739876 0 -0.0072616495493260467 0.0086428356975732194 0 -0.0072722080647885934 0.008690279242195632 0 -0.0073857670960753652 0.0086653591792492397 0 -0.0072616495493260467 0.0086428356975732194 0 -0.0072722080647885934 0.008690279242195632 0 -0.007190094630208128 0.0086582104532637004 0 -0.0072722080647885934 0.008690279242195632 0 -0.0073857670960753652 0.0086653591792492397 0 -0.0073669007355875284 0.0087689865133900938 0 -0.0039423429208173821 0.0060871813081541087 0 -0.0036313615591686004 0.0064603570953199844 0 -0.0034068699396421803 0.0060560278372506719 0 -0.0046318799988298819 0.0064920343748172274 0 -0.0039423429208173821 0.0060871813081541087 0 -0.0036313615591686004 0.0064603570953199844 0 -0.0063067626207508817 0.0074390356549698796 0 -0.0037877056118024235 0.0060474899152197113 0 -0.0054300925335219212 0.0059432934762239115 0 -0.0044658204371962329 0.0057612439033417097 0 -0.0047163471312536478 0.0061900776450862869 0 -0.0063067626207508817 0.0074390356549698796 0 -0.0051938769382488077 0.0070964867999927066 0 -0.0037877056118024235 0.0060474899152197113 0 -0.003033308509316982 0.0061314725300549199 0 -0.0036313615591686004 0.0064603570953199844 0 -0.0034068699396421803 0.0060560278372506719 0 -0.0029707919400921131 0.0060376088119731492 0 -0.0036313615591686004 0.0064603570953199844 0 -0.0027668883599082446 0.0063790220744606146 0 -0.0029707919400921131 0.0060376088119731492 0 -0.0044658204371962329 0.0057612439033417097 0 -0.0031661502740494944 0.0058394818622799381 0 -0.0038787879296557832 0.0064016282931615162 0 -0.003033308509316982 0.0061314725300549199 0 -0.0021205978986695768 0.0062030742183912082 0 -0.0031661502740494944 0.0058394818622799381 0 -0.00203001694710461 0.0062375728222613513 0 -0.0024431220110678934 0.0065810501271019867 0 -0.002714576772008875 0.0057877532679721259 0 -0.0022498741061087518 0.005760659875385165 0 -0.0024913163187424135 0.0051187807495997146 0 -0.0027668883599082446 0.0063790220744606146 0 -0.002714576772008875 0.0057877532679721259 0 -0.0029707919400921131 0.0060376088119731492 0 -0.002714576772008875 0.0057877532679721259 0 -0.0030947634933580618 0.0056554640776156229 0 -0.0029707919400921131 0.0060376088119731492 0 -0.0027668883599082446 0.0063790220744606146 0 -0.002714576772008875 0.0057877532679721259 0 -0.0022498741061087518 0.005760659875385165 0 -0.0051938769382488077 0.0070964867999927066 0 -0.0027278481535886788 0.0053948966329865206 0 -0.0051938769382488077 0.0070964867999927066 0 -0.0052398741129509969 0.0072026312173834144 0 -0.0043465033045353083 0.0064436478902217525 0 -0.0030947634933580618 0.0056554640776156229 0 -0.0031980809065277082 0.0055575225480276906 0 -0.0039423429208173821 0.0060871813081541087 0 -0.0030947634933580618 0.0056554640776156229 0 -0.0034068699396421803 0.0060560278372506719 0 -0.0072722080647885934 0.008690279242195632 0 -0.0070885200742115987 0.0086802853133739876 0 -0.007190094630208128 0.0086582104532637004 0 -0.0070885200742115987 0.0086802853133739876 0 -0.007190094630208128 0.0086582104532637004 0 -0.0071325914169641149 0.0086387809766320985 0 -0.0030947634933580618 0.0056554640776156229 0 -0.0034068699396421803 0.0060560278372506719 0 -0.0029707919400921131 0.0060376088119731492 0 -0.0014212711309158979 0.0063227929590661787 0 -0.00203001694710461 0.0062375728222613513 0 -0.0015779149173559114 0.0068524769404448866 0 -0.0014212711309158979 0.0063227929590661787 0 -0.00203001694710461 0.0062375728222613513 0 -0.0015887388133628438 0.0058000479737651007 0 -0.0027668883599082446 0.0063790220744606146 0 -0.00203001694710461 0.0062375728222613513 0 -0.0022498741061087518 0.005760659875385165 0 -0.00203001694710461 0.0062375728222613513 0 -0.0022498741061087518 0.005760659875385165 0 -0.0015887388133628438 0.0058000479737651007 0 -0.0022498741061087518 0.005760659875385165 0 -0.0015887388133628438 0.0058000479737651007 0 -0.0019055555697376626 0.0052887771631510913 0 -0.001065636342591051 0.0061129741178077594 0 -0.0014212711309158979 0.0063227929590661787 0 -0.0015887388133628438 0.0058000479737651007 0 -0.0015887388133628438 0.0058000479737651007 0 -0.0013232789463709222 0.0051034838022579066 0 -0.0019055555697376626 0.0052887771631510913 0 -0.00074344741647254617 0.0056871692852726837 0 -0.0015887388133628438 0.0058000479737651007 0 -0.0013232789463709222 0.0051034838022579066 0 -0.0019055555697376626 0.0052887771631510913 0 -0.0018553757316933292 0.0046504005421103304 0 -0.0024913163187424135 0.0051187807495997146 0 -0.0022498741061087518 0.005760659875385165 0 -0.0019055555697376626 0.0052887771631510913 0 -0.0024913163187424135 0.0051187807495997146 0 -0.0027023309698562081 0.0062993378447759795 0 -0.0048872103963026005 0.0069170675630495296 0 -0.0065581940877383824 0.0083427220119601693 0 -0.0068242652399070521 0.0085317894694564578 0 -0.0067959732119899407 0.00831466228455679 0 -0.00082716745351572743 0.0052384423866306722 0 -0.00094326181908865533 0.0054752171501620027 0 -0.0010754895935968219 0.00514196392312873 0 -0.0013232789463709222 0.0051034838022579066 0 -0.0019055555697376626 0.0052887771631510913 0 -0.0018553757316933292 0.0046504005421103304 0 -0.00094326181908865533 0.0054752171501620027 0 -0.0012196498037567365 0.0052536391212822898 0 -0.0010754895935968219 0.00514196392312873 0 -0.0010947091873948652 0.0052578885173239741 0 -0.0027023309698562081 0.0062993378447759795 0 -0.0027023309698562081 0.0062993378447759795 0 -0.0010373062563014449 0.0050633195484604265 0 -0.0070306319009405607 0.0085642378721477869 0 -0.0071144921690350369 0.0085042763962820123 0 -0.0070236466000293445 0.0084448953666207242 0 -0.0070306319009405607 0.0085642378721477869 0 -0.0071144921690350369 0.0085042763962820123 0 -0.0071139769344274271 0.0085638029372375989 0 -0.0071144921690350369 0.0085042763962820123 0 -0.0071766209682894589 0.0085402176685496056 0 -0.0071980814040406944 0.0084853095976693514 0 -0.0071144921690350369 0.0085042763962820123 0 -0.0071766209682894589 0.0085402176685496056 0 -0.0071139769344274271 0.0085638029372375989 0 -0.0071139769344274271 0.0085638029372375989 0 -0.0071639516536039557 0.0086080264907066172 0 -0.0071063799604856957 0.0086105662223384862 0 -0.0071766209682894589 0.0085402176685496056 0 -0.0071139769344274271 0.0085638029372375989 0 -0.0071639516536039557 0.0086080264907066172 0 -0.0072297018378477945 0.0085833791816600225 0 -0.0071766209682894589 0.0085402176685496056 0 -0.0071639516536039557 0.0086080264907066172 0 -0.0072616495493260467 0.0086428356975732194 0 -0.007190094630208128 0.0086582104532637004 0 -0.0071639516536039557 0.0086080264907066172 0 -0.0071639516536039557 0.0086080264907066172 0 -0.0071325914169641149 0.0086387809766320985 0 -0.0071063799604856957 0.0086105662223384862 0 -0.007190094630208128 0.0086582104532637004 0 -0.0071639516536039557 0.0086080264907066172 0 -0.0071325914169641149 0.0086387809766320985 0 -0.0070885200742115987 0.0086802853133739876 0 -0.0071325914169641149 0.0086387809766320985 0 -0.0071063799604856957 0.0086105662223384862 0 -0.0070885200742115987 0.0086802853133739876 0 -0.0070306319009405607 0.0085642378721477869 0 -0.0071063799604856957 0.0086105662223384862 0 -0.0070306319009405607 0.0085642378721477869 0 -0.0071139769344274271 0.0085638029372375989 0 -0.0071063799604856957 0.0086105662223384862 0 -0.0052398741129509969 0.0072026312173834144 0 -0.0048872103963026005 0.0069170675630495296 0 -0.002714576772008875 0.0057877532679721259 0 -0.0030947634933580618 0.0056554640776156229 0 -0.0024913163187424135 0.0051187807495997146 0 -0.0030947634933580618 0.0056554640776156229 0 -0.0031980809065277082 0.0055575225480276906 0 -0.0024913163187424135 0.0051187807495997146 0 -0.0070885200742115987 0.0086802853133739876 0 -0.0070306319009405607 0.0085642378721477869 0 -0.0068242652399070521 0.0085317894694564578 0 -0.0070306319009405607 0.0085642378721477869 0 -0.0068242652399070521 0.0085317894694564578 0 -0.0070236466000293445 0.0084448953666207242 0 -0.0068242652399070521 0.0085317894694564578 0 -0.0067959732119899407 0.00831466228455679 0 -0.0069103394732888887 0.0083971007228385176 0 -0.0068242652399070521 0.0085317894694564578 0 -0.0069103394732888887 0.0083971007228385176 0 -0.0070236466000293445 0.0084448953666207242 0 -0.0067959732119899407 0.00831466228455679 0 -0.0069103394732888887 0.0083971007228385176 0 -0.0069925227889681375 0.0083027347591249599 0 -0.0069103394732888887 0.0083971007228385176 0 -0.0070236466000293445 0.0084448953666207242 0 -0.0069925227889681375 0.0083027347591249599 0 -0.0070921097855071655 0.0083819994127698663 0 -0.0070236466000293445 0.0084448953666207242 0 -0.0069925227889681375 0.0083027347591249599 0 -0.0070921097855071655 0.0083819994127698663 0 -0.007110283748053209 0.0083190937022594637 0 -0.0069925227889681375 0.0083027347591249599 0 -0.0070921097855071655 0.0083819994127698663 0 -0.0070236466000293445 0.0084448953666207242 0 -0.0071437649975727739 0.0084444564316832095 0 -0.0071144921690350369 0.0085042763962820123 0 -0.0070236466000293445 0.0084448953666207242 0 -0.0071437649975727739 0.0084444564316832095 0 -0.0072037390287143467 0.008431348515302528 0 -0.0071980814040406944 0.0084853095976693514 0 -0.0071437649975727739 0.0084444564316832095 0 -0.0071144921690350369 0.0085042763962820123 0 -0.0071980814040406944 0.0084853095976693514 0 -0.0071437649975727739 0.0084444564316832095 0 -0.0072037390287143467 0.008431348515302528 0 -0.0071437649975727739 0.0084444564316832095 0 -0.0071749288281638662 0.0083766577254270943 0 -0.0070921097855071655 0.0083819994127698663 0 -0.0071437649975727739 0.0084444564316832095 0 -0.0071749288281638662 0.0083766577254270943 0 -0.0070921097855071655 0.0083819994127698663 0 -0.0071749288281638662 0.0083766577254270943 0 -0.007110283748053209 0.0083190937022594637 0 -0.0071749288281638662 0.0083766577254270943 0 -0.007110283748053209 0.0083190937022594637 0 -0.0071866240759706742 0.0083265370095932673 0 -0.007110283748053209 0.0083190937022594637 0 -0.0071764620493826922 0.0082801691449208899 0 -0.0071866240759706742 0.0083265370095932673 0 -0.007110283748053209 0.0083190937022594637 0 -0.0071764620493826922 0.0082801691449208899 0 -0.0070728857622817118 0.0082492129277306064 0 -0.0071764620493826922 0.0082801691449208899 0 -0.0071453937990453549 0.0082266396428403374 0 -0.0070728857622817118 0.0082492129277306064 0 -0.0071453937990453549 0.0082266396428403374 0 -0.0071780336770717098 0.0081957607126621947 0 -0.0072055797320028283 0.0082310221667872014 0 -0.0071764620493826922 0.0082801691449208899 0 -0.0071453937990453549 0.0082266396428403374 0 -0.0072055797320028283 0.0082310221667872014 0 -0.0071453937990453549 0.0082266396428403374 0 -0.0070938368432137168 0.0081928923753528671 0 -0.0070728857622817118 0.0082492129277306064 0 -0.0071453937990453549 0.0082266396428403374 0 -0.0070938368432137168 0.0081928923753528671 0 -0.0071331003055946154 0.0081882272428168527 0 -0.0070938368432137168 0.0081928923753528671 0 -0.0071331003055946154 0.0081882272428168527 0 -0.007105017982966276 0.0081531684309782363 0 -0.0071331003055946154 0.0081882272428168527 0 -0.0071780336770717098 0.0081957607126621947 0 -0.0071558383676163222 0.0081632429724591126 0 -0.0071453937990453549 0.0082266396428403374 0 -0.0071331003055946154 0.0081882272428168527 0 -0.0071780336770717098 0.0081957607126621947 0 -0.0069925227889681375 0.0083027347591249599 0 -0.0070728857622817118 0.0082492129277306064 0 -0.0070095548042814716 0.0081469712861585043 0 -0.0070938368432137168 0.0081928923753528671 0 -0.0070728857622817118 0.0082492129277306064 0 -0.0070095548042814716 0.0081469712861585043 0 -0.0070938368432137168 0.0081928923753528671 0 -0.007105017982966276 0.0081531684309782363 0 -0.0070095548042814716 0.0081469712861585043 0 -0.007110283748053209 0.0083190937022594637 0 -0.0069925227889681375 0.0083027347591249599 0 -0.0070728857622817118 0.0082492129277306064 0 -0.0067959732119899407 0.00831466228455679 0 -0.0069925227889681375 0.0083027347591249599 0 -0.0068819650775166791 0.0081506738969133827 0 -0.0069925227889681375 0.0083027347591249599 0 -0.0068819650775166791 0.0081506738969133827 0 -0.0070095548042814716 0.0081469712861585043 0 -0.001616125503795868 0.0049710304483870909 0 -0.0015038362561123398 0.0046908287637667818 0 -0.0013280022423860427 0.0050033062413097837 0 -0.001616125503795868 0.0049710304483870909 0 -0.0015038362561123398 0.0046908287637667818 0 -0.0019624019947762023 0.0047198922756383896 0 -0.0044550545795444931 0.0061157399434302482 0 -0.0051947184387421373 0.0093688842684046467 0 -0.007122374661749674 0.0081018674809226112 0 -0.0070095548042814716 0.0081469712861585043 0 -0.0071471049953390981 0.0080011182929377467 0 -0.0068819650775166791 0.0081506738969133827 0 -0.0070095548042814716 0.0081469712861585043 0 -0.0071471049953390981 0.0080011182929377467 0 -0.001616125503795868 0.0049710304483870909 0 -0.0020010216268515927 0.0047469163987151723 0 -0.0019624019947762023 0.0047198922756383896 0 -0.007158452943317949 0.0080676235882075273 0 -0.007122374661749674 0.0081018674809226112 0 -0.0071471049953390981 0.0080011182929377467 0 -0.007158452943317949 0.0080676235882075273 0 -0.0071471049953390981 0.0080011182929377467 0 -0.0072130980638577544 0.0080935896526383947 0 -0.007158452943317949 0.0080676235882075273 0 -0.007122374661749674 0.0081018674809226112 0 -0.0071663569279314335 0.0081075466576944737 0 -0.007158452943317949 0.0080676235882075273 0 -0.0071663569279314335 0.0081075466576944737 0 -0.0071851544764854614 0.008089576067721491 0 -0.007122374661749674 0.0081018674809226112 0 -0.0071441232443706579 0.008130422326394781 0 -0.007105017982966276 0.0081531684309782363 0 -0.007122374661749674 0.0081018674809226112 0 -0.0071663569279314335 0.0081075466576944737 0 -0.0071441232443706579 0.008130422326394781 0 -0.0071663569279314335 0.0081075466576944737 0 -0.0071441232443706579 0.008130422326394781 0 -0.0071824664637696644 0.008140657061181146 0 -0.0071441232443706579 0.008130422326394781 0 -0.0071558383676163222 0.0081632429724591126 0 -0.007105017982966276 0.0081531684309782363 0 -0.0071558383676163222 0.0081632429724591126 0 -0.0071824664637696644 0.008140657061181146 0 -0.0071932035037370065 0.0081698487550437484 0 -0.0071441232443706579 0.008130422326394781 0 -0.0071558383676163222 0.0081632429724591126 0 -0.0071824664637696644 0.008140657061181146 0 -0.0071780336770717098 0.0081957607126621947 0 -0.0071558383676163222 0.0081632429724591126 0 -0.0071932035037370065 0.0081698487550437484 0 -0.0071331003055946154 0.0081882272428168527 0 -0.0071558383676163222 0.0081632429724591126 0 -0.007105017982966276 0.0081531684309782363 0 -0.007122374661749674 0.0081018674809226112 0 -0.007105017982966276 0.0081531684309782363 0 -0.0070095548042814716 0.0081469712861585043 0 -0.00080005564723972756 0.0048754377919483904 0 -0.00082716745351572743 0.0052384423866306722 0 -0.0010754895935968219 0.00514196392312873 0 -0.00080005564723972756 0.0048754377919483904 0 -0.0010754895935968219 0.00514196392312873 0 -0.001078927893671974 0.0048922426935362725 0 -0.0011933741747765377 0.0050848640993049216 0 -0.0010754895935968219 0.00514196392312873 0 -0.001078927893671974 0.0048922426935362725 0 -0.0012263564920171031 0.0052564114849381251 0 -0.0011933741747765377 0.0050848640993049216 0 -0.0010754895935968219 0.00514196392312873 0 -0.0065581940877383824 0.0083427220119601693 0 -0.0067959732119899407 0.00831466228455679 0 -0.0068819650775166791 0.0081506738969133827 0 -0.0027023309698562081 0.0062993378447759795 0 -0.0044550545795444931 0.0061157399434302482 0 -0.0012263564920171031 0.0052564114849381251 0 -0.001616125503795868 0.0049710304483870909 0 -0.0013280022423860427 0.0050033062413097837 0 -0.0011933741747765377 0.0050848640993049216 0 -0.001078927893671974 0.0048922426935362725 0 -0.0013280022423860427 0.0050033062413097837 0 -0.0012263564920171031 0.0052564114849381251 0 -0.0011933741747765377 0.0050848640993049216 0 -0.0013280022423860427 0.0050033062413097837 0 -0.0015038362561123398 0.0046908287637667818 0 -0.0013280022423860427 0.0050033062413097837 0 -0.0010245744630841109 0.0046530302923181088 0 -0.0003509013281889492 0.010217262661497702 0 -0.00058297051557877676 0.010334060903298458 0 -0.001078927893671974 0.0048922426935362725 0 -0.0013280022423860427 0.0050033062413097837 0 -0.0010245744630841109 0.0046530302923181088 0 -0.00080005564723972756 0.0048754377919483904 0 -0.001078927893671974 0.0048922426935362725 0 -0.0010245744630841109 0.0046530302923181088 0 0.00018946930294411584 0.015921214577710362 0 3.1468536962564505e-05 0.016008023486411414 0 7.0067512417646758e-05 0.015928077395255608 0 3.1468536962564505e-05 0.016008023486411414 0 7.0067512417646758e-05 0.015928077395255608 0 -4.0506712554122655e-05 0.015936151632682166 0 7.0067512417646758e-05 0.015928077395255608 0 -4.0506712554122655e-05 0.015936151632682166 0 -7.5095559144434758e-05 0.015902821343337765 0 -0.00011906953367089569 0.01594642703331707 0 -4.0506712554122655e-05 0.015936151632682166 0 -7.2283395589880419e-05 0.015910324639554017 0 -0.00011906953367089569 0.01594642703331707 0 3.1468536962564505e-05 0.016008023486411414 0 -4.0506712554122655e-05 0.015936151632682166 0 -4.0506712554122655e-05 0.015936151632682166 0 -7.2283395589880419e-05 0.015910324639554017 0 -7.5095559144434758e-05 0.015902821343337765 0 -7.2283395589880419e-05 0.015910324639554017 0 -1.5221780288766956e-05 0.015972215801928827 0 -0.00015571906657752267 0.015864739320359058 0 -0.001571902149571877 0.015760044251009957 0 -0.0017698190022221426 0.015024214951582435 0 -7.2283395589880419e-05 0.015910324639554017 0 -1.5221780288766956e-05 0.015972215801928827 0 -7.5095559144434758e-05 0.015902821343337765 0 -0.00028685646710809731 0.0163134252977883 0 -7.5874728662486413e-05 0.015938454048225265 0 0.00024898009601481594 0.015808867428492499 0 0.00014270357307892819 0.015875401038364951 0 -7.5095559144434758e-05 0.015902821343337765 0 0.00031734093746195224 0.016169548302724327 0 -0.00023278987444857937 0.01623794824196604 0 -0.00062646477180472817 0.01680652598489343 0 -0.00083461774909550531 0.016843411590012458 0 -7.5095559144434758e-05 0.015902821343337765 0 -0.00023278987444857937 0.01623794824196604 0 -1.5221780288766956e-05 0.015972215801928827 0 -7.5095559144434758e-05 0.015902821343337765 0 -0.00023278987444857937 0.01623794824196604 0 -0.001571902149571877 0.015760044251009957 0 0.00010618615773402888 0.015999184243433186 0 0.00019956868412325589 0.015896767835980367 0 7.0067512417646758e-05 0.015928077395255608 0 8.5178605406389899e-05 0.015901232826675177 0 0.00014270357307892819 0.015875401038364951 0 -7.5095559144434758e-05 0.015902821343337765 0 8.5178605406389899e-05 0.015901232826675177 0 7.0067512417646758e-05 0.015928077395255608 0 -7.5095559144434758e-05 0.015902821343337765 0 8.5178605406389899e-05 0.015901232826675177 0 -0.0032870115497697894 0.011434662138355072 0 -0.0017698190022221426 0.015024214951582435 0 -0.0039965203452264732 0.013808255898564914 0 -0.0043524424941567656 0.01428899780559216 0 -0.0034740639728683335 0.013776649705067145 0 -0.0039965203452264732 0.013808255898564914 0 -0.0043411084064990755 0.01382118233315929 0 -0.0043524424941567656 0.01428899780559216 0 -0.0043411084064990755 0.01382118233315929 0 -0.0045682222037458321 0.014261030302797852 0 -0.0043524424941567656 0.01428899780559216 0 -0.0054892177245588637 0.011596701176250711 0 -0.004867485953690567 0.012137208973403823 0 -0.0042497983390435892 0.011738255541630186 0 -0.0051169277871981403 0.011464611222633949 0 -0.0032870115497697894 0.011434662138355072 0 -0.0051169277871981403 0.011464611222633949 0 -0.0051947184387421373 0.0093688842684046467 0 -0.0051947184387421373 0.0093688842684046467 0 -0.0032870115497697894 0.011434662138355072 0 -0.00011906953367089569 0.01594642703331707 0 -0.00031815345012988118 0.01588034951774029 0 -0.00015571906657752267 0.015864739320359058 0 -0.0003509013281889492 0.010217262661497702 0 -0.0032870115497697894 0.011434662138355072 0 -0.00011906953367089569 0.01594642703331707 0 -7.2283395589880419e-05 0.015910324639554017 0 -0.00015571906657752267 0.015864739320359058 0 -0.0025883727815350964 0.013262691810211414 0 -0.0034740639728683335 0.013776649705067145 0 -0.0038180438024572089 0.013341882959240648 0 -0.0027784011230768541 0.018103399537228414 0 -0.0038307931250714309 0.018145634107211955 0 -0.0036827318323805255 0.017770820184749923 0 -0.001571902149571877 0.015760044251009957 0 -0.0040686865926308326 0.015750177332779926 0 -0.0039965203452264732 0.013808255898564914 0 -0.0034740639728683335 0.013776649705067145 0 -0.0038180438024572089 0.013341882959240648 0 -0.0040686865926308326 0.015750177332779926 0 -0.0048871412932100389 0.015753933830358245 0 -0.0043411084064990755 0.01382118233315929 0 -0.0038180438024572089 0.013341882959240648 0 -0.0050306428068439468 0.013441882454858025 0 -0.0038307931250714309 0.018145634107211955 0 -0.0036827318323805255 0.017770820184749923 0 -0.0042037685086585798 0.017638874811248074 0 -0.0038307931250714309 0.018145634107211955 0 -0.00491018481752454 0.018138071349418732 0 -0.0042037685086585798 0.017638874811248074 0 -0.0039965203452264732 0.013808255898564914 0 -0.0043411084064990755 0.01382118233315929 0 -0.0038180438024572089 0.013341882959240648 0 -0.0048871412932100389 0.015753933830358245 0 -0.0060146245392687448 0.016075690979424868 0 -0.00491018481752454 0.018138071349418732 0 -0.0058174793819494837 0.018105589063409852 0 -0.0051925335570858627 0.01757524505398779 0 -0.0050306428068439468 0.013441882454858025 0 -0.0053394717893982015 0.013523358604246425 0 -0.0060360868135534134 0.01350681799934611 0 -0.0053394717893982015 0.013523358604246425 0 -0.0056804303596191732 0.013947424023180381 0 -0.0060360868135534134 0.01350681799934611 0 -0.0045682222037458321 0.014261030302797852 0 -0.0050306428068439468 0.013441882454858025 0 -0.0053394717893982015 0.013523358604246425 0 -0.0051169277871981403 0.011464611222633949 0 -0.0048492575760034941 0.014340799713693956 0 -0.0076025848041621161 0.0084838311168486859 0 -0.0070274578748912636 0.0085697098692605889 0 -0.0073232795004377323 0.0081897051557204906 0 -0.0047564546785677049 0.014008902360776513 0 -0.0053394717893982015 0.013523358604246425 0 -0.0056804303596191732 0.013947424023180381 0 -0.0051169277871981403 0.011464611222633949 0 -0.0064799104988691259 0.011311571438232694 0 -0.0043411084064990755 0.01382118233315929 0 -0.0045682222037458321 0.014261030302797852 0 -0.0050306428068439468 0.013441882454858025 0 -0.0076025848041621161 0.0084838311168486859 0 -0.0076502643589153405 0.0084408979071699704 0 -0.0073232795004377323 0.0081897051557204906 0 -0.0071471049953390981 0.0080011182929377467 0 -0.0072130980638577544 0.0080935896526383947 0 -0.0073232795004377323 0.0081897051557204906 0 -0.0072130980638577544 0.0080935896526383947 0 -0.0072318561770927823 0.0081362522259966086 0 -0.0073232795004377323 0.0081897051557204906 0 -0.0051947184387421373 0.0093688842684046467 0 -0.0077306354834554116 0.008348997894876066 0 -0.0072130980638577544 0.0080935896526383947 0 -0.0071851544764854614 0.008089576067721491 0 -0.0072318561770927823 0.0081362522259966086 0 -0.007158452943317949 0.0080676235882075273 0 -0.0072130980638577544 0.0080935896526383947 0 -0.0071851544764854614 0.008089576067721491 0 -0.0071851544764854614 0.008089576067721491 0 -0.0072035734685448232 0.008122612600681877 0 -0.0072318561770927823 0.0081362522259966086 0 -0.0071663569279314335 0.0081075466576944737 0 -0.0071851544764854614 0.008089576067721491 0 -0.0072035734685448232 0.008122612600681877 0 -0.0071663569279314335 0.0081075466576944737 0 -0.0071824664637696644 0.008140657061181146 0 -0.0072035734685448232 0.008122612600681877 0 -0.0071824664637696644 0.008140657061181146 0 -0.0072035734685448232 0.008122612600681877 0 -0.0072264078739717246 0.0081565532791411672 0 -0.0072035734685448232 0.008122612600681877 0 -0.0072318561770927823 0.0081362522259966086 0 -0.0072264078739717246 0.0081565532791411672 0 -0.0072318561770927823 0.0081362522259966086 0 -0.0072675877188606471 0.00815979529760868 0 -0.0072264078739717246 0.0081565532791411672 0 -0.0072675877188606471 0.00815979529760868 0 -0.0072585683386893196 0.0081860046381548729 0 -0.0072264078739717246 0.0081565532791411672 0 -0.0072585683386893196 0.0081860046381548729 0 -0.0072264078739717246 0.0081565532791411672 0 -0.0072202573199318656 0.0081961811935763566 0 -0.0072264078739717246 0.0081565532791411672 0 -0.0071932035037370065 0.0081698487550437484 0 -0.0072202573199318656 0.0081961811935763566 0 -0.0071824664637696644 0.008140657061181146 0 -0.0072264078739717246 0.0081565532791411672 0 -0.0071932035037370065 0.0081698487550437484 0 -0.0072318561770927823 0.0081362522259966086 0 -0.0072675877188606471 0.00815979529760868 0 -0.0073232795004377323 0.0081897051557204906 0 -0.0073029382004039479 0.0081391457643770586 0 -0.007292409910762571 0.0081737511981333725 0 -0.0073417605943303299 0.008193047155578996 0 -0.0073029382004039479 0.0081391457643770586 0 -0.007292409910762571 0.0081737511981333725 0 -0.0073037828529805733 0.0081668977544934584 0 -0.0072675877188606471 0.00815979529760868 0 -0.007292409910762571 0.0081737511981333725 0 -0.0073037828529805733 0.0081668977544934584 0 -0.0072675877188606471 0.00815979529760868 0 -0.0072585683386893196 0.0081860046381548729 0 -0.007292409910762571 0.0081737511981333725 0 -0.0072675877188606471 0.00815979529760868 0 -0.0073232795004377323 0.0081897051557204906 0 -0.0073037828529805733 0.0081668977544934584 0 -0.0073029382004039479 0.0081391457643770586 0 -0.0073232795004377323 0.0081897051557204906 0 -0.0073037828529805733 0.0081668977544934584 0 -0.0072215641207900019 0.0082121766945137883 0 -0.0073458358731765105 0.0080114092808197118 0 -0.0070274578748912636 0.0085697098692605889 0 -0.0073029382004039479 0.0081391457643770586 0 -0.0068472290499114784 0.0083952885711835821 0 -0.0073029382004039479 0.0081391457643770586 0 -0.0074672134067237626 0.0081558804582006102 0 -0.0075546843907142325 0.0080694449897527904 0 -0.0070274578748912636 0.0085697098692605889 0 -0.0073029382004039479 0.0081391457643770586 0 -0.0073232795004377323 0.0081897051557204906 0 -0.0074672134067237626 0.0081558804582006102 0 -0.0074936471036203302 0.0082200781512447012 0 -0.0075655168057353773 0.0081554166013612078 0 -0.0074672134067237626 0.0081558804582006102 0 -0.0074040716140280349 0.0081936107195770443 0 -0.0074936471036203302 0.0082200781512447012 0 -0.0073029382004039479 0.0081391457643770586 0 -0.0074672134067237626 0.0081558804582006102 0 -0.0074040716140280349 0.0081936107195770443 0 -0.0073029382004039479 0.0081391457643770586 0 -0.0074040716140280349 0.0081936107195770443 0 -0.0073417605943303299 0.008193047155578996 0 -0.0073417605943303299 0.008193047155578996 0 -0.0073997884261221706 0.0082488173341485737 0 -0.0073202652135224188 0.0082192682249693956 0 -0.0074040716140280349 0.0081936107195770443 0 -0.0073417605943303299 0.008193047155578996 0 -0.0073997884261221706 0.0082488173341485737 0 -0.0073997884261221706 0.0082488173341485737 0 -0.0073400710967919799 0.008276502820794401 0 -0.0073202652135224188 0.0082192682249693956 0 -0.0073997884261221706 0.0082488173341485737 0 -0.0074936471036203302 0.0082200781512447012 0 -0.0074957515124641685 0.0083154534903494663 0 -0.0074040716140280349 0.0081936107195770443 0 -0.0073997884261221706 0.0082488173341485737 0 -0.0074936471036203302 0.0082200781512447012 0 -0.0074361916814068519 0.0083771702003345421 0 -0.0074957515124641685 0.0083154534903494663 0 -0.0074078486525324698 0.0083146825839559863 0 -0.0073997884261221706 0.0082488173341485737 0 -0.0074957515124641685 0.0083154534903494663 0 -0.0074078486525324698 0.0083146825839559863 0 -0.0073997884261221706 0.0082488173341485737 0 -0.0074078486525324698 0.0083146825839559863 0 -0.0073400710967919799 0.008276502820794401 0 -0.0074361916814068519 0.0083771702003345421 0 -0.0074078486525324698 0.0083146825839559863 0 -0.0073559810977712921 0.0083387840284264332 0 -0.0074078486525324698 0.0083146825839559863 0 -0.0073559810977712921 0.0083387840284264332 0 -0.0073400710967919799 0.008276502820794401 0 -0.0073559810977712921 0.0083387840284264332 0 -0.0073400710967919799 0.008276502820794401 0 -0.0072967068415816516 0.0083275946452601394 0 -0.0073400710967919799 0.008276502820794401 0 -0.0072806911364456878 0.0082763995234910511 0 -0.0072975001962081228 0.0082443162059014381 0 -0.0073400710967919799 0.008276502820794401 0 -0.0072806911364456878 0.0082763995234910511 0 -0.0072967068415816516 0.0083275946452601394 0 -0.0072434115824824034 0.0083369266749325852 0 -0.0072806911364456878 0.0082763995234910511 0 -0.0072967068415816516 0.0083275946452601394 0 -0.0072434115824824034 0.0083369266749325852 0 -0.0072806911364456878 0.0082763995234910511 0 -0.00722499488976745 0.0082798068357711127 0 -0.0072434115824824034 0.0083369266749325852 0 -0.0071866240759706742 0.0083265370095932673 0 -0.00722499488976745 0.0082798068357711127 0 -0.0071764620493826922 0.0082801691449208899 0 -0.0071866240759706742 0.0083265370095932673 0 -0.00722499488976745 0.0082798068357711127 0 -0.0071764620493826922 0.0082801691449208899 0 -0.00722499488976745 0.0082798068357711127 0 -0.0072055797320028283 0.0082310221667872014 0 -0.0072806911364456878 0.0082763995234910511 0 -0.00722499488976745 0.0082798068357711127 0 -0.0072547810056699932 0.008228749346946479 0 -0.00722499488976745 0.0082798068357711127 0 -0.0072547810056699932 0.008228749346946479 0 -0.0072055797320028283 0.0082310221667872014 0 -0.0072547810056699932 0.008228749346946479 0 -0.0072055797320028283 0.0082310221667872014 0 -0.0072202573199318656 0.0081961811935763566 0 -0.0071780336770717098 0.0081957607126621947 0 -0.0072055797320028283 0.0082310221667872014 0 -0.0072202573199318656 0.0081961811935763566 0 -0.0071780336770717098 0.0081957607126621947 0 -0.0071932035037370065 0.0081698487550437484 0 -0.0072202573199318656 0.0081961811935763566 0 -0.0072585683386893196 0.0081860046381548729 0 -0.0072547810056699932 0.008228749346946479 0 -0.0072202573199318656 0.0081961811935763566 0 -0.0072585683386893196 0.0081860046381548729 0 -0.007292409910762571 0.0081737511981333725 0 -0.007284758461924625 0.0082097797351276033 0 -0.0072585683386893196 0.0081860046381548729 0 -0.0072547810056699932 0.008228749346946479 0 -0.007284758461924625 0.0082097797351276033 0 -0.007292409910762571 0.0081737511981333725 0 -0.0073417605943303299 0.008193047155578996 0 -0.0073202652135224188 0.0082192682249693956 0 -0.007292409910762571 0.0081737511981333725 0 -0.007284758461924625 0.0082097797351276033 0 -0.0073202652135224188 0.0082192682249693956 0 -0.0073400710967919799 0.008276502820794401 0 -0.0073202652135224188 0.0082192682249693956 0 -0.0072975001962081228 0.0082443162059014381 0 -0.0072806911364456878 0.0082763995234910511 0 -0.0072547810056699932 0.008228749346946479 0 -0.0072975001962081228 0.0082443162059014381 0 -0.0072547810056699932 0.008228749346946479 0 -0.007284758461924625 0.0082097797351276033 0 -0.0072975001962081228 0.0082443162059014381 0 -0.007284758461924625 0.0082097797351276033 0 -0.0073202652135224188 0.0082192682249693956 0 -0.0072975001962081228 0.0082443162059014381 0 -0.0077487267021992545 0.0084736643931333649 0 -0.0077187554986490586 0.008320143724841295 0 -0.0078287390892767122 0.0082646523036009594 0 -0.007749051681514546 0.0082299763702536454 0 -0.0076258394264515621 0.008255027021623609 0 -0.0076828969209852263 0.0081692596365438228 0 -0.007749051681514546 0.0082299763702536454 0 -0.0077187554986490586 0.008320143724841295 0 -0.0076258394264515621 0.008255027021623609 0 -0.007749051681514546 0.0082299763702536454 0 -0.0077187554986490586 0.008320143724841295 0 -0.0078287390892767122 0.0082646523036009594 0 -0.0076278332746434986 0.0083800572757187844 0 -0.0077187554986490586 0.008320143724841295 0 -0.0076258394264515621 0.008255027021623609 0 -0.0076278332746434986 0.0083800572757187844 0 -0.0074957515124641685 0.0083154534903494663 0 -0.0076258394264515621 0.008255027021623609 0 -0.0074936471036203302 0.0082200781512447012 0 -0.0076258394264515621 0.008255027021623609 0 -0.0075655168057353773 0.0081554166013612078 0 -0.0074936471036203302 0.0082200781512447012 0 -0.0074957515124641685 0.0083154534903494663 0 -0.0076258394264515621 0.008255027021623609 0 -0.0076258394264515621 0.008255027021623609 0 -0.0075655168057353773 0.0081554166013612078 0 -0.0076828969209852263 0.0081692596365438228 0 -0.0074672134067237626 0.0081558804582006102 0 -0.0075655168057353773 0.0081554166013612078 0 -0.0075546843907142325 0.0080694449897527904 0 -0.0075655168057353773 0.0081554166013612078 0 -0.0075546843907142325 0.0080694449897527904 0 -0.0076607066354298804 0.0080946443202926481 0 -0.0075655168057353773 0.0081554166013612078 0 -0.0076607066354298804 0.0080946443202926481 0 -0.0076828969209852263 0.0081692596365438228 0 -0.007749051681514546 0.0082299763702536454 0 -0.0078287390892767122 0.0082646523036009594 0 -0.0077987446257922061 0.0081307942232630021 0 -0.0076607066354298804 0.0080946443202926481 0 -0.0076828969209852263 0.0081692596365438228 0 -0.0077987446257922061 0.0081307942232630021 0 -0.007749051681514546 0.0082299763702536454 0 -0.0076828969209852263 0.0081692596365438228 0 -0.0077987446257922061 0.0081307942232630021 0 -0.0066988729762038563 0.010552453530755256 0 -0.0074862228891982262 0.0085567266178223009 0 -0.0067066843689408736 0.013830235251913741 0 -0.0070183765413737538 0.013651925039379271 0 -0.0060360868135534134 0.01350681799934611 0 -0.0076607066354298804 0.0080946443202926481 0 -0.0077091617950722207 0.0080239564665604331 0 -0.0077987446257922061 0.0081307942232630021 0 -0.0077091617950722207 0.0080239564665604331 0 -0.0077716343983700873 0.0080240974648447747 0 -0.0077987446257922061 0.0081307942232630021 0 -0.0069969821981160822 0.01053185816598257 0 -0.0065925690117415118 0.013951137717481472 0 -0.0069969821981160822 0.01053185816598257 0 -0.0066988729762038563 0.010552453530755256 0 -0.0069008744661966702 0.01146607501233555 0 -0.0071831715505667271 0.011312990028070145 0 -0.0071984851512620525 0.011437411919022689 0 -0.0058549865765284564 0.01086165604074046 0 -0.0059534141752372689 0.010804238291551343 0 -0.0058781525555118685 0.011044244229775025 0 -0.0065925690117415118 0.013951137717481472 0 -0.0063993520432130318 0.013224881612264337 0 -0.0065925690117415118 0.013951137717481472 0 -0.0066988729762038563 0.010552453530755256 0 -0.0056804303596191732 0.013947424023180381 0 -0.0067066843689408736 0.013830235251913741 0 -0.0060360868135534134 0.01350681799934611 0 -0.0073458358731765105 0.0080114092808197118 0 -0.0069969821981160822 0.01053185816598257 0 -0.0064799104988691259 0.011311571438232694 0 -0.0069969821981160822 0.01053185816598257 0 -0.0070274578748912636 0.0085697098692605889 0 -0.0068472290499114784 0.0083952885711835821 0 -0.0064115963677767252 0.0086909021774535123 0 -0.0075546843907142325 0.0080694449897527904 0 -0.0076607066354298804 0.0080946443202926481 0 -0.0077091617950722207 0.0080239564665604331 0 -0.0058174793819494837 0.018105589063409852 0 -0.0065747556577102446 0.017579052839363566 0 -0.0061440010686891556 0.017355027342606629 0 -0.006529423953361941 0.016696431936458429 0 -0.0065219560250996166 0.01682576856129428 0 -0.0064995478059022057 0.01676958129507904 0 -0.0065925690117415118 0.013951137717481472 0 -0.0060146245392687448 0.016075690979424868 0 -0.0065925690117415118 0.013951137717481472 0 -0.006604029563062299 0.017858320600715363 0 -0.0066460876421538893 0.018173413722641776 0 -0.0058174793819494837 0.018105589063409852 0 -0.0065747556577102446 0.017579052839363566 0 -0.0065219560250996166 0.01682576856129428 0 -0.0064309034593400191 0.016944915726925535 0 -0.0064810034785303568 0.016843512246597338 0 -0.006604029563062299 0.017858320600715363 0 -0.0064361399577092995 0.016749392607444569 0 -0.0065747556577102446 0.017579052839363566 0 -0.0064309034593400191 0.016944915726925535 0 -0.0061440010686891556 0.017355027342606629 0 -0.0064309034593400191 0.016944915726925535 0 -0.0061269649608295786 0.016929513964269161 0 -0.0063918085522315284 0.016625873889741512 0 -0.0064309034593400191 0.016944915726925535 0 -0.0061269649608295786 0.016929513964269161 0 -0.0061440010686891556 0.017355027342606629 0 -0.0061269649608295786 0.016929513964269161 0 -0.0057218574158290339 0.017277349210345457 0 -0.0054584437554105209 0.01683737881903373 0 -0.0061269649608295786 0.016929513964269161 0 -0.0054584437554105209 0.01683737881903373 0 -0.0061347394654031094 0.016649103085065297 0 -0.0058174793819494837 0.018105589063409852 0 -0.0057218574158290339 0.017277349210345457 0 -0.0061440010686891556 0.017355027342606629 0 -0.0061269649608295786 0.016929513964269161 0 -0.0057218574158290339 0.017277349210345457 0 -0.0061440010686891556 0.017355027342606629 0 -0.0057218574158290339 0.017277349210345457 0 -0.0051925335570858627 0.01757524505398779 0 -0.0054584437554105209 0.01683737881903373 0 -0.0058174793819494837 0.018105589063409852 0 -0.0057218574158290339 0.017277349210345457 0 -0.0051925335570858627 0.01757524505398779 0 -0.0051925335570858627 0.01757524505398779 0 -0.0047084090913396817 0.017262592971540567 0 -0.0054584437554105209 0.01683737881903373 0 -0.00491018481752454 0.018138071349418732 0 -0.0051925335570858627 0.01757524505398779 0 -0.0047084090913396817 0.017262592971540567 0 -0.00491018481752454 0.018138071349418732 0 -0.0047084090913396817 0.017262592971540567 0 -0.0042037685086585798 0.017638874811248074 0 -0.0047084090913396817 0.017262592971540567 0 -0.0054584437554105209 0.01683737881903373 0 -0.0044417925257879713 0.016484384888489207 0 -0.0059218643410837747 0.016839101621925697 0 -0.0061133920068066148 0.016642465106821231 0 -0.0061347394654031094 0.016649103085065297 0 -0.0054584437554105209 0.01683737881903373 0 -0.0050788643511254393 0.016238266887629586 0 -0.0061347394654031094 0.016649103085065297 0 -0.005547937336522913 0.01651953684240122 0 -0.0060605442236958979 0.016644536895341556 0 -0.0054584437554105209 0.01683737881903373 0 -0.0050788643511254393 0.016238266887629586 0 -0.0044417925257879713 0.016484384888489207 0 -0.0059218643410837747 0.016839101621925697 0 -0.0058089840598786078 0.016560727286355 0 -0.0052570040526281657 0.016828897066260163 0 -0.0059218643410837747 0.016839101621925697 0 -0.0058089840598786078 0.016560727286355 0 -0.0060248129514136181 0.016660622363126577 0 -0.0059218643410837747 0.016839101621925697 0 -0.0061133920068066148 0.016642465106821231 0 -0.0060248129514136181 0.016660622363126577 0 -0.0058089840598786078 0.016560727286355 0 -0.0060248129514136181 0.016660622363126577 0 -0.0061892612016928592 0.016563035288721197 0 -0.0061133920068066148 0.016642465106821231 0 -0.0060248129514136181 0.016660622363126577 0 -0.0061892612016928592 0.016563035288721197 0 -0.0061133920068066148 0.016642465106821231 0 -0.0061892612016928592 0.016563035288721197 0 -0.0061648869150937955 0.016540299985132133 0 -0.0061932207788057457 0.01616928940179102 0 -0.0072373371869281344 0.014709769077740504 0 -0.0061892612016928592 0.016563035288721197 0 -0.006564261541935023 0.016637356380731237 0 -0.0063593048729098656 0.016419643029388538 0 -0.0061133920068066148 0.016642465106821231 0 -0.0061648869150937955 0.016540299985132133 0 -0.0061834952135238971 0.01661486160852536 0 -0.0072373371869281344 0.014709769077740504 0 -0.0073902498101966014 0.013324809410911688 0 -0.0086802588919543799 0.010713816718127978 0 -0.0084883593208399562 0.010428155382524187 0 -0.0083814904954352988 0.010558021488288999 0 -0.0061648869150937955 0.016540299985132133 0 -0.0063918085522315284 0.016625873889741512 0 -0.0061834952135238971 0.01661486160852536 0 -0.0067282339646067254 0.016780626077171235 0 -0.0071323188010841247 0.016555239574345473 0 -0.007618028297409046 0.016911649069113313 0 -0.0072373371869281344 0.014709769077740504 0 -0.0080896203207650574 0.013610445588010537 0 -0.0063918085522315284 0.016625873889741512 0 -0.0061347394654031094 0.016649103085065297 0 -0.0061834952135238971 0.01661486160852536 0 -0.0061269649608295786 0.016929513964269161 0 -0.0063918085522315284 0.016625873889741512 0 -0.0061347394654031094 0.016649103085065297 0 -0.0061133920068066148 0.016642465106821231 0 -0.0061347394654031094 0.016649103085065297 0 -0.0061834952135238971 0.01661486160852536 0 -0.0020122045581534615 0.016954718820328684 0 -0.0026077543430159437 0.016876062350106993 0 -0.0020769549163811921 0.016603730175630087 0 -0.0020122045581534615 0.016954718820328684 0 -0.0022729356320061594 0.017305165728895674 0 -0.0026077543430159437 0.016876062350106993 0 -0.0020122045581534615 0.016954718820328684 0 -0.0022729356320061594 0.017305165728895674 0 -0.0019481534874008883 0.017252415088282961 0 -0.0015533788838825902 0.017086327498881389 0 -0.0020122045581534615 0.016954718820328684 0 -0.0019481534874008883 0.017252415088282961 0 -0.00083461774909550531 0.016843411590012458 0 -0.00023278987444857937 0.01623794824196604 0 -0.00062646477180472817 0.01680652598489343 0 -0.001571902149571877 0.015760044251009957 0 -0.001273011209069749 0.017386033473153307 0 -0.0022729356320061594 0.017305165728895674 0 -0.0019481534874008883 0.017252415088282961 0 -0.0019302336095127276 0.017703978363924972 0 -0.0027784011230768541 0.018103399537228414 0 -0.0019302336095127276 0.017703978363924972 0 -0.0025799126182153315 0.01758393478243046 0 -0.0022729356320061594 0.017305165728895674 0 -0.0019302336095127276 0.017703978363924972 0 -0.0025799126182153315 0.01758393478243046 0 -0.0022729356320061594 0.017305165728895674 0 -0.0025799126182153315 0.01758393478243046 0 -0.0028515280619005124 0.017219166994255186 0 -0.0025799126182153315 0.01758393478243046 0 -0.0030218545953404874 0.017592096336147087 0 -0.0028515280619005124 0.017219166994255186 0 -0.0027784011230768541 0.018103399537228414 0 -0.0030218545953404874 0.017592096336147087 0 -0.0036827318323805255 0.017770820184749923 0 -0.0027784011230768541 0.018103399537228414 0 -0.0025799126182153315 0.01758393478243046 0 -0.0030218545953404874 0.017592096336147087 0 -0.0030218545953404874 0.017592096336147087 0 -0.0028515280619005124 0.017219166994255186 0 -0.0032590632489707914 0.017258011155279154 0 -0.0028515280619005124 0.017219166994255186 0 -0.0032590632489707914 0.017258011155279154 0 -0.0031324934487820134 0.016756102781483241 0 -0.0022729356320061594 0.017305165728895674 0 -0.0028515280619005124 0.017219166994255186 0 -0.0026077543430159437 0.016876062350106993 0 -0.0028515280619005124 0.017219166994255186 0 -0.0026077543430159437 0.016876062350106993 0 -0.0031324934487820134 0.016756102781483241 0 -0.0036124444915510935 0.017014109604901684 0 -0.0032590632489707914 0.017258011155279154 0 -0.0031324934487820134 0.016756102781483241 0 -0.0036124444915510935 0.017014109604901684 0 -0.0032590632489707914 0.017258011155279154 0 -0.0036827318323805255 0.017770820184749923 0 -0.0036960135699261563 0.016882436510813646 0 -0.0036849991370869937 0.017749069160466445 0 -0.0030218545953404874 0.017592096336147087 0 -0.0032590632489707914 0.017258011155279154 0 -0.0036827318323805255 0.017770820184749923 0 -0.0047084090913396817 0.017262592971540567 0 -0.0038611044608264388 0.01685120895705907 0 -0.0042037685086585798 0.017638874811248074 0 -0.0038611044608264388 0.01685120895705907 0 -0.0036827318323805255 0.017770820184749923 0 -0.0042037685086585798 0.017638874811248074 0 -0.0047084090913396817 0.017262592971540567 0 -0.0038611044608264388 0.01685120895705907 0 -0.0044417925257879713 0.016484384888489207 0 -0.0038611044608264388 0.01685120895705907 0 -0.0044417925257879713 0.016484384888489207 0 -0.0039706034493479543 0.015991894730616719 0 -0.0036960135699261563 0.016882436510813646 0 -0.00434286236377791 0.016581413070473561 0 -0.005547937336522913 0.01651953684240122 0 -0.00434286236377791 0.016581413070473561 0 -0.0050788643511254393 0.016238266887629586 0 -0.0044417925257879713 0.016484384888489207 0 -0.0039706034493479543 0.015991894730616719 0 -0.00434286236377791 0.016581413070473561 0 -0.0049373253057980277 0.016224410727265878 0 -0.0058089840598786078 0.016560727286355 0 -0.0052570040526281657 0.016828897066260163 0 -0.0052218956836325133 0.016292489391614148 0 -0.0043953249645222224 0.016964582912762344 0 -0.0036929518178767276 0.016824747243670595 0 -0.0039160493116451658 0.016258744794305894 0 -0.00434286236377791 0.016581413070473561 0 -0.003321145356909088 0.016574179598562895 0 -0.0043953249645222224 0.016964582912762344 0 -0.0039160493116451658 0.016258744794305894 0 -0.0045226436878342026 0.016083468560732742 0 -0.0036124444915510935 0.017014109604901684 0 -0.0036048669794633806 0.016388234500823978 0 -0.0031324934487820134 0.016756102781483241 0 -0.0036048669794633806 0.016388234500823978 0 -0.0031324934487820134 0.016756102781483241 0 -0.0030543306051292051 0.016332975019867784 0 -0.0031324934487820134 0.016756102781483241 0 -0.0028170954224907684 0.016506458004072716 0 -0.0030543306051292051 0.016332975019867784 0 -0.0026077543430159437 0.016876062350106993 0 -0.0031324934487820134 0.016756102781483241 0 -0.0028170954224907684 0.016506458004072716 0 -0.003321145356909088 0.016574179598562895 0 -0.0029308786771661088 0.016515917173098759 0 -0.0028170954224907684 0.016506458004072716 0 -0.0030543306051292051 0.016332975019867784 0 -0.0028269695029703727 0.016506690125234039 0 -0.0036929518178767276 0.016824747243670595 0 -0.0033703866522012079 0.016317594871110421 0 -0.0028269695029703727 0.016506690125234039 0 -0.0036929518178767276 0.016824747243670595 0 -0.0033703866522012079 0.016317594871110421 0 -0.0039160493116451658 0.016258744794305894 0 -0.0023133639009165698 0.016799228948528644 0 -0.0028269695029703727 0.016506690125234039 0 -0.0026405973892699558 0.016061152853266678 0 -0.0033703866522012079 0.016317594871110421 0 -0.0028269695029703727 0.016506690125234039 0 -0.0026405973892699558 0.016061152853266678 0 -0.0023133639009165698 0.016799228948528644 0 -0.0028170954224907684 0.016506458004072716 0 -0.0028269695029703727 0.016506690125234039 0 -0.0019014450164946549 0.016386922803770559 0 -0.002734038803775003 0.016505887853364831 0 -0.0015262519693815689 0.01599157533525385 0 -0.0028170954224907684 0.016506458004072716 0 -0.0020769549163811921 0.016603730175630087 0 -0.0026077543430159437 0.016876062350106993 0 -0.0028170954224907684 0.016506458004072716 0 -0.0020769549163811921 0.016603730175630087 0 -0.0025426264648276214 0.01542009026229578 0 -0.0033499273089756822 0.015823183849893056 0 -0.0034209971217566051 0.015313934880485863 0 -0.0033703866522012079 0.016317594871110421 0 -0.0026405973892699558 0.016061152853266678 0 -0.0033499273089756822 0.015823183849893056 0 -0.0025426264648276214 0.01542009026229578 0 -0.0026405973892699558 0.016061152853266678 0 -0.0033499273089756822 0.015823183849893056 0 -0.0033499273089756822 0.015823183849893056 0 -0.0041036406549572113 0.01567979469210877 0 -0.0039160493116451658 0.016258744794305894 0 -0.0033703866522012079 0.016317594871110421 0 -0.0033499273089756822 0.015823183849893056 0 -0.0039160493116451658 0.016258744794305894 0 -0.0033499273089756822 0.015823183849893056 0 -0.0034209971217566051 0.015313934880485863 0 -0.0041036406549572113 0.01567979469210877 0 -0.0041036406549572113 0.01567979469210877 0 -0.0039160493116451658 0.016258744794305894 0 -0.0045226436878342026 0.016083468560732742 0 -0.0052218956836325133 0.016292489391614148 0 -0.0050036269922393451 0.015424172125169378 0 -0.00562664655018957 0.015804251915633765 0 -0.0049373253057980277 0.016224410727265878 0 -0.0049805927461934185 0.015400894006176873 0 -0.0041036406549572113 0.01567979469210877 0 -0.0045226436878342026 0.016083468560732742 0 -0.0050036269922393451 0.015424172125169378 0 -0.0052362420804310207 0.015212475497514491 0 -0.0048918803794438977 0.015495996789993484 0 -0.0055253411079183501 0.015295965538438611 0 -0.0050036269922393451 0.015424172125169378 0 -0.004127541557146285 0.014861098889712489 0 -0.0055253411079183501 0.015295965538438611 0 -0.0045083120744293772 0.01519255028622587 0 -0.0054277492825852789 0.015273567129584834 0 -0.0050036269922393451 0.015424172125169378 0 -0.00562664655018957 0.015804251915633765 0 -0.0055253411079183501 0.015295965538438611 0 -0.0052362420804310207 0.015212475497514491 0 -0.0055253411079183501 0.015295965538438611 0 -0.0056747752849239316 0.014999856891578177 0 -0.0052362420804310207 0.015212475497514491 0 -0.0047823684150395404 0.014999933603335909 0 -0.0056747752849239316 0.014999856891578177 0 -0.0052362420804310207 0.015212475497514491 0 -0.0047823684150395404 0.014999933603335909 0 -0.0048918803794438977 0.015495996789993484 0 -0.0041036406549572113 0.01567979469210877 0 -0.0050036269922393451 0.015424172125169378 0 -0.004127541557146285 0.014861098889712489 0 -0.0034209971217566051 0.015313934880485863 0 -0.0041036406549572113 0.01567979469210877 0 -0.004127541557146285 0.014861098889712489 0 -0.0034209971217566051 0.015313934880485863 0 -0.004127541557146285 0.014861098889712489 0 -0.0030169711128164522 0.014874674401713936 0 -0.0045083120744293772 0.01519255028622587 0 -0.0035757695502329624 0.015200548212124434 0 -0.0047823684150395404 0.014999933603335909 0 -0.0038895909286375649 0.014999993403271399 0 -0.0041126529181299918 0.015516010186620252 0 -0.0047823684150395404 0.014999933603335909 0 -0.0048918803794438977 0.015495996789993484 0 -0.0041126529181299918 0.015516010186620252 0 -0.003343983334908571 0.015503352004786381 0 -0.0038895909286375649 0.014999993403271399 0 -0.0041126529181299918 0.015516010186620252 0 -0.0025426264648276214 0.01542009026229578 0 -0.0034209971217566051 0.015313934880485863 0 -0.0030169711128164522 0.014874674401713936 0 -0.0065639843773774281 0.016022837453800547 0 -0.0069765390099314536 0.015808474312129388 0 -0.0069909850710304366 0.016233268743541987 0 -0.0065639843773774281 0.016022837453800547 0 -0.0069765390099314536 0.015808474312129388 0 -0.0065063459624821983 0.015693543334776822 0 -0.0069765390099314536 0.015808474312129388 0 -0.0073943656138406571 0.015956280364709051 0 -0.0069909850710304366 0.016233268743541987 0 -0.0069765390099314536 0.015808474312129388 0 -0.0073943656138406571 0.015956280364709051 0 -0.0074993816174356671 0.015580828275666566 0 -0.0069909850710304366 0.016233268743541987 0 -0.0071323188010841247 0.016555239574345473 0 -0.0075583081416239943 0.016385567932800313 0 -0.0073943656138406571 0.015956280364709051 0 -0.0069909850710304366 0.016233268743541987 0 -0.0075583081416239943 0.016385567932800313 0 -0.0071323188010841247 0.016555239574345473 0 -0.0075583081416239943 0.016385567932800313 0 -0.007618028297409046 0.016911649069113313 0 -0.0069909850710304366 0.016233268743541987 0 -0.0071323188010841247 0.016555239574345473 0 -0.0067684792159948557 0.016443298893242007 0 -0.0067282339646067254 0.016780626077171235 0 -0.0071323188010841247 0.016555239574345473 0 -0.0067684792159948557 0.016443298893242007 0 -0.0065639843773774281 0.016022837453800547 0 -0.0069909850710304366 0.016233268743541987 0 -0.0065967269333942714 0.016260204086167896 0 -0.0069909850710304366 0.016233268743541987 0 -0.0067684792159948557 0.016443298893242007 0 -0.0065967269333942714 0.016260204086167896 0 -0.0065639843773774281 0.016022837453800547 0 -0.0065967269333942714 0.016260204086167896 0 -0.0063077932633884056 0.016208855178761552 0 -0.0065967269333942714 0.016260204086167896 0 -0.0063593048729098656 0.016419643029388538 0 -0.0063077932633884056 0.016208855178761552 0 -0.0072373371869281344 0.014709769077740504 0 -0.0068288978707717564 0.016418949676727596 0 -0.0067684792159948557 0.016443298893242007 0 -0.0065967269333942714 0.016260204086167896 0 -0.0063593048729098656 0.016419643029388538 0 -0.0067282339646067254 0.016780626077171235 0 -0.0067684792159948557 0.016443298893242007 0 -0.0063593048729098656 0.016419643029388538 0 -0.0058089840598786078 0.016560727286355 0 -0.0061892612016928592 0.016563035288721197 0 -0.0060641152223031404 0.016359719983529863 0 -0.0061892612016928592 0.016563035288721197 0 -0.0063593048729098656 0.016419643029388538 0 -0.0060641152223031404 0.016359719983529863 0 -0.0060641152223031404 0.016359719983529863 0 -0.0063077932633884056 0.016208855178761552 0 -0.0061474450753758311 0.016005217263289136 0 -0.0060641152223031404 0.016359719983529863 0 -0.0058032330080215362 0.016213848284963035 0 -0.0061474450753758311 0.016005217263289136 0 -0.0063593048729098656 0.016419643029388538 0 -0.0060641152223031404 0.016359719983529863 0 -0.0063077932633884056 0.016208855178761552 0 -0.0058089840598786078 0.016560727286355 0 -0.0060641152223031404 0.016359719983529863 0 -0.0058032330080215362 0.016213848284963035 0 -0.0058089840598786078 0.016560727286355 0 -0.0052218956836325133 0.016292489391614148 0 -0.0058032330080215362 0.016213848284963035 0 -0.0052218956836325133 0.016292489391614148 0 -0.0058032330080215362 0.016213848284963035 0 -0.00562664655018957 0.015804251915633765 0 -0.00562664655018957 0.015804251915633765 0 -0.0061474450753758311 0.016005217263289136 0 -0.0060009544710863932 0.015525772862586967 0 -0.0058032330080215362 0.016213848284963035 0 -0.00562664655018957 0.015804251915633765 0 -0.0061474450753758311 0.016005217263289136 0 -0.0061474450753758311 0.016005217263289136 0 -0.0060009544710863932 0.015525772862586967 0 -0.0065063459624821983 0.015693543334776822 0 -0.0065639843773774281 0.016022837453800547 0 -0.0063077932633884056 0.016208855178761552 0 -0.0061474450753758311 0.016005217263289136 0 -0.0065639843773774281 0.016022837453800547 0 -0.0061474450753758311 0.016005217263289136 0 -0.0065063459624821983 0.015693543334776822 0 -0.0063903649335841015 0.015363375989714064 0 -0.0060009544710863932 0.015525772862586967 0 -0.0065063459624821983 0.015693543334776822 0 -0.0063903649335841015 0.015363375989714064 0 -0.0060009544710863932 0.015525772862586967 0 -0.0059799575242651913 0.015209586912812299 0 -0.00562664655018957 0.015804251915633765 0 -0.0060009544710863932 0.015525772862586967 0 -0.0055253411079183501 0.015295965538438611 0 -0.0060009544710863932 0.015525772862586967 0 -0.0055253411079183501 0.015295965538438611 0 -0.0059799575242651913 0.015209586912812299 0 -0.0056747752849239316 0.014999856891578177 0 -0.0059799575242651913 0.015209586912812299 0 -0.0065674544327734806 0.014999854481122152 0 -0.0055253411079183501 0.015295965538438611 0 -0.0056747752849239316 0.014999856891578177 0 -0.0059799575242651913 0.015209586912812299 0 -0.0063903649335841015 0.015363375989714064 0 -0.0059799575242651913 0.015209586912812299 0 -0.0065674544327734806 0.014999854481122152 0 -0.0065674544327734806 0.014999854481122152 0 -0.0068952008410864442 0.01540085687283504 0 -0.0074602304774378705 0.014999927736241959 0 -0.0063903649335841015 0.015363375989714064 0 -0.0065674544327734806 0.014999854481122152 0 -0.0068952008410864442 0.01540085687283504 0 -0.0063903649335841015 0.015363375989714064 0 -0.0068952008410864442 0.01540085687283504 0 -0.0065063459624821983 0.015693543334776822 0 -0.0069765390099314536 0.015808474312129388 0 -0.0068952008410864442 0.01540085687283504 0 -0.0065063459624821983 0.015693543334776822 0 -0.0069765390099314536 0.015808474312129388 0 -0.0068952008410864442 0.01540085687283504 0 -0.0074993816174356671 0.015580828275666566 0 -0.0068952008410864442 0.01540085687283504 0 -0.0074602304774378705 0.014999927736241959 0 -0.0074993816174356671 0.015580828275666566 0 -0.0074602304774378705 0.014999927736241959 0 -0.0078836076870156049 0.015289494619570089 0 -0.0074993816174356671 0.015580828275666566 0 -0.0074602304774378705 0.014999927736241959 0 -0.0078836076870156049 0.015289494619570089 0 -0.008239879851139411 0.01499990376882256 0 -0.008239879851139411 0.01499990376882256 0 -0.0082061910871891863 0.015349114429244297 0 -0.0086739936535445671 0.015512581104754074 0 -0.0078836076870156049 0.015289494619570089 0 -0.008239879851139411 0.01499990376882256 0 -0.0082061910871891863 0.015349114429244297 0 -0.0082061910871891863 0.015349114429244297 0 -0.0080098136279432748 0.015586444762926331 0 -0.0086739936535445671 0.015512581104754074 0 -0.0078836076870156049 0.015289494619570089 0 -0.0082061910871891863 0.015349114429244297 0 -0.0080098136279432748 0.015586444762926331 0 -0.0080098136279432748 0.015586444762926331 0 -0.0074993816174356671 0.015580828275666566 0 -0.0078600590388246249 0.015965130975673043 0 -0.0078836076870156049 0.015289494619570089 0 -0.0080098136279432748 0.015586444762926331 0 -0.0074993816174356671 0.015580828275666566 0 -0.0073943656138406571 0.015956280364709051 0 -0.0074993816174356671 0.015580828275666566 0 -0.0078600590388246249 0.015965130975673043 0 -0.0073943656138406571 0.015956280364709051 0 -0.0078600590388246249 0.015965130975673043 0 -0.0075583081416239943 0.016385567932800313 0 -0.0078600590388246249 0.015965130975673043 0 -0.0081183774961533315 0.016298370365154767 0 -0.0084103733991676994 0.015934173687526542 0 -0.0080098136279432748 0.015586444762926331 0 -0.0078600590388246249 0.015965130975673043 0 -0.0084103733991676994 0.015934173687526542 0 -0.0078600590388246249 0.015965130975673043 0 -0.0081183774961533315 0.016298370365154767 0 -0.0075583081416239943 0.016385567932800313 0 -0.0081183774961533315 0.016298370365154767 0 -0.0075583081416239943 0.016385567932800313 0 -0.0079152660352638481 0.016643142150776266 0 -0.0086833783616160169 0.016331231203931613 0 -0.0092131223507514928 0.016066060737384515 0 -0.0091734637457989918 0.016624408185053709 0 -0.0081183774961533315 0.016298370365154767 0 -0.0086833783616160169 0.016331231203931613 0 -0.0084260260282405398 0.017035243512739575 0 -0.0081183774961533315 0.016298370365154767 0 -0.0086833783616160169 0.016331231203931613 0 -0.0084103733991676994 0.015934173687526542 0 -0.0086833783616160169 0.016331231203931613 0 -0.0084103733991676994 0.015934173687526542 0 -0.0092131223507514928 0.016066060737384515 0 -0.0084103733991676994 0.015934173687526542 0 -0.0092131223507514928 0.016066060737384515 0 -0.0086739936535445671 0.015512581104754074 0 -0.0092946608979556072 0.016143105744974306 0 -0.0087387254921257717 0.015558586515080746 0 -0.0093667485668280596 0.016204097491395175 0 -0.0088125472099957157 0.015622902224247484 0 -0.0097152611327266398 0.015609086928166394 0 -0.0080098136279432748 0.015586444762926331 0 -0.0084103733991676994 0.015934173687526542 0 -0.0086739936535445671 0.015512581104754074 0 -0.0083529033531399149 0.01499997926672899 0 -0.0082401058767477137 0.015000024871835689 0 -0.0088125472099957157 0.015622902224247484 0 -0.0082648585178782558 0.015025603322524615 0 -0.0087387254921257717 0.015558586515080746 0 -0.0083529033531399149 0.01499997926672899 0 -0.0088125472099957157 0.015622902224247484 0 -0.0092455447740336545 0.01499998663973217 0 -0.0088125472099957157 0.015622902224247484 0 -0.0092455447740336545 0.01499998663973217 0 -0.0097152611327266398 0.015609086928166394 0 -0.0092455447740336545 0.01499998663973217 0 -0.010138189771088749 0.01499996572395584 0 -0.0097152611327266398 0.015609086928166394 0 -0.010138189771088749 0.01499996572395584 0 -0.010190846921715352 0.015462716183005832 0 -0.0097152611327266398 0.015609086928166394 0 -0.010190846921715352 0.015462716183005832 0 -0.0097152611327266398 0.015609086928166394 0 -0.01038285367544382 0.015877240996258906 0 -0.011030903495971151 0.01500010164606385 0 -0.011355082427848759 0.015521452400266466 0 -0.01103075723082232 0.014999937458705903 0 -0.01069279357104974 0.015506890102817066 0 -0.01132939872284152 0.015499906383401891 0 -0.010138189771088749 0.01499996572395584 0 -0.010190846921715352 0.015462716183005832 0 -0.01069279357104974 0.015506890102817066 0 -0.010138189771088749 0.01499996572395584 0 -0.01103075723082232 0.014999937458705903 0 -0.01069279357104974 0.015506890102817066 0 -0.01069279357104974 0.015506890102817066 0 -0.010846115351683287 0.016091699119834359 0 -0.01038285367544382 0.015877240996258906 0 -0.010190846921715352 0.015462716183005832 0 -0.01069279357104974 0.015506890102817066 0 -0.01038285367544382 0.015877240996258906 0 -0.01069279357104974 0.015506890102817066 0 -0.011237808147478968 0.01590390835814438 0 -0.010846115351683287 0.016091699119834359 0 -0.01069279357104974 0.015506890102817066 0 -0.011237808147478968 0.01590390835814438 0 -0.01132939872284152 0.015499906383401891 0 -0.011237808147478968 0.01590390835814438 0 -0.010846115351683287 0.016091699119834359 0 -0.011349802506605675 0.016372303253683655 0 -0.010846115351683287 0.016091699119834359 0 -0.01038285367544382 0.015877240996258906 0 -0.010470528664662337 0.016306936004062387 0 -0.010846115351683287 0.016091699119834359 0 -0.010470528664662337 0.016306936004062387 0 -0.010931787789875915 0.016683997232993946 0 -0.010381619536367216 0.016708250380596354 0 -0.010470528664662337 0.016306936004062387 0 -0.010931787789875915 0.016683997232993946 0 -0.010846115351683287 0.016091699119834359 0 -0.010931787789875915 0.016683997232993946 0 -0.011349802506605675 0.016372303253683655 0 -0.0093667485668280596 0.016204097491395175 0 -0.0097152611327266398 0.015609086928166394 0 -0.009986125090281156 0.016213342387576418 0 -0.0097152611327266398 0.015609086928166394 0 -0.01038285367544382 0.015877240996258906 0 -0.009986125090281156 0.016213342387576418 0 -0.01038285367544382 0.015877240996258906 0 -0.010470528664662337 0.016306936004062387 0 -0.009986125090281156 0.016213342387576418 0 -0.010120041137066547 0.016592206085039547 0 -0.009986125090281156 0.016213342387576418 0 -0.009776333935784148 0.016666394283252312 0 -0.010175872937235165 0.016515996471535316 0 -0.010030659742463064 0.016287434767642713 0 -0.010381619536367216 0.016708250380596354 0 -0.010470528664662337 0.016306936004062387 0 -0.009986125090281156 0.016213342387576418 0 -0.0092946608979556072 0.016143105744974306 0 -0.0097510991721845176 0.016642915605984784 0 -0.0093667485668280596 0.016204097491395175 0 -0.009986125090281156 0.016213342387576418 0 -0.009776333935784148 0.016666394283252312 0 -0.0092131223507514928 0.016066060737384515 0 -0.009776333935784148 0.016666394283252312 0 -0.0091734637457989918 0.016624408185053709 0 -0.0096418509947946689 0.016946021717466835 0 -0.0091734637457989918 0.016624408185053709 0 -0.0092363375671771983 0.017156292777408891 0 -0.0096418509947946689 0.016946021717466835 0 -0.009776333935784148 0.016666394283252312 0 -0.0091734637457989918 0.016624408185053709 0 -0.010120041137066547 0.016592206085039547 0 -0.009776333935784148 0.016666394283252312 0 -0.0099705450260816359 0.016885480126699735 0 -0.0096418509947946689 0.016946021717466835 0 -0.009776333935784148 0.016666394283252312 0 -0.0099705450260816359 0.016885480126699735 0 -0.0096418509947946689 0.016946021717466835 0 -0.0099705450260816359 0.016885480126699735 0 -0.0099629886075451313 0.017192911283178357 0 -0.0082816057836566943 0.0098192863383117467 0 -0.0081519015588010762 0.010010625032370614 0 -0.0080894309445813002 0.010161338692808946 0 -0.0090810762155277593 0.013487572147917543 0 -0.0086908907049011268 0.013653536769760471 0 -0.0096418509947946689 0.016946021717466835 0 -0.0099629886075451313 0.017192911283178357 0 -0.0092363375671771983 0.017156292777408891 0 -0.010931787789875915 0.016683997232993946 0 -0.010719957128574341 0.01715405066208181 0 -0.011124653972581364 0.01714825222714415 0 -0.010931787789875915 0.016683997232993946 0 -0.011124653972581364 0.01714825222714415 0 -0.011525655272289884 0.01694289059330871 0 -0.010175872937235165 0.016515996471535316 0 -0.01079183893748107 0.017664488274031463 0 -0.010381619536367216 0.016708250380596354 0 -0.010931787789875915 0.016683997232993946 0 -0.010719957128574341 0.01715405066208181 0 -0.010120041137066547 0.016592206085039547 0 -0.0099705450260816359 0.016885480126699735 0 -0.010296507351309051 0.016953704174644649 0 -0.0099629886075451313 0.017192911283178357 0 -0.010296507351309051 0.016953704174644649 0 -0.010473304825126364 0.01722741813850653 0 -0.0090810762155277593 0.013487572147917543 0 -0.01024289955575511 0.013666388298961215 0 -0.0099705450260816359 0.016885480126699735 0 -0.0099629886075451313 0.017192911283178357 0 -0.010296507351309051 0.016953704174644649 0 -0.011124653972581364 0.01714825222714415 0 -0.011019483661983475 0.017589723068399517 0 -0.011430364800038737 0.017357480311504584 0 -0.010719957128574341 0.01715405066208181 0 -0.011124653972581364 0.01714825222714415 0 -0.011019483661983475 0.017589723068399517 0 -0.01079183893748107 0.017664488274031463 0 -0.01024289955575511 0.013666388298961215 0 -0.0094851972958814781 0.0097567560946453958 0 -0.0093519615512780031 0.010572989960983494 0 -0.01009400206269844 0.010460011426358908 0 -0.01024289955575511 0.013666388298961215 0 -0.0098975889250867491 0.0099491491191579136 0 -0.0082816057836566943 0.0098192863383117467 0 -0.0094851972958814781 0.0097567560946453958 0 -0.0087438483206314296 0.010153887005225421 0 -0.0094851972958814781 0.0097567560946453958 0 -0.0087438483206314296 0.010153887005225421 0 -0.0093519615512780031 0.010572989960983494 0 -0.0087438483206314296 0.010153887005225421 0 -0.0093519615512780031 0.010572989960983494 0 -0.0089179421219954709 0.011178733000796305 0 -0.0087438483206314296 0.010153887005225421 0 -0.0081262643699498635 0.010236544142849545 0 -0.0089179421219954709 0.011178733000796305 0 -0.0093519615512780031 0.010572989960983494 0 -0.0099264753930948732 0.011273421307731981 0 -0.0089179421219954709 0.011178733000796305 0 -0.0093519615512780031 0.010572989960983494 0 -0.01009400206269844 0.010460011426358908 0 -0.0099264753930948732 0.011273421307731981 0 -0.0081519015588010762 0.010010625032370614 0 -0.0081262643699498635 0.010236544142849545 0 -0.0079945641869910242 0.010129189566780326 0 -0.0081519015588010762 0.010010625032370614 0 -0.0079945641869910242 0.010129189566780326 0 -0.0078505233957706869 0.010033669138574832 0 -0.0081519015588010762 0.010010625032370614 0 -0.0081137629901783664 0.010165911942759617 0 -0.0080894309445813002 0.010161338692808946 0 -0.0080370268445312185 0.010133055113851557 0 -0.0081563987108603138 0.0097688837566960417 0 -0.0082816057836566943 0.0098192863383117467 0 -0.0081519015588010762 0.010010625032370614 0 -0.0083245299732154429 0.010070641036843861 0 -0.0087438483206314296 0.010153887005225421 0 -0.0083245299732154429 0.010070641036843861 0 -0.0081262643699498635 0.010236544142849545 0 -0.0081519015588010762 0.010010625032370614 0 -0.0083245299732154429 0.010070641036843861 0 -0.0081262643699498635 0.010236544142849545 0 -0.0082816057836566943 0.0098192863383117467 0 -0.0087438483206314296 0.010153887005225421 0 -0.0083245299732154429 0.010070641036843861 0 -0.0081642409234930595 0.010287684168831416 0 -0.0086522732712040838 0.0106877477694284 0 -0.0081262643699498635 0.010236544142849545 0 -0.0081481537676326883 0.010213146613326004 0 -0.008312281236453738 0.010167472814437764 0 -0.0081262643699498635 0.010236544142849545 0 -0.0080088822957123107 0.010113185409012265 0 -0.0081481537676326883 0.010213146613326004 0 -0.0081262643699498635 0.010236544142849545 0 -0.0079945641869910242 0.010129189566780326 0 -0.0080088822957123107 0.010113185409012265 0 -0.0079945641869910242 0.010129189566780326 0 -0.0078505233957706869 0.010033669138574832 0 -0.0078031890368188027 0.01006809972907108 0 -0.0079945641869910242 0.010129189566780326 0 -0.0078031890368188027 0.01006809972907108 0 -0.007853003643389464 0.010083072077773259 0 -0.0081137629901783664 0.010165911942759617 0 -0.00817991798202705 0.010239394401138401 0 -0.0080894309445813002 0.010161338692808946 0 -0.0078505233957706869 0.010033669138574832 0 -0.0078031890368188027 0.01006809972907108 0 -0.007691926491635458 0.010060504036934516 0 -0.0081137629901783664 0.010165911942759617 0 -0.00817991798202705 0.010239394401138401 0 -0.0081983198139166293 0.010143929162994045 0 -0.0081563987108603138 0.0097688837566960417 0 -0.0075477502119974506 0.012109967504875734 0 -0.0064091563579869665 0.01677726643258845 0 -0.0064656762291241876 0.016816267154140776 0 -0.006509376219357846 0.016869882808652176 0 -0.0075477502119974506 0.012109967504875734 0 -0.0074544319945598191 0.013794274355350753 0 -0.0064309034593400191 0.016944915726925535 0 -0.0064810034785303568 0.016843512246597338 0 -0.006509376219357846 0.016869882808652176 0 -0.0065219560250996166 0.01682576856129428 0 -0.0064810034785303568 0.016843512246597338 0 -0.0064995478059022057 0.01676958129507904 0 -0.0064656762291241876 0.016816267154140776 0 -0.0064810034785303568 0.016843512246597338 0 -0.006456737097778267 0.016761620332255447 0 -0.0064656762291241876 0.016816267154140776 0 -0.0064810034785303568 0.016843512246597338 0 -0.006509376219357846 0.016869882808652176 0 -0.0073902498101966014 0.013324809410911688 0 -0.0074544319945598191 0.013794274355350753 0 -0.0064309034593400191 0.016944915726925535 0 -0.0063918085522315284 0.016625873889741512 0 -0.006509376219357846 0.016869882808652176 0 -0.00817991798202705 0.010239394401138401 0 -0.0081983198139166293 0.010143929162994045 0 -0.0083141674571163438 0.010239780171567261 0 -0.00817991798202705 0.010239394401138401 0 -0.0083141674571163438 0.010239780171567261 0 -0.0082967401450954048 0.010364205544209209 0 -0.00817991798202705 0.010239394401138401 0 -0.0082967401450954048 0.010364205544209209 0 -0.0081868219258028271 0.010375454722094102 0 -0.0082967401450954048 0.010364205544209209 0 -0.0083814904954352988 0.010558021488288999 0 -0.0081868219258028271 0.010375454722094102 0 -0.0084883593208399562 0.010428155382524187 0 -0.0083141674571163438 0.010239780171567261 0 -0.0082967401450954048 0.010364205544209209 0 -0.0084883593208399562 0.010428155382524187 0 -0.0082967401450954048 0.010364205544209209 0 -0.0083814904954352988 0.010558021488288999 0 -0.0075583081416239943 0.016385567932800313 0 -0.007618028297409046 0.016911649069113313 0 -0.0079152660352638481 0.016643142150776266 0 -0.0080896203207650574 0.013610445588010537 0 -0.008292182847974932 0.013720474534842484 0 -0.0081183774961533315 0.016298370365154767 0 -0.0079152660352638481 0.016643142150776266 0 -0.0084260260282405398 0.017035243512739575 0 -0.007618028297409046 0.016911649069113313 0 -0.0079152660352638481 0.016643142150776266 0 -0.0084260260282405398 0.017035243512739575 0 -0.0086833783616160169 0.016331231203931613 0 -0.0091734637457989918 0.016624408185053709 0 -0.0084260260282405398 0.017035243512739575 0 -0.0091734637457989918 0.016624408185053709 0 -0.0092363375671771983 0.017156292777408891 0 -0.0084260260282405398 0.017035243512739575 0 -0.0086908907049011268 0.013653536769760471 0 -0.008292182847974932 0.013720474534842484 0 -0.00817991798202705 0.010239394401138401 0 -0.0080894309445813002 0.010161338692808946 0 -0.0081868219258028271 0.010375454722094102 0 -0.014999972274107357 0.013356783681698268 0 -0.015279670134062784 0.013730772190423131 0 -0.014997841887353621 0.015000323594305136 0 -0.014999972274107357 0.013356783681698268 0 -0.015279670134062784 0.013730772190423131 0 -0.015423168361632643 0.012965744755993864 0 -0.015279670134062784 0.013730772190423131 0 -0.015733110999828579 0.013040249458075987 0 -0.015423168361632643 0.012965744755993864 0 -0.015279670134062784 0.013730772190423131 0 -0.014997841887353621 0.015000323594305136 0 -0.015235940782167895 0.014360787240187222 0 -0.014997841887353621 0.015000323594305136 0 -0.014255276500343394 0.014998506068737922 0 -0.015235940782167895 0.014360787240187222 0 -0.014250990508913475 0.014999866581371934 0 -0.01457670862122553 0.015041109600517365 0 -0.014250727405408834 0.01499997503507388 0 -0.013919435005869151 0.015767316943849221 0 -0.013445792638234946 0.014999974442467052 0 -0.013919435005869151 0.015767316943849221 0 -0.013445792638234946 0.014999974442467052 0 -0.013159510836259141 0.015581032852174052 0 -0.013919435005869151 0.015767316943849221 0 -0.013159510836259141 0.015581032852174052 0 -0.013188123037660052 0.016241571319420181 0 -0.01457670862122553 0.015041109600517365 0 -0.014759710735361699 0.014862031518723019 0 -0.015279670134062784 0.013730772190423131 0 -0.015235940782167895 0.014360787240187222 0 -0.015923078763866949 0.0134185588424606 0 -0.013919435005869151 0.015767316943849221 0 -0.013188123037660052 0.016241571319420181 0 -0.013612764406471698 0.016498834437630658 0 -0.015279670134062784 0.013730772190423131 0 -0.015923078763866949 0.0134185588424606 0 -0.015733110999828579 0.013040249458075987 0 -0.013188123037660052 0.016241571319420181 0 -0.012984964290781879 0.016728143979320927 0 -0.013273424187860967 0.01672445577606272 0 -0.013188123037660052 0.016241571319420181 0 -0.013612764406471698 0.016498834437630658 0 -0.013273424187860967 0.01672445577606272 0 -0.013188123037660052 0.016241571319420181 0 -0.012658222124457484 0.016448478916585959 0 -0.012984964290781879 0.016728143979320927 0 -0.012658222124457484 0.016448478916585959 0 -0.012224817353409148 0.016222786557041544 0 -0.012337463756349995 0.016777547085930943 0 -0.012224817353409148 0.016222786557041544 0 -0.012663579745787006 0.01594214371662463 0 -0.012138968591404556 0.015571835710744194 0 -0.012658222124457484 0.016448478916585959 0 -0.012224817353409148 0.016222786557041544 0 -0.012663579745787006 0.01594214371662463 0 -0.013159510836259141 0.015581032852174052 0 -0.013188123037660052 0.016241571319420181 0 -0.012663579745787006 0.01594214371662463 0 -0.013188123037660052 0.016241571319420181 0 -0.012658222124457484 0.016448478916585959 0 -0.012663579745787006 0.01594214371662463 0 -0.013159510836259141 0.015581032852174052 0 -0.012663579745787006 0.01594214371662463 0 -0.01265098221697797 0.015524527058865105 0 -0.013445792638234946 0.014999974442467052 0 -0.013159510836259141 0.015581032852174052 0 -0.012640807878931419 0.01499996963098396 0 -0.013159510836259141 0.015581032852174052 0 -0.01265098221697797 0.015524527058865105 0 -0.012640807878931419 0.01499996963098396 0 -0.012640807878931419 0.01499996963098396 0 -0.012138968591404556 0.015571835710744194 0 -0.011835836585093984 0.014999975494891449 0 -0.01265098221697797 0.015524527058865105 0 -0.012640807878931419 0.01499996963098396 0 -0.012138968591404556 0.015571835710744194 0 -0.012663579745787006 0.01594214371662463 0 -0.01265098221697797 0.015524527058865105 0 -0.012138968591404556 0.015571835710744194 0 -0.012138968591404556 0.015571835710744194 0 -0.011369752406422726 0.015528246728049491 0 -0.011673807996805943 0.016026810793812556 0 -0.012138968591404556 0.015571835710744194 0 -0.011835836585093984 0.014999975494891449 0 -0.011369752406422726 0.015528246728049491 0 -0.011030883001250741 0.014999988487275344 0 -0.011835836585093984 0.014999975494891449 0 -0.011369752406422726 0.015528246728049491 0 -0.011237808147478968 0.01590390835814438 0 -0.01132939872284152 0.015499906383401891 0 -0.011673807996805943 0.016026810793812556 0 -0.011355082427848759 0.015521452400266466 0 -0.011644347728782044 0.015989643632777811 0 -0.011237808147478968 0.01590390835814438 0 -0.011673807996805943 0.016026810793812556 0 -0.011349802506605675 0.016372303253683655 0 -0.012224817353409148 0.016222786557041544 0 -0.012138968591404556 0.015571835710744194 0 -0.011673807996805943 0.016026810793812556 0 -0.012224817353409148 0.016222786557041544 0 -0.011673807996805943 0.016026810793812556 0 -0.011868365219428157 0.016556301085309894 0 -0.012224817353409148 0.016222786557041544 0 -0.011868365219428157 0.016556301085309894 0 -0.012337463756349995 0.016777547085930943 0 -0.011673807996805943 0.016026810793812556 0 -0.011868365219428157 0.016556301085309894 0 -0.011349802506605675 0.016372303253683655 0 -0.011868365219428157 0.016556301085309894 0 -0.011349802506605675 0.016372303253683655 0 -0.011525655272289884 0.01694289059330871 0 -0.010931787789875915 0.016683997232993946 0 -0.011349802506605675 0.016372303253683655 0 -0.011525655272289884 0.01694289059330871 0 -0.011868365219428157 0.016556301085309894 0 -0.011982814058623973 0.016994541023270873 0 -0.012337463756349995 0.016777547085930943 0 -0.011525655272289884 0.01694289059330871 0 -0.011982814058623973 0.016994541023270873 0 -0.011777538904765759 0.017270557884283388 0 -0.011868365219428157 0.016556301085309894 0 -0.011525655272289884 0.01694289059330871 0 -0.011982814058623973 0.016994541023270873 0 -0.011982814058623973 0.016994541023270873 0 -0.012126291475223807 0.017407636708673849 0 -0.012406056843473488 0.017157966701833331 0 -0.011982814058623973 0.016994541023270873 0 -0.011777538904765759 0.017270557884283388 0 -0.012126291475223807 0.017407636708673849 0 -0.011777538904765759 0.017270557884283388 0 -0.012126291475223807 0.017407636708673849 0 -0.011716826946047079 0.017717188719279794 0 -0.011777538904765759 0.017270557884283388 0 -0.011430364800038737 0.017357480311504584 0 -0.011716826946047079 0.017717188719279794 0 -0.011124653972581364 0.01714825222714415 0 -0.011525655272289884 0.01694289059330871 0 -0.011430364800038737 0.017357480311504584 0 -0.011525655272289884 0.01694289059330871 0 -0.011777538904765759 0.017270557884283388 0 -0.011430364800038737 0.017357480311504584 0 -0.01024289955575511 0.013666388298961215 0 -0.01150273516919907 0.013813845013262648 0 -0.011019483661983475 0.017589723068399517 0 -0.011430364800038737 0.017357480311504584 0 -0.011716826946047079 0.017717188719279794 0 -0.011184113797448374 0.0099340844399271946 0 -0.010331414619075427 0.010532646160294593 0 -0.011223082728475489 0.010721675281136869 0 -0.0098294690396091549 0.0097175569042178053 0 -0.011184113797448374 0.0099340844399271946 0 -0.010331414619075427 0.010532646160294593 0 -0.010331414619075427 0.010532646160294593 0 -0.011223082728475489 0.010721675281136869 0 -0.010797901100746981 0.011406906575113701 0 -0.01009400206269844 0.010460011426358908 0 -0.010797901100746981 0.011406906575113701 0 -0.0099264753930948732 0.011273421307731981 0 -0.0098975889250867491 0.0099491491191579136 0 -0.010851375802923183 0.011516245169005842 0 -0.011223082728475489 0.010721675281136869 0 -0.01198014032245384 0.011132475922891462 0 -0.010797901100746981 0.011406906575113701 0 -0.011223082728475489 0.010721675281136869 0 -0.01198014032245384 0.011132475922891462 0 -0.012732983154333717 0.010195325583776393 0 -0.012126291475223807 0.017407636708673849 0 -0.011716826946047079 0.017717188719279794 0 -0.012421202187697074 0.017820232476107294 0 -0.011184113797448374 0.0099340844399271946 0 -0.011223082728475489 0.010721675281136869 0 -0.012732983154333717 0.010195325583776393 0 -0.01150273516919907 0.013813845013262648 0 -0.012511272183808026 0.014153061550352009 0 -0.012126291475223807 0.017407636708673849 0 -0.012421202187697074 0.017820232476107294 0 -0.012492831830823612 0.0174625763234144 0 -0.012421202187697074 0.017820232476107294 0 -0.012732532353398131 0.017604680823292321 0 -0.012492831830823612 0.0174625763234144 0 -0.01198014032245384 0.011132475922891462 0 -0.012732983154333717 0.010195325583776393 0 -0.012581497922201963 0.011445187230206943 0 -0.012732983154333717 0.010195325583776393 0 -0.013577647540659857 0.011071346340545803 0 -0.012581497922201963 0.011445187230206943 0 -0.013577647540659857 0.011071346340545803 0 -0.014318610898751407 0.010540848274600117 0 -0.013814447492969261 0.012316670934418281 0 -0.012732983154333717 0.010195325583776393 0 -0.013577647540659857 0.011071346340545803 0 -0.014318610898751407 0.010540848274600117 0 -0.012732532353398131 0.017604680823292321 0 -0.012983439380627975 0.017459483302098872 0 -0.013082426529577848 0.017905543464504972 0 -0.012511272183808026 0.014153061550352009 0 -0.014109228461248926 0.012825898869536039 0 -0.012421202187697074 0.017820232476107294 0 -0.012732532353398131 0.017604680823292321 0 -0.013082426529577848 0.017905543464504972 0 -0.012983439380627975 0.017459483302098872 0 -0.01302757214647751 0.01724545724354019 0 -0.012746199475156613 0.017299702430984751 0 -0.01302757214647751 0.01724545724354019 0 -0.012746199475156613 0.017299702430984751 0 -0.012934501615535644 0.017049768335879276 0 -0.01302757214647751 0.01724545724354019 0 -0.012934501615535644 0.017049768335879276 0 -0.01311283670166072 0.017124213317230044 0 -0.012746199475156613 0.017299702430984751 0 -0.012934501615535644 0.017049768335879276 0 -0.012678979290170051 0.016947328177473759 0 -0.012732532353398131 0.017604680823292321 0 -0.012746199475156613 0.017299702430984751 0 -0.012492831830823612 0.0174625763234144 0 -0.012732532353398131 0.017604680823292321 0 -0.012983439380627975 0.017459483302098872 0 -0.012746199475156613 0.017299702430984751 0 -0.012746199475156613 0.017299702430984751 0 -0.012492831830823612 0.0174625763234144 0 -0.012406056843473488 0.017157966701833331 0 -0.012126291475223807 0.017407636708673849 0 -0.012492831830823612 0.0174625763234144 0 -0.012406056843473488 0.017157966701833331 0 -0.012746199475156613 0.017299702430984751 0 -0.012406056843473488 0.017157966701833331 0 -0.012678979290170051 0.016947328177473759 0 -0.012406056843473488 0.017157966701833331 0 -0.012337463756349995 0.016777547085930943 0 -0.012678979290170051 0.016947328177473759 0 -0.012658222124457484 0.016448478916585959 0 -0.012337463756349995 0.016777547085930943 0 -0.012678979290170051 0.016947328177473759 0 -0.011982814058623973 0.016994541023270873 0 -0.012406056843473488 0.017157966701833331 0 -0.012337463756349995 0.016777547085930943 0 -0.012658222124457484 0.016448478916585959 0 -0.012984964290781879 0.016728143979320927 0 -0.012678979290170051 0.016947328177473759 0 -0.012984964290781879 0.016728143979320927 0 -0.012934501615535644 0.017049768335879276 0 -0.013157577435917167 0.01698656734298867 0 -0.012984964290781879 0.016728143979320927 0 -0.012934501615535644 0.017049768335879276 0 -0.012678979290170051 0.016947328177473759 0 -0.014999972274107357 0.013356783681698268 0 -0.015435897664910337 0.012344665118842038 0 -0.014999680357787459 0.011226047617224918 0 -0.015923078763866949 0.0134185588424606 0 -0.016102429411406233 0.012567507422336548 0 -0.016017218990362472 0.012692040859349434 0 -0.013157577435917167 0.01698656734298867 0 -0.013273424187860967 0.01672445577606272 0 -0.013327765692189502 0.017213376481281326 0 -0.013612764406471698 0.016498834437630658 0 -0.013273424187860967 0.01672445577606272 0 -0.013327765692189502 0.017213376481281326 0 -0.014759710735361699 0.014862031518723019 0 -0.014749401408368673 0.015307299635972806 0 -0.012934501615535644 0.017049768335879276 0 -0.013157577435917167 0.01698656734298867 0 -0.01311283670166072 0.017124213317230044 0 -0.012984964290781879 0.016728143979320927 0 -0.013157577435917167 0.01698656734298867 0 -0.013273424187860967 0.01672445577606272 0 -0.015923078763866949 0.0134185588424606 0 -0.015733110999828579 0.013040249458075987 0 -0.016017218990362472 0.012692040859349434 0 -0.015733110999828579 0.013040249458075987 0 -0.015721663024387673 0.012636998283946415 0 -0.016017218990362472 0.012692040859349434 0 -0.016102429411406233 0.012567507422336548 0 -0.016017218990362472 0.012692040859349434 0 -0.015504816716463218 0.012066940132318484 0 -0.016102429411406233 0.012567507422336548 0 -0.015880163009420401 0.012003597689353124 0 -0.015504816716463218 0.012066940132318484 0 -0.015984913221115105 0.012629257890899128 0 -0.015691921437201328 0.012122421713321715 0 -0.015721663024387673 0.012636998283946415 0 -0.016017218990362472 0.012692040859349434 0 -0.01586639100532029 0.012195973773164505 0 -0.013157577435917167 0.01698656734298867 0 -0.013327765692189502 0.017213376481281326 0 -0.01311283670166072 0.017124213317230044 0 -0.01302757214647751 0.01724545724354019 0 -0.013327765692189502 0.017213376481281326 0 -0.01311283670166072 0.017124213317230044 0 -0.012983439380627975 0.017459483302098872 0 -0.01302757214647751 0.01724545724354019 0 -0.013327765692189502 0.017213376481281326 0 -0.015880163009420401 0.012003597689353124 0 -0.01626407344766816 0.011601195653724141 0 -0.015667178566799909 0.011776342217699081 0 -0.014749401408368673 0.015307299635972806 0 -0.014109228461248926 0.012825898869536039 0 -0.012983439380627975 0.017459483302098872 0 -0.013327765692189502 0.017213376481281326 0 -0.013082426529577848 0.017905543464504972 0 -0.016102429411406233 0.012567507422336548 0 -0.015880163009420401 0.012003597689353124 0 -0.01626407344766816 0.011601195653724141 0 -0.014435729072984965 0.011040171158641462 0 -0.015079230577523828 0.011591391922806426 0 -0.015451630050133057 0.01148577689503487 0 -0.014109228461248926 0.012825898869536039 0 -0.015863403390245161 0.011212933116157396 0 -0.01626407344766816 0.011601195653724141 0 -0.015451630050133057 0.01148577689503487 0 -0.015667178566799909 0.011776342217699081 0 -0.014435729072984965 0.011040171158641462 0 -0.014720562057012486 0.011577897337122466 0 -0.014501305872091393 0.011976239348206139 0 -0.014435729072984965 0.011040171158641462 0 -0.014720562057012486 0.011577897337122466 0 -0.015079230577523828 0.011591391922806426 0 -0.015451630050133057 0.01148577689503487 0 -0.015667178566799909 0.011776342217699081 0 -0.015310037255777276 0.01156202780733471 0 -0.015383896097037846 0.011588260243283058 0 -0.015451630050133057 0.01148577689503487 0 -0.015310037255777276 0.01156202780733471 0 -0.015383896097037846 0.011588260243283058 0 -0.015451630050133057 0.01148577689503487 0 -0.015311755460371546 0.011644217736420685 0 -0.015079230577523828 0.011591391922806426 0 -0.015451630050133057 0.01148577689503487 0 -0.015311755460371546 0.011644217736420685 0 -0.015667178566799909 0.011776342217699081 0 -0.015504816716463218 0.012066940132318484 0 -0.015310037255777276 0.01156202780733471 0 -0.015880163009420401 0.012003597689353124 0 -0.015667178566799909 0.011776342217699081 0 -0.015504816716463218 0.012066940132318484 0 -0.01586639100532029 0.012195973773164505 0 -0.015630558331698071 0.011641668465697032 0 -0.015435897664910337 0.012344665118842038 0 -0.015630558331698071 0.011641668465697032 0 -0.015435897664910337 0.012344665118842038 0 -0.014999680357787459 0.011226047617224918 0 -0.015691921437201328 0.012122421713321715 0 -0.01549920431568297 0.011656594916308964 0 -0.01549920431568297 0.011656594916308964 0 -0.015278185092744244 0.011188677430987937 0 -0.015310037255777276 0.01156202780733471 0 -0.015470586247803394 0.011656842125584779 0 -0.015395597462124081 0.011623606560452178 0 -0.015383896097037846 0.011588260243283058 0 -0.015310037255777276 0.01156202780733471 0 -0.015395597462124081 0.011623606560452178 0 -0.015630558331698071 0.011641668465697032 0 -0.015353463231809094 0.011119326304869576 0 -0.014999680357787459 0.011226047617224918 0 -0.014999972274107357 0.013356783681698268 0 -0.015435897664910337 0.012344665118842038 0 -0.015423168361632643 0.012965744755993864 0 -0.015721663024387673 0.012636998283946415 0 -0.015435897664910337 0.012344665118842038 0 -0.015423168361632643 0.012965744755993864 0 -0.015721663024387673 0.012636998283946415 0 -0.01586639100532029 0.012195973773164505 0 -0.015435897664910337 0.012344665118842038 0 -0.015733110999828579 0.013040249458075987 0 -0.015721663024387673 0.012636998283946415 0 -0.015423168361632643 0.012965744755993864 0 -0.014999997198643464 0.0097564525944132605 0 -0.015332459018180882 0.0095841957477038921 0 -0.014999999852495697 0.0090762146308162872 0 -0.014999997198643464 0.0097564525944132605 0 -0.015332459018180882 0.0095841957477038921 0 -0.015316294620887586 0.0098900270785227153 0 -0.015286734172014427 0.0095070625638764682 0 -0.0155658794725833 0.010001805962962693 0 -0.015846747254366796 0.0094485605278471687 0 -0.015108283626052328 0.010075877264581114 0 -0.015295106569464341 0.0097568676629583035 0 -0.015286734172014427 0.0095070625638764682 0 -0.015846747254366796 0.0094485605278471687 0 -0.015467067953560069 0.0090577667906942827 0 -0.014823683536385779 0.0098221365109980047 0 -0.014651885065918462 0.0099358268950528773 0 -0.014713456764485898 0.010023910636727442 0 -0.015108283626052328 0.010075877264581114 0 -0.014523429427465734 0.010012218191923048 0 -0.015352602502940935 0.0095749699689684255 0 -0.015108283626052328 0.010075877264581114 0 -0.014999997198643464 0.0097564525944132605 0 -0.015270086514998274 0.010130175609795204 0 -0.014999996839720104 0.010436675025066235 0 -0.015332459018180882 0.0095841957477038921 0 -0.015641730761080611 0.01012823394817782 0 -0.015316294620887586 0.0098900270785227153 0 -0.015641730761080611 0.01012823394817782 0 -0.015270086514998274 0.010130175609795204 0 -0.015065797726912716 0.010535540796113737 0 -0.015641730761080611 0.01012823394817782 0 -0.015270086514998274 0.010130175609795204 0 -0.015316294620887586 0.0098900270785227153 0 -0.014999997198643464 0.0097564525944132605 0 -0.015270086514998274 0.010130175609795204 0 -0.015316294620887586 0.0098900270785227153 0 -0.015270086514998274 0.010130175609795204 0 -0.015065797726912716 0.010535540796113737 0 -0.014999996839720104 0.010436675025066235 0 -0.015108283626052328 0.010075877264581114 0 -0.015029011686554657 0.010517403287161138 0 -0.01506630605624623 0.010536994041375813 0 -0.014999998877625738 0.010583342082957725 0 -0.015415177783437022 0.011063543200907551 0 -0.015144487011155013 0.010350645869671245 0 -0.014995092733700774 0.01064940092165499 0 -0.014872385782534449 0.010546678131550129 0 -0.015066509129549427 0.010536730423253692 0 -0.014999999882759596 0.010436684269853738 0 -0.014999999833061418 0.010583337049097115 0 -0.015029011686554657 0.010517403287161138 0 -0.015000022432711736 0.010436805163502389 0 -0.015029011686554657 0.010517403287161138 0 -0.01500001885792027 0.010583160582092806 0 -0.015029011686554657 0.010517403287161138 0 -0.015278185092744244 0.011188677430987937 0 -0.014999998877625738 0.010583342082957725 0 -0.015415177783437022 0.011063543200907551 0 -0.014999998161595274 0.01122576672206505 0 -0.014995092733700774 0.01064940092165499 0 -0.014872385782534449 0.010546678131550129 0 -0.015033001479927416 0.010788561904906851 0 -0.015278185092744244 0.011188677430987937 0 -0.015000208545080596 0.011225708773359417 0 -0.015470586247803394 0.011656842125584779 0 -0.015395597462124081 0.011623606560452178 0 -0.015349196556345649 0.011713128457654615 0 -0.015470586247803394 0.011656842125584779 0 -0.015331918198462949 0.011769921061287495 0 -0.015349196556345649 0.011713128457654615 0 -0.014995092733700774 0.01064940092165499 0 -0.015033001479927416 0.010788561904906851 0 -0.015344631188169098 0.010663002359294828 0 -0.015278185092744244 0.011188677430987937 0 -0.014955948848098035 0.010832906479880916 0 -0.015383896097037846 0.011588260243283058 0 -0.015395597462124081 0.011623606560452178 0 -0.015349196556345649 0.011713128457654615 0 -0.015108283626052328 0.010075877264581114 0 -0.014985267879701704 0.010729948174610204 0 -0.015108283626052328 0.010075877264581114 0 -0.014955948848098035 0.010832906479880916 0 -0.015133117610492167 0.010369456158538636 0 -0.014995092733700774 0.01064940092165499 0 -0.015344631188169098 0.010663002359294828 0 -0.014512563605589781 0.010074105048361159 0 -0.01451259042738377 0.010062018443252692 0 -0.014511534559928556 0.010060824396141295 0 -0.014512563605589781 0.010074105048361159 0 -0.014514163750427867 0.010069615508608121 0 -0.01451259042738377 0.010062018443252692 0 -0.014505951340490628 0.010058614925026436 0 -0.014512563605589781 0.010074105048361159 0 -0.014511534559928556 0.010060824396141295 0 -0.015044782525533486 0.011116487672704753 0 -0.014970396804667654 0.011004297869858048 0 -0.014689444763512584 0.01125360906868569 0 -0.015114405855626298 0.01166026389572695 0 -0.014579242234768188 0.011123618603577011 0 -0.014955948848098035 0.010832906479880916 0 -0.014579242234768188 0.011123618603577011 0 -0.015331918198462949 0.011769921061287495 0 -0.015313535745877602 0.011743241019516086 0 -0.015349196556345649 0.011713128457654615 0 -0.015114405855626298 0.01166026389572695 0 -0.015232262984281496 0.011664441578359186 0 -0.014955948848098035 0.010832906479880916 0 -0.015114405855626298 0.01166026389572695 0 -0.015375757814128959 0.012129686314649838 0 -0.015159280649195221 0.011805359591210426 0 -0.014870145274021198 0.012154868709741369 0 -0.015114405855626298 0.01166026389572695 0 -0.015209639180799589 0.011830460803766591 0 -0.015159280649195221 0.011805359591210426 0 -0.015311755460371546 0.011644217736420685 0 -0.015349196556345649 0.011713128457654615 0 -0.015239953896380201 0.011861916434863562 0 -0.015159280649195221 0.011805359591210426 0 -0.015349196556345649 0.011713128457654615 0 -0.015079230577523828 0.011591391922806426 0 -0.015159280649195221 0.011805359591210426 0 -0.015311755460371546 0.011644217736420685 0 -0.015383896097037846 0.011588260243283058 0 -0.015311755460371546 0.011644217736420685 0 -0.015349196556345649 0.011713128457654615 0 -0.014720562057012486 0.011577897337122466 0 -0.014501305872091393 0.011976239348206139 0 -0.014875936379379284 0.011804379175499435 0 -0.015079230577523828 0.011591391922806426 0 -0.015159280649195221 0.011805359591210426 0 -0.014875936379379284 0.011804379175499435 0 -0.014720562057012486 0.011577897337122466 0 -0.015079230577523828 0.011591391922806426 0 -0.014875936379379284 0.011804379175499435 0 -0.015159280649195221 0.011805359591210426 0 -0.014875936379379284 0.011804379175499435 0 -0.014870145274021198 0.012154868709741369 0 -0.014501305872091393 0.011976239348206139 0 -0.014875936379379284 0.011804379175499435 0 -0.014870145274021198 0.012154868709741369 0 -0.015375757814128959 0.012129686314649838 0 -0.014870145274021198 0.012154868709741369 0 -0.014846015545441153 0.01262891002390891 0 -0.014501305872091393 0.011976239348206139 0 -0.014870145274021198 0.012154868709741369 0 -0.014332666470205344 0.012427003125529574 0 -0.014579242234768188 0.011123618603577011 0 -0.013651062130050927 0.012196402399348116 0 -0.014514163750427867 0.010069615508608121 0 -0.01451259042738377 0.010062018443252692 0 -0.01451304460653551 0.010061078432268602 0 -0.014332666470205344 0.012427003125529574 0 -0.014846015545441153 0.01262891002390891 0 -0.013595377920545212 0.013120694973824086 0 -0.014870145274021198 0.012154868709741369 0 -0.014332666470205344 0.012427003125529574 0 -0.014846015545441153 0.01262891002390891 0 -0.014579242234768188 0.011123618603577011 0 -0.014219300931174194 0.010530104650436238 0 -0.01451259042738377 0.010062018443252692 0 -0.014511443534187636 0.01005413092504997 0 -0.01451304460653551 0.010061078432268602 0 -0.014511459716246499 0.010054399150357288 0 -0.014511443534187636 0.01005413092504997 0 -0.01451304460653551 0.010061078432268602 0 -0.014511443534187636 0.01005413092504997 0 -0.014511534559928556 0.010060824396141295 0 -0.01451312444711529 0.010047217459929184 0 -0.014505951340490628 0.010058614925026436 0 -0.014511534559928556 0.010060824396141295 0 -0.01451312444711529 0.010047217459929184 0 -0.01451259042738377 0.010062018443252692 0 -0.014511443534187636 0.01005413092504997 0 -0.014511534559928556 0.010060824396141295 0 -0.014511443534187636 0.01005413092504997 0 -0.01451312444711529 0.010047217459929184 0 -0.014506986030401717 0.01004271242172549 0 -0.014523429427465734 0.010012218191923048 0 -0.014527444772056549 0.010031624938300817 0 -0.014651885065918462 0.0099358268950528773 0 -0.014713456764485898 0.010023910636727442 0 -0.01460655508547444 0.010034545018240099 0 -0.014651885065918462 0.0099358268950528773 0 -0.01460655508547444 0.010034545018240099 0 -0.014500662223934466 0.010049396470125763 0 -0.01451312444711529 0.010047217459929184 0 -0.014506986030401717 0.01004271242172549 0 -0.014500662223934466 0.010049396470125763 0 -0.014506986030401717 0.01004271242172549 0 -0.014500662223934466 0.010049396470125763 0 -0.014435577813047867 0.010071816028120901 0 -0.014511459716246499 0.010054399150357288 0 -0.014511443534187636 0.01005413092504997 0 -0.014506986030401717 0.01004271242172549 0 -0.014511459716246499 0.010054399150357288 0 -0.014506986030401717 0.01004271242172549 0 -0.01451477128895475 0.010057931432214921 0 -0.014506986030401717 0.01004271242172549 0 -0.014296367263559833 0.0099416206987748782 0 -0.014435577813047867 0.010071816028120901 0 -0.014721618283560731 0.009970206364513472 0 -0.013829774999773857 0.010340174418678998 0 -0.014272855903600411 0.0099613770633394348 0 -0.014296367263559833 0.0099416206987748782 0 -0.014435577813047867 0.010071816028120901 0 -0.013562497401860087 0.009831266213741717 0 -0.014150631479809578 0.0093961781607989712 0 -0.013734715889796878 0.0086118070634533268 0 -0.013858709885544992 0.008858990439274305 0 -0.013993994892387675 0.0087923388247158132 0 -0.012060457931273777 0.010146658917535233 0 -0.011864834863182631 0.010013595674226881 0 -0.011817160868898238 0.010354217787047667 0 -0.013734715889796878 0.0086118070634533268 0 -0.01369247938195901 0.0088188889085747454 0 -0.013858709885544992 0.008858990439274305 0 -0.013734715889796878 0.0086118070634533268 0 -0.013538421547837062 0.0087764907369191087 0 -0.01369247938195901 0.0088188889085747454 0 -0.013562497401860087 0.009831266213741717 0 -0.011083195352659005 0.0096600391859725833 0 -0.013360422683074637 0.01151261623728117 0 -0.01282389611489943 0.011303926973861917 0 -0.013544558522963657 0.010924746053027606 0 -0.01282389611489943 0.011303926973861917 0 -0.013544558522963657 0.010924746053027606 0 -0.012681012852800419 0.011247141842747164 0 -0.013651062130050927 0.012196402399348116 0 -0.011749580143121028 0.011134888157630977 0 -0.013355279963970124 0.010680432947658079 0 -0.013528418189123223 0.010525199419212403 0 -0.012661191962451858 0.010189130805721281 0 -0.013829774999773857 0.010340174418678998 0 -0.012334960286762271 0.010686215168770202 0 -0.013562497401860087 0.009831266213741717 0 -0.013829774999773857 0.010340174418678998 0 -0.013562497401860087 0.009831266213741717 0 -0.012334960286762271 0.010686215168770202 0 -0.014511459716246499 0.010054399150357288 0 -0.01451477128895475 0.010057931432214921 0 -0.01451304460653551 0.010061078432268602 0 -0.013360422683074637 0.01151261623728117 0 -0.013876552826971842 0.011056522074944149 0 -0.013544558522963657 0.010924746053027606 0 -0.013829774999773857 0.010340174418678998 0 -0.014219300931174194 0.010530104650436238 0 -0.014389822702888392 0.010612836883880004 0 -0.013876552826971842 0.011056522074944149 0 -0.013544558522963657 0.010924746053027606 0 -0.013595377920545212 0.013120694973824086 0 -0.013814447492969261 0.012316670934418281 0 -0.012817404650175154 0.012341318219676196 0 -0.014332666470205344 0.012427003125529574 0 -0.013595377920545212 0.013120694973824086 0 -0.013814447492969261 0.012316670934418281 0 -0.014435729072984965 0.011040171158641462 0 -0.014501305872091393 0.011976239348206139 0 -0.013814447492969261 0.012316670934418281 0 -0.013577647540659857 0.011071346340545803 0 -0.013814447492969261 0.012316670934418281 0 -0.012817404650175154 0.012341318219676196 0 -0.014109228461248926 0.012825898869536039 0 -0.014010600250643703 0.011394437863678138 0 -0.014501305872091393 0.011976239348206139 0 -0.014332666470205344 0.012427003125529574 0 -0.013814447492969261 0.012316670934418281 0 -0.013577647540659857 0.011071346340545803 0 -0.012581497922201963 0.011445187230206943 0 -0.012596667866097514 0.012335739014296345 0 -0.013538184788594389 0.01112004535737841 0 -0.012715498822443471 0.012374357246050162 0 -0.012581497922201963 0.011445187230206943 0 -0.012596667866097514 0.012335739014296345 0 -0.011856739981300723 0.011809771527068823 0 -0.013595377920545212 0.013120694973824086 0 -0.012817404650175154 0.012341318219676196 0 -0.012276960842703757 0.013601166665679527 0 -0.012715498822443471 0.012374357246050162 0 -0.011264858051447281 0.01232141047573394 0 -0.012817404650175154 0.012341318219676196 0 -0.012209380816112508 0.013200309087972036 0 -0.012276960842703757 0.013601166665679527 0 -0.011513262455581879 0.013048357414234072 0 -0.011829643493659777 0.012505739844136421 0 -0.011910110439608325 0.013294733543403764 0 -0.010735886963996645 0.012096566721640702 0 -0.011264858051447281 0.01232141047573394 0 -0.010735886963996645 0.012096566721640702 0 -0.011342723519458369 0.012539280427563228 0 -0.011513262455581879 0.013048357414234072 0 -0.011829643493659777 0.012505739844136421 0 -0.011260787447002893 0.012076545026310982 0 -0.012596667866097514 0.012335739014296345 0 -0.011829643493659777 0.012505739844136421 0 -0.011910110439608325 0.013294733543403764 0 -0.012596667866097514 0.012335739014296345 0 -0.011829643493659777 0.012505739844136421 0 -0.011856739981300723 0.011809771527068823 0 -0.011260787447002893 0.012076545026310982 0 -0.011856739981300723 0.011809771527068823 0 -0.010797901100746981 0.011406906575113701 0 -0.01198014032245384 0.011132475922891462 0 -0.011856739981300723 0.011809771527068823 0 -0.010797901100746981 0.011406906575113701 0 -0.011829643493659777 0.012505739844136421 0 -0.011260787447002893 0.012076545026310982 0 -0.011856739981300723 0.011809771527068823 0 -0.01198014032245384 0.011132475922891462 0 -0.012581497922201963 0.011445187230206943 0 -0.011856739981300723 0.011809771527068823 0 -0.010797901100746981 0.011406906575113701 0 -0.010730150228322511 0.011998524916606208 0 -0.0099264753930948732 0.011273421307731981 0 -0.011260787447002893 0.012076545026310982 0 -0.010797901100746981 0.011406906575113701 0 -0.010730150228322511 0.011998524916606208 0 -0.010730150228322511 0.011998524916606208 0 -0.01014192972080216 0.01217071588049505 0 -0.0099264753930948732 0.011273421307731981 0 -0.010735886963996645 0.012096566721640702 0 -0.0094613539160432747 0.011255678388506952 0 -0.0095335859867790307 0.010804796408614956 0 -0.0096217591045943563 0.011104340167321739 0 -0.0087831852745423392 0.010752727035382785 0 -0.011510847217790601 0.013048837863744753 0 -0.011260787447002893 0.012076545026310982 0 -0.010730150228322511 0.011998524916606208 0 -0.0095335859867790307 0.010804796408614956 0 -0.0088558009154731162 0.010406024779577992 0 -0.0087831852745423392 0.010752727035382785 0 -0.011510847217790601 0.013048837863744753 0 -0.010730150228322511 0.011998524916606208 0 -0.01014192972080216 0.01217071588049505 0 -0.0087775302464355304 0.01018614295995318 0 -0.0088967942953782023 0.010197648332397944 0 -0.008696397321042746 0.010251773134048396 0 -0.0088155822074058917 0.010122510284318783 0 -0.0089428424793986782 0.010141396265166951 0 -0.0086516643192318839 0.010030477803435606 0 -0.0087193021952127504 0.010125415770165493 0 -0.0088155822074058917 0.010122510284318783 0 -0.0086516643192318839 0.010030477803435606 0 -0.0092906612231208521 0.010643937271462366 0 -0.0086015717141305365 0.010216541470943594 0 -0.010209610531804778 0.011153742380863236 0 -0.0085061870970471378 0.010286211323241343 0 -0.0087193021952127504 0.010125415770165493 0 -0.0087775302464355304 0.01018614295995318 0 -0.0086311414414787426 0.010161164757139827 0 -0.0087775302464355304 0.01018614295995318 0 -0.008696397321042746 0.010251773134048396 0 -0.0086311414414787426 0.010161164757139827 0 -0.0087775302464355304 0.01018614295995318 0 -0.0088438347360333455 0.010166106998825803 0 -0.0088967942953782023 0.010197648332397944 0 -0.0087775302464355304 0.01018614295995318 0 -0.0088438347360333455 0.010166106998825803 0 -0.0088155822074058917 0.010122510284318783 0 -0.0088438347360333455 0.010166106998825803 0 -0.0088155822074058917 0.010122510284318783 0 -0.0088669818878762009 0.010144929236280192 0 -0.0087193021952127504 0.010125415770165493 0 -0.0087775302464355304 0.01018614295995318 0 -0.0088155822074058917 0.010122510284318783 0 -0.0088155822074058917 0.010122510284318783 0 -0.0088669818878762009 0.010144929236280192 0 -0.0089428424793986782 0.010141396265166951 0 -0.010735886963996645 0.012096566721640702 0 -0.010209610531804778 0.011153742380863236 0 -0.0088935259897290307 0.010153103392706713 0 -0.0088669818878762009 0.010144929236280192 0 -0.0089428424793986782 0.010141396265166951 0 -0.0088935259897290307 0.010153103392706713 0 -0.0089428424793986782 0.010141396265166951 0 -0.0088967942953782023 0.010197648332397944 0 -0.0088438347360333455 0.010166106998825803 0 -0.0088935259897290307 0.010153103392706713 0 -0.0088669818878762009 0.010144929236280192 0 -0.010715372780369759 0.01211440984530918 0 -0.010466043568117022 0.011956177303289224 0 -0.01060956630523071 0.011745887942473691 0 -0.011264858051447281 0.01232141047573394 0 -0.010209610531804778 0.011153742380863236 0 -0.012209380816112508 0.013200309087972036 0 -0.012001026500345353 0.013489149735691323 0 -0.012276960842703757 0.013601166665679527 0 -0.010209610531804778 0.011153742380863236 0 -0.011749580143121028 0.011134888157630977 0 -0.01039855119782054 0.010935480253845825 0 -0.01070649875357267 0.011056019017644355 0 -0.010439801752017844 0.011158729943524267 0 -0.010209610531804778 0.011153742380863236 0 -0.010214015737333411 0.010655996206141697 0 -0.011864834863182631 0.010013595674226881 0 -0.011800242477925202 0.0099899768562873598 0 -0.011728174907843539 0.010017295847747788 0 -0.012334960286762271 0.010686215168770202 0 -0.011749580143121028 0.011134888157630977 0 -0.011749580143121028 0.011134888157630977 0 -0.010214015737333411 0.010655996206141697 0 -0.0086216779230084781 0.010518000968156515 0 -0.0086472165009814778 0.010508372337298833 0 -0.0086333228880110403 0.010431946791786571 0 -0.0088438347360333455 0.010166106998825803 0 -0.0088935259897290307 0.010153103392706713 0 -0.0088967942953782023 0.010197648332397944 0 -0.010214015737333411 0.010655996206141697 0 -0.0092906612231208521 0.010643937271462366 0 -0.0099020284288930966 0.010651510209701771 0 -0.0099121097834525378 0.010710115833657295 0 -0.0098390925163279221 0.010737263119445428 0 -0.010209610531804778 0.011153742380863236 0 -0.0092906612231208521 0.010643937271462366 0 -0.011864834863182631 0.010013595674226881 0 -0.011728174907843539 0.010017295847747788 0 -0.011817160868898238 0.010354217787047667 0 -0.0086216779230084781 0.010518000968156515 0 -0.0086333228880110403 0.010431946791786571 0 -0.0085849742074166225 0.010380870304202197 0 -0.010214015737333411 0.010655996206141697 0 -0.011083195352659005 0.0096600391859725833 0 -0.0086333228880110403 0.010431946791786571 0 -0.0086143939911889206 0.010384277434945466 0 -0.0085849742074166225 0.010380870304202197 0 -0.0086143939911889206 0.010384277434945466 0 -0.0085936097224400439 0.010372023288361867 0 -0.0085849742074166225 0.010380870304202197 0 -0.010768812080141901 0.0098753032736108217 0 -0.011083195352659005 0.0096600391859725833 0 -0.0086333228880110403 0.010431946791786571 0 -0.0086143939911889206 0.010384277434945466 0 -0.0086498363646834234 0.010372336605800475 0 -0.0092906612231208521 0.010643937271462366 0 -0.0085966204356707748 0.01028870398114687 0 -0.0086472165009814778 0.010508372337298833 0 -0.0086333228880110403 0.010431946791786571 0 -0.0087381339347276273 0.010344918298317973 0 -0.0088342722754123637 0.010204236642224401 0 -0.008696397321042746 0.010251773134048396 0 -0.0087381339347276273 0.010344918298317973 0 -0.0086333228880110403 0.010431946791786571 0 -0.0087381339347276273 0.010344918298317973 0 -0.0086498363646834234 0.010372336605800475 0 -0.0087515209861366312 0.010333243223419455 0 -0.0087381339347276273 0.010344918298317973 0 -0.0087254555048460591 0.010329842511607248 0 -0.0087515209861366312 0.010333243223419455 0 -0.0087381339347276273 0.010344918298317973 0 -0.0086498363646834234 0.010372336605800475 0 -0.0087515209861366312 0.010333243223419455 0 -0.0086498363646834234 0.010372336605800475 0 -0.008597066944647359 0.010340593947981451 0 -0.0085936097224400439 0.010372023288361867 0 -0.0085891144094997901 0.010377216422476781 0 -0.008580131535167991 0.010303119940594027 0 -0.0086498363646834234 0.010372336605800475 0 -0.0086010434582636588 0.010350730732788572 0 -0.008597066944647359 0.010340593947981451 0 -0.0085936097224400439 0.010372023288361867 0 -0.0086010434582636588 0.010350730732788572 0 -0.008580131535167991 0.010303119940594027 0 -0.0086143939911889206 0.010384277434945466 0 -0.0086498363646834234 0.010372336605800475 0 -0.0086010434582636588 0.010350730732788572 0 -0.0086143939911889206 0.010384277434945466 0 -0.0085936097224400439 0.010372023288361867 0 -0.0086010434582636588 0.010350730732788572 0 -0.0086010434582636588 0.010350730732788572 0 -0.008597066944647359 0.010340593947981451 0 -0.008580131535167991 0.010303119940594027 0 -0.008549453481301093 0.010283693760905939 0 -0.0084951692202385395 0.01018476177294254 0 -0.008597066944647359 0.010340593947981451 0 -0.0082592354481510633 0.010044737131032612 0 -0.0086688247367139454 0.010052173870766212 0 -0.008597066944647359 0.010340593947981451 0 -0.0086221912481384451 0.010240851758249786 0 -0.008580131535167991 0.010303119940594027 0 -0.0082592354481510633 0.010044737131032612 0 -0.0086688247367139454 0.010052173870766212 0 -0.0083821238251963366 0.0095655248344901373 0 -0.0086688247367139454 0.010052173870766212 0 -0.0089787642607690333 0.0098027903011009988 0 -0.0089034343996301675 0.010342889661392865 0 -0.0087515209861366312 0.010333243223419455 0 -0.0086688247367139454 0.010052173870766212 0 -0.0089034343996301675 0.010342889661392865 0 -0.0087515209861366312 0.010333243223419455 0 -0.008597066944647359 0.010340593947981451 0 -0.0086688247367139454 0.010052173870766212 0 -0.0086688247367139454 0.010052173870766212 0 -0.0089787642607690333 0.0098027903011009988 0 -0.0087700617218979451 0.0093919698772205202 0 -0.0086688247367139454 0.010052173870766212 0 -0.0087700617218979451 0.0093919698772205202 0 -0.0083821238251963366 0.0095655248344901373 0 -0.0089787642607690333 0.0098027903011009988 0 -0.0087700617218979451 0.0093919698772205202 0 -0.0092446961550407512 0.0092479172880333728 0 -0.0087700617218979451 0.0093919698772205202 0 -0.0089974408723114442 0.008753897993854563 0 -0.0092446961550407512 0.0092479172880333728 0 -0.0087700617218979451 0.0093919698772205202 0 -0.0089974408723114442 0.008753897993854563 0 -0.0083493347645025133 0.0084647814259200711 0 -0.010091949534394322 0.0083546597464432652 0 -0.0086915585229338111 0.0077108695124530327 0 -0.0083821238251963366 0.0095655248344901373 0 -0.0079053475847663153 0.0095281883725845326 0 -0.0083493347645025133 0.0084647814259200711 0 -0.0087700617218979451 0.0093919698772205202 0 -0.0083821238251963366 0.0095655248344901373 0 -0.0083493347645025133 0.0084647814259200711 0 -0.0084951692202385395 0.01018476177294254 0 -0.010091949534394322 0.0083546597464432652 0 -0.0082592354481510633 0.010044737131032612 0 -0.0083821238251963366 0.0095655248344901373 0 -0.0079053475847663153 0.0095281883725845326 0 -0.01514237786143546 0.006901748176117088 0 -0.0151126272927164 0.0069082171844004848 0 -0.015158959091756559 0.006902454573400706 0 -0.0086221912481384451 0.010240851758249786 0 -0.0085612656078113136 0.010167068410888359 0 -0.0085952979781452627 0.010101892844352646 0 -0.01282216002709031 0.0084000882993036461 0 -0.013063516944277017 0.0079624653292650806 0 -0.015119217991527241 0.0069044587882239336 0 -0.015123996452785941 0.006904630494470097 0 -0.0151126272927164 0.0069082171844004848 0 -0.01282216002709031 0.0084000882993036461 0 -0.010091949534394322 0.0083546597464432652 0 -0.015123996452785941 0.006904630494470097 0 -0.01514237786143546 0.006901748176117088 0 -0.0151126272927164 0.0069082171844004848 0 -0.015124020567806505 0.0069031328861074472 0 -0.015138571269782545 0.0068993840298329752 0 -0.015123996452785941 0.006904630494470097 0 -0.015138571269782545 0.0068993840298329752 0 -0.015123996452785941 0.006904630494470097 0 -0.01514237786143546 0.006901748176117088 0 -0.0095576187948757784 0.0067804219191418616 0 -0.0096387294259664275 0.0069186617209618644 0 -0.0094366116400755057 0.0069342606847000426 0 -0.010091949534394322 0.0083546597464432652 0 -0.012610652674538061 0.0067253666969602768 0 -0.0151126272927164 0.0069082171844004848 0 -0.015156121413675812 0.0069135726551977387 0 -0.015158959091756559 0.006902454573400706 0 -0.015156121413675812 0.0069135726551977387 0 -0.015179662921004825 0.006902588923862708 0 -0.015158959091756559 0.006902454573400706 0 -0.015179662921004825 0.006902588923862708 0 -0.015200659432077485 0.0068950208043310427 0 -0.015199768416974079 0.0069119355376487113 0 -0.015156121413675812 0.0069135726551977387 0 -0.015179662921004825 0.006902588923862708 0 -0.015199768416974079 0.0069119355376487113 0 -0.015179662921004825 0.006902588923862708 0 -0.015178854079484862 0.0068983293454505301 0 -0.015158959091756559 0.006902454573400706 0 -0.015179662921004825 0.006902588923862708 0 -0.015178854079484862 0.0068983293454505301 0 -0.015200659432077485 0.0068950208043310427 0 -0.015178854079484862 0.0068983293454505301 0 -0.015158959091756559 0.006902454573400706 0 -0.015159893045556729 0.0068948150672884442 0 -0.015178854079484862 0.0068983293454505301 0 -0.015159893045556729 0.0068948150672884442 0 -0.015191705650424577 0.0068979718257062171 0 -0.01514237786143546 0.006901748176117088 0 -0.015158959091756559 0.006902454573400706 0 -0.015159893045556729 0.0068948150672884442 0 -0.015138571269782545 0.0068993840298329752 0 -0.01514237786143546 0.006901748176117088 0 -0.015159893045556729 0.0068948150672884442 0 -0.013933701636707369 0.0090800697515734559 0 -0.013900075960130175 0.0089529472333425945 0 -0.014002508398438375 0.0089518937019339856 0 -0.013933701636707369 0.0090800697515734559 0 -0.013900075960130175 0.0089529472333425945 0 -0.013820171679678825 0.0089782038932754854 0 -0.015138571269782545 0.0068993840298329752 0 -0.015159893045556729 0.0068948150672884442 0 -0.015131485716332124 0.0068958579445608705 0 -0.014504805791265894 0.0079453234015933495 0 -0.014215972600957229 0.0084746162356676407 0 -0.01282216002709031 0.0084000882993036461 0 -0.014215972600957229 0.0084746162356676407 0 -0.0086221912481384451 0.010240851758249786 0 -0.0085612656078113136 0.010167068410888359 0 -0.008580131535167991 0.010303119940594027 0 -0.013612899919486113 0.0090966682788542509 0 -0.013665716062534482 0.0090139583354130158 0 -0.013586620525613552 0.0089793305810942463 0 -0.01282216002709031 0.0084000882993036461 0 -0.011094387580777069 0.0097544569936436655 0 -0.015124020567806505 0.0069031328861074472 0 -0.015138571269782545 0.0068993840298329752 0 -0.015131485716332124 0.0068958579445608705 0 -0.013752603132922038 0.0090758875741259234 0 -0.013724624072354762 0.0089167050936095546 0 -0.013596681023787572 0.0089209457212107574 0 -0.011083195352659005 0.0096600391859725833 0 -0.011094387580777069 0.0097544569936436655 0 -0.014215972600957229 0.0084746162356676407 0 -0.01369115471550806 0.00887832948861292 0 -0.013752603132922038 0.0090758875741259234 0 -0.013724624072354762 0.0089167050936095546 0 -0.013858709885544992 0.008858990439274305 0 -0.013538421547837062 0.0087764907369191087 0 -0.013586620525613552 0.0089793305810942463 0 -0.013596681023787572 0.0089209457212107574 0 -0.013665716062534482 0.0090139583354130158 0 -0.013586620525613552 0.0089793305810942463 0 -0.013596681023787572 0.0089209457212107574 0 -0.013538421547837062 0.0087764907369191087 0 -0.013596681023787572 0.0089209457212107574 0 -0.01369247938195901 0.0088188889085747454 0 -0.013724624072354762 0.0089167050936095546 0 -0.01369247938195901 0.0088188889085747454 0 -0.013858709885544992 0.008858990439274305 0 -0.013724624072354762 0.0089167050936095546 0 -0.013596681023787572 0.0089209457212107574 0 -0.01369247938195901 0.0088188889085747454 0 -0.013858709885544992 0.008858990439274305 0 -0.013993994892387675 0.0087923388247158132 0 -0.014002508398438375 0.0089518937019339856 0 -0.013900075960130175 0.0089529472333425945 0 -0.013858709885544992 0.008858990439274305 0 -0.014002508398438375 0.0089518937019339856 0 -0.013900075960130175 0.0089529472333425945 0 -0.013820171679678825 0.0089782038932754854 0 -0.013858709885544992 0.008858990439274305 0 -0.014215972600957229 0.0084746162356676407 0 -0.013763942287354588 0.0090733574732053419 0 -0.013993994892387675 0.0087923388247158132 0 -0.014185620549661699 0.0089278615911387617 0 -0.014002508398438375 0.0089518937019339856 0 -0.014500662223934466 0.010049396470125763 0 -0.014435577813047867 0.010071816028120901 0 -0.014616917515024763 0.010192965648639699 0 -0.014150631479809578 0.0093961781607989712 0 -0.015173131924302237 0.0091529654728365554 0 -0.014713456764485898 0.010023910636727442 0 -0.01460655508547444 0.010034545018240099 0 -0.014616917515024763 0.010192965648639699 0 -0.01460655508547444 0.010034545018240099 0 -0.014500662223934466 0.010049396470125763 0 -0.014616917515024763 0.010192965648639699 0 -0.015295106569464341 0.0097568676629583035 0 -0.015173131924302237 0.0091529654728365554 0 -0.015173131924302237 0.0091529654728365554 0 -0.015179130581039637 0.008823974363714477 0 -0.016104845825410875 0.0088953758363378242 0 -0.016314445639638048 0.0084772948484084336 0 -0.015699651758173068 0.0086020730171483834 0 -0.015173131924302237 0.0091529654728365554 0 -0.01593117156715141 0.0087351225940276844 0 -0.013933701636707369 0.0090800697515734559 0 -0.014111109807283318 0.0090565565985075269 0 -0.014002508398438375 0.0089518937019339856 0 -0.014185620549661699 0.0089278615911387617 0 -0.014111109807283318 0.0090565565985075269 0 -0.014002508398438375 0.0089518937019339856 0 -0.014504805791265894 0.0079453234015933495 0 -0.015090921536862808 0.0078096223267524146 0 -0.013933701636707369 0.0090800697515734559 0 -0.014111109807283318 0.0090565565985075269 0 -0.014047787722935674 0.0091750266190152776 0 -0.016314445639638048 0.0084772948484084336 0 -0.016533401876041767 0.0080395199731449988 0 -0.01600253295514208 0.0080533433816781502 0 -0.015179130581039637 0.008823974363714477 0 -0.015090921536862808 0.0078096223267524146 0 -0.015178854079484862 0.0068983293454505301 0 -0.015191705650424577 0.0068979718257062171 0 -0.015200659432077485 0.0068950208043310427 0 -0.015090921536862808 0.0078096223267524146 0 -0.015754620597147044 0.0072092048189995907 0 -0.015211996262919487 0.0068757131208170581 0 -0.015200659432077485 0.0068950208043310427 0 -0.015280335757689391 0.006900561127560231 0 -0.015200659432077485 0.0068950208043310427 0 -0.015280335757689391 0.006900561127560231 0 -0.015234586018966137 0.0069163222258662258 0 -0.015200659432077485 0.0068950208043310427 0 -0.015234586018966137 0.0069163222258662258 0 -0.015199768416974079 0.0069119355376487113 0 -0.015090921536862808 0.0078096223267524146 0 -0.015334008910176276 0.0070106763769900429 0 -0.016533401876041767 0.0080395199731449988 0 -0.016039426982418326 0.0075250754554115435 0 -0.01600253295514208 0.0080533433816781502 0 -0.016039426982418326 0.0075250754554115435 0 -0.01600253295514208 0.0080533433816781502 0 -0.015484623274348099 0.0075891727305277459 0 -0.016314445639638048 0.0084772948484084336 0 -0.01600253295514208 0.0080533433816781502 0 -0.015699651758173068 0.0086020730171483834 0 -0.01600253295514208 0.0080533433816781502 0 -0.015425843735761216 0.008082434831328103 0 -0.015699651758173068 0.0086020730171483834 0 -0.01600253295514208 0.0080533433816781502 0 -0.015425843735761216 0.008082434831328103 0 -0.015484623274348099 0.0075891727305277459 0 -0.015425843735761216 0.008082434831328103 0 -0.015484623274348099 0.0075891727305277459 0 -0.014999758744617833 0.0075938345112657518 0 -0.015425843735761216 0.008082434831328103 0 -0.014999758744617833 0.0075938345112657518 0 -0.014999993008572915 0.0083351414244955437 0 -0.015425843735761216 0.008082434831328103 0 -0.014999993008572915 0.0083351414244955437 0 -0.015319369846419477 0.0086307179510637828 0 -0.014999993008572915 0.0083351414244955437 0 -0.015319369846419477 0.0086307179510637828 0 -0.014999926862930885 0.0090760556526456523 0 -0.015425843735761216 0.008082434831328103 0 -0.015319369846419477 0.0086307179510637828 0 -0.015699651758173068 0.0086020730171483834 0 -0.016114707459588932 0.0089178687342670055 0 -0.015699651758173068 0.0086020730171483834 0 -0.015467067953560069 0.0090577667906942827 0 -0.015319369846419477 0.0086307179510637828 0 -0.015699651758173068 0.0086020730171483834 0 -0.015467067953560069 0.0090577667906942827 0 -0.015846747254366796 0.0094485605278471687 0 -0.016114707459588932 0.0089178687342670055 0 -0.015467067953560069 0.0090577667906942827 0 -0.015286734172014427 0.0095070625638764682 0 -0.015467067953560069 0.0090577667906942827 0 -0.014999926862930885 0.0090760556526456523 0 -0.015319369846419477 0.0086307179510637828 0 -0.015467067953560069 0.0090577667906942827 0 -0.014999926862930885 0.0090760556526456523 0 -0.015352602502940935 0.0095749699689684255 0 -0.015000043326848433 0.0090762858735535853 0 -0.0074306193853694207 0.010041968401591791 0 -0.0075230589951116407 0.010090975537273273 0 -0.0073299397161439381 0.0099827664096068559 0 -0.0074306193853694207 0.010041968401591791 0 -0.0073299397161439381 0.0099827664096068559 0 -0.0073345597584289291 0.009931886697274862 0 -0.0079632426395385685 0.010183050641343528 0 -0.0078948773673297064 0.01012554998086203 0 -0.0080461364901372057 0.010196566920355771 0 -0.0075230589951116407 0.010090975537273273 0 -0.0075643076688095322 0.010113719706993887 0 -0.0073299397161439381 0.0099827664096068559 0 -0.0079632426395385685 0.010183050641343528 0 -0.008026175455508499 0.010252581862330535 0 -0.0080461364901372057 0.010196566920355771 0 -0.0079632426395385685 0.010183050641343528 0 -0.008026175455508499 0.010252581862330535 0 -0.0079538365754401215 0.010248893198630682 0 -0.0077831313929414255 0.010057928026020893 0 -0.0070518498901812618 0.010172266966326764 0 -0.0080455681795286171 0.010313411920048397 0 -0.0079538365754401215 0.010248893198630682 0 -0.0080179999715017485 0.010382275165771329 0 -0.008026175455508499 0.010252581862330535 0 -0.0080455681795286171 0.010313411920048397 0 -0.0079538365754401215 0.010248893198630682 0 -0.0070518498901812618 0.010172266966326764 0 -0.0072739312554338069 0.0098661910544118343 0 -0.008026175455508499 0.010252581862330535 0 -0.0080455681795286171 0.010313411920048397 0 -0.0081013508629956838 0.010293985185448259 0 -0.0073299397161439381 0.0099827664096068559 0 -0.0072374094369945631 0.0097731246566440458 0 -0.0070863333709252248 0.009579795249986733 0 -0.0070518498901812618 0.010172266966326764 0 -0.0067964331850455632 0.0096275237772318386 0 -0.0073299397161439381 0.0099827664096068559 0 -0.0073345597584289291 0.009931886697274862 0 -0.0072374094369945631 0.0097731246566440458 0 -0.0072374094369945631 0.0097731246566440458 0 -0.0073123379734500327 0.0097939171952596809 0 -0.0072260409254668147 0.0095271476246339588 0 -0.0073123379734500327 0.0097939171952596809 0 -0.0073887725184806829 0.0097469801745175555 0 -0.0072260409254668147 0.0095271476246339588 0 -0.0073123379734500327 0.0097939171952596809 0 -0.0074044302365550421 0.0098798279369263463 0 -0.0073896534320895589 0.0099732147062718893 0 -0.0073345597584289291 0.009931886697274862 0 -0.0072374094369945631 0.0097731246566440458 0 -0.0073123379734500327 0.0097939171952596809 0 -0.0073345597584289291 0.009931886697274862 0 -0.0073123379734500327 0.0097939171952596809 0 -0.0073896534320895589 0.0099732147062718893 0 -0.0075045062830181933 0.0092071750037236322 0 -0.0074893372471738573 0.0097728891879106158 0 -0.0073887725184806829 0.0097469801745175555 0 -0.0075128758539969283 0.0098263102056495525 0 -0.007434634624481907 0.0095971751950574228 0 -0.0073123379734500327 0.0097939171952596809 0 -0.0073887725184806829 0.0097469801745175555 0 -0.0074044302365550421 0.0098798279369263463 0 -0.0073887725184806829 0.0097469801745175555 0 -0.0074044302365550421 0.0098798279369263463 0 -0.0075128758539969283 0.0098263102056495525 0 -0.0075045062830181933 0.0092071750037236322 0 -0.0074862228891982262 0.0085567266178223009 0 -0.0072638178340910433 0.0090798288604577882 0 -0.006964082931896219 0.0095975061156062143 0 -0.0073171489794269214 0.009554018628010091 0 -0.0074044302365550421 0.0098798279369263463 0 -0.0075128758539969283 0.0098263102056495525 0 -0.0074480317213328181 0.01001541178346319 0 -0.0075045062830181933 0.0092071750037236322 0 -0.0071914523101384463 0.0098295137362049353 0 -0.006964082931896219 0.0095975061156062143 0 -0.0073171489794269214 0.009554018628010091 0 -0.0071045598264378677 0.0098206977454644382 0 -0.0074306193853694207 0.010041968401591791 0 -0.0073345597584289291 0.009931886697274862 0 -0.0073896534320895589 0.0099732147062718893 0 -0.0074044302365550421 0.0098798279369263463 0 -0.0074480317213328181 0.01001541178346319 0 -0.0073896534320895589 0.0099732147062718893 0 -0.0074480317213328181 0.01001541178346319 0 -0.0073896534320895589 0.0099732147062718893 0 -0.0074497905027609878 0.010057394310776435 0 -0.0074306193853694207 0.010041968401591791 0 -0.0073896534320895589 0.0099732147062718893 0 -0.0074497905027609878 0.010057394310776435 0 -0.0071914523101384463 0.0098295137362049353 0 -0.0070687464774161109 0.010230233301982866 0 -0.0074480317213328181 0.01001541178346319 0 -0.0074497905027609878 0.010057394310776435 0 -0.0074674587165376744 0.010070172578512202 0 -0.0074497905027609878 0.010057394310776435 0 -0.0074674587165376744 0.010070172578512202 0 -0.0074926997527312413 0.010072724512569037 0 -0.0070687464774161109 0.010230233301982866 0 -0.0074199608843579694 0.01015006564576622 0 -0.0058781525555118685 0.011044244229775025 0 -0.0070460182681901734 0.010868014193246501 0 -0.0067099638933374953 0.010857503999707889 0 -0.006964082931896219 0.0095975061156062143 0 -0.0066720525502194225 0.010110828837968914 0 -0.0071045598264378677 0.0098206977454644382 0 -0.0073688385252515826 0.010028749820585074 0 -0.0073171489794269214 0.009554018628010091 0 -0.0071045598264378677 0.0098206977454644382 0 -0.0073688385252515826 0.010028749820585074 0 -0.0066720525502194225 0.010110828837968914 0 -0.0071045598264378677 0.0098206977454644382 0 -0.0066988729762038563 0.010552453530755256 0 -0.0070687464774161109 0.010230233301982866 0 -0.0059534141752372689 0.010804238291551343 0 -0.0058781525555118685 0.011044244229775025 0 -0.0067099638933374953 0.010857503999707889 0 -0.0063993520432130318 0.013224881612264337 0 -0.0063713416635585501 0.011040412587038972 0 -0.006529423953361941 0.016696431936458429 0 -0.0065168365483293219 0.016704602511232597 0 -0.0064995478059022057 0.01676958129507904 0 -0.0063993520432130318 0.013224881612264337 0 -0.006365814241272162 0.013679831054555445 0 -0.0065168365483293219 0.016704602511232597 0 -0.006456737097778267 0.016761620332255447 0 -0.0064995478059022057 0.01676958129507904 0 -0.005920842796484505 0.010797553391885602 0 -0.0067099638933374953 0.010857503999707889 0 -0.0067244786030537735 0.010312607287987025 0 -0.0064810034785303568 0.016843512246597338 0 -0.006456737097778267 0.016761620332255447 0 -0.0064995478059022057 0.01676958129507904 0 -0.0070687464774161109 0.010230233301982866 0 -0.0074832298240212463 0.01006314094927218 0 -0.007486370796693763 0.0099046067035901131 0 -0.0067244786030537735 0.010312607287987025 0 -0.0075045035515618865 0.0099597375155072547 0 -0.0070460182681901734 0.010868014193246501 0 -0.0067244786030537735 0.010312607287987025 0 -0.0075045035515618865 0.0099597375155072547 0 -0.0074458195573719162 0.010085224842630592 0 -0.0075045035515618865 0.0099597375155072547 0 -0.0075318861129815484 0.010045517928184486 0 -0.0074458195573719162 0.010085224842630592 0 -0.0074926997527312413 0.010072724512569037 0 -0.0075318861129815484 0.010045517928184486 0 -0.0070460182681901734 0.010868014193246501 0 -0.0067099638933374953 0.010857503999707889 0 -0.0067244786030537735 0.010312607287987025 0 -0.0064091563579869665 0.01677726643258845 0 -0.0064656762291241876 0.016816267154140776 0 -0.006456737097778267 0.016761620332255447 0 -0.0075477502119974506 0.012109967504875734 0 -0.006365814241272162 0.013679831054555445 0 -0.007486370796693763 0.0099046067035901131 0 -0.0075045035515618865 0.0099597375155072547 0 -0.0076837903763501874 0.010069055672916195 0 -0.0075477502119974506 0.012109967504875734 0 -0.007340925570166754 0.0096611063685791421 0 -0.0078031890368188027 0.01006809972907108 0 -0.007691926491635458 0.010060504036934516 0 -0.0076837903763501874 0.010069055672916195 0 -0.0075045035515618865 0.0099597375155072547 0 -0.0076837903763501874 0.010069055672916195 0 -0.0075318861129815484 0.010045517928184486 0 -0.0076837903763501874 0.010069055672916195 0 -0.0075318861129815484 0.010045517928184486 0 -0.0075553461715696926 0.010075586020615578 0 -0.0074926997527312413 0.010072724512569037 0 -0.0075318861129815484 0.010045517928184486 0 -0.0075553461715696926 0.010075586020615578 0 -0.0074497905027609878 0.010057394310776435 0 -0.0074926997527312413 0.010072724512569037 0 -0.0075459382948468764 0.010088453477833187 0 -0.0074926997527312413 0.010072724512569037 0 -0.0075459382948468764 0.010088453477833187 0 -0.0075553461715696926 0.010075586020615578 0 -0.0076837903763501874 0.010069055672916195 0 -0.0075459382948468764 0.010088453477833187 0 -0.0075553461715696926 0.010075586020615578 0 -0.0076837903763501874 0.010069055672916195 0 -0.0075459382948468764 0.010088453477833187 0 -0.0076779339041456191 0.010097393404733144 0 -0.0075230589951116407 0.010090975537273273 0 -0.0075459382948468764 0.010088453477833187 0 -0.0076779339041456191 0.010097393404733144 0 -0.0074306193853694207 0.010041968401591791 0 -0.0075230589951116407 0.010090975537273273 0 -0.0075459382948468764 0.010088453477833187 0 -0.0074306193853694207 0.010041968401591791 0 -0.0074497905027609878 0.010057394310776435 0 -0.0075459382948468764 0.010088453477833187 0 -0.0077831313929414255 0.010057928026020893 0 -0.0078587721345778402 0.010101698713413281 0 -0.0075643076688095322 0.010113719706993887 0 -0.0076779339041456191 0.010097393404733144 0 -0.0078948773673297064 0.01012554998086203 0 -0.0075230589951116407 0.010090975537273273 0 -0.0075643076688095322 0.010113719706993887 0 -0.0076779339041456191 0.010097393404733144 0 -0.0076779339041456191 0.010097393404733144 0 -0.0078948773673297064 0.01012554998086203 0 -0.007853003643389464 0.010083072077773259 0 -0.0076837903763501874 0.010069055672916195 0 -0.0076779339041456191 0.010097393404733144 0 -0.007853003643389464 0.010083072077773259 0 -0.0078031890368188027 0.01006809972907108 0 -0.0076837903763501874 0.010069055672916195 0 -0.007853003643389464 0.010083072077773259 0 -0.0079945641869910242 0.010129189566780326 0 -0.007853003643389464 0.010083072077773259 0 -0.0080088822957123107 0.010113185409012265 0 -0.0078948773673297064 0.01012554998086203 0 -0.007853003643389464 0.010083072077773259 0 -0.0080088822957123107 0.010113185409012265 0 -0.0080178349917734287 0.010113944431932613 0 -0.0083304520765522961 0.010235209611669269 0 -0.0080088822957123107 0.010113185409012265 0 -0.0081481537676326883 0.010213146613326004 0 -0.0082103976383324853 0.010412506103128636 0 -0.0080088822957123107 0.010113185409012265 0 -0.0081251844584009601 0.010120128502951083 0 -0.0083158810366506779 0.0099954914652831978 0 -0.0081251844584009601 0.010120128502951083 0 -0.0083158810366506779 0.0099954914652831978 0 -0.0083119458043759732 0.010128416487740079 0 -0.0078948773673297064 0.01012554998086203 0 -0.0081251844584009601 0.010120128502951083 0 -0.0080461364901372057 0.010196566920355771 0 -0.0078948773673297064 0.01012554998086203 0 -0.0080088822957123107 0.010113185409012265 0 -0.0081251844584009601 0.010120128502951083 0 -0.01014192972080216 0.01217071588049505 0 -0.0099264753930948732 0.011273421307731981 0 -0.0089179421219954709 0.011178733000796305 0 -0.0088558009154731162 0.010406024779577992 0 -0.008523965313714894 0.01041881580732024 0 -0.008312281236453738 0.010167472814437764 0 -0.0094613539160432747 0.011255678388506952 0 -0.0086522732712040838 0.0106877477694284 0 -0.008523965313714894 0.01041881580732024 0 -0.008312281236453738 0.010167472814437764 0 -0.0082103976383324853 0.010412506103128636 0 -0.0081481537676326883 0.010213146613326004 0 -0.008312281236453738 0.010167472814437764 0 -0.0082103976383324853 0.010412506103128636 0 -0.0083158810366506779 0.0099954914652831978 0 -0.0084422715421854158 0.010078963836145797 0 -0.0086516643192318839 0.010030477803435606 0 -0.0083158810366506779 0.0099954914652831978 0 -0.0084422715421854158 0.010078963836145797 0 -0.0083119458043759732 0.010128416487740079 0 -0.0083304520765522961 0.010235209611669269 0 -0.0085061870970471378 0.010286211323241343 0 -0.0084422715421854158 0.010078963836145797 0 -0.0086516643192318839 0.010030477803435606 0 -0.0085379429249845505 0.010105166730153665 0 -0.008523965313714894 0.01041881580732024 0 -0.0082103976383324853 0.010412506103128636 0 -0.0087831852745423392 0.010752727035382785 0 -0.0088558009154731162 0.010406024779577992 0 -0.008523965313714894 0.01041881580732024 0 -0.0087831852745423392 0.010752727035382785 0 -0.008696397321042746 0.010251773134048396 0 -0.0086311414414787426 0.010161164757139827 0 -0.0085797927758880909 0.010248780344453616 0 -0.0087193021952127504 0.010125415770165493 0 -0.0086516643192318839 0.010030477803435606 0 -0.0086311414414787426 0.010161164757139827 0 -0.0086516643192318839 0.010030477803435606 0 -0.0086311414414787426 0.010161164757139827 0 -0.0085379429249845505 0.010105166730153665 0 -0.0086311414414787426 0.010161164757139827 0 -0.0085379429249845505 0.010105166730153665 0 -0.0084670889467354116 0.010162641543438079 0 -0.0086311414414787426 0.010161164757139827 0 -0.0084670889467354116 0.010162641543438079 0 -0.0085797927758880909 0.010248780344453616 0 -0.0084670889467354116 0.010162641543438079 0 -0.0083119458043759732 0.010128416487740079 0 -0.0083985741245472274 0.010228944342889051 0 -0.0084670889467354116 0.010162641543438079 0 -0.0083985741245472274 0.010228944342889051 0 -0.0085797927758880909 0.010248780344453616 0 -0.0084422715421854158 0.010078963836145797 0 -0.0085379429249845505 0.010105166730153665 0 -0.0084670889467354116 0.010162641543438079 0 -0.0084422715421854158 0.010078963836145797 0 -0.0084670889467354116 0.010162641543438079 0 -0.0083119458043759732 0.010128416487740079 0 -0.0083985741245472274 0.010228944342889051 0 -0.0083159834080144372 0.010297618003779322 0 -0.0085264492961664561 0.010313749570405987 0 -0.0083985741245472274 0.010228944342889051 0 -0.0085797927758880909 0.010248780344453616 0 -0.0085264492961664561 0.010313749570405987 0 -0.008696397321042746 0.010251773134048396 0 -0.0085797927758880909 0.010248780344453616 0 -0.0087254555048460591 0.010329842511607248 0 -0.008696397321042746 0.010251773134048396 0 -0.0087381339347276273 0.010344918298317973 0 -0.0087254555048460591 0.010329842511607248 0 -0.0085797927758880909 0.010248780344453616 0 -0.0087254555048460591 0.010329842511607248 0 -0.0085264492961664561 0.010313749570405987 0 -0.0081251844584009601 0.010120128502951083 0 -0.0080461364901372057 0.010196566920355771 0 -0.0082080663156956692 0.010228122955360448 0 -0.0083119458043759732 0.010128416487740079 0 -0.0083985741245472274 0.010228944342889051 0 -0.0082080663156956692 0.010228122955360448 0 -0.0081251844584009601 0.010120128502951083 0 -0.0083119458043759732 0.010128416487740079 0 -0.0082080663156956692 0.010228122955360448 0 -0.0083985741245472274 0.010228944342889051 0 -0.0082080663156956692 0.010228122955360448 0 -0.0083159834080144372 0.010297618003779322 0 -0.0082080663156956692 0.010228122955360448 0 -0.0083159834080144372 0.010297618003779322 0 -0.0081972932374144974 0.010325861388886226 0 -0.0082080663156956692 0.010228122955360448 0 -0.0081013508629956838 0.010293985185448259 0 -0.0081972932374144974 0.010325861388886226 0 -0.008026175455508499 0.010252581862330535 0 -0.0080461364901372057 0.010196566920355771 0 -0.0081013508629956838 0.010293985185448259 0 -0.0080461364901372057 0.010196566920355771 0 -0.0082080663156956692 0.010228122955360448 0 -0.0081013508629956838 0.010293985185448259 0 -0.0080455681795286171 0.010313411920048397 0 -0.0081013508629956838 0.010293985185448259 0 -0.0081343927242816944 0.010392126287414458 0 -0.0081013508629956838 0.010293985185448259 0 -0.0081343927242816944 0.010392126287414458 0 -0.0081972932374144974 0.010325861388886226 0 -0.0081343927242816944 0.010392126287414458 0 -0.0081972932374144974 0.010325861388886226 0 -0.0082495150584748194 0.010404869851703864 0 -0.0083159834080144372 0.010297618003779322 0 -0.0082495150584748194 0.010404869851703864 0 -0.0085264492961664561 0.010313749570405987 0 -0.0083159834080144372 0.010297618003779322 0 -0.0081972932374144974 0.010325861388886226 0 -0.0082495150584748194 0.010404869851703864 0 -0.0082410186634643695 0.01038414901685945 0 -0.0083056441162101587 0.010618126782391069 0 -0.0082495150584748194 0.010404869851703864 0 -0.0082078375397150877 0.010432553035016353 0 -0.0082021332564234783 0.01042944932685571 0 -0.0081343927242816944 0.010392126287414458 0 -0.0082495150584748194 0.010404869851703864 0 -0.0082078375397150877 0.010432553035016353 0 -0.0081343927242816944 0.010392126287414458 0 -0.0082078375397150877 0.010432553035016353 0 -0.0081563896221632393 0.010443927807662385 0 -0.0087254555048460591 0.010329842511607248 0 -0.0085264492961664561 0.010313749570405987 0 -0.0085695442108205261 0.010421148361047652 0 -0.0087254555048460591 0.010329842511607248 0 -0.0085695442108205261 0.010421148361047652 0 -0.0089034343996301675 0.010342889661392865 0 -0.0087515209861366312 0.010333243223419455 0 -0.0087254555048460591 0.010329842511607248 0 -0.0089034343996301675 0.010342889661392865 0 -0.0082495150584748194 0.010404869851703864 0 -0.0085264492961664561 0.010313749570405987 0 -0.0085695442108205261 0.010421148361047652 0 -0.0085695442108205261 0.010421148361047652 0 -0.0084326163671157601 0.010628576279669526 0 -0.0087362925167898623 0.010668842617043281 0 -0.0082495150584748194 0.010404869851703864 0 -0.0085695442108205261 0.010421148361047652 0 -0.0084326163671157601 0.010628576279669526 0 -0.0085695442108205261 0.010421148361047652 0 -0.0089034343996301675 0.010342889661392865 0 -0.0087362925167898623 0.010668842617043281 0 -0.0089787642607690333 0.0098027903011009988 0 -0.0089034343996301675 0.010342889661392865 0 -0.009478608285655752 0.0097953263568269309 0 -0.0089719331626032395 0.010311265224377808 0 -0.0090773033790510355 0.010243211770914872 0 -0.0089787642607690333 0.0098027903011009988 0 -0.009478608285655752 0.0097953263568269309 0 -0.0092446961550407512 0.0092479172880333728 0 -0.009478608285655752 0.0097953263568269309 0 -0.009846538078442121 0.0092173873946294893 0 -0.0092446961550407512 0.0092479172880333728 0 -0.0090773033790510355 0.010243211770914872 0 -0.009107022097255878 0.0097550931356383524 0 -0.0083056441162101587 0.010618126782391069 0 -0.009107022097255878 0.0097550931356383524 0 -0.0082021332564234783 0.01042944932685571 0 -0.0081721743173583331 0.010387990441641301 0 -0.0082181308325338393 0.010399159188957768 0 -0.0084326163671157601 0.010628576279669526 0 -0.0087362925167898623 0.010668842617043281 0 -0.0086206266629600108 0.010893686826964897 0 -0.0081721743173583331 0.010387990441641301 0 -0.0082181308325338393 0.010399159188957768 0 -0.0081920335702886753 0.010318841258334746 0 -0.009744275598722615 0.0084144419067272089 0 -0.009468620565908463 0.0079443820205999608 0 -0.0099957600929319115 0.0078951682244585032 0 -0.009107022097255878 0.0097550931356383524 0 -0.0085875222715639746 0.0083363511653254448 0 -0.009846538078442121 0.0092173873946294893 0 -0.0092446961550407512 0.0092479172880333728 0 -0.0094954069736325874 0.0084388707186128075 0 -0.0089974408723114442 0.008753897993854563 0 -0.0092446961550407512 0.0092479172880333728 0 -0.0094954069736325874 0.0084388707186128075 0 -0.009107022097255878 0.0097550931356383524 0 -0.0095011839466113308 0.008046839595624293 0 -0.0076993304830942884 0.0091758023694543424 0 -0.0073753582789958007 0.0087575187812346817 0 -0.0079198126321855349 0.0089971115741679011 0 -0.0082078375397150877 0.010432553035016353 0 -0.0081563896221632393 0.010443927807662385 0 -0.0082181308325338393 0.010399159188957768 0 -0.0080476506954733767 0.0098521342390864783 0 -0.0076852387998504581 0.0096776680273117557 0 -0.0082078375397150877 0.010432553035016353 0 -0.0082021332564234783 0.01042944932685571 0 -0.0082181308325338393 0.010399159188957768 0 -0.0076852387998504581 0.0096776680273117557 0 -0.0085875222715639746 0.0083363511653254448 0 -0.0073753582789958007 0.0087575187812346817 0 -0.0079198126321855349 0.0089971115741679011 0 -0.0078162181062124258 0.0083969402654969546 0 -0.0064050876955217169 0.0086072816835939779 0 -0.0058879535516332916 0.0088104820035961196 0 -0.0057690012210701606 0.0080091458240873284 0 -0.0068668094414765729 0.0088412561158086288 0 -0.006811959416799779 0.0082262026072673911 0 -0.0064050876955217169 0.0086072816835939779 0 -0.0064725356059063275 0.0080736774744719839 0 -0.0057690012210701606 0.0080091458240873284 0 -0.0064050876955217169 0.0086072816835939779 0 -0.0058879535516332916 0.0088104820035961196 0 -0.0063601626010012869 0.0091722677223190028 0 -0.0064050876955217169 0.0086072816835939779 0 -0.0063601626010012869 0.0091722677223190028 0 -0.0069466015828737087 0.009045600339041197 0 -0.0058879535516332916 0.0088104820035961196 0 -0.0063601626010012869 0.0091722677223190028 0 -0.0060531379089587617 0.0096378060011788075 0 -0.0081343927242816944 0.010392126287414458 0 -0.0081563896221632393 0.010443927807662385 0 -0.0080179999715017485 0.010382275165771329 0 -0.0076993304830942884 0.0091758023694543424 0 -0.0079198126321855349 0.0089971115741679011 0 -0.0080158455644157005 0.0095912116225743086 0 -0.0068668094414765729 0.0088412561158086288 0 -0.0072739312554338069 0.0098661910544118343 0 -0.0080476506954733767 0.0098521342390864783 0 -0.0072739312554338069 0.0098661910544118343 0 -0.0063601626010012869 0.0091722677223190028 0 -0.0062837174893854231 0.0095376530999349458 0 -0.0065518425849874842 0.0097131796886819315 0 -0.0063601626010012869 0.0091722677223190028 0 -0.0062837174893854231 0.0095376530999349458 0 -0.0060531379089587617 0.0096378060011788075 0 -0.0062837174893854231 0.0095376530999349458 0 -0.0065518425849874842 0.0097131796886819315 0 -0.0061185082344795355 0.0097149383955893124 0 -0.0062837174893854231 0.0095376530999349458 0 -0.0060531379089587617 0.0096378060011788075 0 -0.0061185082344795355 0.0097149383955893124 0 -0.0062040262531479484 0.01034526535425339 0 -0.0065518425849874842 0.0097131796886819315 0 -0.0061185082344795355 0.0097149383955893124 0 -0.0080455681795286171 0.010313411920048397 0 -0.0081343927242816944 0.010392126287414458 0 -0.0080179999715017485 0.010382275165771329 0 -0.0062040262531479484 0.01034526535425339 0 -0.0060584777369390467 0.0096414632732408252 0 -0.0061185082344795355 0.0097149383955893124 0 -0.0072739312554338069 0.0098661910544118343 0 -0.0070262999476175579 0.0096885797912343776 0 -0.007434634624481907 0.0095971751950574228 0 -0.0072260409254668147 0.0095271476246339588 0 -0.0073442865010162634 0.0092853540775875171 0 -0.0073887725184806829 0.0097469801745175555 0 -0.007434634624481907 0.0095971751950574228 0 -0.0072260409254668147 0.0095271476246339588 0 -0.0072374094369945631 0.0097731246566440458 0 -0.0070863333709252248 0.009579795249986733 0 -0.0072260409254668147 0.0095271476246339588 0 -0.0067964331850455632 0.0096275237772318386 0 -0.0069791123202057898 0.0090716410149877715 0 -0.0070863333709252248 0.009579795249986733 0 -0.0072260409254668147 0.0095271476246339588 0 -0.0069466015828737087 0.009045600339041197 0 -0.0063601626010012869 0.0091722677223190028 0 -0.0065518425849874842 0.0097131796886819315 0 -0.0069466015828737087 0.009045600339041197 0 -0.0072260409254668147 0.0095271476246339588 0 -0.0069466015828737087 0.009045600339041197 0 -0.0073442865010162634 0.0092853540775875171 0 -0.0074527500547718235 0.0089193299887387421 0 -0.0069466015828737087 0.009045600339041197 0 -0.0073442865010162634 0.0092853540775875171 0 -0.0074527500547718235 0.0089193299887387421 0 -0.0069466015828737087 0.009045600339041197 0 -0.0072684890008076208 0.0085815050774803951 0 -0.0069466015828737087 0.009045600339041197 0 -0.0068274836024300812 0.0084923179202539296 0 -0.0072684890008076208 0.0085815050774803951 0 -0.0064050876955217169 0.0086072816835939779 0 -0.0069466015828737087 0.009045600339041197 0 -0.0068274836024300812 0.0084923179202539296 0 -0.0068274836024300812 0.0084923179202539296 0 -0.0069826524620881288 0.0081596877257126641 0 -0.0064725356059063275 0.0080736774744719839 0 -0.0064050876955217169 0.0086072816835939779 0 -0.0068274836024300812 0.0084923179202539296 0 -0.0064725356059063275 0.0080736774744719839 0 -0.0074310695627089604 0.0083526372980988941 0 -0.0072684890008076208 0.0085815050774803951 0 -0.0069826524620881288 0.0081596877257126641 0 -0.0068274836024300812 0.0084923179202539296 0 -0.0072684890008076208 0.0085815050774803951 0 -0.0069826524620881288 0.0081596877257126641 0 -0.0074310695627089604 0.0083526372980988941 0 -0.0069826524620881288 0.0081596877257126641 0 -0.0072206811250756829 0.0077347479679376382 0 -0.0069826524620881288 0.0081596877257126641 0 -0.0064725356059063275 0.0080736774744719839 0 -0.0064518106974657359 0.0072510500284999561 0 -0.0064518106974657359 0.0072510500284999561 0 -0.0061731482232370034 0.0068267466756525771 0 -0.0061053165230683226 0.0070534618765429888 0 -0.0069826524620881288 0.0081596877257126641 0 -0.0064518106974657359 0.0072510500284999561 0 -0.0072206811250756829 0.0077347479679376382 0 -0.0064720684675562724 0.0072351489471318654 0 -0.0066587428160401439 0.0072810630799384247 0 -0.0064518106974657359 0.0072510500284999561 0 -0.0062772487268544621 0.0071659055447356231 0 -0.0061053165230683226 0.0070534618765429888 0 -0.0062772487268544621 0.0071659055447356231 0 -0.0061053165230683226 0.0070534618765429888 0 -0.0059958733902076714 0.0071485858106157679 0 -0.0064518106974657359 0.0072510500284999561 0 -0.0062772487268544621 0.0071659055447356231 0 -0.0062384826374055312 0.0071323024340033308 0 -0.0062772487268544621 0.0071659055447356231 0 -0.0062384826374055312 0.0071323024340033308 0 -0.0062833581814567578 0.0071691491006331135 0 -0.0062772487268544621 0.0071659055447356231 0 -0.0062833581814567578 0.0071691491006331135 0 -0.0059958733902076714 0.0071485858106157679 0 -0.0059680098415199993 0.0070785711934497177 0 -0.0060063597652052561 0.0071423993999210613 0 -0.0060813025893288082 0.0070889547130160062 0 -0.0058467298959702313 0.007094237771679065 0 -0.0060051250115627014 0.007019784515285136 0 -0.0060813025893288082 0.0070889547130160062 0 -0.0061107025022078378 0.0072662190825655377 0 -0.0058467298959702313 0.007094237771679065 0 -0.0060813025893288082 0.0070889547130160062 0 -0.0062384826374055312 0.0071323024340033308 0 -0.0061107025022078378 0.0072662190825655377 0 -0.0060813025893288082 0.0070889547130160062 0 -0.0062384826374055312 0.0071323024340033308 0 -0.0061620785720566795 0.0070589973831917657 0 -0.0064518106974657359 0.0072510500284999561 0 -0.0062384826374055312 0.0071323024340033308 0 -0.0061107025022078378 0.0072662190825655377 0 -0.0061107025022078378 0.0072662190825655377 0 -0.005807293647735085 0.0074047838333307029 0 -0.0058467298959702313 0.007094237771679065 0 -0.0061308522455720991 0.0075805082419330037 0 -0.0057690012210701606 0.0080091458240873284 0 -0.005807293647735085 0.0074047838333307029 0 -0.0061107025022078378 0.0072662190825655377 0 -0.0061308522455720991 0.0075805082419330037 0 -0.005807293647735085 0.0074047838333307029 0 -0.0064725356059063275 0.0080736774744719839 0 -0.0064518106974657359 0.0072510500284999561 0 -0.0061308522455720991 0.0075805082419330037 0 -0.0064518106974657359 0.0072510500284999561 0 -0.0061107025022078378 0.0072662190825655377 0 -0.0061308522455720991 0.0075805082419330037 0 -0.0064725356059063275 0.0080736774744719839 0 -0.0061308522455720991 0.0075805082419330037 0 -0.0057690012210701606 0.0080091458240873284 0 -0.0073753582789958007 0.0087575187812346817 0 -0.0078162181062124258 0.0083969402654969546 0 -0.0074538415331583284 0.0082109247758300509 0 -0.0073753582789958007 0.0087575187812346817 0 -0.0074538415331583284 0.0082109247758300509 0 -0.0070504776970709204 0.0083366340875414262 0 -0.0085875222715639746 0.0083363511653254448 0 -0.008376361165373802 0.0073140795731323274 0 -0.0074538415331583284 0.0082109247758300509 0 -0.0070504776970709204 0.0083366340875414262 0 -0.0073217663936237624 0.007767116294470488 0 -0.006811959416799779 0.0082262026072673911 0 -0.0067001927354602073 0.007594300841712311 0 -0.0078162181062124258 0.0083969402654969546 0 -0.0074538415331583284 0.0082109247758300509 0 -0.0077062393388445749 0.0077969952122717576 0 -0.0074538415331583284 0.0082109247758300509 0 -0.0077062393388445749 0.0077969952122717576 0 -0.0073217663936237624 0.007767116294470488 0 -0.009468620565908463 0.0079443820205999608 0 -0.0094541614469894428 0.0076019029848680489 0 -0.0092235247205724943 0.0075229159050069693 0 -0.009468620565908463 0.0079443820205999608 0 -0.0096972750464638345 0.0075136159034490833 0 -0.0094541614469894428 0.0076019029848680489 0 -0.009468620565908463 0.0079443820205999608 0 -0.0099957600929319115 0.0078951682244585032 0 -0.0096972750464638345 0.0075136159034490833 0 -0.0085875222715639746 0.0083363511653254448 0 -0.0095407945617605704 0.0072644855594921837 0 -0.009227509879767077 0.0070399812647512234 0 -0.0092952594709108261 0.0071028654321211044 0 -0.0091613446842868183 0.0071471892813474514 0 -0.0095407945617605704 0.0072644855594921837 0 -0.009389016156474304 0.0072062748643129853 0 -0.0096972750464638345 0.0075136159034490833 0 -0.0093719960332922826 0.0073679340864420857 0 -0.0093768866102974593 0.0071892256124743382 0 -0.0096972750464638345 0.0075136159034490833 0 -0.0093719960332922826 0.0073679340864420857 0 -0.0094541614469894428 0.0076019029848680489 0 -0.0093768866102974593 0.0071892256124743382 0 -0.0092684432529211245 0.0071867853460513328 0 -0.0093333841086666782 0.0072256820364309917 0 -0.0092952594709108261 0.0071028654321211044 0 -0.0093768866102974593 0.0071892256124743382 0 -0.0092684432529211245 0.0071867853460513328 0 -0.0093768866102974593 0.0071892256124743382 0 -0.0093333841086666782 0.0072256820364309917 0 -0.0093633015045252992 0.0072117789656573816 0 -0.0092952594709108261 0.0071028654321211044 0 -0.0092684432529211245 0.0071867853460513328 0 -0.0091613446842868183 0.0071471892813474514 0 -0.0092684432529211245 0.0071867853460513328 0 -0.0092753381936270234 0.0072708412834073472 0 -0.0093333841086666782 0.0072256820364309917 0 -0.0092753381936270234 0.0072708412834073472 0 -0.0091928568163123416 0.0072432079542889957 0 -0.0091821793153417063 0.0073608434344790176 0 -0.0092684432529211245 0.0071867853460513328 0 -0.0092753381936270234 0.0072708412834073472 0 -0.0091928568163123416 0.0072432079542889957 0 -0.0093333841086666782 0.0072256820364309917 0 -0.0093642406577901915 0.0072482782070857647 0 -0.0093353152633008848 0.0072839308513971473 0 -0.0092753381936270234 0.0072708412834073472 0 -0.0093333841086666782 0.0072256820364309917 0 -0.0093353152633008848 0.0072839308513971473 0 -0.0093333841086666782 0.0072256820364309917 0 -0.0093642406577901915 0.0072482782070857647 0 -0.0093633015045252992 0.0072117789656573816 0 -0.008376361165373802 0.0073140795731323274 0 -0.0071196245924897757 0.0071802717335239605 0 -0.0077062393388445749 0.0077969952122717576 0 -0.0073217663936237624 0.007767116294470488 0 -0.0075906278553978879 0.0072046286455019646 0 -0.0067001927354602073 0.007594300841712311 0 -0.0071196245924897757 0.0071802717335239605 0 -0.0092684432529211245 0.0071867853460513328 0 -0.0091613446842868183 0.0071471892813474514 0 -0.0091928568163123416 0.0072432079542889957 0 -0.0091928568163123416 0.0072432079542889957 0 -0.0090701372829455808 0.007273840596004986 0 -0.0091821793153417063 0.0073608434344790176 0 -0.0091613446842868183 0.0071471892813474514 0 -0.0091928568163123416 0.0072432079542889957 0 -0.0090701372829455808 0.007273840596004986 0 -0.0058467298959702313 0.007094237771679065 0 -0.0060051250115627014 0.007019784515285136 0 -0.0059929841915160806 0.0069269188516378876 0 -0.0071196245924897757 0.0071802717335239605 0 -0.0078709828801431705 0.0068430864071990912 0 -0.0059781587357856346 0.0069949382272395545 0 -0.0059420580989297507 0.0068933273821773708 0 -0.0059674106336960603 0.0069126001815540397 0 -0.0071196245924897757 0.0071802717335239605 0 -0.0057415115744158043 0.0070038751877370244 0 -0.0059781587357856346 0.0069949382272395545 0 -0.0059674106336960603 0.0069126001815540397 0 -0.0059929841915160806 0.0069269188516378876 0 -0.0090701372829455808 0.007273840596004986 0 -0.0091821793153417063 0.0073608434344790176 0 -0.0090914029992051892 0.0074408232770104372 0 -0.0092247900012549285 0.007316780170469073 0 -0.0091521453044886587 0.0073792012636109744 0 -0.0092442441324450449 0.0074028785916678188 0 -0.0092999078844058745 0.0073104614775247089 0 -0.0078709828801431705 0.0068430864071990912 0 -0.0091536488727037724 0.0073882837284576352 0 -0.0091521453044886587 0.0073792012636109744 0 -0.0092442441324450449 0.0074028785916678188 0 -0.0081357144062097451 0.0067512482415497971 0 -0.0096065678539237632 0.0070391340218285553 0 -0.0043901376422987564 0.0055706248431240677 0 -0.0044736196559047106 0.0055291133857645908 0 -0.0045767470817295562 0.0055986369135120236 0 -0.0059457076071747781 0.0068863247560487402 0 -0.0059674106336960603 0.0069126001815540397 0 -0.0060417888876556575 0.0068836192264525569 0 -0.0068312886207791499 0.00659122711373057 0 -0.0049841027685210235 0.0062558868648105179 0 -0.0081357144062097451 0.0067512482415497971 0 -0.0078709828801431705 0.0068430864071990912 0 -0.0074286943603370679 0.0058080370429491419 0 -0.0076435841345756407 0.0069433969206868472 0 -0.0085281312661130756 0.005982229756070454 0 -0.0081357144062097451 0.0067512482415497971 0 -0.0068312886207791499 0.00659122711373057 0 -0.0078709828801431705 0.0068430864071990912 0 -0.0068312886207791499 0.00659122711373057 0 -0.0059420580989297507 0.0068933273821773708 0 -0.0059457076071747781 0.0068863247560487402 0 -0.0059674106336960603 0.0069126001815540397 0 -0.0093353152633008848 0.0072839308513971473 0 -0.0093382839641619527 0.0073407513345230086 0 -0.0093965029037014342 0.0072933713039425568 0 -0.0093382839641619527 0.0073407513345230086 0 -0.0093866900854380018 0.0073538378692223419 0 -0.0093965029037014342 0.0072933713039425568 0 -0.0093642406577901915 0.0072482782070857647 0 -0.0093353152633008848 0.0072839308513971473 0 -0.0093965029037014342 0.0072933713039425568 0 -0.0093353152633008848 0.0072839308513971473 0 -0.0092791360562453802 0.0073451090586220368 0 -0.0093382839641619527 0.0073407513345230086 0 -0.0092753381936270234 0.0072708412834073472 0 -0.0092247900012549285 0.007316780170469073 0 -0.0092791360562453802 0.0073451090586220368 0 -0.0092753381936270234 0.0072708412834073472 0 -0.0093353152633008848 0.0072839308513971473 0 -0.0092791360562453802 0.0073451090586220368 0 -0.0092436205526084565 0.0072963562428008822 0 -0.0092999078844058745 0.0073104614775247089 0 -0.0092247900012549285 0.007316780170469073 0 -0.0092442441324450449 0.0074028785916678188 0 -0.0092791360562453802 0.0073451090586220368 0 -0.0092442441324450449 0.0074028785916678188 0 -0.0092791360562453802 0.0073451090586220368 0 -0.0093307299475156417 0.0074172885768374955 0 -0.0092791360562453802 0.0073451090586220368 0 -0.0093382839641619527 0.0073407513345230086 0 -0.0093307299475156417 0.0074172885768374955 0 -0.0093382839641619527 0.0073407513345230086 0 -0.0093866900854380018 0.0073538378692223419 0 -0.0093307299475156417 0.0074172885768374955 0 -0.0093974315731705539 0.0074000650771866103 0 -0.0093866900854380018 0.0073538378692223419 0 -0.0093307299475156417 0.0074172885768374955 0 -0.0099216759344158793 0.0072409253901232406 0 -0.0099162886369124296 0.007404658441775732 0 -0.0093974315731705539 0.0074000650771866103 0 -0.009342026231974802 0.0074121947388752262 0 -0.009441634583804653 0.0074317621654214436 0 -0.010566577225449746 0.0072111067039664833 0 -0.010733968728924931 0.0073857328367048372 0 -0.010344027366110913 0.007357589824826761 0 -0.0092550653187511329 0.0074303904719411912 0 -0.0099216759344158793 0.0072409253901232406 0 -0.010566577225449746 0.0072111067039664833 0 -0.010733968728924931 0.0073857328367048372 0 -0.010777360697288466 0.0071469465721327027 0 -0.0099216759344158793 0.0072409253901232406 0 -0.010467926139701419 0.0062774786240878955 0 -0.010733968728924931 0.0073857328367048372 0 -0.010777360697288466 0.0071469465721327027 0 -0.011235588400182543 0.0072338503848074897 0 -0.0096812686630193424 0.0066306635517916672 0 -0.010053560318098932 0.0066967804537163417 0 -0.0094449786267767049 0.0068382728396398987 0 -0.0096065678539237632 0.0070391340218285553 0 -0.0099216759344158793 0.0072409253901232406 0 -0.010777360697288466 0.0071469465721327027 0 -0.010949590615536655 0.0069752076594306158 0 -0.010615847152071027 0.0070158217742944959 0 -0.010777360697288466 0.0071469465721327027 0 -0.010949590615536655 0.0069752076594306158 0 -0.011235588400182543 0.0072338503848074897 0 -0.010615847152071027 0.0070158217742944959 0 -0.010392837452680654 0.0068552088810174853 0 -0.010659716340704827 0.0066806046981195142 0 -0.010949590615536655 0.0069752076594306158 0 -0.010615847152071027 0.0070158217742944959 0 -0.010659716340704827 0.0066806046981195142 0 -0.010566577225449746 0.0072111067039664833 0 -0.010777360697288466 0.0071469465721327027 0 -0.010615847152071027 0.0070158217742944959 0 -0.010566577225449746 0.0072111067039664833 0 -0.010615847152071027 0.0070158217742944959 0 -0.010350940984788368 0.0071461271773240673 0 -0.010087171805206416 0.0055037736364739707 0 -0.0084373567784779453 0.0046504028590202383 0 -0.0043901376422987564 0.0055706248431240677 0 -0.0044736196559047106 0.0055291133857645908 0 -0.0045202379006470395 0.0053609709524817398 0 -0.0068312886207791499 0.00659122711373057 0 -0.0084373567784779453 0.0046504028590202383 0 -0.0083196527605280974 0.0060237924940130354 0 -0.0081798393736682955 0.0055574387210992485 0 -0.0089190621500201839 0.0053583103229855426 0 -0.0081357144062097451 0.0067512482415497971 0 -0.010087171805206416 0.0055037736364739707 0 -0.0082596367051328591 0.0060145102936260712 0 -0.0083196527605280974 0.0060237924940130354 0 -0.0081798393736682955 0.0055574387210992485 0 -0.0093048344894567144 0.0065672605354176071 0 -0.0096812686630193424 0.0066306635517916672 0 -0.0094449786267767049 0.0068382728396398987 0 -0.010901512862300393 0.0047986465786902166 0 -0.010932069563319857 0.0047905646973403684 0 -0.010930244140954608 0.0049364916494882274 0 -0.0093048344894567144 0.0065672605354176071 0 -0.0093664027516741129 0.0068567284008735586 0 -0.0094449786267767049 0.0068382728396398987 0 -0.010087171805206416 0.0055037736364739707 0 -0.010467926139701419 0.0062774786240878955 0 -0.011086856900435595 0.0049020924958068455 0 -0.010930244140954608 0.0049364916494882274 0 -0.011058190807041937 0.0050240216514640191 0 -0.010087171805206416 0.0055037736364739707 0 -0.01090355632545476 0.0046083347952514371 0 -0.01108345934418779 0.0059331176070815264 0 -0.010467926139701419 0.0062774786240878955 0 -0.011086856900435595 0.0049020924958068455 0 -0.010932069563319857 0.0047905646973403684 0 -0.010930244140954608 0.0049364916494882274 0 -0.010928398394816699 0.0045822278292249599 0 -0.010636099727862131 0.0044445702310902764 0 -0.010737491639286162 0.004821458806417646 0 -0.010839186591283139 0.0041427969163793429 0 -0.010928398394816699 0.0045822278292249599 0 -0.010636099727862131 0.0044445702310902764 0 -0.010839186591283139 0.0041427969163793429 0 -0.010636099727862131 0.0044445702310902764 0 -0.01028879834689644 0.0042453962956634627 0 -0.010636099727862131 0.0044445702310902764 0 -0.01028879834689644 0.0042453962956634627 0 -0.010485384647132279 0.0046793917244207237 0 -0.010636099727862131 0.0044445702310902764 0 -0.010485384647132279 0.0046793917244207237 0 -0.010737491639286162 0.004821458806417646 0 -0.01028879834689644 0.0042453962956634627 0 -0.010210546406243932 0.0048686803295000794 0 -0.010485384647132279 0.0046793917244207237 0 -0.0044736196559047106 0.0055291133857645908 0 -0.0045202379006470395 0.0053609709524817398 0 -0.004599315998599334 0.0054762531933314146 0 -0.0045202379006470395 0.0053609709524817398 0 -0.004599315998599334 0.0054762531933314146 0 -0.0047688309460221547 0.0051719110905397922 0 -0.004741631769454204 0.0054684154051167179 0 -0.004599315998599334 0.0054762531933314146 0 -0.0047688309460221547 0.0051719110905397922 0 -0.004741631769454204 0.0054684154051167179 0 -0.004599315998599334 0.0054762531933314146 0 -0.0046777944472750754 0.0055956712965697028 0 -0.010805526507761657 0.0033346119527317896 0 -0.0093344679130913984 0.0036827241259394365 0 -0.0096721411851740154 0.0046463483478236308 0 -0.0084373567784779453 0.0046504028590202383 0 -0.010519918169920752 0.0041468777668752371 0 -0.0084373567784779453 0.0046504028590202383 0 -0.0068980877984302766 0.0043952889623264102 0 -0.0068980877984302766 0.0043952889623264102 0 -0.0065112486966714912 0.0044598370483213681 0 -0.0047688309460221547 0.0051719110905397922 0 -0.0050765406416400493 0.0052078582447826647 0 -0.0049112568902269791 0.005360900570884509 0 -0.0093344679130913984 0.0036827241259394365 0 -0.0076508380088745678 0.0039638126481442463 0 -0.0087344670137475544 0.0045652199245600628 0 -0.0047688309460221547 0.0051719110905397922 0 -0.0053204773790305462 0.0048727335955938249 0 -0.0050765406416400493 0.0052078582447826647 0 -0.0053204773790305462 0.0048727335955938249 0 -0.0050765406416400493 0.0052078582447826647 0 -0.0052789037970216767 0.0051967539599231906 0 -0.0053204773790305462 0.0048727335955938249 0 -0.0052789037970216767 0.0051967539599231906 0 -0.0055315752849106432 0.0049357270015429801 0 -0.0050765406416400493 0.0052078582447826647 0 -0.0052789037970216767 0.0051967539599231906 0 -0.005091447148770801 0.0054372415476763971 0 -0.005091447148770801 0.0054372415476763971 0 -0.0048833439835772796 0.0055777087108480746 0 -0.005088477704960603 0.0057229890226689808 0 -0.0052789037970216767 0.0051967539599231906 0 -0.005091447148770801 0.0054372415476763971 0 -0.0053861205524712357 0.0056118912738245064 0 -0.005091447148770801 0.0054372415476763971 0 -0.005088477704960603 0.0057229890226689808 0 -0.0053861205524712357 0.0056118912738245064 0 -0.004741631769454204 0.0054684154051167179 0 -0.0047688309460221547 0.0051719110905397922 0 -0.0049112568902269791 0.005360900570884509 0 -0.0050765406416400493 0.0052078582447826647 0 -0.005091447148770801 0.0054372415476763971 0 -0.0049112568902269791 0.005360900570884509 0 -0.005091447148770801 0.0054372415476763971 0 -0.0049112568902269791 0.005360900570884509 0 -0.0048833439835772796 0.0055777087108480746 0 -0.004741631769454204 0.0054684154051167179 0 -0.0049112568902269791 0.005360900570884509 0 -0.0048833439835772796 0.0055777087108480746 0 -0.004741631769454204 0.0054684154051167179 0 -0.0048833439835772796 0.0055777087108480746 0 -0.0047700474953039805 0.0056130246185741401 0 -0.0048833439835772796 0.0055777087108480746 0 -0.0048240631726141807 0.0057877767899878673 0 -0.0047700474953039805 0.0056130246185741401 0 -0.0048833439835772796 0.0055777087108480746 0 -0.0048240631726141807 0.0057877767899878673 0 -0.005088477704960603 0.0057229890226689808 0 -0.005088477704960603 0.0057229890226689808 0 -0.0053133263680019277 0.0061577457616990147 0 -0.0053861205524712357 0.0056118912738245064 0 -0.0048240631726141807 0.0057877767899878673 0 -0.005088477704960603 0.0057229890226689808 0 -0.0053133263680019277 0.0061577457616990147 0 -0.0052346445415335282 0.0063289466312979369 0 -0.0056169651820809951 0.0065448384821728189 0 -0.0057450128497901539 0.0070471622449968267 0 -0.0059958733902076714 0.0071485858106157679 0 -0.0058638361408102895 0.0069215180623910071 0 -0.0056474594059572657 0.0068677133958608121 0 -0.0057450128497901539 0.0070471622449968267 0 -0.0058638361408102895 0.0069215180623910071 0 -0.0062384826374055312 0.0071323024340033308 0 -0.0062833581814567578 0.0071691491006331135 0 -0.0062094600479788414 0.0070022121493566927 0 -0.0056474594059572657 0.0068677133958608121 0 -0.0057450128497901539 0.0070471622449968267 0 -0.0055585102557971621 0.0069430574024079497 0 -0.0059680098415199993 0.0070785711934497177 0 -0.0060300687432575011 0.0070795779616244139 0 -0.0062094600479788414 0.0070022121493566927 0 -0.0060796983820657234 0.0069936398762479556 0 -0.0060417888876556575 0.0068836192264525569 0 -0.0062384826374055312 0.0071323024340033308 0 -0.0062094600479788414 0.0070022121493566927 0 -0.0061620785720566795 0.0070589973831917657 0 -0.0062094600479788414 0.0070022121493566927 0 -0.0061620785720566795 0.0070589973831917657 0 -0.0060796983820657234 0.0069936398762479556 0 -0.0060813025893288082 0.0070889547130160062 0 -0.0061620785720566795 0.0070589973831917657 0 -0.0060796983820657234 0.0069936398762479556 0 -0.0060813025893288082 0.0070889547130160062 0 -0.0060051250115627014 0.007019784515285136 0 -0.0060796983820657234 0.0069936398762479556 0 -0.0060051250115627014 0.007019784515285136 0 -0.0060796983820657234 0.0069936398762479556 0 -0.0059929841915160806 0.0069269188516378876 0 -0.0060796983820657234 0.0069936398762479556 0 -0.0059929841915160806 0.0069269188516378876 0 -0.0060417888876556575 0.0068836192264525569 0 -0.0059674106336960603 0.0069126001815540397 0 -0.0059929841915160806 0.0069269188516378876 0 -0.0060417888876556575 0.0068836192264525569 0 -0.0044736196559047106 0.0055291133857645908 0 -0.004599315998599334 0.0054762531933314146 0 -0.0045454475688899614 0.0056104144031210983 0 -0.0043087970841098324 0.0054922623691364292 0 -0.0049841027685210235 0.0062558868648105179 0 -0.0052346445415335282 0.0063289466312979369 0 -0.0049841027685210235 0.0062558868648105179 0 -0.0056474594059572657 0.0068677133958608121 0 -0.0055585102557971621 0.0069430574024079497 0 -0.0053488316422407155 0.0067985388874637022 0 -0.0048240631726141807 0.0057877767899878673 0 -0.0045454475688899614 0.0056104144031210983 0 -0.0046777944472750754 0.0055956712965697028 0 -0.0060300687432575011 0.0070795779616244139 0 -0.0049841027685210235 0.0062558868648105179 0 -0.004599315998599334 0.0054762531933314146 0 -0.0045454475688899614 0.0056104144031210983 0 -0.0046777944472750754 0.0055956712965697028 0 -0.0048240631726141807 0.0057877767899878673 0 -0.0046777944472750754 0.0055956712965697028 0 -0.0047700474953039805 0.0056130246185741401 0 -0.004741631769454204 0.0054684154051167179 0 -0.0046777944472750754 0.0055956712965697028 0 -0.0047700474953039805 0.0056130246185741401 0 -0.015089096206005207 0.0060702007132419581 0 -0.01499998796678232 0.0061117647365652164 0 -0.014999999657156834 0.0053706506260887505 0 -0.015147383649212361 0.0067839750387742384 0 -0.015159824659939586 0.0067709800453120078 0 -0.015141710057003037 0.0067344039386997168 0 -0.015168858514968044 0.0064996679134819114 0 -0.01454662500663443 0.0057088199991718516 0 -0.015155833266474985 0.0067852252644959102 0 -0.015159824659939586 0.0067709800453120078 0 -0.015176436007410555 0.0067967657032414414 0 -0.015155833266474985 0.0067852252644959102 0 -0.015147383649212361 0.0067839750387742384 0 -0.015159824659939586 0.0067709800453120078 0 -0.015155833266474985 0.0067852252644959102 0 -0.015149324322673388 0.0067919443771264883 0 -0.015176436007410555 0.0067967657032414414 0 -0.015155833266474985 0.0067852252644959102 0 -0.015147383649212361 0.0067839750387742384 0 -0.015149324322673388 0.0067919443771264883 0 -0.015159824659939586 0.0067709800453120078 0 -0.015188143498472563 0.0067770262398201891 0 -0.015171550185878251 0.0067496313463445701 0 -0.015188143498472563 0.0067770262398201891 0 -0.015213217714813479 0.0068075827328249287 0 -0.015217306639956555 0.0067888203775398562 0 -0.015188143498472563 0.0067770262398201891 0 -0.015217306639956555 0.0067888203775398562 0 -0.015197435863994238 0.0067496043109294144 0 -0.015159824659939586 0.0067709800453120078 0 -0.015188143498472563 0.0067770262398201891 0 -0.015176436007410555 0.0067967657032414414 0 -0.015188143498472563 0.0067770262398201891 0 -0.015213217714813479 0.0068075827328249287 0 -0.015176436007410555 0.0067967657032414414 0 -0.015229704057874804 0.0068338312132619544 0 -0.015184935645606357 0.0068398218733137029 0 -0.015176436007410555 0.0067967657032414414 0 -0.015213217714813479 0.0068075827328249287 0 -0.015229704057874804 0.0068338312132619544 0 -0.015176436007410555 0.0067967657032414414 0 -0.015213217714813479 0.0068075827328249287 0 -0.015229704057874804 0.0068338312132619544 0 -0.015248892037309258 0.0068486707173329928 0 -0.015229704057874804 0.0068338312132619544 0 -0.015291908623363989 0.006898098849431585 0 -0.015248892037309258 0.0068486707173329928 0 -0.015229704057874804 0.0068338312132619544 0 -0.015184935645606357 0.0068398218733137029 0 -0.015291908623363989 0.006898098849431585 0 -0.015168858514968044 0.0064996679134819114 0 -0.01498152769732977 0.0067954381935843656 0 -0.015147383649212361 0.0067839750387742384 0 -0.015074525570954326 0.0068183270979356473 0 -0.014968814167351539 0.0068386252830455142 0 -0.015184935645606357 0.0068398218733137029 0 -0.015107191299995066 0.0068160666006092515 0 -0.015099590597899195 0.006851441543532912 0 -0.015089096206005207 0.0060702007132419581 0 -0.01499998796678232 0.0061117647365652164 0 -0.014968550327856737 0.006838217720269108 0 -0.015184935645606357 0.0068398218733137029 0 -0.01513865717961416 0.006802137465784266 0 -0.015107191299995066 0.0068160666006092515 0 -0.015184935645606357 0.0068398218733137029 0 -0.01513865717961416 0.006802137465784266 0 -0.015176436007410555 0.0067967657032414414 0 -0.01513865717961416 0.006802137465784266 0 -0.015149324322673388 0.0067919443771264883 0 -0.015176436007410555 0.0067967657032414414 0 -0.015147383649212361 0.0067839750387742384 0 -0.01513865717961416 0.006802137465784266 0 -0.015107191299995066 0.0068160666006092515 0 -0.015147383649212361 0.0067839750387742384 0 -0.01513865717961416 0.006802137465784266 0 -0.015149324322673388 0.0067919443771264883 0 -0.015147383649212361 0.0067839750387742384 0 -0.015074525570954326 0.0068183270979356473 0 -0.015107191299995066 0.0068160666006092515 0 -0.015074525570954326 0.0068183270979356473 0 -0.015107191299995066 0.0068160666006092515 0 -0.015099590597899195 0.006851441543532912 0 -0.015074525570954326 0.0068183270979356473 0 -0.015099590597899195 0.006851441543532912 0 -0.014968814167351539 0.0068386252830455142 0 -0.015184935645606357 0.0068398218733137029 0 -0.015099590597899195 0.006851441543532912 0 -0.015202970536019364 0.0069353091426198636 0 -0.015202970536019364 0.0069353091426198636 0 -0.015168953717762014 0.0071261949212048882 0 -0.015380654584326853 0.0069894009934076927 0 -0.015099590597899195 0.006851441543532912 0 -0.015202970536019364 0.0069353091426198636 0 -0.014968814167351539 0.0068386252830455142 0 -0.015202970536019364 0.0069353091426198636 0 -0.014968814167351539 0.0068386252830455142 0 -0.015168953717762014 0.0071261949212048882 0 -0.014999758744617833 0.0075938345112657518 0 -0.014968814167351539 0.0068386252830455142 0 -0.015168953717762014 0.0071261949212048882 0 -0.015484623274348099 0.0075891727305277459 0 -0.014999758744617833 0.0075938345112657518 0 -0.015168953717762014 0.0071261949212048882 0 -0.016039426982418326 0.0075250754554115435 0 -0.015484623274348099 0.0075891727305277459 0 -0.015380654584326853 0.0069894009934076927 0 -0.015484623274348099 0.0075891727305277459 0 -0.015168953717762014 0.0071261949212048882 0 -0.015380654584326853 0.0069894009934076927 0 -0.015754620597147044 0.0072092048189995907 0 -0.015379269960671063 0.0069947652667203663 0 -0.015380654584326853 0.0069894009934076927 0 -0.015291908623363989 0.006898098849431585 0 -0.015273201541840706 0.0069329572709632978 0 -0.015202970536019364 0.0069353091426198636 0 -0.015380654584326853 0.0069894009934076927 0 -0.015291908623363989 0.006898098849431585 0 -0.015184935645606357 0.0068398218733137029 0 -0.015202970536019364 0.0069353091426198636 0 -0.015291908623363989 0.006898098849431585 0 -0.015280335757689391 0.006900561127560231 0 -0.015380654584326853 0.0069894009934076927 0 -0.015273201541840706 0.0069329572709632978 0 -0.015280335757689391 0.006900561127560231 0 -0.015273201541840706 0.0069329572709632978 0 -0.015234586018966137 0.0069163222258662258 0 -0.015273201541840706 0.0069329572709632978 0 -0.015234586018966137 0.0069163222258662258 0 -0.015223947115244029 0.0069284043645400301 0 -0.015273201541840706 0.0069329572709632978 0 -0.015272677811580272 0.0068727705610157896 0 -0.015223947115244029 0.0069284043645400301 0 -0.012514062217718535 0.0070104339857796211 0 -0.012453431762575446 0.0070322016516321849 0 -0.015273201541840706 0.0069329572709632978 0 -0.015272677811580272 0.0068727705610157896 0 -0.015248892037309258 0.0068486707173329928 0 -0.015291908623363989 0.006898098849431585 0 -0.015273201541840706 0.0069329572709632978 0 -0.015248892037309258 0.0068486707173329928 0 -0.015272677811580272 0.0068727705610157896 0 -0.015248892037309258 0.0068486707173329928 0 -0.015246981962417746 0.0067696623923962597 0 -0.015248892037309258 0.0068486707173329928 0 -0.015217306639956555 0.0067888203775398562 0 -0.015246981962417746 0.0067696623923962597 0 -0.015213217714813479 0.0068075827328249287 0 -0.015248892037309258 0.0068486707173329928 0 -0.015217306639956555 0.0067888203775398562 0 -0.012514062217718535 0.0070104339857796211 0 -0.0125668238172337 0.0071012917032735887 0 -0.0097752987164170333 0.0071967439533200143 0 -0.0097242566074259226 0.0072498517901289023 0 -0.0098223282124461336 0.0072631319388667187 0 -0.0097242566074259226 0.0072498517901289023 0 -0.0096439951855655133 0.0072527116138297728 0 -0.0096558041162381376 0.0071961357988686052 0 -0.0097752987164170333 0.0071967439533200143 0 -0.0097242566074259226 0.0072498517901289023 0 -0.0096558041162381376 0.0071961357988686052 0 -0.0097242566074259226 0.0072498517901289023 0 -0.0096439951855655133 0.0072527116138297728 0 -0.0096692938138329739 0.0072810990715223046 0 -0.0096439951855655133 0.0072527116138297728 0 -0.0095809969946735012 0.0072298047846797745 0 -0.0096558041162381376 0.0071961357988686052 0 -0.0096439951855655133 0.0072527116138297728 0 -0.0095570831721144348 0.0072576768134796476 0 -0.0095977396221885464 0.0072772711855244986 0 -0.0095570831721144348 0.0072576768134796476 0 -0.0095809969946735012 0.0072298047846797745 0 -0.0095135188939005563 0.0072382539411115394 0 -0.0096439951855655133 0.0072527116138297728 0 -0.0095570831721144348 0.0072576768134796476 0 -0.0095809969946735012 0.0072298047846797745 0 -0.0095809969946735012 0.0072298047846797745 0 -0.0095365813997788061 0.0071974611248130657 0 -0.0096558041162381376 0.0071961357988686052 0 -0.0095365813997788061 0.0071974611248130657 0 -0.0096558041162381376 0.0071961357988686052 0 -0.0095668754813749961 0.0070984584759221439 0 -0.0095809969946735012 0.0072298047846797745 0 -0.0095365813997788061 0.0071974611248130657 0 -0.0095135188939005563 0.0072382539411115394 0 -0.0097752987164170333 0.0071967439533200143 0 -0.0096558041162381376 0.0071961357988686052 0 -0.0097190900849033809 0.0070859376261550719 0 -0.0096558041162381376 0.0071961357988686052 0 -0.0097190900849033809 0.0070859376261550719 0 -0.0095668754813749961 0.0070984584759221439 0 -0.015234586018966137 0.0069163222258662258 0 -0.015223947115244029 0.0069284043645400301 0 -0.015199768416974079 0.0069119355376487113 0 -0.012610652674538061 0.0067253666969602768 0 -0.012453431762575446 0.0070322016516321849 0 -0.015156121413675812 0.0069135726551977387 0 -0.015223947115244029 0.0069284043645400301 0 -0.015199768416974079 0.0069119355376487113 0 -0.0096387294259664275 0.0069186617209618644 0 -0.0097190900849033809 0.0070859376261550719 0 -0.0095668754813749961 0.0070984584759221439 0 -0.0096387294259664275 0.0069186617209618644 0 -0.0095668754813749961 0.0070984584759221439 0 -0.0094366116400755057 0.0069342606847000426 0 -0.0095365813997788061 0.0071974611248130657 0 -0.0095668754813749961 0.0070984584759221439 0 -0.0094687587649908752 0.0071670595598139234 0 -0.0095668754813749961 0.0070984584759221439 0 -0.0094246034664872049 0.0071259187348737194 0 -0.0094366116400755057 0.0069342606847000426 0 -0.0094246034664872049 0.0071259187348737194 0 -0.0094366116400755057 0.0069342606847000426 0 -0.0092071085015057036 0.0072340254176265243 0 -0.0095668754813749961 0.0070984584759221439 0 -0.0094687587649908752 0.0071670595598139234 0 -0.0094246034664872049 0.0071259187348737194 0 -0.0094687587649908752 0.0071670595598139234 0 -0.0094246034664872049 0.0071259187348737194 0 -0.009377861063217835 0.007200383557711962 0 -0.0094246034664872049 0.0071259187348737194 0 -0.0092071085015057036 0.0072340254176265243 0 -0.009377861063217835 0.007200383557711962 0 -0.0094954069736325874 0.0084388707186128075 0 -0.0090371244575901 0.0082664941171366607 0 -0.0092235247205724943 0.0075229159050069693 0 -0.0095011839466113308 0.008046839595624293 0 -0.0092239043129609607 0.00761103458536533 0 -0.0083493347645025133 0.0084647814259200711 0 -0.0090371244575901 0.0082664941171366607 0 -0.0092235247205724943 0.0075229159050069693 0 -0.0089974408723114442 0.008753897993854563 0 -0.0094954069736325874 0.0084388707186128075 0 -0.0090371244575901 0.0082664941171366607 0 -0.0089974408723114442 0.008753897993854563 0 -0.0083493347645025133 0.0084647814259200711 0 -0.0090371244575901 0.0082664941171366607 0 -0.0083493347645025133 0.0084647814259200711 0 -0.0092235247205724943 0.0075229159050069693 0 -0.0092071085015057036 0.0072340254176265243 0 -0.0086915585229338111 0.0077108695124530327 0 -0.0092414323427879672 0.0072485980741112529 0 -0.0093719960332922826 0.0073679340864420857 0 -0.0094541614469894428 0.0076019029848680489 0 -0.0092235247205724943 0.0075229159050069693 0 -0.0093719960332922826 0.0073679340864420857 0 -0.0092071085015057036 0.0072340254176265243 0 -0.0093061526245016533 0.0072121900601953923 0 -0.0093719960332922826 0.0073679340864420857 0 -0.0092235247205724943 0.0075229159050069693 0 -0.0092071085015057036 0.0072340254176265243 0 -0.0093719960332922826 0.0073679340864420857 0 -0.0093768866102974593 0.0071892256124743382 0 -0.0093061526245016533 0.0072121900601953923 0 -0.0093061526245016533 0.0072121900601953923 0 -0.0093633015045252992 0.0072117789656573816 0 -0.0093407786905033846 0.0072241198942824669 0 -0.0093768866102974593 0.0071892256124743382 0 -0.0093061526245016533 0.0072121900601953923 0 -0.0093633015045252992 0.0072117789656573816 0 -0.0093633015045252992 0.0072117789656573816 0 -0.0093407786905033846 0.0072241198942824669 0 -0.0093994348246631467 0.0072333458053048102 0 -0.0092071085015057036 0.0072340254176265243 0 -0.0093061526245016533 0.0072121900601953923 0 -0.0093407786905033846 0.0072241198942824669 0 -0.0092071085015057036 0.0072340254176265243 0 -0.0093407786905033846 0.0072241198942824669 0 -0.009377861063217835 0.007200383557711962 0 -0.0093407786905033846 0.0072241198942824669 0 -0.0094252707696265963 0.0072072817634761775 0 -0.009377861063217835 0.007200383557711962 0 -0.0094687587649908752 0.0071670595598139234 0 -0.0094252707696265963 0.0072072817634761775 0 -0.009377861063217835 0.007200383557711962 0 -0.0095365813997788061 0.0071974611248130657 0 -0.0094687587649908752 0.0071670595598139234 0 -0.0094252707696265963 0.0072072817634761775 0 -0.0095365813997788061 0.0071974611248130657 0 -0.0094449185803856719 0.0072291417478492145 0 -0.0095135188939005563 0.0072382539411115394 0 -0.0095365813997788061 0.0071974611248130657 0 -0.0094252707696265963 0.0072072817634761775 0 -0.0094449185803856719 0.0072291417478492145 0 -0.0093407786905033846 0.0072241198942824669 0 -0.0094252707696265963 0.0072072817634761775 0 -0.0094449185803856719 0.0072291417478492145 0 -0.0093407786905033846 0.0072241198942824669 0 -0.0094449185803856719 0.0072291417478492145 0 -0.0093994348246631467 0.0072333458053048102 0 -0.0094449185803856719 0.0072291417478492145 0 -0.0094727423342037629 0.0072557647749505278 0 -0.0093994348246631467 0.0072333458053048102 0 -0.0094449185803856719 0.0072291417478492145 0 -0.0095135188939005563 0.0072382539411115394 0 -0.0094727423342037629 0.0072557647749505278 0 -0.0095570831721144348 0.0072576768134796476 0 -0.0095135188939005563 0.0072382539411115394 0 -0.0094727423342037629 0.0072557647749505278 0 -0.0095570831721144348 0.0072576768134796476 0 -0.0094727423342037629 0.0072557647749505278 0 -0.0095336295953588595 0.007282953554045065 0 -0.0094727423342037629 0.0072557647749505278 0 -0.0094378635594092649 0.0072652730036631401 0 -0.0094801055234000065 0.0072827867926616285 0 -0.0094727423342037629 0.0072557647749505278 0 -0.0094378635594092649 0.0072652730036631401 0 -0.0093994348246631467 0.0072333458053048102 0 -0.0094378635594092649 0.0072652730036631401 0 -0.0093950243023760375 0.0072439058718575125 0 -0.0093965029037014342 0.0072933713039425568 0 -0.0093642406577901915 0.0072482782070857647 0 -0.0093950243023760375 0.0072439058718575125 0 -0.0093965029037014342 0.0072933713039425568 0 -0.0093642406577901915 0.0072482782070857647 0 -0.0093633015045252992 0.0072117789656573816 0 -0.0093950243023760375 0.0072439058718575125 0 -0.0093633015045252992 0.0072117789656573816 0 -0.0093950243023760375 0.0072439058718575125 0 -0.0093994348246631467 0.0072333458053048102 0 -0.0094378635594092649 0.0072652730036631401 0 -0.0093950243023760375 0.0072439058718575125 0 -0.0093994348246631467 0.0072333458053048102 0 -0.0094565457453772896 0.0073007082135045408 0 -0.0094343407053349131 0.0073213714575266521 0 -0.0094760569198099279 0.0073320157127397768 0 -0.0094565457453772896 0.0073007082135045408 0 -0.0094343407053349131 0.0073213714575266521 0 -0.0093965029037014342 0.0072933713039425568 0 -0.0093866900854380018 0.0073538378692223419 0 -0.0094343407053349131 0.0073213714575266521 0 -0.0093965029037014342 0.0072933713039425568 0 -0.0094378635594092649 0.0072652730036631401 0 -0.0094565457453772896 0.0073007082135045408 0 -0.0094801055234000065 0.0072827867926616285 0 -0.0094378635594092649 0.0072652730036631401 0 -0.0094565457453772896 0.0073007082135045408 0 -0.0093965029037014342 0.0072933713039425568 0 -0.0094727423342037629 0.0072557647749505278 0 -0.0094801055234000065 0.0072827867926616285 0 -0.0095336295953588595 0.007282953554045065 0 -0.0094801055234000065 0.0072827867926616285 0 -0.0095336295953588595 0.007282953554045065 0 -0.0095187670359903193 0.0073115695569215171 0 -0.0095187670359903193 0.0073115695569215171 0 -0.0095685433494344697 0.0073374164060420397 0 -0.0095940247041368283 0.007306812551945192 0 -0.0095336295953588595 0.007282953554045065 0 -0.0095187670359903193 0.0073115695569215171 0 -0.0095940247041368283 0.007306812551945192 0 -0.0094565457453772896 0.0073007082135045408 0 -0.0095187670359903193 0.0073115695569215171 0 -0.0094760569198099279 0.0073320157127397768 0 -0.0094565457453772896 0.0073007082135045408 0 -0.0094801055234000065 0.0072827867926616285 0 -0.0095187670359903193 0.0073115695569215171 0 -0.0095187670359903193 0.0073115695569215171 0 -0.0095194368629099996 0.0073430026050159136 0 -0.0095685433494344697 0.0073374164060420397 0 -0.0095187670359903193 0.0073115695569215171 0 -0.0095194368629099996 0.0073430026050159136 0 -0.0094760569198099279 0.0073320157127397768 0 -0.0095194368629099996 0.0073430026050159136 0 -0.0094831148302133659 0.0073708083977821045 0 -0.0094760569198099279 0.0073320157127397768 0 -0.0095194368629099996 0.0073430026050159136 0 -0.0095685433494344697 0.0073374164060420397 0 -0.0095361365886557446 0.0073650333439571067 0 -0.0095685433494344697 0.0073374164060420397 0 -0.0095810333186863977 0.0073740780149295871 0 -0.0095361365886557446 0.0073650333439571067 0 -0.0095685433494344697 0.0073374164060420397 0 -0.0095810333186863977 0.0073740780149295871 0 -0.009635944817839635 0.0073369120303603255 0 -0.0095194368629099996 0.0073430026050159136 0 -0.0095361365886557446 0.0073650333439571067 0 -0.0094831148302133659 0.0073708083977821045 0 -0.0095810333186863977 0.0073740780149295871 0 -0.0095361365886557446 0.0073650333439571067 0 -0.0095254673440929721 0.0073951124503640131 0 -0.0095361365886557446 0.0073650333439571067 0 -0.0094831148302133659 0.0073708083977821045 0 -0.0095254673440929721 0.0073951124503640131 0 -0.0094831148302133659 0.0073708083977821045 0 -0.0094356553282781887 0.0073874189204960004 0 -0.009441634583804653 0.0074317621654214436 0 -0.0094831148302133659 0.0073708083977821045 0 -0.0094424583239074225 0.0073523467772284405 0 -0.0094356553282781887 0.0073874189204960004 0 -0.0094831148302133659 0.0073708083977821045 0 -0.0094424583239074225 0.0073523467772284405 0 -0.0094760569198099279 0.0073320157127397768 0 -0.0094343407053349131 0.0073213714575266521 0 -0.0094424583239074225 0.0073523467772284405 0 -0.0094760569198099279 0.0073320157127397768 0 -0.0093866900854380018 0.0073538378692223419 0 -0.0094424583239074225 0.0073523467772284405 0 -0.0094356553282781887 0.0073874189204960004 0 -0.0093866900854380018 0.0073538378692223419 0 -0.0094343407053349131 0.0073213714575266521 0 -0.0094424583239074225 0.0073523467772284405 0 -0.0093974315731705539 0.0074000650771866103 0 -0.0093866900854380018 0.0073538378692223419 0 -0.0094356553282781887 0.0073874189204960004 0 -0.0093974315731705539 0.0074000650771866103 0 -0.0094356553282781887 0.0073874189204960004 0 -0.009441634583804653 0.0074317621654214436 0 -0.0094831148302133659 0.0073708083977821045 0 -0.009441634583804653 0.0074317621654214436 0 -0.0095254673440929721 0.0073951124503640131 0 -0.010344027366110913 0.007357589824826761 0 -0.010350940984788368 0.0071461271773240673 0 -0.010151908426039413 0.0072120870289767835 0 -0.010566577225449746 0.0072111067039664833 0 -0.010344027366110913 0.007357589824826761 0 -0.010350940984788368 0.0071461271773240673 0 -0.010615847152071027 0.0070158217742944959 0 -0.010350940984788368 0.0071461271773240673 0 -0.010392837452680654 0.0068552088810174853 0 -0.010350940984788368 0.0071461271773240673 0 -0.010392837452680654 0.0068552088810174853 0 -0.010164200617293631 0.0070315650929294784 0 -0.010350940984788368 0.0071461271773240673 0 -0.010164200617293631 0.0070315650929294784 0 -0.010151908426039413 0.0072120870289767835 0 -0.010392837452680654 0.0068552088810174853 0 -0.010164200617293631 0.0070315650929294784 0 -0.010141716425866185 0.0067282851713526236 0 -0.0099866549074163515 0.0069468906782652476 0 -0.010164200617293631 0.0070315650929294784 0 -0.010141716425866185 0.0067282851713526236 0 -0.010164200617293631 0.0070315650929294784 0 -0.010017311565798753 0.0071620903077614156 0 -0.010151908426039413 0.0072120870289767835 0 -0.0099866549074163515 0.0069468906782652476 0 -0.010164200617293631 0.0070315650929294784 0 -0.010017311565798753 0.0071620903077614156 0 -0.0099866549074163515 0.0069468906782652476 0 -0.010017311565798753 0.0071620903077614156 0 -0.0098757502590812538 0.0072672159163030938 0 -0.009441634583804653 0.0074317621654214436 0 -0.0095904431489354982 0.0074296521623495246 0 -0.0095254673440929721 0.0073951124503640131 0 -0.0099162886369124296 0.007404658441775732 0 -0.0097494898394901684 0.0073637986007656529 0 -0.010017311565798753 0.0071620903077614156 0 -0.0099167411501161536 0.0073115671658511208 0 -0.0098757502590812538 0.0072672159163030938 0 -0.010344027366110913 0.007357589824826761 0 -0.0099167411501161536 0.0073115671658511208 0 -0.010151908426039413 0.0072120870289767835 0 -0.010017311565798753 0.0071620903077614156 0 -0.0099167411501161536 0.0073115671658511208 0 -0.010151908426039413 0.0072120870289767835 0 -0.0095810333186863977 0.0073740780149295871 0 -0.0095904431489354982 0.0074296521623495246 0 -0.0095254673440929721 0.0073951124503640131 0 -0.0099167411501161536 0.0073115671658511208 0 -0.0098292271419105591 0.0072824255140544981 0 -0.0097722790112328307 0.0073312182549941773 0 -0.0097494898394901684 0.0073637986007656529 0 -0.009757932617700759 0.0073403746562602989 0 -0.0095810333186863977 0.0073740780149295871 0 -0.0095904431489354982 0.0074296521623495246 0 -0.0096642310504517995 0.0073614548487997153 0 -0.0095904431489354982 0.0074296521623495246 0 -0.0096642310504517995 0.0073614548487997153 0 -0.0097722790112328307 0.0073312182549941773 0 -0.0096642310504517995 0.0073614548487997153 0 -0.0097722790112328307 0.0073312182549941773 0 -0.00972364303714051 0.0073320602169073597 0 -0.0099167411501161536 0.0073115671658511208 0 -0.0098292271419105591 0.0072824255140544981 0 -0.0098757502590812538 0.0072672159163030938 0 -0.0098742791086707318 0.0071784530267419589 0 -0.0097121095446932714 0.0071449174847793701 0 -0.0099866549074163515 0.0069468906782652476 0 -0.0098757502590812538 0.0072672159163030938 0 -0.0097189053772627956 0.0066976781416917125 0 -0.0098292271419105591 0.0072824255140544981 0 -0.0098757502590812538 0.0072672159163030938 0 -0.0098411449932573787 0.0072597337333891489 0 -0.0098757502590812538 0.0072672159163030938 0 -0.0098411449932573787 0.0072597337333891489 0 -0.0098499884749300992 0.0072397116233443382 0 -0.0098292271419105591 0.0072824255140544981 0 -0.0098411449932573787 0.0072597337333891489 0 -0.0098092510364121178 0.0072768581032169712 0 -0.0098292271419105591 0.0072824255140544981 0 -0.0098092510364121178 0.0072768581032169712 0 -0.0097722790112328307 0.0073312182549941773 0 -0.0098411449932573787 0.0072597337333891489 0 -0.0098092510364121178 0.0072768581032169712 0 -0.0098380428522429914 0.0072484437501666912 0 -0.0098243797458061489 0.007258243228196559 0 -0.0098013988869810505 0.0072917251076119113 0 -0.0098209936411047666 0.0072685444070785419 0 -0.0098243797458061489 0.007258243228196559 0 -0.0098092510364121178 0.0072768581032169712 0 -0.0098380428522429914 0.0072484437501666912 0 -0.0098092510364121178 0.0072768581032169712 0 -0.0098013988869810505 0.0072917251076119113 0 -0.0097722790112328307 0.0073312182549941773 0 -0.0098243797458061489 0.007258243228196559 0 -0.0098092510364121178 0.0072768581032169712 0 -0.0098013988869810505 0.0072917251076119113 0 -0.0098013988869810505 0.0072917251076119113 0 -0.0097722790112328307 0.0073312182549941773 0 -0.0097853170484572052 0.0073134038202871529 0 -0.0097722790112328307 0.0073312182549941773 0 -0.0097853170484572052 0.0073134038202871529 0 -0.00972364303714051 0.0073320602169073597 0 -0.0097853170484572052 0.0073134038202871529 0 -0.0097687580409453884 0.0073091462319632454 0 -0.00972364303714051 0.0073320602169073597 0 -0.0097687580409453884 0.0073091462319632454 0 -0.0096907901353288743 0.0073086323832046657 0 -0.0097536040229000455 0.0072861201108071162 0 -0.0097687580409453884 0.0073091462319632454 0 -0.0096907901353288743 0.0073086323832046657 0 -0.00972364303714051 0.0073320602169073597 0 -0.0096907901353288743 0.0073086323832046657 0 -0.00972364303714051 0.0073320602169073597 0 -0.009635944817839635 0.0073369120303603255 0 -0.0096642310504517995 0.0073614548487997153 0 -0.00972364303714051 0.0073320602169073597 0 -0.009635944817839635 0.0073369120303603255 0 -0.0095810333186863977 0.0073740780149295871 0 -0.0096642310504517995 0.0073614548487997153 0 -0.009635944817839635 0.0073369120303603255 0 -0.0095685433494344697 0.0073374164060420397 0 -0.009635944817839635 0.0073369120303603255 0 -0.0095940247041368283 0.007306812551945192 0 -0.0096907901353288743 0.0073086323832046657 0 -0.009635944817839635 0.0073369120303603255 0 -0.0095940247041368283 0.007306812551945192 0 -0.0096907901353288743 0.0073086323832046657 0 -0.0095940247041368283 0.007306812551945192 0 -0.0096692938138329739 0.0072810990715223046 0 -0.0095570831721144348 0.0072576768134796476 0 -0.0095336295953588595 0.007282953554045065 0 -0.0095977396221885464 0.0072772711855244986 0 -0.0095940247041368283 0.007306812551945192 0 -0.0095977396221885464 0.0072772711855244986 0 -0.0096692938138329739 0.0072810990715223046 0 -0.0095336295953588595 0.007282953554045065 0 -0.0095940247041368283 0.007306812551945192 0 -0.0095977396221885464 0.0072772711855244986 0 -0.0096439951855655133 0.0072527116138297728 0 -0.0095977396221885464 0.0072772711855244986 0 -0.0096692938138329739 0.0072810990715223046 0 -0.0097242566074259226 0.0072498517901289023 0 -0.0096692938138329739 0.0072810990715223046 0 -0.0097536040229000455 0.0072861201108071162 0 -0.0096907901353288743 0.0073086323832046657 0 -0.0096692938138329739 0.0072810990715223046 0 -0.0097536040229000455 0.0072861201108071162 0 -0.0097242566074259226 0.0072498517901289023 0 -0.0097536040229000455 0.0072861201108071162 0 -0.0098223282124461336 0.0072631319388667187 0 -0.0097536040229000455 0.0072861201108071162 0 -0.0098223282124461336 0.0072631319388667187 0 -0.009809712086798577 0.0072913092441605791 0 -0.015246981962417746 0.0067696623923962597 0 -0.015194879885049804 0.00669728904673428 0 -0.015197435863994238 0.0067496043109294144 0 -0.0125668238172337 0.0071012917032735887 0 -0.012407995982256457 0.0065914330413219301 0 -0.015217306639956555 0.0067888203775398562 0 -0.015246981962417746 0.0067696623923962597 0 -0.015197435863994238 0.0067496043109294144 0 -0.0098531288753025102 0.0072868699904049972 0 -0.0098349716246130588 0.007287685052082815 0 -0.009809712086798577 0.0072913092441605791 0 -0.0098223282124461336 0.0072631319388667187 0 -0.0098531288753025102 0.0072868699904049972 0 -0.009809712086798577 0.0072913092441605791 0 -0.012407995982256457 0.0065914330413219301 0 -0.010035064606931486 0.0074795680048268167 0 -0.0098349716246130588 0.007287685052082815 0 -0.009809712086798577 0.0072913092441605791 0 -0.0098102697524865678 0.007297820605005936 0 -0.0097687580409453884 0.0073091462319632454 0 -0.0097536040229000455 0.0072861201108071162 0 -0.009809712086798577 0.0072913092441605791 0 -0.0097687580409453884 0.0073091462319632454 0 -0.009809712086798577 0.0072913092441605791 0 -0.0098102697524865678 0.007297820605005936 0 -0.0097853170484572052 0.0073134038202871529 0 -0.0098102697524865678 0.007297820605005936 0 -0.0098171123591911068 0.0072875477287455579 0 -0.0097853170484572052 0.0073134038202871529 0 -0.0097687580409453884 0.0073091462319632454 0 -0.0098102697524865678 0.007297820605005936 0 -0.0098249604850873425 0.0072880696265889382 0 -0.0098102697524865678 0.007297820605005936 0 -0.0098171123591911068 0.0072875477287455579 0 -0.0098349716246130588 0.007287685052082815 0 -0.0098249604850873425 0.0072880696265889382 0 -0.0098102697524865678 0.007297820605005936 0 -0.0098013988869810505 0.0072917251076119113 0 -0.0097853170484572052 0.0073134038202871529 0 -0.0098171123591911068 0.0072875477287455579 0 -0.0098013988869810505 0.0072917251076119113 0 -0.0098171123591911068 0.0072875477287455579 0 -0.0098209936411047666 0.0072685444070785419 0 -0.0098171123591911068 0.0072875477287455579 0 -0.0098322637596246019 0.0072672034119795614 0 -0.0098209936411047666 0.0072685444070785419 0 -0.0098171123591911068 0.0072875477287455579 0 -0.0098322637596246019 0.0072672034119795614 0 -0.0098395022075931943 0.0072760363804598672 0 -0.0098322637596246019 0.0072672034119795614 0 -0.0098209936411047666 0.0072685444070785419 0 -0.0098378605076415541 0.0072509666925678054 0 -0.0098496353032686973 0.0072579314669313907 0 -0.0098395022075931943 0.0072760363804598672 0 -0.0098652303432423972 0.0072519431149000125 0 -0.0098496353032686973 0.0072579314669313907 0 -0.0098676732138376719 0.0072471042399855279 0 -0.0098594777631993979 0.007247448050700594 0 -0.0098322637596246019 0.0072672034119795614 0 -0.0098496353032686973 0.0072579314669313907 0 -0.0098483889545646214 0.0072509225437107092 0 -0.0098322637596246019 0.0072672034119795614 0 -0.0098496353032686973 0.0072579314669313907 0 -0.0098395022075931943 0.0072760363804598672 0 -0.009845547970376272 0.0072822245597669371 0 -0.0098395022075931943 0.0072760363804598672 0 -0.0098652303432423972 0.0072519431149000125 0 -0.009845547970376272 0.0072822245597669371 0 -0.0098349716246130588 0.007287685052082815 0 -0.0098395022075931943 0.0072760363804598672 0 -0.0098249604850873425 0.0072880696265889382 0 -0.0098171123591911068 0.0072875477287455579 0 -0.0098395022075931943 0.0072760363804598672 0 -0.0098349716246130588 0.007287685052082815 0 -0.0098249604850873425 0.0072880696265889382 0 -0.0098395022075931943 0.0072760363804598672 0 -0.013564105838676139 0.005535351183201611 0 -0.013518005068424854 0.0054225067971318281 0 -0.013514602425395483 0.0055043545584676952 0 -0.013518005068424854 0.0054225067971318281 0 -0.013460904119762047 0.0054996254928733933 0 -0.013514602425395483 0.0055043545584676952 0 -0.012407995982256457 0.0065914330413219301 0 -0.011390673599920187 0.0065319163588331217 0 -0.0098652303432423972 0.0072519431149000125 0 -0.0098676732138376719 0.0072471042399855279 0 -0.0099144103744069172 0.0072259175064462106 0 -0.0098496353032686973 0.0072579314669313907 0 -0.0098652303432423972 0.0072519431149000125 0 -0.0098676732138376719 0.0072471042399855279 0 -0.013518005068424854 0.0054225067971318281 0 -0.013450964044700208 0.005398117822011236 0 -0.01345117353932462 0.0052691027445127972 0 -0.014999998311209205 0.0040923063188216015 0 -0.015232554449761314 0.0040438262350752921 0 -0.014999979192158824 0.0034531696597276517 0 -0.011390673599920187 0.0065319163588331217 0 -0.013326781435061096 0.004716444039042581 0 -0.014999998311209205 0.0040923063188216015 0 -0.015232554449761314 0.0040438262350752921 0 -0.015187947145731909 0.0046728503984372277 0 -0.014999998311209205 0.0040923063188216015 0 -0.015187947145731909 0.0046728503984372277 0 -0.014999994778622541 0.0047314827685647513 0 -0.014413632931185675 0.004640240016313104 0 -0.014307096772020435 0.0050516107693573085 0 -0.013518005068424854 0.0054225067971318281 0 -0.013450964044700208 0.005398117822011236 0 -0.013460904119762047 0.0054996254928733933 0 -0.015187947145731909 0.0046728503984372277 0 -0.014999994778622541 0.0047314827685647513 0 -0.015142505422517574 0.0053020790654904632 0 -0.014307096772020435 0.0050516107693573085 0 -0.01454662500663443 0.0057088199991718516 0 -0.014999994778622541 0.0047314827685647513 0 -0.015142505422517574 0.0053020790654904632 0 -0.014999996992965347 0.005370647051150086 0 -0.013460904119762047 0.0054996254928733933 0 -0.013515233752912928 0.0055542595184849821 0 -0.013469721891239511 0.0055772428414983723 0 -0.013460904119762047 0.0054996254928733933 0 -0.013514602425395483 0.0055043545584676952 0 -0.013515233752912928 0.0055542595184849821 0 -0.015194879885049804 0.00669728904673428 0 -0.015169521877446064 0.0067183880654292068 0 -0.015197435863994238 0.0067496043109294144 0 -0.013564105838676139 0.005535351183201611 0 -0.013514602425395483 0.0055043545584676952 0 -0.013515233752912928 0.0055542595184849821 0 -0.012407995982256457 0.0065914330413219301 0 -0.014560065094887458 0.0060157670478253617 0 -0.015169521877446064 0.0067183880654292068 0 -0.015197435863994238 0.0067496043109294144 0 -0.015171550185878251 0.0067496313463445701 0 -0.015188143498472563 0.0067770262398201891 0 -0.015197435863994238 0.0067496043109294144 0 -0.015171550185878251 0.0067496313463445701 0 -0.015159824659939586 0.0067709800453120078 0 -0.015171550185878251 0.0067496313463445701 0 -0.015141710057003037 0.0067344039386997168 0 -0.015089096206005207 0.0060702007132419581 0 -0.015142532689636714 0.0053024298336478565 0 -0.014999999657156834 0.0053706506260887505 0 -0.01454662500663443 0.0057088199991718516 0 -0.014999839656056245 0.0053709271009092733 0 -0.014560065094887458 0.0060157670478253617 0 -0.01454662500663443 0.0057088199991718516 0 -0.015169521877446064 0.0067183880654292068 0 -0.015171550185878251 0.0067496313463445701 0 -0.015141710057003037 0.0067344039386997168 0 -0.015368124263303291 0.0021962050669316101 0 -0.015000005824932541 0.0022478998373003318 0 -0.014999994381598743 0.0016396351726637197 0 -0.014710803766576777 0.001885965119740934 0 -0.015000591029614702 0.00164031627850184 0 -0.015095970195791474 0.00073076733989603179 0 -0.015224535324942383 0.00063659990560616553 0 -0.01523461370409367 0.00078838285233543272 0 -0.015224535324942383 0.00063659990560616553 0 -0.01523461370409367 0.00078838285233543272 0 -0.015310323576654118 0.00068552693493338917 0 -0.015158585121602293 0.00090677549478527955 0 -0.01523461370409367 0.00078838285233543272 0 -0.015260089398896219 0.00096444885640159983 0 -0.015095970195791474 0.00073076733989603179 0 -0.015158585121602293 0.00090677549478527955 0 -0.01523461370409367 0.00078838285233543272 0 -0.014710803766576777 0.001885965119740934 0 -0.014427226348724958 0.0017297747378885156 0 -0.014710803766576777 0.001885965119740934 0 -0.014272402981100675 0.0028672168983128053 0 -0.01324625941043478 0.0023619449466886033 0 -0.013685435391826012 0.003057196656989981 0 -0.013171007587091024 0.0031895587359490793 0 -0.015000005824932541 0.0022478998373003318 0 -0.015324859414227582 0.0027899120012955334 0 -0.014999958824340694 0.0028562053614781375 0 -0.015368124263303291 0.0021962050669316101 0 -0.015000005824932541 0.0022478998373003318 0 -0.015324859414227582 0.0027899120012955334 0 -0.015000230612528148 0.0028558847368744572 0 -0.013326781435061096 0.004716444039042581 0 -0.014272402981100675 0.0028672168983128053 0 -0.013326781435061096 0.004716444039042581 0 -0.015000002255614918 0.0028561935217594927 0 -0.014999982501841929 0.0034531454117384679 0 -0.015259500731239104 0.0033884484583570026 0 -0.015324859414227582 0.0027899120012955334 0 -0.014999958824340694 0.0028562053614781375 0 -0.015246465178080579 0.003411671082092589 0 -0.013685435391826012 0.003057196656989981 0 -0.013171007587091024 0.0031895587359490793 0 -0.013082500819523224 0.0040187703941910865 0 -0.014413632931185675 0.004640240016313104 0 -0.013326781435061096 0.004716444039042581 0 -0.015000452950134824 0.0034536717380889725 0 -0.013326781435061096 0.004716444039042581 0 -0.015232554449761314 0.0040438262350752921 0 -0.014999979192158824 0.0034531696597276517 0 -0.015256662488988758 0.0033915446455723675 0 -0.0099144103744069172 0.0072259175064462106 0 -0.0098890894840425753 0.007235971872824239 0 -0.0098780289367971525 0.0072414993882161391 0 -0.013326781435061096 0.004716444039042581 0 -0.012022333395767821 0.0048590907375181767 0 -0.0098676732138376719 0.0072471042399855279 0 -0.0099144103744069172 0.0072259175064462106 0 -0.0098890894840425753 0.007235971872824239 0 -0.0098676732138376719 0.0072471042399855279 0 -0.0098890894840425753 0.007235971872824239 0 -0.0098716611486298171 0.0072406306816054115 0 -0.0098890894840425753 0.007235971872824239 0 -0.0098780289367971525 0.0072414993882161391 0 -0.0098716611486298171 0.0072406306816054115 0 -0.013685435391826012 0.003057196656989981 0 -0.013082500819523224 0.0040187703941910865 0 -0.014124757860799857 0.0037474927420613462 0 -0.015158585121602293 0.00090677549478527955 0 -0.015260089398896219 0.00096444885640159983 0 -0.01523289022591969 0.0010989295841560237 0 -0.014427226348724958 0.0017297747378885156 0 -0.012022333395767821 0.0048590907375181767 0 -0.015260089398896219 0.00096444885640159983 0 -0.015314465536942518 0.0010746415705702331 0 -0.015325526279791656 0.00086839042468807184 0 -0.0098667413320864296 0.007233886987254824 0 -0.0098650132429341543 0.0072374263223722052 0 -0.0098533722801202091 0.0072411138705461529 0 -0.012238867423080259 0.0042510560061758866 0 -0.011740822632839782 0.0047312263348207118 0 -0.0098667413320864296 0.007233886987254824 0 -0.0098717551559800287 0.0072327463441519317 0 -0.0098650132429341543 0.0072374263223722052 0 -0.0098717551559800287 0.0072327463441519317 0 -0.0098689202959116994 0.0072391442425311361 0 -0.0098650132429341543 0.0072374263223722052 0 -0.015260089398896219 0.00096444885640159983 0 -0.015314465536942518 0.0010746415705702331 0 -0.01523289022591969 0.0010989295841560237 0 -0.012238867423080259 0.0042510560061758866 0 -0.012022333395767821 0.0048590907375181767 0 -0.0098717551559800287 0.0072327463441519317 0 -0.0098704150728751144 0.0072309811736090968 0 -0.0098689202959116994 0.0072391442425311361 0 -0.012022333395767821 0.0048590907375181767 0 -0.011761592221655121 0.0055618613765384068 0 -0.0098743064744392841 0.0072294997965584281 0 -0.0098717551559800287 0.0072327463441519317 0 -0.0098704150728751144 0.0072309811736090968 0 -0.0098780289367971525 0.0072414993882161391 0 -0.0098716611486298171 0.0072406306816054115 0 -0.0098689202959116994 0.0072391442425311361 0 -0.0098716611486298171 0.0072406306816054115 0 -0.0098689202959116994 0.0072391442425311361 0 -0.0098616563659497461 0.0072422528634832097 0 -0.0098650132429341543 0.0072374263223722052 0 -0.0098533722801202091 0.0072411138705461529 0 -0.0098616563659497461 0.0072422528634832097 0 -0.0098689202959116994 0.0072391442425311361 0 -0.0098650132429341543 0.0072374263223722052 0 -0.0098616563659497461 0.0072422528634832097 0 -0.0098533722801202091 0.0072411138705461529 0 -0.0098616563659497461 0.0072422528634832097 0 -0.0098483889545646214 0.0072509225437107092 0 -0.0098616563659497461 0.0072422528634832097 0 -0.0098483889545646214 0.0072509225437107092 0 -0.0098594777631993979 0.007247448050700594 0 -0.0098496353032686973 0.0072579314669313907 0 -0.0098483889545646214 0.0072509225437107092 0 -0.0098594777631993979 0.007247448050700594 0 -0.0098676732138376719 0.0072471042399855279 0 -0.0098716611486298171 0.0072406306816054115 0 -0.0098594777631993979 0.007247448050700594 0 -0.0098716611486298171 0.0072406306816054115 0 -0.0098616563659497461 0.0072422528634832097 0 -0.0098594777631993979 0.007247448050700594 0 -0.0098209936411047666 0.0072685444070785419 0 -0.0098378605076415541 0.0072509666925678054 0 -0.009835382026464461 0.0072439202866950757 0 -0.0098322637596246019 0.0072672034119795614 0 -0.0098483889545646214 0.0072509225437107092 0 -0.0098378605076415541 0.0072509666925678054 0 -0.0098533722801202091 0.0072411138705461529 0 -0.0098483889545646214 0.0072509225437107092 0 -0.0098378605076415541 0.0072509666925678054 0 -0.0098533722801202091 0.0072411138705461529 0 -0.0098378605076415541 0.0072509666925678054 0 -0.0098466604540718931 0.0072368312280719077 0 -0.0098378605076415541 0.0072509666925678054 0 -0.0098466604540718931 0.0072368312280719077 0 -0.009835382026464461 0.0072439202866950757 0 -0.012238867423080259 0.0042510560061758866 0 -0.014412323405515789 0.001838451093241553 0 -0.0098466604540718931 0.0072368312280719077 0 -0.0098444813593788292 0.0072237747972330232 0 -0.009835382026464461 0.0072439202866950757 0 -0.0098667413320864296 0.007233886987254824 0 -0.0098466604540718931 0.0072368312280719077 0 -0.0098444813593788292 0.0072237747972330232 0 -0.012016753328718172 0.0038481766559807641 0 -0.012132169234929045 0.0037251453223453549 0 -0.012139972878200954 0.003805443972667453 0 -0.012238867423080259 0.0042510560061758866 0 -0.010814491543822422 0.0056235438161364951 0 -0.0098667413320864296 0.007233886987254824 0 -0.0098533722801202091 0.0072411138705461529 0 -0.0098466604540718931 0.0072368312280719077 0 -0.015314465536942518 0.0010746415705702331 0 -0.015503893732495583 0.00088603218176687133 0 -0.015325526279791656 0.00086839042468807184 0 -0.015503893732495583 0.00088603218176687133 0 -0.015325526279791656 0.00086839042468807184 0 -0.015429065913467613 0.00072004765061572354 0 -0.01523461370409367 0.00078838285233543272 0 -0.015260089398896219 0.00096444885640159983 0 -0.015325526279791656 0.00086839042468807184 0 -0.01523461370409367 0.00078838285233543272 0 -0.015325526279791656 0.00086839042468807184 0 -0.015310323576654118 0.00068552693493338917 0 -0.015325526279791656 0.00086839042468807184 0 -0.015310323576654118 0.00068552693493338917 0 -0.015429065913467613 0.00072004765061572354 0 -0.015310323576654118 0.00068552693493338917 0 -0.015429065913467613 0.00072004765061572354 0 -0.015375960581522541 0.00058524372486982469 0 -0.015429065913467613 0.00072004765061572354 0 -0.01552869516128357 0.00073001248670862245 0 -0.015528403675214297 0.00056824159897437708 0 -0.015503893732495583 0.00088603218176687133 0 -0.015429065913467613 0.00072004765061572354 0 -0.01552869516128357 0.00073001248670862245 0 -0.015503893732495583 0.00088603218176687133 0 -0.01552869516128357 0.00073001248670862245 0 -0.015653038929717759 0.00073466002528764691 0 -0.01552869516128357 0.00073001248670862245 0 -0.015653038929717759 0.00073466002528764691 0 -0.015528403675214297 0.00056824159897437708 0 -0.012435264377839619 0.0024939675885095247 0 -0.015556375740541039 -1.5925786868960215e-05 0 -0.008476658765208327 0.0051573885719424705 0 -0.008277576005075421 0.0051831952541938411 0 -0.008778651814922862 0.004705381883569372 0 -0.008277576005075421 0.0051831952541938411 0 -0.0086997000873914147 0.005650372927116812 0 -0.0086108329255952902 0.0053249225718596891 0 -0.012435264377839619 0.0024939675885095247 0 -0.01398779038035863 -0.00094292154757155482 0 -0.008476658765208327 0.0051573885719424705 0 -0.008277576005075421 0.0051831952541938411 0 -0.0086108329255952902 0.0053249225718596891 0 -0.012435264377839619 0.0024939675885095247 0 -0.0089140151129354812 0.0058926311694951642 0 -0.009568037466833313 0.0052440632599831481 0 -0.0097583548129998726 0.0056113980422277127 0 -0.010015126303028577 0.0057025720508004068 0 -0.012255245173665986 0.0036037756021349773 0 -0.012272337138621065 0.0037737785152624948 0 -0.012214865399556666 0.00369797364579591 0 -0.009568037466833313 0.0052440632599831481 0 -0.0097583548129998726 0.0056113980422277127 0 -0.0096532118270307027 0.0058759187127790952 0 -0.012435264377839619 0.0024939675885095247 0 -0.010553949717181668 0.0057117595230806372 0 -0.010553949717181668 0.0057117595230806372 0 -0.0097047075347157941 0.0058948171375211725 0 -0.0098410510820860254 0.0057267560765814074 0 -0.0096532118270307027 0.0058759187127790952 0 -0.0099957537250512547 0.0058126547516437685 0 -0.0097583548129998726 0.0056113980422277127 0 -0.0098410510820860254 0.0057267560765814074 0 -0.0096532118270307027 0.0058759187127790952 0 -0.0097583548129998726 0.0056113980422277127 0 -0.0098410510820860254 0.0057267560765814074 0 -0.010015126303028577 0.0057025720508004068 0 -0.014412323405515789 0.001838451093241553 0 -0.012435264377839619 0.0024939675885095247 0 -0.012272337138621065 0.0037737785152624948 0 -0.012214865399556666 0.00369797364579591 0 -0.012139972878200954 0.003805443972667453 0 -0.012132169234929045 0.0037251453223453549 0 -0.012255245173665986 0.0036037756021349773 0 -0.012214865399556666 0.00369797364579591 0 -0.012132169234929045 0.0037251453223453549 0 -0.012214865399556666 0.00369797364579591 0 -0.012139972878200954 0.003805443972667453 0 -0.0098444813593788292 0.0072237747972330232 0 -0.009835382026464461 0.0072439202866950757 0 -0.009842648207350856 0.0072336707910679934 0 -0.010553949717181668 0.0057117595230806372 0 -0.010814491543822422 0.0056235438161364951 0 -0.0098601287643542979 0.0072047877391935586 0 -0.0098444813593788292 0.0072237747972330232 0 -0.009842648207350856 0.0072336707910679934 0 -0.0098243797458061489 0.007258243228196559 0 -0.009842648207350856 0.0072336707910679934 0 -0.0098380428522429914 0.0072484437501666912 0 -0.0098243797458061489 0.007258243228196559 0 -0.009835382026464461 0.0072439202866950757 0 -0.009842648207350856 0.0072336707910679934 0 -0.0098243797458061489 0.007258243228196559 0 -0.0098209936411047666 0.0072685444070785419 0 -0.009835382026464461 0.0072439202866950757 0 -0.0098411449932573787 0.0072597337333891489 0 -0.0098499884749300992 0.0072397116233443382 0 -0.0098380428522429914 0.0072484437501666912 0 -0.009842648207350856 0.0072336707910679934 0 -0.0098499884749300992 0.0072397116233443382 0 -0.0098380428522429914 0.0072484437501666912 0 -0.010553949717181668 0.0057117595230806372 0 -0.0097121095446932714 0.0071449174847793701 0 -0.0095673296337155777 0.0059527660312722963 0 -0.0097189053772627956 0.0066976781416917125 0 -0.0098693901501127491 0.0062001290600306094 0 -0.0098601287643542979 0.0072047877391935586 0 -0.009842648207350856 0.0072336707910679934 0 -0.0098499884749300992 0.0072397116233443382 0 -0.0095673296337155777 0.0059527660312722963 0 -0.0098693901501127491 0.0062001290600306094 0 -0.0099957537250512547 0.0058126547516437685 0 -0.010181530075107862 0.0061143495742488367 0 -0.010584795946228426 0.0062230373956302636 0 -0.010015126303028577 0.0057025720508004068 0 -0.0098693901501127491 0.0062001290600306094 0 -0.010181530075107862 0.0061143495742488367 0 -0.0099957537250512547 0.0058126547516437685 0 -0.010019629059172889 0.0064749425006201521 0 -0.010333572245848579 0.0058891594207970818 0 -0.010181530075107862 0.0061143495742488367 0 -0.0099735302454468343 0.0064547504518351591 0 -0.010584795946228426 0.0062230373956302636 0 -0.010333572245848579 0.0058891594207970818 0 -0.0089140151129354812 0.0058926311694951642 0 -0.0098693901501127491 0.0062001290600306094 0 -0.010181530075107862 0.0061143495742488367 0 -0.0099735302454468343 0.0064547504518351591 0 -0.0099735302454468343 0.0064547504518351591 0 -0.010141716425866185 0.0067282851713526236 0 -0.010339019215693536 0.0063533436396291899 0 -0.0097189053772627956 0.0066976781416917125 0 -0.0098693901501127491 0.0062001290600306094 0 -0.0099735302454468343 0.0064547504518351591 0 -0.0097189053772627956 0.0066976781416917125 0 -0.0099735302454468343 0.0064547504518351591 0 -0.009957498166879521 0.0067097532946965716 0 -0.0099735302454468343 0.0064547504518351591 0 -0.010141716425866185 0.0067282851713526236 0 -0.009957498166879521 0.0067097532946965716 0 -0.0099866549074163515 0.0069468906782652476 0 -0.0097189053772627956 0.0066976781416917125 0 -0.009957498166879521 0.0067097532946965716 0 -0.0099866549074163515 0.0069468906782652476 0 -0.010141716425866185 0.0067282851713526236 0 -0.009957498166879521 0.0067097532946965716 0 -0.010392837452680654 0.0068552088810174853 0 -0.010141716425866185 0.0067282851713526236 0 -0.010339019215693536 0.0063533436396291899 0 -0.010333572245848579 0.0058891594207970818 0 -0.011042450226773989 0.0058865309316287317 0 -0.010392837452680654 0.0068552088810174853 0 -0.010339019215693536 0.0063533436396291899 0 -0.010659716340704827 0.0066806046981195142 0 -0.0092184338340997544 0.0061535344450092356 0 -0.0090850748213101989 0.0056322088933809886 0 -0.0095247507308315309 0.0056584074916823856 0 -0.0090850748213101989 0.0056322088933809886 0 -0.0090859319304659562 0.0053003635460007956 0 -0.0095247507308315309 0.0056584074916823856 0 -0.0090850748213101989 0.0056322088933809886 0 -0.0088471737087770525 0.0054291563134034639 0 -0.0090859319304659562 0.0053003635460007956 0 -0.0092184338340997544 0.0061535344450092356 0 -0.0090850748213101989 0.0056322088933809886 0 -0.0086997000873914147 0.005650372927116812 0 -0.010181530075107862 0.0061143495742488367 0 -0.0099957537250512547 0.0058126547516437685 0 -0.010015126303028577 0.0057025720508004068 0 -0.0098410510820860254 0.0057267560765814074 0 -0.0099957537250512547 0.0058126547516437685 0 -0.010015126303028577 0.0057025720508004068 0 -0.0086997000873914147 0.005650372927116812 0 -0.0088471737087770525 0.0054291563134034639 0 -0.0086108329255952902 0.0053249225718596891 0 -0.0090850748213101989 0.0056322088933809886 0 -0.0086997000873914147 0.005650372927116812 0 -0.0088471737087770525 0.0054291563134034639 0 -0.008476658765208327 0.0051573885719424705 0 -0.0087609273931558342 0.005196870749805689 0 -0.008778651814922862 0.004705381883569372 0 -0.0087609273931558342 0.005196870749805689 0 -0.0090859319304659562 0.0053003635460007956 0 -0.008778651814922862 0.004705381883569372 0 -0.0088471737087770525 0.0054291563134034639 0 -0.0087609273931558342 0.005196870749805689 0 -0.0090859319304659562 0.0053003635460007956 0 -0.008476658765208327 0.0051573885719424705 0 -0.0086108329255952902 0.0053249225718596891 0 -0.0087609273931558342 0.005196870749805689 0 -0.0088471737087770525 0.0054291563134034639 0 -0.0086108329255952902 0.0053249225718596891 0 -0.0087609273931558342 0.005196870749805689 0 -0.0090859319304659562 0.0053003635460007956 0 -0.008778651814922862 0.004705381883569372 0 -0.0094217829628505945 0.0050395763309573861 0 -0.013894904593789356 -0.00022993950927012802 0 -0.013688809367593084 0.00075057278707084038 0 -0.014333212762313387 0.00040995460742645676 0 -0.013894904593789356 -0.00022993950927012802 0 -0.013092744968499267 0.00030163173238305179 0 -0.013688809367593084 0.00075057278707084038 0 -0.0093134801254292944 0.0046072388051445947 0 -0.008778651814922862 0.004705381883569372 0 -0.0094217829628505945 0.0050395763309573861 0 -0.0093134801254292944 0.0046072388051445947 0 -0.008778651814922862 0.004705381883569372 0 -0.0092270863966832355 0.0041427258500200889 0 -0.011145384841208215 0.0022491847114841615 0 -0.01119212168388928 0.0022006335291128122 0 -0.013092744968499267 0.00030163173238305179 0 -0.013688809367593084 0.00075057278707084038 0 -0.012891076993739424 0.0010496875123406988 0 -0.013276057996377977 0.0014236208591360459 0 -0.013688809367593084 0.00075057278707084038 0 -0.012891076993739424 0.0010496875123406988 0 -0.013002779066020239 0.0017264660791379747 0 -0.013276057996377977 0.0014236208591360459 0 -0.012853813074386733 0.001434658641837164 0 -0.013276057996377977 0.0014236208591360459 0 -0.012853813074386733 0.001434658641837164 0 -0.012891076993739424 0.0010496875123406988 0 -0.013852526562994042 0.0011459496027849464 0 -0.013688809367593084 0.00075057278707084038 0 -0.014258808951423417 0.0011051661740863515 0 -0.013276057996377977 0.0014236208591360459 0 -0.013852526562994042 0.0011459496027849464 0 -0.013688809367593084 0.00075057278707084038 0 -0.013669699130826198 0.0014666851039415946 0 -0.013852526562994042 0.0011459496027849464 0 -0.014120153686554188 0.0013641158407946843 0 -0.013276057996377977 0.0014236208591360459 0 -0.013669699130826198 0.0014666851039415946 0 -0.013852526562994042 0.0011459496027849464 0 -0.013852526562994042 0.0011459496027849464 0 -0.014258808951423417 0.0011051661740863515 0 -0.014120153686554188 0.0013641158407946843 0 -0.01376382199950207 0.00076877858869132422 0 -0.014201505167801628 0.00096159815803287414 0 -0.013688809367593084 0.00075057278707084038 0 -0.014333212762313387 0.00040995460742645676 0 -0.014391149015487367 0.00085041260424301396 0 -0.014333212762313387 0.00040995460742645676 0 -0.014541237197157258 0.00062157059240485336 0 -0.014391149015487367 0.00085041260424301396 0 -0.014333212762313387 0.00040995460742645676 0 -0.014541237197157258 0.00062157059240485336 0 -0.01469533624913695 0.00051321486040788362 0 -0.014333212762313387 0.00040995460742645676 0 -0.01469533624913695 0.00051321486040788362 0 -0.014779743511919671 0.0003168016561292241 0 -0.014541237197157258 0.00062157059240485336 0 -0.014391149015487367 0.00085041260424301396 0 -0.014721865521040923 0.00069998393167856887 0 -0.014541237197157258 0.00062157059240485336 0 -0.014721865521040923 0.00069998393167856887 0 -0.01469533624913695 0.00051321486040788362 0 -0.014391149015487367 0.00085041260424301396 0 -0.014997562647337388 0.00081515308339778043 0 -0.014721865521040923 0.00069998393167856887 0 -0.014258808951423417 0.0011051661740863515 0 -0.014337719943845324 0.0012991708622646868 0 -0.014558007762719854 0.0012967279851951699 0 -0.014201505167801628 0.00096159815803287414 0 -0.01540463668151917 0.00051912804422918574 0 -0.014372036655974281 0.0014366554338549877 0 -0.014337719943845324 0.0012991708622646868 0 -0.014120153686554188 0.0013641158407946843 0 -0.014258808951423417 0.0011051661740863515 0 -0.014337719943845324 0.0012991708622646868 0 -0.014120153686554188 0.0013641158407946843 0 -0.01540463668151917 0.00051912804422918574 0 -0.015357751630974133 0.00060152968716008497 0 -0.014372036655974281 0.0014366554338549877 0 -0.014337719943845324 0.0012991708622646868 0 -0.014558007762719854 0.0012967279851951699 0 -0.014997562647337388 0.00081515308339778043 0 -0.014721865521040923 0.00069998393167856887 0 -0.015007707759299037 0.00072406891440525 0 -0.014721865521040923 0.00069998393167856887 0 -0.014916520191612779 0.00064750568669304318 0 -0.015007707759299037 0.00072406891440525 0 -0.015008496896351991 0.00062697709470434118 0 -0.015007707759299037 0.00072406891440525 0 -0.015149537110836473 0.00060200773733846632 0 -0.014916520191612779 0.00064750568669304318 0 -0.015008496896351991 0.00062697709470434118 0 -0.015007707759299037 0.00072406891440525 0 -0.015025206067874155 0.00073331259008025079 0 -0.015007707759299037 0.00072406891440525 0 -0.015149537110836473 0.00060200773733846632 0 -0.015008496896351991 0.00062697709470434118 0 -0.014957457487701128 0.000534297098267971 0 -0.015149537110836473 0.00060200773733846632 0 -0.014916520191612779 0.00064750568669304318 0 -0.015008496896351991 0.00062697709470434118 0 -0.014957457487701128 0.000534297098267971 0 -0.014721865521040923 0.00069998393167856887 0 -0.014957457487701128 0.000534297098267971 0 -0.01469533624913695 0.00051321486040788362 0 -0.014721865521040923 0.00069998393167856887 0 -0.014916520191612779 0.00064750568669304318 0 -0.014957457487701128 0.000534297098267971 0 -0.014957457487701128 0.000534297098267971 0 -0.01469533624913695 0.00051321486040788362 0 -0.014779743511919671 0.0003168016561292241 0 -0.014957457487701128 0.000534297098267971 0 -0.015006871726836657 0.00039166369460998991 0 -0.014779743511919671 0.0003168016561292241 0 -0.014957457487701128 0.000534297098267971 0 -0.015006871726836657 0.00039166369460998991 0 -0.015191248849287138 0.00044868610181254056 0 -0.014810892226877252 4.2538262084209286e-05 0 -0.015026923473955005 -0.00019040029766920349 0 -0.015075104961280443 0.00026042518753150156 0 -0.014810892226877252 4.2538262084209286e-05 0 -0.014779743511919671 0.0003168016561292241 0 -0.015075104961280443 0.00026042518753150156 0 -0.015006871726836657 0.00039166369460998991 0 -0.014779743511919671 0.0003168016561292241 0 -0.015075104961280443 0.00026042518753150156 0 -0.014810892226877252 4.2538262084209286e-05 0 -0.014779743511919671 0.0003168016561292241 0 -0.014488981139859806 4.9640618746638201e-05 0 -0.013894904593789356 -0.00022993950927012802 0 -0.014333212762313387 0.00040995460742645676 0 -0.014488981139859806 4.9640618746638201e-05 0 -0.014333212762313387 0.00040995460742645676 0 -0.014779743511919671 0.0003168016561292241 0 -0.014488981139859806 4.9640618746638201e-05 0 -0.013894904593789356 -0.00022993950927012802 0 -0.014488981139859806 4.9640618746638201e-05 0 -0.014577027940465885 -0.0003021329114619415 0 -0.014513045030485561 -0.00063342557507010825 0 -0.013894904593789356 -0.00022993950927012802 0 -0.014577027940465885 -0.0003021329114619415 0 -0.012435264377839619 0.0024939675885095247 0 -0.011145384841208215 0.0022491847114841615 0 -0.014810892226877252 4.2538262084209286e-05 0 -0.014577027940465885 -0.0003021329114619415 0 -0.015026923473955005 -0.00019040029766920349 0 -0.014514239821308795 -0.00064282744293948718 0 -0.014577027940465885 -0.0003021329114619415 0 -0.015026923473955005 -0.00019040029766920349 0 -0.014810892226877252 4.2538262084209286e-05 0 -0.014488981139859806 4.9640618746638201e-05 0 -0.014577027940465885 -0.0003021329114619415 0 -0.015429065913467613 0.00072004765061572354 0 -0.015528403675214297 0.00056824159897437708 0 -0.015375960581522541 0.00058524372486982469 0 -0.015528403675214297 0.00056824159897437708 0 -0.015375960581522541 0.00058524372486982469 0 -0.015356946552438865 0.00036697632039948904 0 -0.015224535324942383 0.00063659990560616553 0 -0.015310323576654118 0.00068552693493338917 0 -0.015285781825372678 0.00052204754976010906 0 -0.015285781825372678 0.00052204754976010906 0 -0.015375960581522541 0.00058524372486982469 0 -0.015356946552438865 0.00036697632039948904 0 -0.015310323576654118 0.00068552693493338917 0 -0.015285781825372678 0.00052204754976010906 0 -0.015375960581522541 0.00058524372486982469 0 -0.015285781825372678 0.00052204754976010906 0 -0.015356946552438865 0.00036697632039948904 0 -0.015320449520217418 0.00045271179923892039 0 -0.015356946552438865 0.00036697632039948904 0 -0.015336510134121333 0.0004385894616839887 0 -0.015320449520217418 0.00045271179923892039 0 -0.015356946552438865 0.00036697632039948904 0 -0.015075104961280443 0.00026042518753150156 0 -0.015191248849287138 0.00044868610181254056 0 -0.015556375740541039 -1.5925786868960215e-05 0 -0.015281857237697045 0.00036491886905176576 0 -0.015026923473955005 -0.00019040029766920349 0 -0.015356946552438865 0.00036697632039948904 0 -0.015075104961280443 0.00026042518753150156 0 -0.015006871726836657 0.00039166369460998991 0 -0.015075104961280443 0.00026042518753150156 0 -0.015191248849287138 0.00044868610181254056 0 -0.015356946552438865 0.00036697632039948904 0 -0.015191248849287138 0.00044868610181254056 0 -0.015336510134121333 0.0004385894616839887 0 -0.015191248849287138 0.00044868610181254056 0 -0.015308768083345262 0.00049711069752999214 0 -0.015336510134121333 0.0004385894616839887 0 -0.015191248849287138 0.00044868610181254056 0 -0.015149537110836473 0.00060200773733846632 0 -0.015308768083345262 0.00049711069752999214 0 -0.014957457487701128 0.000534297098267971 0 -0.015191248849287138 0.00044868610181254056 0 -0.015149537110836473 0.00060200773733846632 0 -0.015405899056742707 0.00042916111252561747 0 -0.015025206067874155 0.00073331259008025079 0 -0.015149537110836473 0.00060200773733846632 0 -0.015730553581840542 -3.359213790883956e-05 0 -0.01540463668151917 0.00051912804422918574 0 -0.015405899056742707 0.00042916111252561747 0 -0.015149537110836473 0.00060200773733846632 0 -0.015308768083345262 0.00049711069752999214 0 -0.015405899056742707 0.00042916111252561747 0 -0.015308768083345262 0.00049711069752999214 0 -0.015376188900296794 0.00044427196245083484 0 -0.015405899056742707 0.00042916111252561747 0 -0.015376188900296794 0.00044427196245083484 0 -0.015368781567397726 0.00026352951547487056 0 -0.015376188900296794 0.00044427196245083484 0 -0.015336510134121333 0.0004385894616839887 0 -0.015320449520217418 0.00045271179923892039 0 -0.015308768083345262 0.00049711069752999214 0 -0.015376188900296794 0.00044427196245083484 0 -0.015336510134121333 0.0004385894616839887 0 -0.015376188900296794 0.00044427196245083484 0 -0.01535397784062846 0.00054381960681712906 0 -0.015320449520217418 0.00045271179923892039 0 -0.015376188900296794 0.00044427196245083484 0 -0.01535397784062846 0.00054381960681712906 0 -0.015368781567397726 0.00026352951547487056 0 -0.01535397784062846 0.00054381960681712906 0 -0.015368781567397726 0.00026352951547487056 0 -0.0149999970847066 8.2448655086359623e-05 0 -0.01535397784062846 0.00054381960681712906 0 -0.0149999970847066 8.2448655086359623e-05 0 -0.014999842117505911 0.00086071517492129161 0 -0.01535397784062846 0.00054381960681712906 0 -0.014999842117505911 0.00086071517492129161 0 -0.015403520732726144 0.0014079238840370471 0 -0.014999842117505911 0.00086071517492129161 0 -0.015000037909745391 0.0016396592162064554 0 -0.015403520732726144 0.0014079238840370471 0 -0.01533360112919605 0.00062543141418300893 0 -0.015369405733756518 0.00085424404650323582 0 -0.01535397784062846 0.00054381960681712906 0 -0.015320449520217418 0.00045271179923892039 0 -0.015216314867691179 0.00050076822677447492 0 -0.015285781825372678 0.00052204754976010906 0 -0.015320449520217418 0.00045271179923892039 0 -0.015216314867691179 0.00050076822677447492 0 -0.015224535324942383 0.00063659990560616553 0 -0.015285781825372678 0.00052204754976010906 0 -0.015216314867691179 0.00050076822677447492 0 -0.015095970195791474 0.00073076733989603179 0 -0.015224535324942383 0.00063659990560616553 0 -0.015216314867691179 0.00050076822677447492 0 -0.015343623573043941 0.0021550412714806009 0 -0.015000037909745391 0.0016396592162064554 0 -0.015403520732726144 0.0014079238840370471 0 -0.014710803766576777 0.001885965119740934 0 -0.015369405733756518 0.00085424404650323582 0 -0.010117896211693662 0.0058529031415209447 0 -0.0093785341531698926 0.0062450120939632611 0 -0.0098465950926111788 0.0054823748254110754 0 -0.010117896211693662 0.0058529031415209447 0 -0.01029036403706758 0.0055741496060505175 0 -0.0098465950926111788 0.0054823748254110754 0 -0.01029036403706758 0.0055741496060505175 0 -0.010517797887376496 0.0055334697145647763 0 -0.010529917372724315 0.0056753695961816045 0 -0.010117896211693662 0.0058529031415209447 0 -0.01029036403706758 0.0055741496060505175 0 -0.010529917372724315 0.0056753695961816045 0 -0.010517797887376496 0.0055334697145647763 0 -0.010529917372724315 0.0056753695961816045 0 -0.010626438491882625 0.0055765381952127477 0 -0.01029036403706758 0.0055741496060505175 0 -0.010517797887376496 0.0055334697145647763 0 -0.010412242690291685 0.0053026193419691663 0 -0.010529917372724315 0.0056753695961816045 0 -0.010679683741729741 0.0054814674773606053 0 -0.010623053107773761 0.0054624945122086436 0 -0.010679683741729741 0.0054814674773606053 0 -0.010623053107773761 0.0054624945122086436 0 -0.01080711792143531 0.0052818519163271875 0 -0.010529917372724315 0.0056753695961816045 0 -0.010679683741729741 0.0054814674773606053 0 -0.010705242650362972 0.0054851009041879378 0 -0.010529917372724315 0.0056753695961816045 0 -0.01042910262888606 0.0057725650544550233 0 -0.010705242650362972 0.0054851009041879378 0 -0.010117896211693662 0.0058529031415209447 0 -0.010529917372724315 0.0056753695961816045 0 -0.01042910262888606 0.0057725650544550233 0 -0.010117896211693662 0.0058529031415209447 0 -0.01042910262888606 0.0057725650544550233 0 -0.0093785341531698926 0.0062450120939632611 0 -0.010371192176057257 0.0069066657271724188 0 -0.0094554239270131218 0.006107961675719871 0 -0.008570253215293807 0.0077702755326968034 0 -0.0079437771232225875 0.0065221652581956818 0 -0.0093785341531698926 0.0062450120939632611 0 -0.010304256524393556 0.0077542835008347676 0 -0.008570253215293807 0.0077702755326968034 0 -0.0093785341531698926 0.0062450120939632611 0 -0.008570253215293807 0.0077702755326968034 0 -0.0079437771232225875 0.0065221652581956818 0 -0.0071497131191753391 0.0076643462765149896 0 -0.0079437771232225875 0.0065221652581956818 0 -0.0075238183905999784 0.005834636203215309 0 -0.0066845075191033481 0.006462189576650245 0 -0.0079437771232225875 0.0065221652581956818 0 -0.0093785341531698926 0.0062450120939632611 0 -0.0084933086673744853 0.00549889042880652 0 -0.0093785341531698926 0.0062450120939632611 0 -0.0084933086673744853 0.00549889042880652 0 -0.0092692537267228831 0.0051642590958354802 0 -0.0093785341531698926 0.0062450120939632611 0 -0.0092692537267228831 0.0051642590958354802 0 -0.0098465950926111788 0.0054823748254110754 0 -0.0084933086673744853 0.00549889042880652 0 -0.0092692537267228831 0.0051642590958354802 0 -0.0087344670137475544 0.0045652199245600628 0 -0.0079437771232225875 0.0065221652581956818 0 -0.0084933086673744853 0.00549889042880652 0 -0.0075238183905999784 0.005834636203215309 0 -0.0084933086673744853 0.00549889042880652 0 -0.0075238183905999784 0.005834636203215309 0 -0.0079352611717063339 0.004850567615126207 0 -0.0075238183905999784 0.005834636203215309 0 -0.0079352611717063339 0.004850567615126207 0 -0.0069160074873228288 0.0052551209360019559 0 -0.0076508380088745678 0.0039638126481442463 0 -0.0079352611717063339 0.004850567615126207 0 -0.0069160074873228288 0.0052551209360019559 0 -0.0084933086673744853 0.00549889042880652 0 -0.0079352611717063339 0.004850567615126207 0 -0.0087344670137475544 0.0045652199245600628 0 -0.0076508380088745678 0.0039638126481442463 0 -0.0079352611717063339 0.004850567615126207 0 -0.0087344670137475544 0.0045652199245600628 0 -0.0092692537267228831 0.0051642590958354802 0 -0.0087344670137475544 0.0045652199245600628 0 -0.0096721411851740154 0.0046463483478236308 0 -0.0093344679130913984 0.0036827241259394365 0 -0.0087344670137475544 0.0045652199245600628 0 -0.0096721411851740154 0.0046463483478236308 0 -0.0096721411851740154 0.0046463483478236308 0 -0.010153042930591591 0.0052201292809713326 0 -0.010210546406243932 0.0048686803295000794 0 -0.0096721411851740154 0.0046463483478236308 0 -0.0098465950926111788 0.0054823748254110754 0 -0.010153042930591591 0.0052201292809713326 0 -0.0092692537267228831 0.0051642590958354802 0 -0.0096721411851740154 0.0046463483478236308 0 -0.0098465950926111788 0.0054823748254110754 0 -0.01029036403706758 0.0055741496060505175 0 -0.0098465950926111788 0.0054823748254110754 0 -0.010153042930591591 0.0052201292809713326 0 -0.010412242690291685 0.0053026193419691663 0 -0.010210546406243932 0.0048686803295000794 0 -0.01060908159823128 0.005075792887242467 0 -0.010517797887376496 0.0055334697145647763 0 -0.010412242690291685 0.0053026193419691663 0 -0.010590863558154353 0.0053552121394969815 0 -0.01029036403706758 0.0055741496060505175 0 -0.010412242690291685 0.0053026193419691663 0 -0.010153042930591591 0.0052201292809713326 0 -0.010412242690291685 0.0053026193419691663 0 -0.010153042930591591 0.0052201292809713326 0 -0.010210546406243932 0.0048686803295000794 0 -0.010210546406243932 0.0048686803295000794 0 -0.010485384647132279 0.0046793917244207237 0 -0.01060908159823128 0.005075792887242467 0 -0.01028879834689644 0.0042453962956634627 0 -0.0096721411851740154 0.0046463483478236308 0 -0.010210546406243932 0.0048686803295000794 0 -0.010485384647132279 0.0046793917244207237 0 -0.010737491639286162 0.004821458806417646 0 -0.01060908159823128 0.005075792887242467 0 -0.010737491639286162 0.004821458806417646 0 -0.010943981629215191 0.0050783918101332832 0 -0.01060908159823128 0.005075792887242467 0 -0.010930244140954608 0.0049364916494882274 0 -0.010943981629215191 0.0050783918101332832 0 -0.011058190807041937 0.0050240216514640191 0 -0.01090355632545476 0.0046083347952514371 0 -0.010960492696954007 0.0050889992708318598 0 -0.010928398394816699 0.0045822278292249599 0 -0.010737491639286162 0.004821458806417646 0 -0.010943981629215191 0.0050783918101332832 0 -0.010943981629215191 0.0050783918101332832 0 -0.010768502330230589 0.0053174214367590969 0 -0.010934021146209881 0.005397462615403241 0 -0.010943981629215191 0.0050783918101332832 0 -0.011085248698863551 0.0051725906771609006 0 -0.010934021146209881 0.005397462615403241 0 -0.010943981629215191 0.0050783918101332832 0 -0.010768502330230589 0.0053174214367590969 0 -0.01060908159823128 0.005075792887242467 0 -0.010768502330230589 0.0053174214367590969 0 -0.010590863558154353 0.0053552121394969815 0 -0.01060908159823128 0.005075792887242467 0 -0.010768502330230589 0.0053174214367590969 0 -0.010590863558154353 0.0053552121394969815 0 -0.010670286380378608 0.0054793618708849669 0 -0.010412242690291685 0.0053026193419691663 0 -0.010590863558154353 0.0053552121394969815 0 -0.01060908159823128 0.005075792887242467 0 -0.01108345934418779 0.0059331176070815264 0 -0.011042450226773989 0.0058865309316287317 0 -0.011086856900435595 0.0049020924958068455 0 -0.01129132687728525 0.0050550325818615278 0 -0.011058190807041937 0.0050240216514640191 0 -0.01129132687728525 0.0050550325818615278 0 -0.011058190807041937 0.0050240216514640191 0 -0.011085248698863551 0.0051725906771609006 0 -0.010943981629215191 0.0050783918101332832 0 -0.011058190807041937 0.0050240216514640191 0 -0.011085248698863551 0.0051725906771609006 0 -0.011085248698863551 0.0051725906771609006 0 -0.011180227995057256 0.0053772098598930821 0 -0.010934021146209881 0.005397462615403241 0 -0.01129132687728525 0.0050550325818615278 0 -0.011085248698863551 0.0051725906771609006 0 -0.011180227995057256 0.0053772098598930821 0 -0.010333572245848579 0.0058891594207970818 0 -0.010631142754350311 0.0055832681333599097 0 -0.011484136537846247 0.0052439042810555909 0 -0.01129132687728525 0.0050550325818615278 0 -0.011180227995057256 0.0053772098598930821 0 -0.0095247507308315309 0.0056584074916823856 0 -0.010070695253874301 0.0058511702380641137 0 -0.0099861300086250548 0.0053561803762300223 0 -0.0092184338340997544 0.0061535344450092356 0 -0.0095247507308315309 0.0056584074916823856 0 -0.010070695253874301 0.0058511702380641137 0 -0.010355318070566631 0.0055818058742311714 0 -0.010070695253874301 0.0058511702380641137 0 -0.0099861300086250548 0.0053561803762300223 0 -0.0098167964669897308 0.0053773692271155589 0 -0.0099977425045353948 0.005095272523320666 0 -0.010288187276538593 0.0052205160412968155 0 -0.0098167964669897308 0.0053773692271155589 0 -0.010610888059532112 0.0053833083426431281 0 -0.010288187276538593 0.0052205160412968155 0 -0.0098915925563138538 0.0053644470391105798 0 -0.010626295188678161 0.0054669438529238524 0 -0.010355318070566631 0.0055818058742311714 0 -0.0099861300086250548 0.0053561803762300223 0 -0.010688207185260023 0.00551668082962812 0 -0.0099977425045353948 0.005095272523320666 0 -0.010288187276538593 0.0052205160412968155 0 -0.010363154862266659 0.0050672304247818007 0 -0.0090859319304659562 0.0053003635460007956 0 -0.0095247507308315309 0.0056584074916823856 0 -0.0099861300086250548 0.0053561803762300223 0 -0.0091282352070186108 0.0053112940061031842 0 -0.0098915925563138538 0.0053644470391105798 0 -0.0090859319304659562 0.0053003635460007956 0 -0.0098167964669897308 0.0053773692271155589 0 -0.0094217829628505945 0.0050395763309573861 0 -0.0098167964669897308 0.0053773692271155589 0 -0.0099977425045353948 0.005095272523320666 0 -0.0094217829628505945 0.0050395763309573861 0 -0.010717354770395961 0.0055763960615596297 0 -0.010626438491882625 0.0055765381952127477 0 -0.010688207185260023 0.00551668082962812 0 -0.010717354770395961 0.0055763960615596297 0 -0.010626438491882625 0.0055765381952127477 0 -0.010670286380378608 0.0054793618708849669 0 -0.010517797887376496 0.0055334697145647763 0 -0.010590863558154353 0.0053552121394969815 0 -0.010670286380378608 0.0054793618708849669 0 -0.010517797887376496 0.0055334697145647763 0 -0.010626438491882625 0.0055765381952127477 0 -0.010670286380378608 0.0054793618708849669 0 -0.010717354770395961 0.0055763960615596297 0 -0.010670286380378608 0.0054793618708849669 0 -0.010771910902678624 0.0054448495357623571 0 -0.010768502330230589 0.0053174214367590969 0 -0.010670286380378608 0.0054793618708849669 0 -0.010771910902678624 0.0054448495357623571 0 -0.010355318070566631 0.0055818058742311714 0 -0.010717354770395961 0.0055763960615596297 0 -0.010688207185260023 0.00551668082962812 0 -0.010768502330230589 0.0053174214367590969 0 -0.010771910902678624 0.0054448495357623571 0 -0.010934021146209881 0.005397462615403241 0 -0.010717354770395961 0.0055763960615596297 0 -0.010771910902678624 0.0054448495357623571 0 -0.010934021146209881 0.005397462615403241 0 -0.010355318070566631 0.0055818058742311714 0 -0.010070695253874301 0.0058511702380641137 0 -0.010717354770395961 0.0055763960615596297 0 -0.011180227995057256 0.0053772098598930821 0 -0.010717354770395961 0.0055763960615596297 0 -0.010934021146209881 0.005397462615403241 0 -0.010631142754350311 0.0055832681333599097 0 -0.010706860603216239 0.0055889345616087884 0 -0.010288187276538593 0.0052205160412968155 0 -0.010574168762720984 0.0052325280981005313 0 -0.010363154862266659 0.0050672304247818007 0 -0.010610888059532112 0.0053833083426431281 0 -0.010574168762720984 0.0052325280981005313 0 -0.01062679356168089 0.0053558601263160631 0 -0.010610888059532112 0.0053833083426431281 0 -0.010288187276538593 0.0052205160412968155 0 -0.010574168762720984 0.0052325280981005313 0 -0.010553860326594552 0.0056351961276271852 0 -0.010626295188678161 0.0054669438529238524 0 -0.010574168762720984 0.0052325280981005313 0 -0.01062679356168089 0.0053558601263160631 0 -0.010693621173781321 0.0052950683915788024 0 -0.010529917372724315 0.0056753695961816045 0 -0.010610888059532112 0.0053833083426431281 0 -0.010623053107773761 0.0054624945122086436 0 -0.010610888059532112 0.0053833083426431281 0 -0.01062679356168089 0.0053558601263160631 0 -0.010623053107773761 0.0054624945122086436 0 -0.010529917372724315 0.0056753695961816045 0 -0.010626438491882625 0.0055765381952127477 0 -0.010688207185260023 0.00551668082962812 0 -0.010623053107773761 0.0054624945122086436 0 -0.010693621173781321 0.0052950683915788024 0 -0.01080711792143531 0.0052818519163271875 0 -0.01062679356168089 0.0053558601263160631 0 -0.010623053107773761 0.0054624945122086436 0 -0.010693621173781321 0.0052950683915788024 0 -0.010693621173781321 0.0052950683915788024 0 -0.010696077931808897 0.0051019522305947125 0 -0.01080711792143531 0.0052818519163271875 0 -0.010897505911656247 0.004980836772508275 0 -0.010696077931808897 0.0051019522305947125 0 -0.01080711792143531 0.0052818519163271875 0 -0.010745311080074064 0.0048428504335322311 0 -0.010696077931808897 0.0051019522305947125 0 -0.010530301965111583 0.004867553736713574 0 -0.010897505911656247 0.004980836772508275 0 -0.010745311080074064 0.0048428504335322311 0 -0.010877908662979947 0.0045733661952075478 0 -0.010897505911656247 0.004980836772508275 0 -0.010745311080074064 0.0048428504335322311 0 -0.010696077931808897 0.0051019522305947125 0 -0.010574168762720984 0.0052325280981005313 0 -0.010693621173781321 0.0052950683915788024 0 -0.010696077931808897 0.0051019522305947125 0 -0.010696077931808897 0.0051019522305947125 0 -0.010548718395932844 0.0050666909338057519 0 -0.010530301965111583 0.004867553736713574 0 -0.010574168762720984 0.0052325280981005313 0 -0.010696077931808897 0.0051019522305947125 0 -0.010548718395932844 0.0050666909338057519 0 -0.010574168762720984 0.0052325280981005313 0 -0.010548718395932844 0.0050666909338057519 0 -0.010363154862266659 0.0050672304247818007 0 -0.010548718395932844 0.0050666909338057519 0 -0.010363154862266659 0.0050672304247818007 0 -0.010530301965111583 0.004867553736713574 0 -0.010363154862266659 0.0050672304247818007 0 -0.010530301965111583 0.004867553736713574 0 -0.010140395638334514 0.0047659057850058129 0 -0.010530301965111583 0.004867553736713574 0 -0.010412147326566793 0.0045166070743219502 0 -0.010140395638334514 0.0047659057850058129 0 -0.010745311080074064 0.0048428504335322311 0 -0.010530301965111583 0.004867553736713574 0 -0.010664690803886359 0.0046123315537192891 0 -0.010664690803886359 0.0046123315537192891 0 -0.010412147326566793 0.0045166070743219502 0 -0.010718047340456201 0.0041818020842087165 0 -0.010530301965111583 0.004867553736713574 0 -0.010664690803886359 0.0046123315537192891 0 -0.010412147326566793 0.0045166070743219502 0 -0.010412147326566793 0.0045166070743219502 0 -0.010330825137338536 0.004099104316386556 0 -0.010118041714485498 0.0044313129903225529 0 -0.010412147326566793 0.0045166070743219502 0 -0.010330825137338536 0.004099104316386556 0 -0.010718047340456201 0.0041818020842087165 0 -0.010330825137338536 0.004099104316386556 0 -0.010718047340456201 0.0041818020842087165 0 -0.010649757618571757 0.003670554301901286 0 -0.010718047340456201 0.0041818020842087165 0 -0.011090548987869384 0.0040521732544215403 0 -0.010877908662979947 0.0045733661952075478 0 -0.011090548987869384 0.0040521732544215403 0 -0.011071918064979766 0.0046201024185473531 0 -0.011396896033632338 0.0042199615288770207 0 -0.011090548987869384 0.0040521732544215403 0 -0.011071918064979766 0.0046201024185473531 0 -0.010877908662979947 0.0045733661952075478 0 -0.010897505911656247 0.004980836772508275 0 -0.011071918064979766 0.0046201024185473531 0 -0.011116950906669991 0.0050271507093689128 0 -0.010897505911656247 0.004980836772508275 0 -0.011071918064979766 0.0046201024185473531 0 -0.010877908662979947 0.0045733661952075478 0 -0.010664690803886359 0.0046123315537192891 0 -0.010718047340456201 0.0041818020842087165 0 -0.010877908662979947 0.0045733661952075478 0 -0.010745311080074064 0.0048428504335322311 0 -0.010664690803886359 0.0046123315537192891 0 -0.010877908662979947 0.0045733661952075478 0 -0.0099977425045353948 0.005095272523320666 0 -0.0094217829628505945 0.0050395763309573861 0 -0.0097724564909540904 0.0046348361970785495 0 -0.0093134801254292944 0.0046072388051445947 0 -0.0094217829628505945 0.0050395763309573861 0 -0.0097724564909540904 0.0046348361970785495 0 -0.0099977425045353948 0.005095272523320666 0 -0.0097724564909540904 0.0046348361970785495 0 -0.010140395638334514 0.0047659057850058129 0 -0.0097724564909540904 0.0046348361970785495 0 -0.010140395638334514 0.0047659057850058129 0 -0.010118041714485498 0.0044313129903225529 0 -0.0099977425045353948 0.005095272523320666 0 -0.010363154862266659 0.0050672304247818007 0 -0.010140395638334514 0.0047659057850058129 0 -0.010412147326566793 0.0045166070743219502 0 -0.010140395638334514 0.0047659057850058129 0 -0.010118041714485498 0.0044313129903225529 0 -0.010330825137338536 0.004099104316386556 0 -0.010118041714485498 0.0044313129903225529 0 -0.0099559487720319514 0.0040871155727707229 0 -0.0097724564909540904 0.0046348361970785495 0 -0.010118041714485498 0.0044313129903225529 0 -0.0099559487720319514 0.0040871155727707229 0 -0.0097724564909540904 0.0046348361970785495 0 -0.0099559487720319514 0.0040871155727707229 0 -0.0095990665672724147 0.0041863943512310568 0 -0.0093134801254292944 0.0046072388051445947 0 -0.0097724564909540904 0.0046348361970785495 0 -0.0095990665672724147 0.0041863943512310568 0 -0.0093134801254292944 0.0046072388051445947 0 -0.0092270863966832355 0.0041427258500200889 0 -0.0095990665672724147 0.0041863943512310568 0 -0.013092744968499267 0.00030163173238305179 0 -0.012171137256407781 0.00097936264981559836 0 -0.012891076993739424 0.0010496875123406988 0 -0.0092270863966832355 0.0041427258500200889 0 -0.0095990665672724147 0.0041863943512310568 0 -0.009773787340284357 0.0032385032507408784 0 -0.01119212168388928 0.0022006335291128122 0 -0.011001842310387375 0.0021207292773259808 0 -0.0099559487720319514 0.0040871155727707229 0 -0.009773787340284357 0.0032385032507408784 0 -0.010225056118542235 0.003630562992132485 0 -0.009773787340284357 0.0032385032507408784 0 -0.010225056118542235 0.003630562992132485 0 -0.010942887364738337 0.003135310271059768 0 -0.0099559487720319514 0.0040871155727707229 0 -0.0095990665672724147 0.0041863943512310568 0 -0.009773787340284357 0.0032385032507408784 0 -0.010330825137338536 0.004099104316386556 0 -0.0099559487720319514 0.0040871155727707229 0 -0.010225056118542235 0.003630562992132485 0 -0.011861829341824814 0.0017746442896389141 0 -0.012171137256407781 0.00097936264981559836 0 -0.012269125561248465 0.0014278598599454721 0 -0.011273569115699638 0.0019902458539624518 0 -0.011861829341824814 0.0017746442896389141 0 -0.012171137256407781 0.00097936264981559836 0 -0.011248366745707953 0.0019793668252474522 0 -0.011001842310387375 0.0021207292773259808 0 -0.013002779066020239 0.0017264660791379747 0 -0.012269125561248465 0.0014278598599454721 0 -0.012853813074386733 0.001434658641837164 0 -0.012171137256407781 0.00097936264981559836 0 -0.012269125561248465 0.0014278598599454721 0 -0.012891076993739424 0.0010496875123406988 0 -0.012269125561248465 0.0014278598599454721 0 -0.012853813074386733 0.001434658641837164 0 -0.012891076993739424 0.0010496875123406988 0 -0.011419679868799945 0.0032243346502454587 0 -0.010953155702517007 0.0036618790663451857 0 -0.010942887364738337 0.003135310271059768 0 -0.011419679868799945 0.0032243346502454587 0 -0.01162835476733802 0.0026606650007541242 0 -0.011787191363132119 0.0030592715814624742 0 -0.011090548987869384 0.0040521732544215403 0 -0.011419679868799945 0.0032243346502454587 0 -0.011396896033632338 0.0042199615288770207 0 -0.011402421302092673 0.0033093393053924198 0 -0.011393431976130778 0.0035312047883855205 0 -0.010718047340456201 0.0041818020842087165 0 -0.011090548987869384 0.0040521732544215403 0 -0.010953155702517007 0.0036618790663451857 0 -0.011090548987869384 0.0040521732544215403 0 -0.011419679868799945 0.0032243346502454587 0 -0.010953155702517007 0.0036618790663451857 0 -0.010718047340456201 0.0041818020842087165 0 -0.010953155702517007 0.0036618790663451857 0 -0.010649757618571757 0.003670554301901286 0 -0.010330825137338536 0.004099104316386556 0 -0.010225056118542235 0.003630562992132485 0 -0.010649757618571757 0.003670554301901286 0 -0.010225056118542235 0.003630562992132485 0 -0.010649757618571757 0.003670554301901286 0 -0.010942887364738337 0.003135310271059768 0 -0.010953155702517007 0.0036618790663451857 0 -0.010649757618571757 0.003670554301901286 0 -0.010942887364738337 0.003135310271059768 0 -0.011273569115699638 0.0019902458539624518 0 -0.009773787340284357 0.0032385032507408784 0 -0.010942887364738337 0.003135310271059768 0 -0.011273569115699638 0.0019902458539624518 0 -0.010942887364738337 0.003135310271059768 0 -0.01162835476733802 0.0026606650007541242 0 -0.011419679868799945 0.0032243346502454587 0 -0.010942887364738337 0.003135310271059768 0 -0.01162835476733802 0.0026606650007541242 0 -0.011857521496184232 0.0024840363054533235 0 -0.01162835476733802 0.0026606650007541242 0 -0.011872603106449137 0.0027906160244779363 0 -0.011857521496184232 0.0024840363054533235 0 -0.011872603106449137 0.0027906160244779363 0 -0.011991775179682918 0.0027455664906592589 0 -0.01162835476733802 0.0026606650007541242 0 -0.011872603106449137 0.0027906160244779363 0 -0.011787191363132119 0.0030592715814624742 0 -0.012028960704174283 0.0025672607738041341 0 -0.012093746497843763 0.0027622676731272294 0 -0.011991775179682918 0.0027455664906592589 0 -0.012028960704174283 0.0025672607738041341 0 -0.012093746497843763 0.0027622676731272294 0 -0.012208081793383735 0.0027397669205483683 0 -0.011857521496184232 0.0024840363054533235 0 -0.012028960704174283 0.0025672607738041341 0 -0.011991775179682918 0.0027455664906592589 0 -0.011872603106449137 0.0027906160244779363 0 -0.011991775179682918 0.0027455664906592589 0 -0.011961632709902121 0.0029624279000323886 0 -0.011991775179682918 0.0027455664906592589 0 -0.012079031362169278 0.0028988826105801517 0 -0.011961632709902121 0.0029624279000323886 0 -0.012093746497843763 0.0027622676731272294 0 -0.011991775179682918 0.0027455664906592589 0 -0.012079031362169278 0.0028988826105801517 0 -0.012093746497843763 0.0027622676731272294 0 -0.012079031362169278 0.0028988826105801517 0 -0.012135549282665548 0.0028427602319460042 0 -0.012079031362169278 0.0028988826105801517 0 -0.011961632709902121 0.0029624279000323886 0 -0.012056372262783929 0.003058300013959171 0 -0.011961632709902121 0.0029624279000323886 0 -0.011910448221209589 0.0031557122726494271 0 -0.012056372262783929 0.003058300013959171 0 -0.011910448221209589 0.0031557122726494271 0 -0.012056372262783929 0.003058300013959171 0 -0.012016969166541587 0.0031784543160282091 0 -0.011961632709902121 0.0029624279000323886 0 -0.011910448221209589 0.0031557122726494271 0 -0.011787191363132119 0.0030592715814624742 0 -0.011872603106449137 0.0027906160244779363 0 -0.011961632709902121 0.0029624279000323886 0 -0.011787191363132119 0.0030592715814624742 0 -0.011910448221209589 0.0031557122726494271 0 -0.011787191363132119 0.0030592715814624742 0 -0.011708732254283016 0.0032428531845528682 0 -0.011419679868799945 0.0032243346502454587 0 -0.011787191363132119 0.0030592715814624742 0 -0.011708732254283016 0.0032428531845528682 0 -0.011910448221209589 0.0031557122726494271 0 -0.011708732254283016 0.0032428531845528682 0 -0.011848547598535115 0.0033378417534819021 0 -0.011396896033632338 0.0042199615288770207 0 -0.011116950906669991 0.0050271507093689128 0 -0.011504014821274475 0.0050462416668284951 0 -0.011071918064979766 0.0046201024185473531 0 -0.011396896033632338 0.0042199615288770207 0 -0.011116950906669991 0.0050271507093689128 0 -0.011393431976130778 0.0035312047883855205 0 -0.011118422054358082 0.0059336491760740703 0 -0.012016969166541587 0.0031784543160282091 0 -0.011848547598535115 0.0033378417534819021 0 -0.012080808580871162 0.0032326192343960758 0 -0.011910448221209589 0.0031557122726494271 0 -0.012016969166541587 0.0031784543160282091 0 -0.011848547598535115 0.0033378417534819021 0 -0.011118422054358082 0.0059336491760740703 0 -0.010761061671646378 0.0061944899344885491 0 -0.01042910262888606 0.0057725650544550233 0 -0.010705242650362972 0.0054851009041879378 0 -0.01094638597246618 0.0052194071767687955 0 -0.010304256524393556 0.0077542835008347676 0 -0.011227089353091496 0.0091167209987250229 0 -0.0093451435942821445 0.0090941248683684157 0 -0.010371192176057257 0.0069066657271724188 0 -0.011118422054358082 0.0059336491760740703 0 -0.010679683741729741 0.0054814674773606053 0 -0.010705242650362972 0.0054851009041879378 0 -0.010861577400749898 0.0053037715172717364 0 -0.010679683741729741 0.0054814674773606053 0 -0.01080711792143531 0.0052818519163271875 0 -0.010861577400749898 0.0053037715172717364 0 -0.010897505911656247 0.004980836772508275 0 -0.01080711792143531 0.0052818519163271875 0 -0.011116950906669991 0.0050271507093689128 0 -0.01080711792143531 0.0052818519163271875 0 -0.010861577400749898 0.0053037715172717364 0 -0.011116950906669991 0.0050271507093689128 0 -0.011108263105091705 0.0055758298886817671 0 -0.011118422054358082 0.0059336491760740703 0 -0.010861577400749898 0.0053037715172717364 0 -0.011116950906669991 0.0050271507093689128 0 -0.01094638597246618 0.0052194071767687955 0 -0.010705242650362972 0.0054851009041879378 0 -0.010861577400749898 0.0053037715172717364 0 -0.01094638597246618 0.0052194071767687955 0 -0.008570253215293807 0.0077702755326968034 0 -0.0074914138093826761 0.0090165149753168514 0 -0.0093451435942821445 0.0090941248683684157 0 -0.0099098458950152794 0.0059849967043086871 0 -0.010761061671646378 0.0061944899344885491 0 -0.008570253215293807 0.0077702755326968034 0 -0.0074914138093826761 0.0090165149753168514 0 -0.0071497131191753391 0.0076643462765149896 0 -0.010304256524393556 0.0077542835008347676 0 -0.008570253215293807 0.0077702755326968034 0 -0.0093451435942821445 0.0090941248683684157 0 -0.012016969166541587 0.0031784543160282091 0 -0.012080808580871162 0.0032326192343960758 0 -0.012125554397286034 0.00311724016449239 0 -0.012080808580871162 0.0032326192343960758 0 -0.012125554397286034 0.00311724016449239 0 -0.012102120259270051 0.003143123448673259 0 -0.012056372262783929 0.003058300013959171 0 -0.012016969166541587 0.0031784543160282091 0 -0.012125554397286034 0.00311724016449239 0 -0.012125554397286034 0.00311724016449239 0 -0.012102120259270051 0.003143123448673259 0 -0.012100504511434735 0.0031220751987446008 0 -0.012073724294614376 0.0030995642459036351 0 -0.012080808580871162 0.0032326192343960758 0 -0.012102120259270051 0.003143123448673259 0 -0.012073724294614376 0.0030995642459036351 0 -0.012102120259270051 0.003143123448673259 0 -0.012100504511434735 0.0031220751987446008 0 -0.012125554397286034 0.00311724016449239 0 -0.012100504511434735 0.0031220751987446008 0 -0.012175068084539628 0.0030885594841413904 0 -0.012125554397286034 0.00311724016449239 0 -0.012175068084539628 0.0030885594841413904 0 -0.012149353373829127 0.0029594618859980159 0 -0.012056372262783929 0.003058300013959171 0 -0.012125554397286034 0.00311724016449239 0 -0.012149353373829127 0.0029594618859980159 0 -0.012079031362169278 0.0028988826105801517 0 -0.012056372262783929 0.003058300013959171 0 -0.012149353373829127 0.0029594618859980159 0 -0.011736687422111534 0.0027895463841877311 0 -0.011718479163680594 0.0028375719932257717 0 -0.011846163587139245 0.0029186809582961428 0 -0.012015762221292232 0.0030278085530222056 0 -0.011739713366572022 0.0029583884987284853 0 -0.012175068084539628 0.0030885594841413904 0 -0.012149353373829127 0.0029594618859980159 0 -0.012208081793383735 0.0027397669205483683 0 -0.012079031362169278 0.0028988826105801517 0 -0.012149353373829127 0.0029594618859980159 0 -0.012135549282665548 0.0028427602319460042 0 -0.012149353373829127 0.0029594618859980159 0 -0.012135549282665548 0.0028427602319460042 0 -0.012208081793383735 0.0027397669205483683 0 -0.012093746497843763 0.0027622676731272294 0 -0.012135549282665548 0.0028427602319460042 0 -0.012208081793383735 0.0027397669205483683 0 -0.011812441374766672 0.003033506599687021 0 -0.011718479163680594 0.0028375719932257717 0 -0.011846163587139245 0.0029186809582961428 0 -0.013088008682675085 0.00041444063247492006 0 -0.011895418102823085 -0.00038496869429572146 0 -0.014431745891547243 -0.0019807840370199589 0 -0.013408007007334135 -0.0019539226215962379 0 -0.012030260336086354 -0.003281557467985283 0 -0.011812441374766672 0.003033506599687021 0 -0.011846163587139245 0.0029186809582961428 0 -0.011879124659908662 0.0030137196652745019 0 -0.012540367783142105 -0.0022826630076366616 0 -0.012030260336086354 -0.003281557467985283 0 -0.011332656086662875 -0.0023219307241967475 0 -0.013408007007334135 -0.0019539226215962379 0 -0.012540367783142105 -0.0022826630076366616 0 -0.012030260336086354 -0.003281557467985283 0 -0.010447109836049882 -0.0017910628786495378 0 -0.0089267059261028178 -0.0026485849933143095 0 -0.0085236807354600146 -0.0042349912774056015 0 -0.012030260336086354 -0.003281557467985283 0 -0.0085236807354600146 -0.0042349912774056015 0 -0.0083911926240756753 -0.0046120130451667816 0 -0.010884637293948117 -0.0020300565005363334 0 -0.0086641085530839226 -0.0041655995260520915 0 -0.012030260336086354 -0.003281557467985283 0 -0.011332656086662875 -0.0023219307241967475 0 -0.0085236807354600146 -0.0042349912774056015 0 -0.011846163587139245 0.0029186809582961428 0 -0.011939372059759779 0.0030596344909869142 0 -0.011879124659908662 0.0030137196652745019 0 -0.011895418102823085 -0.00038496869429572146 0 -0.0097507248602994086 0.0013468679793194687 0 -0.010447109836049882 -0.0017910628786495378 0 -0.0089267059261028178 -0.0026485849933143095 0 -0.0090734720216733636 -0.0016739887858847277 0 -0.0089267059261028178 -0.0026485849933143095 0 -0.0090734720216733636 -0.0016739887858847277 0 -0.0083183880074312495 -0.0021671547073140915 0 -0.0081480568240314463 -0.0033640745523287863 0 -0.0083911926240756753 -0.0046120130451667816 0 -0.0059027268170733869 -0.0021568974660461262 0 -0.0061658915071745131 0.0033884843265866052 0 -0.0070620330218659991 0.0030826287876319089 0 -0.0058443533781208585 0.0042571469161464016 0 -0.0097507248602994086 0.0013468679793194687 0 -0.0057169307428465189 0.00085228436071414196 0 -0.0089267059261028178 -0.0026485849933143095 0 -0.0083183880074312495 -0.0021671547073140915 0 -0.0081480568240314463 -0.0033640745523287863 0 -0.0083183880074312495 -0.0021671547073140915 0 -0.0074876404389387172 -0.0022144476122477599 0 -0.0081480568240314463 -0.0033640745523287863 0 -0.0077592729578977388 -0.00091383852830375875 0 -0.0083183880074312495 -0.0021671547073140915 0 -0.0074876404389387172 -0.0022144476122477599 0 -0.0074876404389387172 -0.0022144476122477599 0 -0.0081480568240314463 -0.0033640745523287863 0 -0.0059027268170733869 -0.0021568974660461262 0 -0.0068630317449289375 -0.0013660051953441235 0 -0.0074876404389387172 -0.0022144476122477599 0 -0.0059027268170733869 -0.0021568974660461262 0 -0.0089267059261028178 -0.0026485849933143095 0 -0.0081480568240314463 -0.0033640745523287863 0 -0.0085236807354600146 -0.0042349912774056015 0 -0.0081480568240314463 -0.0033640745523287863 0 -0.0085236807354600146 -0.0042349912774056015 0 -0.0083911926240756753 -0.0046120130451667816 0 -0.0119093546325381 0.0031016933479506175 0 -0.011922801303542629 0.0030845048149318083 0 -0.011893226985228088 0.0031224966228289041 0 -0.0097507248602994086 0.0013468679793194687 0 -0.010061242737299199 0.0014902537988860376 0 -0.0097507248602994086 0.0013468679793194687 0 -0.0061513901617193034 0.0058092846824595416 0 -0.0061658915071745131 0.0033884843265866052 0 -0.0070620330218659991 0.0030826287876319089 0 -0.0059570978993699394 0.002498626563238219 0 -0.0119093546325381 0.0031016933479506175 0 -0.011893226985228088 0.0031224966228289041 0 -0.011857386838159401 0.0031368657247458384 0 -0.011922801303542629 0.0030845048149318083 0 -0.011893226985228088 0.0031224966228289041 0 -0.011921713720776484 0.0031058876672482964 0 -0.011812441374766672 0.003033506599687021 0 -0.01190125667406251 0.0030738071372841619 0 -0.011951891172808919 0.0031358009749121812 0 -0.011921713720776484 0.0031058876672482964 0 -0.01190125667406251 0.0030738071372841619 0 -0.011951891172808919 0.0031358009749121812 0 -0.012015762221292232 0.0030278085530222056 0 -0.011947084414901617 0.0031226314698092361 0 -0.011922801303542629 0.0030845048149318083 0 -0.011921713720776484 0.0031058876672482964 0 -0.01190125667406251 0.0030738071372841619 0 -0.011812441374766672 0.003033506599687021 0 -0.01190125667406251 0.0030738071372841619 0 -0.011879124659908662 0.0030137196652745019 0 -0.011939372059759779 0.0030596344909869142 0 -0.011879124659908662 0.0030137196652745019 0 -0.011906848450463857 0.0030572760177324126 0 -0.011939372059759779 0.0030596344909869142 0 -0.011922801303542629 0.0030845048149318083 0 -0.011906848450463857 0.0030572760177324126 0 -0.01190125667406251 0.0030738071372841619 0 -0.011879124659908662 0.0030137196652745019 0 -0.011906848450463857 0.0030572760177324126 0 -0.011922801303542629 0.0030845048149318083 0 -0.01190125667406251 0.0030738071372841619 0 -0.011906848450463857 0.0030572760177324126 0 -0.0017503700265569572 0.0082565203601461887 0 -0.0017975912542496767 0.0082894185040321786 0 -0.0017807834072809585 0.0081669935363780956 0 -0.0016848600154846427 0.0082754511688014308 0 -0.0017382616553524297 0.0082827151359852347 0 -0.0017503700265569572 0.0082565203601461887 0 -0.0016611322741368242 0.0083189030461837746 0 -0.001718066071740231 0.0083024378833641468 0 -0.0016848600154846427 0.0082754511688014308 0 -0.001718066071740231 0.0083024378833641468 0 -0.0016848600154846427 0.0082754511688014308 0 -0.0017382616553524297 0.0082827151359852347 0 -0.001718066071740231 0.0083024378833641468 0 -0.0017382616553524297 0.0082827151359852347 0 -0.0017975912542496767 0.0082894185040321786 0 -0.0017382616553524297 0.0082827151359852347 0 -0.0017503700265569572 0.0082565203601461887 0 -0.0017975912542496767 0.0082894185040321786 0 -0.0016848600154846427 0.0082754511688014308 0 -0.0017503700265569572 0.0082565203601461887 0 -0.0017807834072809585 0.0081669935363780956 0 -0.0061658915071745131 0.0033884843265866052 0 -0.0050740484118108487 0.0041433975647193763 0 -0.0058443533781208585 0.0042571469161464016 0 -0.0031297890679295092 0.0064922390701221255 0 -0.0061513901617193034 0.0058092846824595416 0 -0.0017975912542496767 0.0082894185040321786 0 -0.0019638486794960625 0.0081024594768684087 0 -0.0017807834072809585 0.0081669935363780956 0 -0.0061658915071745131 0.0033884843265866052 0 -0.0050740484118108487 0.0041433975647193763 0 -0.0059570978993699394 0.002498626563238219 0 -0.0019638486794960625 0.0081024594768684087 0 -0.0017807834072809585 0.0081669935363780956 0 -0.0017537596743124866 0.0080045063076886747 0 -0.0016848600154846427 0.0082754511688014308 0 -0.001660429961516191 0.008133062002095166 0 -0.0017807834072809585 0.0081669935363780956 0 -0.001660429961516191 0.008133062002095166 0 -0.0017807834072809585 0.0081669935363780956 0 -0.0017537596743124866 0.0080045063076886747 0 -0.0039011617389337091 0.0091734111181057728 0 -0.0047708134277486772 0.008519503988674515 0 -0.0037280704179275259 0.0085604652833539893 0 -0.0061513901617193034 0.0058092846824595416 0 -0.0024992066247585191 0.0088525249859298018 0 -0.0051564026983086791 0.0098116748831144854 0 -0.0039011617389337091 0.0091734111181057728 0 -0.0047708134277486772 0.008519503988674515 0 -0.0047258868777514101 0.0087099516465031345 0 -0.0042572597777781806 0.0082401031899770934 0 -0.005256534920984767 0.0082922311251654793 0 -0.0042572597777781806 0.0082401031899770934 0 -0.005256534920984767 0.0082922311251654793 0 -0.0050691342716664466 0.007635426352249724 0 -0.0039011617389337091 0.0091734111181057728 0 -0.0037280704179275259 0.0085604652833539893 0 -0.0027304239457648415 0.0085257101564342377 0 -0.0043323874018566105 0.0086200479334049632 0 -0.0039955874186305244 0.0085757307406292838 0 -0.0047258868777514101 0.0087099516465031345 0 -0.0037280704179275259 0.0085604652833539893 0 -0.0042572597777781806 0.0082401031899770934 0 -0.0037280704179275259 0.0085604652833539893 0 -0.0042572597777781806 0.0082401031899770934 0 -0.0033998804821706707 0.0079280903693856632 0 -0.012100504511434735 0.0031220751987446008 0 -0.012175068084539628 0.0030885594841413904 0 -0.011951891172808919 0.0031358009749121812 0 -0.012073724294614376 0.0030995642459036351 0 -0.012100504511434735 0.0031220751987446008 0 -0.011951891172808919 0.0031358009749121812 0 -0.012073724294614376 0.0030995642459036351 0 -0.011951891172808919 0.0031358009749121812 0 -0.011884794600945067 0.0031059400656789321 0 -0.0051564026983086791 0.0098116748831144854 0 -0.0047708134277486772 0.008519503988674515 0 -0.0058371446959403842 0.0085242619274647023 0 -0.011893226985228088 0.0031224966228289041 0 -0.011951891172808919 0.0031358009749121812 0 -0.011884794600945067 0.0031059400656789321 0 -0.0061513901617193034 0.0058092846824595416 0 -0.0081474139739169688 0.0068326310303405968 0 -0.011893226985228088 0.0031224966228289041 0 -0.011857386838159401 0.0031368657247458384 0 -0.011884794600945067 0.0031059400656789321 0 -0.011893226985228088 0.0031224966228289041 0 -0.011921713720776484 0.0031058876672482964 0 -0.011951891172808919 0.0031358009749121812 0 -0.0058018354084374219 0.0089064061393385619 0 -0.0060460306414016826 0.0084232595001947075 0 -0.0065809791758088092 0.0083847599143250535 0 -0.0047258868777514101 0.0087099516465031345 0 -0.0058184650802091467 0.0088146429986787865 0 -0.005256534920984767 0.0082922311251654793 0 -0.0058184650802091467 0.0088146429986787865 0 -0.005256534920984767 0.0082922311251654793 0 -0.0060460306414016826 0.0084232595001947075 0 -0.0043323874018566105 0.0086200479334049632 0 -0.0081474139739169688 0.0068326310303405968 0 -0.0081474139739169688 0.0068326310303405968 0 -0.0066272043466843802 0.008700860601016892 0 -0.005256534920984767 0.0082922311251654793 0 -0.0060460306414016826 0.0084232595001947075 0 -0.0057674914768076329 0.0079283174131585636 0 -0.0060460306414016826 0.0084232595001947075 0 -0.0064270881425818631 0.0079154067270260659 0 -0.0057674914768076329 0.0079283174131585636 0 -0.0074914138093826761 0.0090165149753168514 0 -0.0065809791758088092 0.0083847599143250535 0 -0.0071497131191753391 0.0076643462765149896 0 -0.0060460306414016826 0.0084232595001947075 0 -0.0065809791758088092 0.0083847599143250535 0 -0.0064270881425818631 0.0079154067270260659 0 -0.0074914138093826761 0.0090165149753168514 0 -0.0058018354084374219 0.0089064061393385619 0 -0.0065809791758088092 0.0083847599143250535 0 -0.0099098458950152794 0.0059849967043086871 0 -0.0081474139739169688 0.0068326310303405968 0 -0.0071497131191753391 0.0076643462765149896 0 -0.0066845075191033481 0.006462189576650245 0 -0.0060853193973921943 0.0073798811373349867 0 -0.0071497131191753391 0.0076643462765149896 0 -0.0064270881425818631 0.0079154067270260659 0 -0.0060853193973921943 0.0073798811373349867 0 -0.0065809791758088092 0.0083847599143250535 0 -0.0071497131191753391 0.0076643462765149896 0 -0.0064270881425818631 0.0079154067270260659 0 -0.0079437771232225875 0.0065221652581956818 0 -0.0071497131191753391 0.0076643462765149896 0 -0.0066845075191033481 0.006462189576650245 0 -0.0066845075191033481 0.006462189576650245 0 -0.0056053144950248077 0.0067437766743566026 0 -0.0055908079716363171 0.0058749023546402742 0 -0.0066845075191033481 0.006462189576650245 0 -0.0056053144950248077 0.0067437766743566026 0 -0.0060853193973921943 0.0073798811373349867 0 -0.0056053144950248077 0.0067437766743566026 0 -0.0047477575224951054 0.0065239567370800064 0 -0.0055908079716363171 0.0058749023546402742 0 -0.0056053144950248077 0.0067437766743566026 0 -0.0060853193973921943 0.0073798811373349867 0 -0.0050691342716664466 0.007635426352249724 0 -0.0060853193973921943 0.0073798811373349867 0 -0.0057674914768076329 0.0079283174131585636 0 -0.0050691342716664466 0.007635426352249724 0 -0.0064270881425818631 0.0079154067270260659 0 -0.0060853193973921943 0.0073798811373349867 0 -0.0057674914768076329 0.0079283174131585636 0 -0.005256534920984767 0.0082922311251654793 0 -0.0057674914768076329 0.0079283174131585636 0 -0.0050691342716664466 0.007635426352249724 0 -0.0042572597777781806 0.0082401031899770934 0 -0.0050691342716664466 0.007635426352249724 0 -0.0040175425594817663 0.0076515597982137412 0 -0.0050691342716664466 0.007635426352249724 0 -0.0040175425594817663 0.0076515597982137412 0 -0.0040295186802514196 0.0069636851088167731 0 -0.0040175425594817663 0.0076515597982137412 0 -0.003263177505937524 0.0071047771881256397 0 -0.0033998804821706707 0.0079280903693856632 0 -0.0042572597777781806 0.0082401031899770934 0 -0.0040175425594817663 0.0076515597982137412 0 -0.0033998804821706707 0.0079280903693856632 0 -0.0040175425594817663 0.0076515597982137412 0 -0.0040295186802514196 0.0069636851088167731 0 -0.003263177505937524 0.0071047771881256397 0 -0.0040295186802514196 0.0069636851088167731 0 -0.0037177627817014921 0.0063589712998426617 0 -0.003263177505937524 0.0071047771881256397 0 -0.0040295186802514196 0.0069636851088167731 0 -0.0047477575224951054 0.0065239567370800064 0 -0.0037177627817014921 0.0063589712998426617 0 -0.0050691342716664466 0.007635426352249724 0 -0.0040295186802514196 0.0069636851088167731 0 -0.0047477575224951054 0.0065239567370800064 0 -0.0056053144950248077 0.0067437766743566026 0 -0.0050691342716664466 0.007635426352249724 0 -0.0047477575224951054 0.0065239567370800064 0 -0.0047477575224951054 0.0065239567370800064 0 -0.0044501854219686655 0.0055356373067790487 0 -0.0055908079716363171 0.0058749023546402742 0 -0.0047477575224951054 0.0065239567370800064 0 -0.0037177627817014921 0.0063589712998426617 0 -0.0044501854219686655 0.0055356373067790487 0 -0.0037177627817014921 0.0063589712998426617 0 -0.0044501854219686655 0.0055356373067790487 0 -0.0034647891784946134 0.0056706324777223739 0 -0.0044501854219686655 0.0055356373067790487 0 -0.0034647891784946134 0.0056706324777223739 0 -0.003595089572074427 0.0050644208143491073 0 -0.0044501854219686655 0.0055356373067790487 0 -0.0045412525985787551 0.0047922806578948336 0 -0.003595089572074427 0.0050644208143491073 0 -0.0044501854219686655 0.0055356373067790487 0 -0.0055559786525320514 0.0048826156851458817 0 -0.0045412525985787551 0.0047922806578948336 0 -0.0055559786525320514 0.0048826156851458817 0 -0.0069160074873228288 0.0052551209360019559 0 -0.0055908079716363171 0.0058749023546402742 0 -0.0044501854219686655 0.0055356373067790487 0 -0.0055559786525320514 0.0048826156851458817 0 -0.0055908079716363171 0.0058749023546402742 0 -0.0076508380088745678 0.0039638126481442463 0 -0.0055559786525320514 0.0048826156851458817 0 -0.0069160074873228288 0.0052551209360019559 0 -0.0065112486966714912 0.0044598370483213681 0 -0.0056078354676416635 0.0048178481640705805 0 -0.0066845075191033481 0.006462189576650245 0 -0.0069160074873228288 0.0052551209360019559 0 -0.0055908079716363171 0.0058749023546402742 0 -0.0075238183905999784 0.005834636203215309 0 -0.0066845075191033481 0.006462189576650245 0 -0.0069160074873228288 0.0052551209360019559 0 -0.0014648926396086408 0.005861009809778793 0 -0.0023803941644232668 0.0063760373642786994 0 -0.0012716539128184345 0.0068522162573251052 0 -0.0014648926396086408 0.005861009809778793 0 -0.0012716539128184345 0.0068522162573251052 0 -0.00046073609330663911 0.0063884249155081686 0 -0.0014106764047894776 0.0058748808218150568 0 -0.00048289814267897074 0.0058308399693434258 0 -0.0014648926396086408 0.005861009809778793 0 -0.00063650664004548916 0.0058016511162133147 0 -0.0010993502464386347 0.0053807977477347054 0 -0.0014648926396086408 0.005861009809778793 0 -0.00046073609330663911 0.0063884249155081686 0 -0.00026792555735126087 0.0058294945593519191 0 -0.0014648926396086408 0.005861009809778793 0 -0.0026330596193733491 0.0056612404935193769 0 -0.0025616650085191154 0.0049642282694120354 0 -0.0026330596193733491 0.0056612404935193769 0 -0.0034647891784946134 0.0056706324777223739 0 -0.003595089572074427 0.0050644208143491073 0 -0.0026330596193733491 0.0056612404935193769 0 -0.0034647891784946134 0.0056706324777223739 0 -0.0023803941644232668 0.0063760373642786994 0 -0.0037177627817014921 0.0063589712998426617 0 -0.0034647891784946134 0.0056706324777223739 0 -0.0023803941644232668 0.0063760373642786994 0 -0.0014648926396086408 0.005861009809778793 0 -0.0026330596193733491 0.0056612404935193769 0 -0.0023803941644232668 0.0063760373642786994 0 -0.0023803941644232668 0.0063760373642786994 0 -0.0023591003503815942 0.0073266399913866275 0 -0.0012716539128184345 0.0068522162573251052 0 -0.0023803941644232668 0.0063760373642786994 0 -0.003263177505937524 0.0071047771881256397 0 -0.0023591003503815942 0.0073266399913866275 0 -0.0037177627817014921 0.0063589712998426617 0 -0.0023803941644232668 0.0063760373642786994 0 -0.003263177505937524 0.0071047771881256397 0 -0.003263177505937524 0.0071047771881256397 0 -0.0033998804821706707 0.0079280903693856632 0 -0.0023591003503815942 0.0073266399913866275 0 -0.0023591003503815942 0.0073266399913866275 0 -0.0015036296009641179 0.0076705404539087413 0 -0.0012716539128184345 0.0068522162573251052 0 -0.0015036296009641179 0.0076705404539087413 0 -0.0012716539128184345 0.0068522162573251052 0 -0.0007765252502183838 0.0074238122810556893 0 -0.0012716539128184345 0.0068522162573251052 0 -0.0007765252502183838 0.0074238122810556893 0 -0.00019461835852618422 0.0070111459906712975 0 -0.0007765252502183838 0.0074238122810556893 0 -0.0010495542893276364 0.0077889936019577347 0 -0.00015396557201575396 0.00761549454012256 0 -0.0015036296009641179 0.0076705404539087413 0 -0.0007765252502183838 0.0074238122810556893 0 -0.0010495542893276364 0.0077889936019577347 0 -0.0015036296009641179 0.0076705404539087413 0 -0.0010495542893276364 0.0077889936019577347 0 -0.0012978266764482043 0.0079640719025412133 0 -0.0010495542893276364 0.0077889936019577347 0 -0.0012978266764482043 0.0079640719025412133 0 -0.00078695323047107588 0.0080635392156344233 0 -0.0010495542893276364 0.0077889936019577347 0 -0.00078695323047107588 0.0080635392156344233 0 -0.00015396557201575396 0.00761549454012256 0 -0.0033998804821706707 0.0079280903693856632 0 -0.0023591003503815942 0.0073266399913866275 0 -0.0027304239457648415 0.0085257101564342377 0 -0.0037280704179275259 0.0085604652833539893 0 -0.0033998804821706707 0.0079280903693856632 0 -0.0027304239457648415 0.0085257101564342377 0 -0.0015036296009641179 0.0076705404539087413 0 -0.0012978266764482043 0.0079640719025412133 0 -0.001541518621415114 0.0078419228167531056 0 -0.0023591003503815942 0.0073266399913866275 0 -0.0015036296009641179 0.0076705404539087413 0 -0.0027304239457648415 0.0085257101564342377 0 -0.0015194944439467538 0.0077247799882431412 0 -0.0021832082259145564 0.0081479140043868685 0 -0.0012978266764482043 0.0079640719025412133 0 -0.001541518621415114 0.0078419228167531056 0 -0.0014851872700057543 0.0082279709457898989 0 -0.001660429961516191 0.008133062002095166 0 -0.001541518621415114 0.0078419228167531056 0 -0.0014851872700057543 0.0082279709457898989 0 -0.001660429961516191 0.008133062002095166 0 -0.0017537596743124866 0.0080045063076886747 0 -0.001541518621415114 0.0078419228167531056 0 -0.0024992066247585191 0.0088525249859298018 0 -0.0021832082259145564 0.0081479140043868685 0 -0.0016848600154846427 0.0082754511688014308 0 -0.001660429961516191 0.008133062002095166 0 -0.0014851872700057543 0.0082279709457898989 0 -0.0014851872700057543 0.0082279709457898989 0 -0.0013015136474962411 0.0083922600319077043 0 -0.0012026644228990478 0.0082915037221940151 0 -0.0012978266764482043 0.0079640719025412133 0 -0.0014851872700057543 0.0082279709457898989 0 -0.0012026644228990478 0.0082915037221940151 0 -0.0010030538926568179 0.0082391160772762612 0 -0.0014851872700057543 0.0082279709457898989 0 -0.0013015136474962411 0.0083922600319077043 0 -0.001289895115723759 0.0086697146801013678 0 -0.0014465413363453708 0.0080303184330142909 0 -0.0016611322741368242 0.0083189030461837746 0 -0.0016848600154846427 0.0082754511688014308 0 -0.0014851872700057543 0.0082279709457898989 0 -0.00078695323047107588 0.0080635392156344233 0 -0.0012026644228990478 0.0082915037221940151 0 -0.00070878518337039566 0.0084720107710680361 0 -0.00078695323047107588 0.0080635392156344233 0 -0.00070878518337039566 0.0084720107710680361 0 -0.00015137049035854054 0.0082352400270754855 0 -0.0012978266764482043 0.0079640719025412133 0 -0.00078695323047107588 0.0080635392156344233 0 -0.0012026644228990478 0.0082915037221940151 0 -0.0013015136474962411 0.0083922600319077043 0 -0.0012026644228990478 0.0082915037221940151 0 -0.0013498515507788711 0.0085546794157902051 0 -0.0012026644228990478 0.0082915037221940151 0 -0.0013498515507788711 0.0085546794157902051 0 -0.00070878518337039566 0.0084720107710680361 0 3.6245525776472628e-05 0.0089547291995433192 0 -0.00054170621633281113 0.0091214374799653102 0 -0.00070878518337039566 0.0084720107710680361 0 -0.00054170621633281113 0.0091214374799653102 0 -0.0013498515507788711 0.0085546794157902051 0 -0.00070878518337039566 0.0084720107710680361 0 3.6245525776472628e-05 0.0089547291995433192 0 -0.00070878518337039566 0.0084720107710680361 0 -0.00015137049035854054 0.0082352400270754855 0 -0.00015137049035854054 0.0082352400270754855 0 0.00057040404066957572 0.0079187533588291545 0 0.0010388139223956108 0.0088860743778359993 0 3.6245525776472628e-05 0.0089547291995433192 0 -0.00015137049035854054 0.0082352400270754855 0 0.0010388139223956108 0.0088860743778359993 0 0.00057040404066957572 0.0079187533588291545 0 0.0010388139223956108 0.0088860743778359993 0 0.0024303257373245149 0.008482913004081008 0 0.0028320945137968933 0.0090929144895502637 0 0.0025002712734707448 0.0084021708802255284 0 0.0018845901730609024 0.0091475240834875127 0 0.0010388139223956108 0.0088860743778359993 0 0.0024303257373245149 0.008482913004081008 0 0.0024303257373245149 0.008482913004081008 0 0.0020197328243835803 0.0074021030595045551 0 0.0032198107381714506 0.0080431223843566418 0 0.00057040404066957572 0.0079187533588291545 0 0.0024303257373245149 0.008482913004081008 0 0.0020197328243835803 0.0074021030595045551 0 0.00062094846229609666 0.0079159324686827355 0 0.0013638294432958037 0.0076172129802531963 0 0.00057040404066957572 0.0079187533588291545 0 0.00075861344386680366 0.0077803545555886564 0 0.00044115122277307823 0.0076671857830801502 0 0.00075861344386680366 0.0077803545555886564 0 0.00049676573663271005 0.0072488436796451575 0 0.00092406960528702072 0.0072472195207874558 0 0.00075861344386680366 0.0077803545555886564 0 0.0012566411264925566 0.0075512008539797698 0 0.00092406960528702072 0.0072472195207874558 0 0.0013638294432958037 0.0076172129802531963 0 0.0021055931561758993 0.0074611717799218033 0 0.00075861344386680366 0.0077803545555886564 0 0.00044115122277307823 0.0076671857830801502 0 0.00049676573663271005 0.0072488436796451575 0 0.00044115122277307823 0.0076671857830801502 0 -0.00015396557201575396 0.00761549454012256 0 0.00049676573663271005 0.0072488436796451575 0 -0.00078695323047107588 0.0080635392156344233 0 -0.00015137049035854054 0.0082352400270754855 0 -0.00015396557201575396 0.00761549454012256 0 -0.00015137049035854054 0.0082352400270754855 0 0.00057040404066957572 0.0079187533588291545 0 -0.00015396557201575396 0.00761549454012256 0 0.00057040404066957572 0.0079187533588291545 0 0.00044115122277307823 0.0076671857830801502 0 -0.00015396557201575396 0.00761549454012256 0 0.0042364343440605178 0.0083806370698142878 0 0.0039515412333758744 0.0084011580885781836 0 0.0040695426675462385 0.008144929568005237 0 0.0039515412333758744 0.0084011580885781836 0 0.0037933752748563945 0.008146926501146479 0 0.0040695426675462385 0.008144929568005237 0 0.0037802333320952198 0.0085697102934548033 0 0.0041445372529077523 0.0086845171146914396 0 0.0039515412333758744 0.0084011580885781836 0 0.0041445372529077523 0.0086845171146914396 0 0.0042364343440605178 0.0083806370698142878 0 0.0039515412333758744 0.0084011580885781836 0 0.0037802333320952198 0.0085697102934548033 0 0.0039515412333758744 0.0084011580885781836 0 0.0036375678266329704 0.0084235919684783646 0 0.0039515412333758744 0.0084011580885781836 0 0.0037933752748563945 0.008146926501146479 0 0.0036375678266329704 0.0084235919684783646 0 0.0037933752748563945 0.008146926501146479 0 0.0036375678266329704 0.0084235919684783646 0 0.0032198107381714506 0.0080431223843566418 0 0.0037050820105019827 0.008657474523142434 0 0.0036375678266329704 0.0084235919684783646 0 0.003286166745924665 0.0085845763003161261 0 0.0036375678266329704 0.0084235919684783646 0 0.003286166745924665 0.0085845763003161261 0 0.0032198107381714506 0.0080431223843566418 0 0.0037802333320952198 0.0085697102934548033 0 0.0037050820105019827 0.008657474523142434 0 0.0036375678266329704 0.0084235919684783646 0 0.0024303257373245149 0.008482913004081008 0 0.003286166745924665 0.0085845763003161261 0 0.0032198107381714506 0.0080431223843566418 0 0.003532545863898695 0.00863958860739545 0 0.0024303257373245149 0.008482913004081008 0 0.003286166745924665 0.0085845763003161261 0 0.0020197328243835803 0.0074021030595045551 0 0.0032198107381714506 0.0080431223843566418 0 0.0029900183679152526 0.0073500306947997208 0 0.0029900183679152526 0.0073500306947997208 0 0.003606343096394972 0.0077390209656408694 0 0.0035897920457325849 0.0074656107540661334 0 0.0021055931561758993 0.0074611717799218033 0 0.0026577177283588545 0.0073518990203920876 0 0.0032198107381714506 0.0080431223843566418 0 0.0029900183679152526 0.0073500306947997208 0 0.003606343096394972 0.0077390209656408694 0 0.0037933752748563945 0.008146926501146479 0 0.0032198107381714506 0.0080431223843566418 0 0.003606343096394972 0.0077390209656408694 0 0.0037933752748563945 0.008146926501146479 0 0.003606343096394972 0.0077390209656408694 0 0.003948837595206485 0.0078820042794602273 0 0.003606343096394972 0.0077390209656408694 0 0.003948837595206485 0.0078820042794602273 0 0.0038755719441710551 0.0076505714781386139 0 0.003606343096394972 0.0077390209656408694 0 0.0038755719441710551 0.0076505714781386139 0 0.0035897920457325849 0.0074656107540661334 0 0.0041892436401409494 0.0079053598471049945 0 0.0041831034302859159 0.0077367875265886774 0 0.0040558178529642329 0.0077480637619861533 0 0.0041892436401409494 0.0079053598471049945 0 0.003948837595206485 0.0078820042794602273 0 0.0040558178529642329 0.0077480637619861533 0 0.003948837595206485 0.0078820042794602273 0 0.0040558178529642329 0.0077480637619861533 0 0.0038755719441710551 0.0076505714781386139 0 0.0037933752748563945 0.008146926501146479 0 0.003948837595206485 0.0078820042794602273 0 0.0040695426675462385 0.008144929568005237 0 0.0041892436401409494 0.0079053598471049945 0 0.003948837595206485 0.0078820042794602273 0 0.0040695426675462385 0.008144929568005237 0 0.0042981372046685673 0.0076589150608133523 0 0.0040588650388126745 0.0076306494091361483 0 0.0040186620972213006 0.0076032828901102332 0 0.0041273457293995244 0.0079081113035740606 0 0.0033444329535980968 0.0075504915376786164 0 0.0038893883427324394 0.008050405651148871 0 0.0034087255020949889 0.0080599055804871436 0 0.0032713696474946639 0.0084031380472284652 0 0.0034087255020949889 0.0080599055804871436 0 0.0032713696474946639 0.0084031380472284652 0 0.003122455349410874 0.0080677837291395337 0 0.0034087255020949889 0.0080599055804871436 0 0.003122455349410874 0.0080677837291395337 0 0.0032368533818611833 0.0078611260543153781 0 0.0041831034302859159 0.0077367875265886774 0 0.0040558178529642329 0.0077480637619861533 0 0.0040588650388126745 0.0076306494091361483 0 0.0040558178529642329 0.0077480637619861533 0 0.0040588650388126745 0.0076306494091361483 0 0.0038755719441710551 0.0076505714781386139 0 0.0040588650388126745 0.0076306494091361483 0 0.0039862807655232802 0.0075580812112598407 0 0.0038755719441710551 0.0076505714781386139 0 0.0037201413409817547 0.0076889139307666724 0 0.0033444329535980968 0.0075504915376786164 0 0.0023635107446536492 0.0069860023633367754 0 0.0018457312756433213 0.0066971234230790381 0 0.0018027782613926162 0.007283667407299064 0 0.0033444329535980968 0.0075504915376786164 0 0.0026577177283588545 0.0073518990203920876 0 0.0039862807655232802 0.0075580812112598407 0 0.0038755719441710551 0.0076505714781386139 0 0.0035897920457325849 0.0074656107540661334 0 0.0033444329535980968 0.0075504915376786164 0 0.0022319652800516497 0.0074011917440236401 0 0.0032713696474946639 0.0084031380472284652 0 0.003122455349410874 0.0080677837291395337 0 0.002739937202501186 0.0081063567555476473 0 0.003122455349410874 0.0080677837291395337 0 0.002739937202501186 0.0081063567555476473 0 0.002970195166796038 0.0078641071673879598 0 0.0018457312756433213 0.0066971234230790381 0 0.0013268913902685264 0.0069881829836278171 0 0.0013405550583484582 0.0064174628389381391 0 0.0018457312756433213 0.0066971234230790381 0 0.0018027782613926162 0.007283667407299064 0 0.0013268913902685264 0.0069881829836278171 0 0.0012566411264925566 0.0075512008539797698 0 0.0013268913902685264 0.0069881829836278171 0 0.00092406960528702072 0.0072472195207874558 0 0.0012566411264925566 0.0075512008539797698 0 0.0018027782613926162 0.007283667407299064 0 0.0013268913902685264 0.0069881829836278171 0 0.0013268913902685264 0.0069881829836278171 0 0.0013405550583484582 0.0064174628389381391 0 0.00080996266155295739 0.0066948540551140931 0 0.0018995420995195601 0.0074584326263155481 0 0.0016256887496150672 0.0067645349616302173 0 0.0011004886257576319 0.0069596491511889546 0 0.0018995420995195601 0.0074584326263155481 0 0.0016256887496150672 0.0067645349616302173 0 0.0021895048648010573 0.0067915554515444506 0 0.0016256887496150672 0.0067645349616302173 0 0.0012696460270104166 0.0065153397773751393 0 0.0017443354881383202 0.0062553923908317882 0 0.0016256887496150672 0.0067645349616302173 0 0.0021895048648010573 0.0067915554515444506 0 0.0017443354881383202 0.0062553923908317882 0 0.0018995420995195601 0.0074584326263155481 0 0.0021895048648010573 0.0067915554515444506 0 0.0025289387090243276 0.0071738733986819667 0 0.0021895048648010573 0.0067915554515444506 0 0.0025289387090243276 0.0071738733986819667 0 0.0026739886271523309 0.006831327878829215 0 0.0016686301455285549 0.0070560930194970128 0 0.0026528299435448241 0.0073963460524877327 0 0.0022319652800516497 0.0074011917440236401 0 0.0016686301455285549 0.0070560930194970128 0 0.002739937202501186 0.0081063567555476473 0 0.0022038676898353121 0.0078001776376401596 0 0.0027118539745325217 0.0075521470825142311 0 0.002739937202501186 0.0081063567555476473 0 0.0027118539745325217 0.0075521470825142311 0 0.002970195166796038 0.0078641071673879598 0 0.003122455349410874 0.0080677837291395337 0 0.002970195166796038 0.0078641071673879598 0 0.0032368533818611833 0.0078611260543153781 0 0.002970195166796038 0.0078641071673879598 0 0.0030714630852745426 0.0076421647396335921 0 0.0032368533818611833 0.0078611260543153781 0 0.0027118539745325217 0.0075521470825142311 0 0.002970195166796038 0.0078641071673879598 0 0.0030714630852745426 0.0076421647396335921 0 0.0026528299435448241 0.0073963460524877327 0 0.0031569836171788696 0.0071808417689066713 0 0.0025289387090243276 0.0071738733986819667 0 0.0026739886271523309 0.006831327878829215 0 0.0030612393463968369 0.0070536992412284037 0 0.0027118539745325217 0.0075521470825142311 0 0.0030714630852745426 0.0076421647396335921 0 0.0032078568063628903 0.0073115937602867675 0 0.0030714630852745426 0.0076421647396335921 0 0.0032078568063628903 0.0073115937602867675 0 0.0033297818915534599 0.007634943177795517 0 0.0036543524867344249 0.0075790881097961655 0 0.0032078568063628903 0.0073115937602867675 0 0.0033297818915534599 0.007634943177795517 0 0.0036519771804283578 0.0070357762182267931 0 0.0031569836171788696 0.0071808417689066713 0 0.0036543524867344249 0.0075790881097961655 0 0.0036941510367692232 0.0070570520191655228 0 0.0032078568063628903 0.0073115937602867675 0 0.0036543524867344249 0.0075790881097961655 0 0.0033297818915534599 0.007634943177795517 0 0.0035106204681318049 0.0078489602639495292 0 0.0038893883427324394 0.008050405651148871 0 0.0034087255020949889 0.0080599055804871436 0 0.0035106204681318049 0.0078489602639495292 0 0.0030714630852745426 0.0076421647396335921 0 0.0033297818915534599 0.007634943177795517 0 0.0032368533818611833 0.0078611260543153781 0 0.0033297818915534599 0.007634943177795517 0 0.0032368533818611833 0.0078611260543153781 0 0.0035106204681318049 0.0078489602639495292 0 0.0034087255020949889 0.0080599055804871436 0 0.0032368533818611833 0.0078611260543153781 0 0.0035106204681318049 0.0078489602639495292 0 -0.00019461835852618422 0.0070111459906712975 0 0.00042994101947254601 0.0068343798480046255 0 7.1722711813167086e-05 0.0065351979026929252 0 -0.0012716539128184345 0.0068522162573251052 0 -0.00019461835852618422 0.0070111459906712975 0 -0.00046073609330663911 0.0063884249155081686 0 -0.00019461835852618422 0.0070111459906712975 0 7.1722711813167086e-05 0.0065351979026929252 0 -0.00046073609330663911 0.0063884249155081686 0 -0.0007765252502183838 0.0074238122810556893 0 -0.00015396557201575396 0.00761549454012256 0 -0.00019461835852618422 0.0070111459906712975 0 -0.00015396557201575396 0.00761549454012256 0 -0.00019461835852618422 0.0070111459906712975 0 0.00049676573663271005 0.0072488436796451575 0 -0.00019461835852618422 0.0070111459906712975 0 0.00049676573663271005 0.0072488436796451575 0 0.00042994101947254601 0.0068343798480046255 0 0.00049676573663271005 0.0072488436796451575 0 0.00092406960528702072 0.0072472195207874558 0 0.00042994101947254601 0.0068343798480046255 0 0.00092406960528702072 0.0072472195207874558 0 0.00080996266155295739 0.0066948540551140931 0 0.00042994101947254601 0.0068343798480046255 0 0.0013268913902685264 0.0069881829836278171 0 0.00092406960528702072 0.0072472195207874558 0 0.00080996266155295739 0.0066948540551140931 0 0.00080996266155295739 0.0066948540551140931 0 0.00042994101947254601 0.0068343798480046255 0 0.00043948699202644347 0.0063547102630082154 0 0.00042994101947254601 0.0068343798480046255 0 0.00043948699202644347 0.0063547102630082154 0 7.1722711813167086e-05 0.0065351979026929252 0 0.00080996266155295739 0.0066948540551140931 0 0.00043948699202644347 0.0063547102630082154 0 0.00078395909586405029 0.0062152704761375653 0 0.0016686301455285549 0.0070560930194970128 0 0.00093038705443935533 0.0065556745228010863 0 0.0012471240245322183 0.0064700562395913564 0 0.00080996266155295739 0.0066948540551140931 0 0.00078395909586405029 0.0062152704761375653 0 0.0016686301455285549 0.0070560930194970128 0 0.00076831312662308253 0.0065808398141824114 0 0.0011004886257576319 0.0069596491511889546 0 0.0012696460270104166 0.0065153397773751393 0 0.00057492474053296924 0.0061156216710636238 0 0.0016256887496150672 0.0067645349616302173 0 0.0011004886257576319 0.0069596491511889546 0 0.0012696460270104166 0.0065153397773751393 0 0.0011004886257576319 0.0069596491511889546 0 0.00035573404807372644 0.0060719206433661717 0 0.00057492474053296924 0.0061156216710636238 0 0.00043948699202644347 0.0063547102630082154 0 0.00078395909586405029 0.0062152704761375653 0 0.00035573404807372644 0.0060719206433661717 0 0.00093038705443935533 0.0065556745228010863 0 0.00042219045229203479 0.0061540179007110955 0 0.00035573404807372644 0.0060719206433661717 0 -0.00026792555735126087 0.0058294945593519191 0 0.00057492474053296924 0.0061156216710636238 0 0.00043948699202644347 0.0063547102630082154 0 0.00035573404807372644 0.0060719206433661717 0 8.4247287656512686e-05 0.0062003017387855623 0 -0.00048289814267897074 0.0058308399693434258 0 0.00035810511938213851 0.0059148340484942337 0 0.00035573404807372644 0.0060719206433661717 0 8.4247287656512686e-05 0.0062003017387855623 0 -0.00026792555735126087 0.0058294945593519191 0 8.4247287656512686e-05 0.0062003017387855623 0 7.1722711813167086e-05 0.0065351979026929252 0 -0.00046073609330663911 0.0063884249155081686 0 0.00043948699202644347 0.0063547102630082154 0 8.4247287656512686e-05 0.0062003017387855623 0 7.1722711813167086e-05 0.0065351979026929252 0 8.4247287656512686e-05 0.0062003017387855623 0 -0.00046073609330663911 0.0063884249155081686 0 -0.00026792555735126087 0.0058294945593519191 0 -0.00063650664004548916 0.0058016511162133147 0 -0.0006311230145560632 0.005363809610524733 0 -0.0010993502464386347 0.0053807977477347054 0 -0.00063650664004548916 0.0058016511162133147 0 -0.0006311230145560632 0.005363809610524733 0 -0.00035132221008121311 0.0054274691595954999 0 -0.0006311230145560632 0.005363809610524733 0 -0.00095209131008551419 0.005130628377851755 0 -0.0010993502464386347 0.0053807977477347054 0 -0.00095209131008551419 0.005130628377851755 0 -0.00085482107583399313 0.0048586044752632019 0 -0.0012222083540069609 0.0049066659490257999 0 -0.0006311230145560632 0.005363809610524733 0 -0.00095209131008551419 0.005130628377851755 0 -0.00085482107583399313 0.0048586044752632019 0 -0.0006311230145560632 0.005363809610524733 0 -0.0004950132426762235 0.0050676368260253041 0 -0.00085482107583399313 0.0048586044752632019 0 -0.00058559769148615304 0.0046210491562741988 0 -0.00085482107583399313 0.0048586044752632019 0 -0.00085467554341175553 0.0045440046541820383 0 -0.0004950132426762235 0.0050676368260253041 0 -0.00058559769148615304 0.0046210491562741988 0 -0.00085482107583399313 0.0048586044752632019 0 -0.00085482107583399313 0.0048586044752632019 0 -0.00085467554341175553 0.0045440046541820383 0 -0.0011572881232077713 0.0044825580070135445 0 -0.00031652169479425766 0.004819130948724065 0 -0.0001064152141396088 0.0053917014071880008 0 -0.00027691720879857837 0.0041941013005777072 0 -0.00012017689195363133 0.0048255240956140933 0 -0.00041469056893394499 0.0068553146109680586 0 -9.4247873257097419e-05 0.0059416595258157548 0 -0.0001064152141396088 0.0053917014071880008 0 0.00019377464820047644 0.0065292499234784022 0 -0.00018352407766451866 0.0057176157613160264 0 -9.4247873257097419e-05 0.0059416595258157548 0 -0.0001064152141396088 0.0053917014071880008 0 -9.4247873257097419e-05 0.0059416595258157548 0 -0.00029414173405572597 0.0059486505420826858 0 -0.00023753985755519549 0.0062197134153818175 0 -0.00018352407766451866 0.0057176157613160264 0 -9.4247873257097419e-05 0.0059416595258157548 0 -0.00029414173405572597 0.0059486505420826858 0 -0.0004950132426762235 0.0050676368260253041 0 -0.00058559769148615304 0.0046210491562741988 0 -0.00031652169479425766 0.004819130948724065 0 -0.0004950132426762235 0.0050676368260253041 0 -0.00031652169479425766 0.004819130948724065 0 -0.00032145717210388581 0.0051987283985544868 0 -0.00031652169479425766 0.004819130948724065 0 -0.00032145717210388581 0.0051987283985544868 0 -0.0001064152141396088 0.0053917014071880008 0 -0.0004950132426762235 0.0050676368260253041 0 -0.00032145717210388581 0.0051987283985544868 0 -0.00035132221008121311 0.0054274691595954999 0 -0.00032145717210388581 0.0051987283985544868 0 -0.0001064152141396088 0.0053917014071880008 0 -0.00035132221008121311 0.0054274691595954999 0 -0.0001064152141396088 0.0053917014071880008 0 -0.00011380920162221236 0.0056132863565146688 0 -0.00024449404556947982 0.0056029121156650295 0 -0.00018352407766451866 0.0057176157613160264 0 -0.0001064152141396088 0.0053917014071880008 0 -0.00024449404556947982 0.0056029121156650295 0 -0.00063650664004548916 0.0058016511162133147 0 -0.00035132221008121311 0.0054274691595954999 0 -0.00018134782145992295 0.0055954922721845888 0 -0.0001064152141396088 0.0053917014071880008 0 -0.00035132221008121311 0.0054274691595954999 0 -0.00018134782145992295 0.0055954922721845888 0 -0.0001064152141396088 0.0053917014071880008 0 -0.00018134782145992295 0.0055954922721845888 0 -0.00011380920162221236 0.0056132863565146688 0 -0.00063650664004548916 0.0058016511162133147 0 -0.00018134782145992295 0.0055954922721845888 0 0.00011906875931789528 0.0057613308388896776 0 -0.0006311230145560632 0.005363809610524733 0 -0.0004950132426762235 0.0050676368260253041 0 -0.00035132221008121311 0.0054274691595954999 0 -9.9223976273743889e-05 0.0056556585173199447 0 0.0002369401286969258 0.0058012113957094311 0 -0.00018134782145992295 0.0055954922721845888 0 -0.00011380920162221236 0.0056132863565146688 0 0.00016784455413410682 0.0060226776628633932 0 -0.00018134782145992295 0.0055954922721845888 0 0.00011906875931789528 0.0057613308388896776 0 0.00034789037683062747 0.0055982894917585395 0 2.0494091964171051e-05 0.0057356299527086584 0 -0.00011380920162221236 0.0056132863565146688 0 0.00016784455413410682 0.0060226776628633932 0 2.0494091964171051e-05 0.0057356299527086584 0 0.00016784455413410682 0.0060226776628633932 0 0.00019873972801008358 0.0058304714520709504 0 0.00016784455413410682 0.0060226776628633932 0 0.00046921238057041193 0.0059661737409978698 0 0.0010098242601932598 0.0063777446322336563 0 0.00035810511938213851 0.0059148340484942337 0 0.001222516675162054 0.0060484950740722502 0 0.0012696460270104166 0.0065153397773751393 0 0.00057492474053296924 0.0061156216710636238 0 0.0017443354881383202 0.0062553923908317882 0 0.00011906875931789528 0.0057613308388896776 0 0.00034789037683062747 0.0055982894917585395 0 0.00089647450183658029 0.0056045653471996325 0 0.0002369401286969258 0.0058012113957094311 0 0.001222516675162054 0.0060484950740722502 0 0.00016784455413410682 0.0060226776628633932 0 0.00019873972801008358 0.0058304714520709504 0 0.00046921238057041193 0.0059661737409978698 0 0.00019873972801008358 0.0058304714520709504 0 0.00046921238057041193 0.0059661737409978698 0 0.00031481880200020471 0.0057151774914855772 0 0.00046921238057041193 0.0059661737409978698 0 0.00066445861931219272 0.0059115263580518922 0 0.00088585726669718483 0.0060767181504014708 0 0.00046784896492627829 0.0071925390504237099 0 -0.00057477441391480272 0.0052298631359226824 0 0.00068706458307493147 0.0056343976555969138 0 0.00031481880200020471 0.0057151774914855772 0 0.00013825905294724634 0.0056979348321512515 0 -0.0013321926936291841 0.0058324027099717424 0 -0.00061395912308392594 0.0059812021278781687 0 -0.000780535291524577 0.0062789123599856708 0 0.00068706458307493147 0.0056343976555969138 0 0.00055962035668302213 0.0058080505704907817 0 0.00031481880200020471 0.0057151774914855772 0 0.00068706458307493147 0.0056343976555969138 0 0.00055962035668302213 0.0058080505704907817 0 0.0007506681060626346 0.0057888088415290377 0 0.00046784896492627829 0.0071925390504237099 0 0.00043683136575599113 0.0067173641275768293 0 0.00066445861931219272 0.0059115263580518922 0 0.00055962035668302213 0.0058080505704907817 0 0.0007506681060626346 0.0057888088415290377 0 0.00046921238057041193 0.0059661737409978698 0 0.00055962035668302213 0.0058080505704907817 0 0.00031481880200020471 0.0057151774914855772 0 0.00046921238057041193 0.0059661737409978698 0 0.00066445861931219272 0.0059115263580518922 0 0.00055962035668302213 0.0058080505704907817 0 0.00019873972801008358 0.0058304714520709504 0 0.00031481880200020471 0.0057151774914855772 0 0.00013825905294724634 0.0056979348321512515 0 -0.0013321926936291841 0.0058324027099717424 0 -0.00024449404556947982 0.0056029121156650295 0 -0.00061395912308392594 0.0059812021278781687 0 0.00068706458307493147 0.0056343976555969138 0 -0.00024449404556947982 0.0056029121156650295 0 0.00013825905294724634 0.0056979348321512515 0 2.0494091964171051e-05 0.0057356299527086584 0 -0.00011380920162221236 0.0056132863565146688 0 -0.00024449404556947982 0.0056029121156650295 0 2.0494091964171051e-05 0.0057356299527086584 0 -0.00024449404556947982 0.0056029121156650295 0 0.00013825905294724634 0.0056979348321512515 0 2.0494091964171051e-05 0.0057356299527086584 0 0.00019873972801008358 0.0058304714520709504 0 0.00013825905294724634 0.0056979348321512515 0 -0.00061395912308392594 0.0059812021278781687 0 -0.00029414173405572597 0.0059486505420826858 0 -0.00045931388725433992 0.0062724924007529484 0 -0.00024449404556947982 0.0056029121156650295 0 -0.00061395912308392594 0.0059812021278781687 0 -0.00029414173405572597 0.0059486505420826858 0 -0.00018352407766451866 0.0057176157613160264 0 -0.00024449404556947982 0.0056029121156650295 0 -0.00029414173405572597 0.0059486505420826858 0 -0.00029414173405572597 0.0059486505420826858 0 -0.00045931388725433992 0.0062724924007529484 0 -0.00023753985755519549 0.0062197134153818175 0 -0.00045931388725433992 0.0062724924007529484 0 -0.00023753985755519549 0.0062197134153818175 0 -0.00029105926759431604 0.0065324591069097267 0 -0.00061395912308392594 0.0059812021278781687 0 -0.00045931388725433992 0.0062724924007529484 0 -0.000780535291524577 0.0062789123599856708 0 -0.00045931388725433992 0.0062724924007529484 0 -0.000780535291524577 0.0062789123599856708 0 -0.00052561255741431973 0.0067177630696652257 0 -0.00045931388725433992 0.0062724924007529484 0 -0.00052561255741431973 0.0067177630696652257 0 -0.00029105926759431604 0.0065324591069097267 0 -0.00052561255741431973 0.0067177630696652257 0 -0.00022864896342381972 0.0067972257621759288 0 -0.00029105926759431604 0.0065324591069097267 0 0.00046784896492627829 0.0071925390504237099 0 -0.00017617009714440029 0.0082775018643324837 0 -0.0013321926936291841 0.0058324027099717424 0 -0.000780535291524577 0.0062789123599856708 0 -0.0010470026761022426 0.0067323486363242528 0 -0.000780535291524577 0.0062789123599856708 0 -0.0010470026761022426 0.0067323486363242528 0 -0.00052561255741431973 0.0067177630696652257 0 -0.00017617009714440029 0.0082775018643324837 0 -1.7551814805470672e-05 0.0079593183036603173 0 -0.0010470026761022426 0.0067323486363242528 0 -0.00058686856293929809 0.0070849614475136996 0 -0.00062584704050432246 0.0073013989822821989 0 -0.0010470026761022426 0.0067323486363242528 0 -0.00052561255741431973 0.0067177630696652257 0 -0.00058686856293929809 0.0070849614475136996 0 -0.00052561255741431973 0.0067177630696652257 0 -0.00037986204456632997 0.0070930227358082069 0 -0.00022864896342381972 0.0067972257621759288 0 -0.00052561255741431973 0.0067177630696652257 0 -0.00058686856293929809 0.0070849614475136996 0 -0.00037986204456632997 0.0070930227358082069 0 -0.00041469056893394499 0.0068553146109680586 0 -0.00036553206198701151 0.0082761307152804595 0 -0.00022864896342381972 0.0067972257621759288 0 1.4503517439864539e-05 0.0065449393054527912 0 -0.00028007958896348071 0.0072853815508227959 0 -0.00037986204456632997 0.0070930227358082069 0 -0.00022864896342381972 0.0067972257621759288 0 -0.00028007958896348071 0.0072853815508227959 0 -0.00027702299448515458 0.009793691886717892 0 -0.00056694782102571111 0.0087379419071299275 0 -0.0013611781911301605 0.0093210444193688319 0 -0.00073416434028655082 0.0042489911824205523 0 -0.00027691720879857837 0.0041941013005777072 0 -0.0012839597350816502 0.0037511453571468655 0 -0.00041469056893394499 0.0068553146109680586 0 -0.0012496885133447694 0.0067941061166676437 0 -0.00073416434028655082 0.0042489911824205523 0 -0.0011079955847509391 0.004173810439687624 0 -0.0012839597350816502 0.0037511453571468655 0 -0.00073416434028655082 0.0042489911824205523 0 -0.00094079458730792658 0.0043216162415397018 0 -0.0011079955847509391 0.004173810439687624 0 -0.00094079458730792658 0.0043216162415397018 0 -0.00085467554341175553 0.0045440046541820383 0 -0.0011572881232077713 0.0044825580070135445 0 -0.00073416434028655082 0.0042489911824205523 0 -0.00094079458730792658 0.0043216162415397018 0 -0.00085467554341175553 0.0045440046541820383 0 -0.00058559769148615304 0.0046210491562741988 0 -0.00073416434028655082 0.0042489911824205523 0 -0.00085467554341175553 0.0045440046541820383 0 -0.00073416434028655082 0.0042489911824205523 0 -0.00046252273051796712 0.0044528691708311148 0 -0.00027691720879857837 0.0041941013005777072 0 -0.00058559769148615304 0.0046210491562741988 0 -0.00073416434028655082 0.0042489911824205523 0 -0.00046252273051796712 0.0044528691708311148 0 -0.00031652169479425766 0.004819130948724065 0 -0.00046252273051796712 0.0044528691708311148 0 -0.00027691720879857837 0.0041941013005777072 0 -0.00058559769148615304 0.0046210491562741988 0 -0.00031652169479425766 0.004819130948724065 0 -0.00046252273051796712 0.0044528691708311148 0 -9.4247873257097419e-05 0.0059416595258157548 0 -0.00023753985755519549 0.0062197134153818175 0 -2.8594930783942998e-05 0.0064307182229032932 0 -9.4247873257097419e-05 0.0059416595258157548 0 -2.8594930783942998e-05 0.0064307182229032932 0 0.00019377464820047644 0.0065292499234784022 0 -0.00023753985755519549 0.0062197134153818175 0 -2.8594930783942998e-05 0.0064307182229032932 0 -0.00029105926759431604 0.0065324591069097267 0 -2.8594930783942998e-05 0.0064307182229032932 0 -0.00012671095729374838 0.0065805887589242031 0 -0.00029105926759431604 0.0065324591069097267 0 -0.00022864896342381972 0.0067972257621759288 0 -0.00012671095729374838 0.0065805887589242031 0 1.4503517439864539e-05 0.0065449393054527912 0 -0.00022864896342381972 0.0067972257621759288 0 -0.00012671095729374838 0.0065805887589242031 0 -0.00029105926759431604 0.0065324591069097267 0 -2.8594930783942998e-05 0.0064307182229032932 0 -0.00012671095729374838 0.0065805887589242031 0 1.4503517439864539e-05 0.0065449393054527912 0 -0.00028373541234327131 0.0068127533164049799 0 -0.00041469056893394499 0.0068553146109680586 0 0.0029982830984611134 0.010184915388907445 0 0.0023358038330848251 0.01022778195362989 0 0.0025215985635785591 0.0098263008935821471 0 0.0033449860743104604 0.0080679441382299055 0 0.0025394776564223983 0.0081535319088355054 0 0.0036443675901861221 0.0063662696062461964 0 0.0033498779077147868 0.0064773063308468243 0 0.0028388998599885836 0.0060492731013088849 0 0.0033498779077147868 0.0064773063308468243 0 0.0030565447431350518 0.0067160681467989206 0 0.0028388998599885836 0.0060492731013088849 0 0.0036655120229189585 0.0065099940435826321 0 0.0036443675901861221 0.0063662696062461964 0 0.0033498779077147868 0.0064773063308468243 0 0.0036655120229189585 0.0065099940435826321 0 0.0033498779077147868 0.0064773063308468243 0 0.0035205373298154781 0.0067273575226031029 0 0.0036941510367692232 0.0070570520191655228 0 0.0030612393463968369 0.0070536992412284037 0 0.0030565447431350518 0.0067160681467989206 0 0.0036941510367692232 0.0070570520191655228 0 0.0035205373298154781 0.0067273575226031029 0 0.0030565447431350518 0.0067160681467989206 0 0.0033498779077147868 0.0064773063308468243 0 0.0035205373298154781 0.0067273575226031029 0 0.0030565447431350518 0.0067160681467989206 0 0.0029674461661198638 0.006661485848901705 0 0.0023042753375367266 0.0065378765801724333 0 0.0026739886271523309 0.006831327878829215 0 0.0030565447431350518 0.0067160681467989206 0 0.0024564282629440282 0.0064572058391490885 0 0.0030565447431350518 0.0067160681467989206 0 0.0028388998599885836 0.0060492731013088849 0 0.0020792424651754418 0.0065892045026675027 0 0.0026739886271523309 0.006831327878829215 0 0.0030612393463968369 0.0070536992412284037 0 0.0030565447431350518 0.0067160681467989206 0 0.0023358038330848251 0.01022778195362989 0 0.001644016146358097 0.010260082928743511 0 0.0020041356264469167 0.0098887341474930661 0 0.0025394776564223983 0.0081535319088355054 0 0.0017759633206536174 0.0080820616335800996 0 0.0028388998599885836 0.0060492731013088849 0 0.0017951449829258683 0.0058082882016978164 0 0.0020792424651754418 0.0065892045026675027 0 0.0017951449829258683 0.0058082882016978164 0 0.0020792424651754418 0.0065892045026675027 0 0.0012691821872771274 0.0060072551624424054 0 0.0023042753375367266 0.0065378765801724333 0 0.001222516675162054 0.0060484950740722502 0 0.0021895048648010573 0.0067915554515444506 0 0.0024564282629440282 0.0064572058391490885 0 0.0017443354881383202 0.0062553923908317882 0 0.0021895048648010573 0.0067915554515444506 0 0.0026739886271523309 0.006831327878829215 0 0.0024564282629440282 0.0064572058391490885 0 0.0020792424651754418 0.0065892045026675027 0 0.0010098242601932598 0.0063777446322336563 0 0.0012691821872771274 0.0060072551624424054 0 0.00046921238057041193 0.0059661737409978698 0 0.0010098242601932598 0.0063777446322336563 0 0.00088585726669718483 0.0060767181504014708 0 0.0010098242601932598 0.0063777446322336563 0 0.00088585726669718483 0.0060767181504014708 0 0.0012691821872771274 0.0060072551624424054 0 0.00046784896492627829 0.0071925390504237099 0 0.0017759633206536174 0.0080820616335800996 0 0.00088585726669718483 0.0060767181504014708 0 0.0007506681060626346 0.0057888088415290377 0 0.0012691821872771274 0.0060072551624424054 0 0.00072006773947264253 0.0056339214928839837 0 0.0017951449829258683 0.0058082882016978164 0 0.0012691821872771274 0.0060072551624424054 0 0.00072006773947264253 0.0056339214928839837 0 0.0007506681060626346 0.0057888088415290377 0 0.0012691821872771274 0.0060072551624424054 0 0.00095961259801572785 0.010273429599932238 0 0.001644016146358097 0.010260082928743511 0 0.0014850983214467553 0.0097031849389608502 0 0.00066445861931219272 0.0059115263580518922 0 0.00088585726669718483 0.0060767181504014708 0 0.0007506681060626346 0.0057888088415290377 0 0.00095961259801572785 0.010273429599932238 0 0.00079946438134721428 0.0095154005513494126 0 0.0014850983214467553 0.0097031849389608502 0 0.00079946438134721428 0.0095154005513494126 0 0.0014358620627936342 0.0090276619684815061 0 0.00059292464086513168 0.0087403368184554592 0 0.00079946438134721428 0.0095154005513494126 0 0.0014850983214467553 0.0097031849389608502 0 0.0014358620627936342 0.0090276619684815061 0 0.0014850983214467553 0.0097031849389608502 0 0.002147992291047712 0.0093245325593522849 0 0.0014358620627936342 0.0090276619684815061 0 0.001644016146358097 0.010260082928743511 0 0.0014850983214467553 0.0097031849389608502 0 0.0020041356264469167 0.0098887341474930661 0 0.0014850983214467553 0.0097031849389608502 0 0.0020041356264469167 0.0098887341474930661 0 0.002147992291047712 0.0093245325593522849 0 0.0023358038330848251 0.01022778195362989 0 0.0020041356264469167 0.0098887341474930661 0 0.0025215985635785591 0.0098263008935821471 0 0.0020041356264469167 0.0098887341474930661 0 0.002147992291047712 0.0093245325593522849 0 0.0025215985635785591 0.0098263008935821471 0 0.002147992291047712 0.0093245325593522849 0 0.0028608951940493933 0.0094198078146746442 0 0.0025215985635785591 0.0098263008935821471 0 0.002147992291047712 0.0093245325593522849 0 0.0028608951940493933 0.0094198078146746442 0 0.0027574508436029 0.0086392207894558527 0 0.0036779514521430418 0.0081611551725438453 0 0.0038037449182648643 0.0080525849955611281 0 0.0033464899863351817 0.0083829072436645211 0 0.0029982830984611134 0.010184915388907445 0 0.0028608951940493933 0.0094198078146746442 0 0.0025215985635785591 0.0098263008935821471 0 0.0033449860743104604 0.0080679441382299055 0 0.0033394295709035559 0.0088962316371722777 0 0.0035719577244756875 0.0079474781521202808 0 0.0033464899863351817 0.0083829072436645211 0 0.0027333285419759326 0.0078210733338451941 0 0.0030377979754260776 0.0084181575389939613 0 0.0027730158085975255 0.0078499973806626499 0 0.0033394295709035559 0.0088962316371722777 0 0.0030377979754260776 0.0084181575389939613 0 0.002147992291047712 0.0093245325593522849 0 0.0027574508436029 0.0086392207894558527 0 0.0021179848456872887 0.0086082893771066513 0 0.0027574508436029 0.0086392207894558527 0 0.0021179848456872887 0.0086082893771066513 0 0.0027333285419759326 0.0078210733338451941 0 0.0021179848456872887 0.0086082893771066513 0 0.0015306645182900386 0.0081595102239506879 0 0.0027333285419759326 0.0078210733338451941 0 0.0021179848456872887 0.0086082893771066513 0 0.0015306645182900386 0.0081595102239506879 0 0.0014358620627936342 0.0090276619684815061 0 0.002147992291047712 0.0093245325593522849 0 0.0021179848456872887 0.0086082893771066513 0 0.0014358620627936342 0.0090276619684815061 0 0.0015306645182900386 0.0081595102239506879 0 0.0014358620627936342 0.0090276619684815061 0 0.00059292464086513168 0.0087403368184554592 0 0.0015306645182900386 0.0081595102239506879 0 0.0010471685785638832 0.0072742348359737452 0 0.00035310243643656538 0.0079015245183919492 0 0.0014522552676129793 0.0065699783123942344 0 0.0010471685785638832 0.0072742348359737452 0 0.0018110568980229703 0.0073679269193210606 0 0.0015306645182900386 0.0081595102239506879 0 0.0018110568980229703 0.0073679269193210606 0 0.0027333285419759326 0.0078210733338451941 0 0.0015306645182900386 0.0081595102239506879 0 0.0010471685785638832 0.0072742348359737452 0 0.0018110568980229703 0.0073679269193210606 0 0.0022743941750786195 0.0067998252536009048 0 0.0018110568980229703 0.0073679269193210606 0 0.0027333285419759326 0.0078210733338451941 0 0.0031933186414534521 0.0070122549514357495 0 0.0022743941750786195 0.0067998252536009048 0 0.0027333285419759326 0.0078210733338451941 0 -0.00082466065945464699 0.0074870392344071847 0 -0.00028007958896348071 0.0072853815508227959 0 -0.00040001460348267943 0.0073854559632233578 0 -0.00082466065945464699 0.0074870392344071847 0 -0.00040001460348267943 0.0073854559632233578 0 -0.00043335415924267986 0.0071812708086361849 0 -0.00081924857342837289 0.0073486543557277914 0 -0.00036553206198701151 0.0082761307152804595 0 -0.00082466065945464699 0.0074870392344071847 0 -0.00056694782102571111 0.0087379419071299275 0 -0.0015732640268666205 0.0083127435883485028 0 -0.00037986204456632997 0.0070930227358082069 0 -0.00028007958896348071 0.0072853815508227959 0 -0.00040001460348267943 0.0073854559632233578 0 -0.00058686856293929809 0.0070849614475136996 0 -0.00062584704050432246 0.0073013989822821989 0 -0.00040001460348267943 0.0073854559632233578 0 -0.00058686856293929809 0.0070849614475136996 0 -0.00037986204456632997 0.0070930227358082069 0 -0.00040001460348267943 0.0073854559632233578 0 0.0015306645182900386 0.0081595102239506879 0 0.00059292464086513168 0.0087403368184554592 0 0.00035310243643656538 0.0079015245183919492 0 -1.7551814805470672e-05 0.0079593183036603173 0 4.9724326687235146e-05 0.0075779577263391839 0 -0.00062584704050432246 0.0073013989822821989 0 -0.00040001460348267943 0.0073854559632233578 0 -0.00024653861678928065 0.0073180816669008823 0 -0.00040001460348267943 0.0073854559632233578 0 -0.00024653861678928065 0.0073180816669008823 0 -0.00043335415924267986 0.0071812708086361849 0 -0.00024653861678928065 0.0073180816669008823 0 7.4281271964120755e-05 0.006915749113521134 0 -0.00043335415924267986 0.0071812708086361849 0 0.0010471685785638832 0.0072742348359737452 0 0.00035310243643656538 0.0079015245183919492 0 7.4281271964120755e-05 0.006915749113521134 0 -0.00037916976934110233 0.0066130147145782121 0 7.4281271964120755e-05 0.006915749113521134 0 -0.00043335415924267986 0.0071812708086361849 0 4.9724326687235146e-05 0.0075779577263391839 0 4.9657872094866837e-05 0.0069375542632602464 0 -0.00086561029762066558 0.0066244704204579605 0 -0.00082466065945464699 0.0074870392344071847 0 -0.00043335415924267986 0.0071812708086361849 0 -0.00037916976934110233 0.0066130147145782121 0 -0.00086561029762066558 0.0066244704204579605 0 -0.00043335415924267986 0.0071812708086361849 0 -0.00086561029762066558 0.0066244704204579605 0 -0.00082466065945464699 0.0074870392344071847 0 -0.0015779149173559114 0.0068524769404448866 0 -0.00086561029762066558 0.0066244704204579605 0 -0.0014212711309158979 0.0063227929590661787 0 -0.0015779149173559114 0.0068524769404448866 0 -0.00203001694710461 0.0062375728222613513 0 -0.0015779149173559114 0.0068524769404448866 0 -0.0024431220110678934 0.0065810501271019867 0 -0.0015779149173559114 0.0068524769404448866 0 -0.0024431220110678934 0.0065810501271019867 0 -0.0024441759339955405 0.0071807173790395971 0 -0.0015779149173559114 0.0068524769404448866 0 -0.0024441759339955405 0.0071807173790395971 0 -0.0017460758769620309 0.0075445818734651646 0 -0.0024441759339955405 0.0071807173790395971 0 -0.0023276334196736491 0.0079907032419111353 0 -0.0028500014948419175 0.0077142495845856423 0 -0.0024441759339955405 0.0071807173790395971 0 -0.0017460758769620309 0.0075445818734651646 0 -0.0023276334196736491 0.0079907032419111353 0 -0.00082466065945464699 0.0074870392344071847 0 -0.0015779149173559114 0.0068524769404448866 0 -0.0017460758769620309 0.0075445818734651646 0 -0.00082466065945464699 0.0074870392344071847 0 -0.0017460758769620309 0.0075445818734651646 0 -0.0015732640268666205 0.0083127435883485028 0 -0.0017460758769620309 0.0075445818734651646 0 -0.0023276334196736491 0.0079907032419111353 0 -0.0015732640268666205 0.0083127435883485028 0 -0.0023276334196736491 0.0079907032419111353 0 -0.0015732640268666205 0.0083127435883485028 0 -0.0025551943744448798 0.008822323350480922 0 -0.0015732640268666205 0.0083127435883485028 0 -0.0025551943744448798 0.008822323350480922 0 -0.0013611781911301605 0.0093210444193688319 0 -0.00056694782102571111 0.0087379419071299275 0 -0.0015732640268666205 0.0083127435883485028 0 -0.0013611781911301605 0.0093210444193688319 0 -0.0032329468139942947 0.0026017452401473451 0 -0.0035885740310621695 0.0029491901217336899 0 -0.0030350693205941463 0.0032105853477477097 0 -0.0032329468139942947 0.0026017452401473451 0 -0.0036361650844113445 0.0025640178263327865 0 -0.0035885740310621695 0.0029491901217336899 0 -0.0032329468139942947 0.0026017452401473451 0 -0.0025001385769914905 0.0030107831000347573 0 -0.0030324653328432281 0.0023670662869990193 0 -0.0032329468139942947 0.0026017452401473451 0 -0.0023645121390594992 0.0029278638165781334 0 -0.0030350693205941463 0.0032105853477477097 0 -0.0023276334196736491 0.0079907032419111353 0 -0.0025551943744448798 0.008822323350480922 0 -0.0027590680247993882 0.0081634259005582254 0 -0.0025551943744448798 0.008822323350480922 0 -0.0033056360595211903 0.0081179682739259476 0 -0.0027590680247993882 0.0081634259005582254 0 -0.0034041470694945362 0.0022350123443162363 0 -0.0022000871493916066 0.0046356908295817519 0 -0.0022000871493916066 0.0046356908295817519 0 -0.003193553847053996 0.0052569187084254435 0 -0.0023276334196736491 0.0079907032419111353 0 -0.0027590680247993882 0.0081634259005582254 0 -0.0028500014948419175 0.0077142495845856423 0 -0.0033056360595211903 0.0081179682739259476 0 -0.0027590680247993882 0.0081634259005582254 0 -0.0028500014948419175 0.0077142495845856423 0 -0.0033056360595211903 0.0081179682739259476 0 -0.0028500014948419175 0.0077142495845856423 0 -0.0032907724159638952 0.007490647761821 0 -0.003193553847053996 0.0052569187084254435 0 -0.0040211120912225264 0.0056474465360315061 0 -0.0030324653328432281 0.0023670662869990193 0 -0.0034723940146533659 0.0022353971828768583 0 -0.0035392704673462313 0.0018231953673011161 0 -0.0032329468139942947 0.0026017452401473451 0 -0.0030324653328432281 0.0023670662869990193 0 -0.0033416839294247969 0.0024411382591498082 0 -0.0030324653328432281 0.0023670662869990193 0 -0.0033416839294247969 0.0024411382591498082 0 -0.0034723940146533659 0.0022353971828768583 0 -0.0033416839294247969 0.0024411382591498082 0 -0.0034723940146533659 0.0022353971828768583 0 -0.0036361650844113445 0.0025640178263327865 0 -0.0032329468139942947 0.0026017452401473451 0 -0.0033416839294247969 0.0024411382591498082 0 -0.0036361650844113445 0.0025640178263327865 0 -0.0033056360595211903 0.0081179682739259476 0 -0.0036757735421464213 0.0073800306336276713 0 -0.0042124684278417937 0.0073015093419112635 0 -0.0033056360595211903 0.0081179682739259476 0 -0.0036757735421464213 0.0073800306336276713 0 -0.0032907724159638952 0.007490647761821 0 -0.0036757735421464213 0.0073800306336276713 0 -0.0035191540872651301 0.0070197621278198456 0 -0.0032907724159638952 0.007490647761821 0 -0.0036757735421464213 0.0073800306336276713 0 -0.0035191540872651301 0.0070197621278198456 0 -0.0040427882509898741 0.006909516976231188 0 -0.0040427882509898741 0.006909516976231188 0 -0.0044324655090346755 0.0073071560707390669 0 -0.0047079016623330187 0.0069625550534598473 0 -0.0036757735421464213 0.0073800306336276713 0 -0.0040427882509898741 0.006909516976231188 0 -0.0042124684278417937 0.0073015093419112635 0 -0.0043931665597428966 0.0068233931141375966 0 -0.0040211120912225264 0.0056474465360315061 0 -0.0024441759339955405 0.0071807173790395971 0 -0.0028500014948419175 0.0077142495845856423 0 -0.0029792840117833625 0.0072620036953766785 0 -0.0028500014948419175 0.0077142495845856423 0 -0.0032907724159638952 0.007490647761821 0 -0.0029792840117833625 0.0072620036953766785 0 -0.0035191540872651301 0.0070197621278198456 0 -0.0029792840117833625 0.0072620036953766785 0 -0.0031083155851875134 0.006785410785665298 0 -0.0035191540872651301 0.0070197621278198456 0 -0.0032907724159638952 0.007490647761821 0 -0.0029792840117833625 0.0072620036953766785 0 -0.0024441759339955405 0.0071807173790395971 0 -0.0029792840117833625 0.0072620036953766785 0 -0.0031083155851875134 0.006785410785665298 0 -0.0031661502740494944 0.0058394818622799381 0 -0.0031083155851875134 0.006785410785665298 0 -0.0038787879296557832 0.0064016282931615162 0 -0.0031661502740494944 0.0058394818622799381 0 -0.0024431220110678934 0.0065810501271019867 0 -0.0031083155851875134 0.006785410785665298 0 -0.0024431220110678934 0.0065810501271019867 0 -0.0024441759339955405 0.0071807173790395971 0 -0.0031083155851875134 0.006785410785665298 0 -0.0040427882509898741 0.006909516976231188 0 -0.0038787879296557832 0.0064016282931615162 0 -0.0045162322051468451 0.0065547608407373944 0 -0.0040427882509898741 0.006909516976231188 0 -0.0045162322051468451 0.0065547608407373944 0 -0.0047079016623330187 0.0069625550534598473 0 -0.0035191540872651301 0.0070197621278198456 0 -0.0040427882509898741 0.006909516976231188 0 -0.0038787879296557832 0.0064016282931615162 0 -0.0035191540872651301 0.0070197621278198456 0 -0.0031083155851875134 0.006785410785665298 0 -0.0038787879296557832 0.0064016282931615162 0 -0.0038787879296557832 0.0064016282931615162 0 -0.0047163471312536478 0.0061900776450862869 0 -0.0045162322051468451 0.0065547608407373944 0 -0.0044658204371962329 0.0057612439033417097 0 -0.0038787879296557832 0.0064016282931615162 0 -0.0047163471312536478 0.0061900776450862869 0 -0.0054300925335219212 0.0059432934762239115 0 -0.0047163471312536478 0.0061900776450862869 0 -0.0050288808422056528 0.0064258612378307895 0 -0.0047163471312536478 0.0061900776450862869 0 -0.0045162322051468451 0.0065547608407373944 0 -0.0050288808422056528 0.0064258612378307895 0 -0.0045162322051468451 0.0065547608407373944 0 -0.0048794343898686272 0.0067410348826224377 0 -0.0050288808422056528 0.0064258612378307895 0 -0.0045162322051468451 0.0065547608407373944 0 -0.0048794343898686272 0.0067410348826224377 0 -0.0047079016623330187 0.0069625550534598473 0 -0.0051627796284402366 0.0067287652220816259 0 -0.0050288808422056528 0.0064258612378307895 0 -0.005249465660437944 0.0065656175487779243 0 -0.0051627796284402366 0.0067287652220816259 0 -0.0048794343898686272 0.0067410348826224377 0 -0.0050288808422056528 0.0064258612378307895 0 -0.0054300925335219212 0.0059432934762239115 0 -0.0050288808422056528 0.0064258612378307895 0 -0.0053720803332439485 0.0064281888685537051 0 -0.0054300925335219212 0.0059432934762239115 0 -0.0053720803332439485 0.0064281888685537051 0 -0.0056205128231626563 0.0064834644778060477 0 -0.0053720803332439485 0.0064281888685537051 0 -0.0056205128231626563 0.0064834644778060477 0 -0.005458675004552509 0.0067024324565758686 0 -0.0056205128231626563 0.0064834644778060477 0 -0.005458675004552509 0.0067024324565758686 0 -0.0057738156231494833 0.006751391135068824 0 -0.0051627796284402366 0.0067287652220816259 0 -0.005458675004552509 0.0067024324565758686 0 -0.005249465660437944 0.0065656175487779243 0 -0.0050288808422056528 0.0064258612378307895 0 -0.0053720803332439485 0.0064281888685537051 0 -0.005249465660437944 0.0065656175487779243 0 -0.0053720803332439485 0.0064281888685537051 0 -0.005458675004552509 0.0067024324565758686 0 -0.005249465660437944 0.0065656175487779243 0 -0.0051627796284402366 0.0067287652220816259 0 -0.005458675004552509 0.0067024324565758686 0 -0.0053404245045944139 0.0068996013227710712 0 -0.005458675004552509 0.0067024324565758686 0 -0.0055940959993455441 0.0069908509843160634 0 -0.0053404245045944139 0.0068996013227710712 0 -0.005458675004552509 0.0067024324565758686 0 -0.0055940959993455441 0.0069908509843160634 0 -0.0057738156231494833 0.006751391135068824 0 -0.0055940959993455441 0.0069908509843160634 0 -0.0053404245045944139 0.0068996013227710712 0 -0.0052052276819550686 0.0070338235535470717 0 -0.0053404245045944139 0.0068996013227710712 0 -0.0052052276819550686 0.0070338235535470717 0 -0.0050127761947485229 0.0069446260311155274 0 -0.0047203777520994647 0.0069968899023707563 0 -0.0052052276819550686 0.0070338235535470717 0 -0.0050127761947485229 0.0069446260311155274 0 -0.0048794343898686272 0.0067410348826224377 0 -0.0047079016623330187 0.0069625550534598473 0 -0.0050127761947485229 0.0069446260311155274 0 -0.0047203777520994647 0.0069968899023707563 0 -0.0047079016623330187 0.0069625550534598473 0 -0.0050127761947485229 0.0069446260311155274 0 -0.0040211120912225264 0.0056474465360315061 0 -0.0040101905984831583 0.0061885552217836627 0 -0.0051627796284402366 0.0067287652220816259 0 -0.0048794343898686272 0.0067410348826224377 0 -0.0050127761947485229 0.0069446260311155274 0 -0.0051627796284402366 0.0067287652220816259 0 -0.0053404245045944139 0.0068996013227710712 0 -0.0050127761947485229 0.0069446260311155274 0 -0.0066587428160401439 0.0072810630799384247 0 -0.0068192619071017592 0.0073369508341315746 0 -0.0074310695627089604 0.0083526372980988941 0 -0.0072206811250756829 0.0077347479679376382 0 -0.0076225036178587165 0.0082297276177951025 0 -0.0061731482232370034 0.0068267466756525771 0 -0.0059296217904831038 0.0064957989285105476 0 -0.0059812933625004909 0.0068350550280574874 0 -0.0054300925335219212 0.0059432934762239115 0 -0.0056205128231626563 0.0064834644778060477 0 -0.0059296217904831038 0.0064957989285105476 0 -0.0059296217904831038 0.0064957989285105476 0 -0.0057738156231494833 0.006751391135068824 0 -0.0059812933625004909 0.0068350550280574874 0 -0.0056205128231626563 0.0064834644778060477 0 -0.0059296217904831038 0.0064957989285105476 0 -0.0057738156231494833 0.006751391135068824 0 -0.0055940959993455441 0.0069908509843160634 0 -0.0057738156231494833 0.006751391135068824 0 -0.0058774090098585273 0.0069810361894138973 0 -0.0057738156231494833 0.006751391135068824 0 -0.0059812933625004909 0.0068350550280574874 0 -0.0058774090098585273 0.0069810361894138973 0 -0.0059812933625004909 0.0068350550280574874 0 -0.0061053165230683226 0.0070534618765429888 0 -0.0058774090098585273 0.0069810361894138973 0 -0.0061731482232370034 0.0068267466756525771 0 -0.0059812933625004909 0.0068350550280574874 0 -0.0061053165230683226 0.0070534618765429888 0 -0.0061053165230683226 0.0070534618765429888 0 -0.0059383101711774321 0.0070960765600917453 0 -0.0058774090098585273 0.0069810361894138973 0 -0.0061053165230683226 0.0070534618765429888 0 -0.0059383101711774321 0.0070960765600917453 0 -0.0059958733902076714 0.0071485858106157679 0 -0.0055940959993455441 0.0069908509843160634 0 -0.0058774090098585273 0.0069810361894138973 0 -0.0058254356156777452 0.0070837215508415246 0 -0.0059383101711774321 0.0070960765600917453 0 -0.0058254356156777452 0.0070837215508415246 0 -0.0058980540853871563 0.0070959765817555989 0 -0.0059383101711774321 0.0070960765600917453 0 -0.0058774090098585273 0.0069810361894138973 0 -0.0058254356156777452 0.0070837215508415246 0 -0.0058254356156777452 0.0070837215508415246 0 -0.0058980540853871563 0.0070959765817555989 0 -0.0057795077789102476 0.0071353632178183159 0 -0.0059216501932610787 0.0070455773961545579 0 -0.0058980540853871563 0.0070959765817555989 0 -0.0057795077789102476 0.0071353632178183159 0 -0.0059216501932610787 0.0070455773961545579 0 -0.0058980540853871563 0.0070959765817555989 0 -0.0058984458256364095 0.007007871305477466 0 -0.0059383101711774321 0.0070960765600917453 0 -0.0058980540853871563 0.0070959765817555989 0 -0.0059958733902076714 0.0071485858106157679 0 -0.0058980540853871563 0.0070959765817555989 0 -0.0059958733902076714 0.0071485858106157679 0 -0.0058984458256364095 0.007007871305477466 0 -0.0034723940146533659 0.0022353971828768583 0 -0.0035392704673462313 0.0018231953673011161 0 -0.0040322283337609101 0.0025039140093553354 0 -0.0047203777520994647 0.0069968899023707563 0 -0.0052052276819550686 0.0070338235535470717 0 -0.0054337774267798275 0.0071936040755590297 0 -0.0034723940146533659 0.0022353971828768583 0 -0.0040322283337609101 0.0025039140093553354 0 -0.0036361650844113445 0.0025640178263327865 0 -0.0040211120912225264 0.0056474465360315061 0 -0.0046817843537578924 0.0045879388730304029 0 -0.0055940959993455441 0.0069908509843160634 0 -0.0054337774267798275 0.0071936040755590297 0 -0.0057795077789102476 0.0071353632178183159 0 -0.0055940959993455441 0.0069908509843160634 0 -0.0052052276819550686 0.0070338235535470717 0 -0.0054337774267798275 0.0071936040755590297 0 -0.0055940959993455441 0.0069908509843160634 0 -0.0058254356156777452 0.0070837215508415246 0 -0.0057795077789102476 0.0071353632178183159 0 -0.0054337774267798275 0.0071936040755590297 0 -0.0057795077789102476 0.0071353632178183159 0 -0.0060493196502742529 0.0070221317758551206 0 -0.0059216501932610787 0.0070455773961545579 0 -0.0057795077789102476 0.0071353632178183159 0 -0.0060493196502742529 0.0070221317758551206 0 -0.0040322283337609101 0.0025039140093553354 0 -0.0040150771973639816 0.003221536193377506 0 -0.0046060236365261164 0.0032432047383326394 0 -0.0046817843537578924 0.0045879388730304029 0 -0.00532211856905498 0.0051518023491128745 0 -0.0040322283337609101 0.0025039140093553354 0 -0.0035885740310621695 0.0029491901217336899 0 -0.0040150771973639816 0.003221536193377506 0 -0.0040322283337609101 0.0025039140093553354 0 -0.0036361650844113445 0.0025640178263327865 0 -0.0035885740310621695 0.0029491901217336899 0 -0.0035885740310621695 0.0029491901217336899 0 -0.0040150771973639816 0.003221536193377506 0 -0.0035439303013049821 0.0034814236028746699 0 -0.0040150771973639816 0.003221536193377506 0 -0.0039539960016709234 0.0036296497449775774 0 -0.0035439303013049821 0.0034814236028746699 0 -0.0040150771973639816 0.003221536193377506 0 -0.004320919292490984 0.0035732726151723156 0 -0.0039539960016709234 0.0036296497449775774 0 -0.0046060236365261164 0.0032432047383326394 0 -0.004320919292490984 0.0035732726151723156 0 -0.0046185317504936737 0.0038255266239090586 0 -0.0040150771973639816 0.003221536193377506 0 -0.0046060236365261164 0.0032432047383326394 0 -0.004320919292490984 0.0035732726151723156 0 -0.004320919292490984 0.0035732726151723156 0 -0.0046185317504936737 0.0038255266239090586 0 -0.0042740908159455441 0.0039583024773672103 0 -0.0046185317504936737 0.0038255266239090586 0 -0.0042740908159455441 0.0039583024773672103 0 -0.0046928113730759589 0.004284292829276253 0 -0.0042740908159455441 0.0039583024773672103 0 -0.0036015462499540516 0.0040126160495393606 0 -0.0040428366921112504 0.0044313051432861659 0 -0.0042740908159455441 0.0039583024773672103 0 -0.0036015462499540516 0.0040126160495393606 0 -0.0039539960016709234 0.0036296497449775774 0 -0.0036015462499540516 0.0040126160495393606 0 -0.0039539960016709234 0.0036296497449775774 0 -0.0035439303013049821 0.0034814236028746699 0 -0.004320919292490984 0.0035732726151723156 0 -0.0042740908159455441 0.0039583024773672103 0 -0.0039539960016709234 0.0036296497449775774 0 -0.0058638361408102895 0.0069215180623910071 0 -0.0058984458256364095 0.007007871305477466 0 -0.0059465477827599913 0.0067303100436410775 0 -0.0056169651820809951 0.0065448384821728189 0 -0.0059632346193847358 0.0067093169000234341 0 -0.0059958733902076714 0.0071485858106157679 0 -0.0058638361408102895 0.0069215180623910071 0 -0.0058984458256364095 0.007007871305477466 0 -0.0060493196502742529 0.0070221317758551206 0 -0.0059465477827599913 0.0067303100436410775 0 -0.0059400402832867436 0.0059444705606697514 0 -0.0059216501932610787 0.0070455773961545579 0 -0.0058984458256364095 0.007007871305477466 0 -0.0059465477827599913 0.0067303100436410775 0 -0.0059216501932610787 0.0070455773961545579 0 -0.0060493196502742529 0.0070221317758551206 0 -0.0059465477827599913 0.0067303100436410775 0 -0.0053133263680019277 0.0061577457616990147 0 -0.0059465477827599913 0.0067303100436410775 0 -0.0059400402832867436 0.0059444705606697514 0 -0.0046060236365261164 0.0032432047383326394 0 -0.0046185317504936737 0.0038255266239090586 0 -0.0052000323574665566 0.0040464645477956054 0 -0.00532211856905498 0.0051518023491128745 0 -0.0055340110203192057 0.0049829692467447785 0 -0.0046185317504936737 0.0038255266239090586 0 -0.0052000323574665566 0.0040464645477956054 0 -0.0046928113730759589 0.004284292829276253 0 -0.0053133263680019277 0.0061577457616990147 0 -0.0059400402832867436 0.0059444705606697514 0 -0.0053861205524712357 0.0056118912738245064 0 -0.0059400402832867436 0.0059444705606697514 0 -0.0053861205524712357 0.0056118912738245064 0 -0.0055315752849106432 0.0049357270015429801 0 -0.0055340110203192057 0.0049829692467447785 0 -0.0055310510559740166 0.0049243155019340458 0 -0.0052789037970216767 0.0051967539599231906 0 -0.0053861205524712357 0.0056118912738245064 0 -0.0055315752849106432 0.0049357270015429801 0 -0.0052000323574665566 0.0040464645477956054 0 -0.0051358132341017184 0.0046519985081699402 0 -0.0055315752849106432 0.0049357270015429801 0 -0.0052000323574665566 0.0040464645477956054 0 -0.0051358132341017184 0.0046519985081699402 0 -0.0046928113730759589 0.004284292829276253 0 -0.0055559786525320514 0.0048826156851458817 0 -0.0051358132341017184 0.0046519985081699402 0 -0.0055315752849106432 0.0049357270015429801 0 -0.0055559786525320514 0.0048826156851458817 0 -0.0051358132341017184 0.0046519985081699402 0 -0.0045412525985787551 0.0047922806578948336 0 -0.0053204773790305462 0.0048727335955938249 0 -0.0055559786525320514 0.0048826156851458817 0 -0.0055315752849106432 0.0049357270015429801 0 -0.0036015462499540516 0.0040126160495393606 0 -0.0040428366921112504 0.0044313051432861659 0 -0.0033634774544728705 0.0045749717795928466 0 -0.0040428366921112504 0.0044313051432861659 0 -0.0046928113730759589 0.004284292829276253 0 -0.0045412525985787551 0.0047922806578948336 0 -0.0042740908159455441 0.0039583024773672103 0 -0.0040428366921112504 0.0044313051432861659 0 -0.0046928113730759589 0.004284292829276253 0 -0.0051358132341017184 0.0046519985081699402 0 -0.0046928113730759589 0.004284292829276253 0 -0.0045412525985787551 0.0047922806578948336 0 -0.0040428366921112504 0.0044313051432861659 0 -0.0045412525985787551 0.0047922806578948336 0 -0.003595089572074427 0.0050644208143491073 0 -0.0040428366921112504 0.0044313051432861659 0 -0.003595089572074427 0.0050644208143491073 0 -0.0033634774544728705 0.0045749717795928466 0 -0.003595089572074427 0.0050644208143491073 0 -0.0033634774544728705 0.0045749717795928466 0 -0.0025616650085191154 0.0049642282694120354 0 -0.0026330596193733491 0.0056612404935193769 0 -0.003595089572074427 0.0050644208143491073 0 -0.0025616650085191154 0.0049642282694120354 0 -0.0036015462499540516 0.0040126160495393606 0 -0.0029368181706071143 0.0042909437722254912 0 -0.0033634774544728705 0.0045749717795928466 0 -0.0029368181706071143 0.0042909437722254912 0 -0.0033634774544728705 0.0045749717795928466 0 -0.0025616650085191154 0.0049642282694120354 0 -0.0029368181706071143 0.0042909437722254912 0 -0.0025616650085191154 0.0049642282694120354 0 -0.0022950918391483458 0.0042897871625873479 0 -0.0014648926396086408 0.005861009809778793 0 -0.0025616650085191154 0.0049642282694120354 0 -0.0016950902211891044 0.0050124502989657132 0 -0.0016950902211891044 0.0050124502989657132 0 -0.0010993502464386347 0.0053807977477347054 0 -0.0012222083540069609 0.0049066659490257999 0 -0.0014648926396086408 0.005861009809778793 0 -0.0016950902211891044 0.0050124502989657132 0 -0.0010993502464386347 0.0053807977477347054 0 -0.00095209131008551419 0.005130628377851755 0 -0.0010993502464386347 0.0053807977477347054 0 -0.0012222083540069609 0.0049066659490257999 0 -0.0016950902211891044 0.0050124502989657132 0 -0.0012222083540069609 0.0049066659490257999 0 -0.0016105322774753038 0.0044651940568284825 0 -0.0012222083540069609 0.0049066659490257999 0 -0.0016105322774753038 0.0044651940568284825 0 -0.0011572881232077713 0.0044825580070135445 0 -0.00085482107583399313 0.0048586044752632019 0 -0.0012222083540069609 0.0049066659490257999 0 -0.0011572881232077713 0.0044825580070135445 0 -0.0016950902211891044 0.0050124502989657132 0 -0.0016105322774753038 0.0044651940568284825 0 -0.0022950918391483458 0.0042897871625873479 0 -0.0025616650085191154 0.0049642282694120354 0 -0.0016950902211891044 0.0050124502989657132 0 -0.0022950918391483458 0.0042897871625873479 0 -0.0019417239492242845 0.0039840172054095438 0 -0.0024365636515439595 0.0036146814712220889 0 -0.0022950918391483458 0.0042897871625873479 0 -0.0016105322774753038 0.0044651940568284825 0 -0.0019417239492242845 0.0039840172054095438 0 -0.0022950918391483458 0.0042897871625873479 0 -0.0016105322774753038 0.0044651940568284825 0 -0.0019417239492242845 0.0039840172054095438 0 -0.0014076213769138855 0.0041068636632460107 0 -0.0014119705012362719 0.0040820696236286234 0 -0.0018969990411854016 0.0034945009557232833 0 -0.0019417239492242845 0.0039840172054095438 0 -0.0014076213769138855 0.0041068636632460107 0 -0.0018785390854586335 0.0034478617613318478 0 -0.0011572881232077713 0.0044825580070135445 0 -0.0014076213769138855 0.0041068636632460107 0 -0.0011079955847509391 0.004173810439687624 0 -0.00094079458730792658 0.0043216162415397018 0 -0.0011572881232077713 0.0044825580070135445 0 -0.0011079955847509391 0.004173810439687624 0 -0.0016105322774753038 0.0044651940568284825 0 -0.0011572881232077713 0.0044825580070135445 0 -0.0014076213769138855 0.0041068636632460107 0 -0.0014076213769138855 0.0041068636632460107 0 -0.0011079955847509391 0.004173810439687624 0 -0.0012839597350816502 0.0037511453571468655 0 -0.0014076213769138855 0.0041068636632460107 0 -0.0012839597350816502 0.0037511453571468655 0 -0.0016688674000350091 0.0037721710184689091 0 -0.0019410507957751909 0.0034877326237549421 0 -0.0012839597350816502 0.0037511453571468655 0 -0.0016688674000350091 0.0037721710184689091 0 -0.0022000871493916066 0.0046356908295817519 0 -0.0012496885133447694 0.0067941061166676437 0 -0.0023645121390594992 0.0029278638165781334 0 -0.0018785390854586335 0.0034478617613318478 0 -0.0024365636515439595 0.0036146814712220889 0 -0.0019417239492242845 0.0039840172054095438 0 -0.0018785390854586335 0.0034478617613318478 0 -0.0024365636515439595 0.0036146814712220889 0 -0.0022000871493916066 0.0046356908295817519 0 -0.0018969990411854016 0.0034945009557232833 0 -0.0023645121390594992 0.0029278638165781334 0 -0.0024365636515439595 0.0036146814712220889 0 -0.0030350693205941463 0.0032105853477477097 0 -0.0024365636515439595 0.0036146814712220889 0 -0.0030350693205941463 0.0032105853477477097 0 -0.0030061936812965091 0.0037934032099179956 0 -0.0030350693205941463 0.0032105853477477097 0 -0.0035439303013049821 0.0034814236028746699 0 -0.0030061936812965091 0.0037934032099179956 0 -0.0035885740310621695 0.0029491901217336899 0 -0.0030350693205941463 0.0032105853477477097 0 -0.0035439303013049821 0.0034814236028746699 0 -0.0036015462499540516 0.0040126160495393606 0 -0.0029368181706071143 0.0042909437722254912 0 -0.0030061936812965091 0.0037934032099179956 0 -0.0036015462499540516 0.0040126160495393606 0 -0.0035439303013049821 0.0034814236028746699 0 -0.0030061936812965091 0.0037934032099179956 0 -0.0029368181706071143 0.0042909437722254912 0 -0.0030061936812965091 0.0037934032099179956 0 -0.0022950918391483458 0.0042897871625873479 0 -0.0024365636515439595 0.0036146814712220889 0 -0.0030061936812965091 0.0037934032099179956 0 -0.0022950918391483458 0.0042897871625873479 0 
</DataArray>
</PointData>
<CellData Scalars="region_id,cross_section_updated," Vectors="" Tensors="stress,">
<DataArray type="Float64" Name="region_id" format="ascii">
5 5 5 5 6 5 5 5 5 5 5 5 5 5 5 5 5 5 5 5 5 5 5 5 5 5 5 5 6 5 5 5 5 6 5 5 5 5 5 5 5 5 6 5 5 5 5 6 6 5 5 5 5 5 5 5 6 5 5 6 6 6 5 6 6 6 5 5 5 6 5 5 5 5 5 5 5 5 5 5 5 5 5 5 5 5 5 5 5 5 5 6 5 5 5 5 5 5 6 5 5 6 5 6 5 5 5 5 6 5 5 6 5 5 6 5 5 5 6 5 5 5 5 5 5 5 5 5 5 5 5 5 5 5 5 5 5 5 5 5 5 5 5 5 5 6 5 5 5 6 5 5 5 5 5 5 5 6 5 5 5 5 6 5 5 5 6 5 5 5 5 5 5 5 5 5 5 5 5 6 5 6 5 5 5 6 5 5 5 5 5 5 5 5 5 5 5 5 6 6 5 5 5 5 6 5 6 5 5 5 5 5 5 5 5 5 5 5 5 5 5 5 5 5 5 5 5 5 5 5 5 6 5 5 5 5 5 5 5 5 5 6 5 6 5 5 5 5 5 6 5 5 5 5 5 5 5 6 5 5 5 5 6 5 5 5 5 5 5 5 5 5 6 5 5 5 5 5 5 5 5 6 5 6 5 5 6 5 5 5 5 5 6 5 5 5 5 5 6 5 5 5 5 5 6 5 5 5 5 5 5 5 5 5 5 6 5 6 5 5 5 5 6 5 6 5 5 5 6 5 5 5 6 5 5 5 5 5 5 6 5 5 6 5 5 5 5 5 5 5 5 5 5 5 6 6 5 5 6 5 5 5 5 5 5 5 6 5 5 5 5 5 5 5 6 5 6 5 5 5 5 5 5 5 5 5 5 5 6 5 5 5 5 5 5 6 5 5 5 5 5 5 5 6 5 5 6 5 5 5 6 5 5 5 5 5 5 6 5 5 5 6 5 5 5 6 5 5 6 5 5 5 5 6 6 5 5 6 6 5 5 5 5 6 5 5 5 5 5 5 5 6 5 5 5 5 6 5 5 5 5 5 5 5 6 5 5 5 6 5 6 5 6 5 5 5 5 5 6 5 5 5 6 5 6 5 5 6 5 5 6 5 5 5 5 5 5 5 5 5 5 5 5 5 5 6 5 5 5 5 5 5 6 5 6 5 5 5 5 6 5 5 5 5 6 5 5 5 5 5 5 6 5 5 5 5 5 5 5 6 5 5 5 5 5 6 5 5 5 5 6 5 5 5 5 6 5 5 5 5 5 5 5 6 5 5 5 5 5 5 5 5 5 5 5 6 5 5 5 5 5 5 5 5 6 5 5 5 5 5 5 5 5 5 5 5 5 5 5 5 5 6 5 5 5 5 5 5 5 5 5 5 5 5 5 5 5 5 5 5 5 5 5 5 5 5 5 5 5 5 5 5 5 5 5 5 5 5 5 5 5 5 5 5 5 5 5 5 5 5 5 5 5 5 5 5 5 5 5 5 5 5 6 5 5 6 5 5 5 5 5 5 5 5 5 6 5 5 5 5 6 5 5 5 5 5 5 5 5 5 5 5 5 5 5 5 6 5 5 5 5 5 5 5 5 5 5 5 5 5 5 6 5 5 5 5 5 5 5 5 5 6 6 5 5 5 6 5 5 5 5 5 5 5 5 5 5 5 5 6 5 5 5 5 5 5 5 5 5 5 5 5 5 5 5 5 5 5 5 5 5 5 5 5 5 5 5 5 5 5 5 5 5 5 5 5 5 5 5 5 5 5 5 6 5 5 5 5 5 5 6 5 5 6 5 5 5 6 5 5 5 5 5 5 5 5 5 5 5 5 5 5 5 5 5 5 5 5 5 5 5 5 5 5 5 5 5 5 5 5 5 5 5 5 5 5 5 5 5 5 5 5 5 5 5 5 5 5 5 5 5 5 5 5 5 5 5 5 5 5 6 5 5 5 5 5 5 5 5 5 5 5 5 6 5 5 5 5 5 5 5 5 5 5 5 5 5 5 6 5 6 5 5 6 5 5 5 6 5 5 5 5 5 5 5 6 5 6 5 5 5 5 5 6 5 5 5 5 5 6 5 5 5 5 5 6 6 5 5 5 5 5 6 5 5 5 6 5 6 5 5 5 6 5 6 5 5 5 6 5 6 5 5 5 5 6 5 5 5 5 5 5 5 5 5 5 6 6 5 6 5 5 6 5 5 6 5 5 5 5 6 5 5 5 5 5 5 5 5 5 5 5 5 5 5 5 5 5 5 5 5 5 5 5 5 5 5 5 5 5 5 5 6 5 6 6 5 5 6 5 5 5 5 5 5 5 5 5 5 5 5 5 5 5 6 5 5 5 5 5 5 5 6 5 5 5 5 5 5 5 6 5 5 5 5 5 5 5 6 5 5 6 5 5 5 5 5 6 6 5 5 5 5 5 6 5 5 5 5 6 5 5 6 5 5 5 5 5 6 6 5 5 5 5 5 5 5 5 5 5 5 5 6 5 5 5 5 5 5 5 5 5 5 5 5 5 5 5 5 5 5 5 5 5 5 5 5 6 5 5 5 5 6 5 5 5 6 5 5 5 5 5 5 5 6 5 5 5 5 5 6 5 5 5 5 5 5 5 5 5 5 5 5 5 5 5 5 5 5 6 5 5 5 5 5 5 5 5 5 5 5 6 6 5 5 5 6 6 5 5 5 6 5 5 6 5 5 5 6 5 6 6 5 5 5 5 5 5 5 5 5 5 5 5 6 5 5 6 5 5 6 5 6 5 5 5 6 5 5 5 5 5 5 5 5 6 5 5 5 5 5 6 5 5 5 5 5 5 5 6 5 5 5 5 5 5 5 5 6 5 6 5 5 5 5 6 5 6 5 6 5 6 5 5 5 5 5 5 5 6 5 5 6 5 6 5 6 5 5 6 5 5 5 5 5 5 5 5 6 5 5 5 5 5 5 6 5 5 5 5 5 5 5 5 5 5 5 5 6 5 5 5 6 5 5 5 5 5 5 6 5 5 5 5 5 5 5 5 5 5 5 5 5 5 5 5 5 5 5 5 5 5 5 5 5 5 5 6 5 6 5 5 5 5 5 5 5 5 5 5 5 5 6 5 5 6 5 5 6 5 5 5 5 5 5 5 5 5 5 5 6 5 6 5 5 5 5 5 5 5 5 5 5 5 5 5 5 5 5 5 5 5 6 5 5 5 5 6 5 5 5 5 6 5 5 6 6 5 5 5 5 5 5 5 5 5 5 5 5 5 6 5 5 5 5 5 5 5 5 5 6 5 6 5 5 5 5 5 5 5 5 5 5 5 5 5 5 5 5 5 5 6 5 5 5 5 5 5 5 5 5 5 5 5 5 5 5 5 5 5 5 5 5 5 5 5 5 5 5 5 5 5 5 5 5 5 5 5 5 5 5 5 5 5 5 5 6 5 5 5 5 5 5 5 6 5 5 5 5 5 5 5 5 5 5 6 5 5 5 5 5 6 5 5 5 5 5 5 5 5 5 5 5 5 5 6 5 5 6 5 6 5 5 5 5 5 5 5 5 5 5 5 5 5 5 5 5 5 6 6 5 6 5 5 5 5 5 5 6 6 5 6 5 5 5 5 5 5 6 5 5 5 5 5 5 5 5 5 5 5 5 6 5 5 6 5 5 5 5 5 6 5 6 5 6 5 5 5 5 5 5 5 5 5 5 5 6 5 6 5 5 6 5 5 5 5 5 5 5 5 5 6 6 5 5 5 5 6 6 5 5 5 6 5 5 5 6 5 5 5 5 5 6 5 5 6 5 6 5 5 5 6 5 5 5 5 5 5 6 5 6 6 5 5 5 5 5 5 5 6 5 5 6 5 6 5 5 5 5 5 5 5 5 5 5 5 5 5 5 5 5 5 5 5 5 5 5 5 5 5 6 5 5 5 5 5 5 5 6 5 5 5 5 6 5 5 5 5 5 5 5 5 5 5 5 6 5 5 5 5 5 5 5 5 5 6 5 5 5 5 5 5 5 5 5 5 6 5 5 6 5 5 5 5 5 5 5 6 5 5 5 6 5 6 5 6 5 5 5 5 5 5 5 5 5 5 5 5 5 5 6 5 5 5 6 5 5 6 5 5 5 5 5 5 5 5 5 5 5 5 5 6 5 6 5 5 6 5 6 5 5 5 5 5 5 5 6 5 5 5 5 5 5 5 6 5 5 5 6 5 5 5 5 5 5 6 5 5 5 5 6 5 5 5 5 5 5 5 5 5 5 5 6 5 5 5 5 5 6 6 5 5 5 6 6 5 5 5 6 5 5 6 5 5 6 5 6 6 5 5 5 5 6 5 5 5 5 5 5 6 5 5 5 5 5 6 5 5 5 5 5 6 5 5 5 5 5 5 5 5 5 5 5 5 5 6 5 5 5 5 5 6 5 6 5 5 5 5 5 5 6 5 5 5 5 5 5 6 6 6 5 5 5 6 5 5 5 5 5 5 5 5 5 5 5 6 5 5 5 5 5 5 5 5 5 5 5 5 6 6 6 5 5 6 5 5 5 6 5 5 6 5 6 5 6 5 6 6 6 5 5 5 5 5 6 5 5 6 5 5 5 6 5 6 5 5 5 5 6 5 5 5 5 5 5 5 6 5 5 5 5 6 5 5 5 5 5 5 5 6 5 5 6 5 5 5 5 5 6 5 5 5 5 5 5 5 5 5 6 5 5 5 5 5 5 5 6 5 5 5 5 5 6 5 5 6 5 5 5 5 5 5 5 5 5 5 5 5 5 5 5 5 5 5 5 5 5 5 5 5 5 5 5 5 5 5 5 5 5 5 5 5 5 5 5 5 6 5 6 5 6 5 5 6 5 5 5 5 5 5 5 5 5 6 6 5 5 5 5 6 5 5 6 5 5 5 5 5 6 5 5 5 6 5 6 6 6 5 5 5 5 5 5 5 5 5 5 5 5 5 5 5 5 5 5 5 5 5 5 5 5 5 5 5 6 5 5 6 5 5 6 5 5 5 5 5 6 5 5 6 5 5 6 6 5 6 6 5 5 5 6 5 6 5 5 5 5 5 5 5 6 5 5 5 5 5 5 5 5 5 5 5 5 5 5 5 5 5 5 5 5 5 5 5 5 5 5 5 5 5 5 5 5 5 5 5 5 5 5 5 5 5 5 6 5 5 5 5 5 5 6 5 5 5 5 5 5 5 5 5 5 5 5 5 6 5 5 5 6 5 5 5 5 5 5 5 6 5 5 5 5 5 5 5 5 5 5 5 5 5 5 5 5 6 5 6 5 5 6 5 5 5 5 6 5 5 5 5 5 5 5 5 5 6 5 5 6 5 6 5 5 5 5 5 6 5 5 6 5 5 5 5 5 6 5 5 5 6 5 5 5 5 6 5 5 5 6 5 5 5 5 5 5 6 5 5 5 6 5 5 6 5 5 6 5 6 6 5 5 5 5 5 5 5 5 5 5 5 5 5 5 5 5 5 5 5 5 5 5 5 5 5 5 5 5 5 5 5 5 5 5 5 5 5 5 5 5 5 5 5 6 5 5 6 5 5 5 6 5 5 5 5 5 5 5 5 5 5 5 6 5 5 5 5 5 5 5 5 6 5 5 5 5 5 5 5 5 5 5 6 5 5 6 5 5 6 6 5 5 6 5 5 5 5 5 5 5 5 5 5 5 5 5 6 5 5 6 5 5 5 5 5 5 5 5 6 5 5 6 6 5 6 5 5 5 5 6 5 5 5 5 6 5 5 5 5 5 5 5 5 5 5 5 5 6 5 5 5 6 5 5 5 5 5 5 6 5 5 5 5 6 5 5 6 6 5 5 5 5 5 6 5 5 6 5 5 5 5 5 5 5 6 5 6 5 5 5 5 5 5 5 6 5 5 5 5 5 5 6 5 5 5 5 6 5 5 5 5 5 6 5 5 5 5 6 5 5 5 5 5 5 5 5 5 5 6 5 5 6 5 6 5 5 6 6 5 5 5 6 5 5 5 5 5 5 5 6 5 5 5 5 5 5 6 5 5 5 5 5 5 6 5 6 6 5 5 5 5 6 5 5 5 6 5 5 5 5 5 5 5 5 5 5 5 5 5 5 5 5 5 5 5 5 5 5 5 5 6 5 5 6 5 5 5 5 5 6 6 5 5 6 5 5 5 5 6 5 6 5 5 5 5 6 5 5 5 5 5 5 5 6 5 5 5 5 5 5 6 5 5 6 5 5 6 5 5 5 6 6 5 5 6 5 5 5 5 5 6 5 5 5 5 5 5 5 5 5 6 6 5 5 6 5 5 5 5 5 5 5 5 5 6 5 5 6 5 6 5 5 6 5 6 5 5 5 6 5 5 6 5 6 5 5 5 5 5 5 5 5 6 5 6 5 5 5 6 5 5 5 5 5 5 6 5 5 5 5 5 6 5 6 6 5 5 5 5 5 6 5 5 5 6 5 6 5 5 5 5 5 5 5 5 5 6 5 5 6 6 5 5 5 6 5 5 5 5 6 5 6 5 5 5 5 5 5 5 5 6 5 6 5 5 5 5 5 5 5 5 5 5 5 6 5 5 5 5 5 5 5 5 6 5 6 6 5 6 5 5 5 5 6 5 5 5 6 5 5 5 5 5 5 6 5 5 5 5 5 6 6 5 5 5 5 5 5 5 5 5 6 5 5 5 5 5 5 5 5 5 5 6 5 5 5 5 5 6 5 6 5 6 5 5 5 5 5 5 5 5 6 5 5 5 5 5 5 5 5 5 5 5 5 5 5 5 5 5 5 5 5 6 5 5 5 5 5 5 5 5 5 6 5 5 5 5 5 6 5 5 5 5 5 5 5 6 6 5 5 6 5 5 5 5 5 5 5 5 5 6 5 6 5 5 5 5 5 6 5 5 5 5 5 5 5 5 5 5 5 5 5 6 6 5 5 5 5 5 5 5 5 5 5 5 6 5 5 6 5 6 6 5 6 5 6 5 5 6 5 5 5 5 6 6 5 5 5 5 5 5 5 5 5 5 5 5 6 5 5 5 5 5 5 5 6 6 5 6 5 6 5 5 5 5 5 5 6 5 6 5 5 5 5 5 5 6 5 6 5 5 5 5 5 5 5 5 5 5 5 5 5 5 5 5 5 5 5 5 5 5 5 6 5 5 5 6 5 5 6 5 5 6 5 5 5 5 5 5 5 5 5 6 5 5 5 6 5 5 5 5 6 5 5 5 6 5 5 5 6 5 5 6 5 5 5 5 5 5 5 5 6 6 6 5 6 5 5 5 6 5 5 5 5 5 5 6 6 5 5 5 5 5 5 5 6 5 5 6 5 5 5 6 5 5 5 6 5 5 5 5 5 6 5 5 5 5 5 5 6 5 5 5 6 5 5 5 5 6 5 6 6 5 5 6 5 6 5 6 5 5 6 5 5 5 5 5 5 5 5 5 5 5 6 5 6 5 5 5 5 5 5 5 5 5 5 5 5 5 5 5 5 5 5 6 5 5 5 5 5 5 5 5 5 5 5 5 5 5 5 6 5 5 5 5 5 6 5 5 5 5 5 5 5 5 5 5 6 5 5 5 5 5 5 6 5 5 5 5 5 5 5 5 5 5 5 5 5 5 5 5 5 5 5 5 5 5 5 5 5 5 5 5 5 5 5 6 5 5 5 5 5 5 5 5 5 5 5 5 5 5 6 6 5 5 5 5 5 5 5 6 5 5 5 5 5 6 5 5 5 5 5 5 5 6 5 5 5 5 6 5 5 5 5 5 5 5 6 5 5 5 5 6 6 5 6 5 5 6 6 5 6 5 5 6 6 5 5 5 5 5 5 5 5 6 5 5 5 5 5 5 5 5 5 5 5 5 5 5 6 5 6 5 6 5 5 6 5 5 6 5 6 5 5 5 6 6 5 5 6 5 5 6 5 5 5 5 5 5 5 5 5 5 5 6 5 5 5 5 5 5 5 5 5 5 5 5 5 5 5 5 5 5 5 5 5 5 5 5 5 5 5 5 6 5 5 5 5 6 5 5 5 5 5 6 5 6 5 6 5 5 6 5 5 5 5 6 6 5 5 5 5 5 5 5 5 5 5 5 6 5 5 6 5 5 5 5 5 5 6 5 5 5 5 5 5 6 5 5 5 5 5 5 5 5 5 5 5 6 5 5 5 5 6 5 5 5 6 5 5 5 5 5 6 5 5 5 5 6 5 5 6 5 6 5 5 5 5 5 5 5 5 5 5 6 5 5 5 5 5 5 5 6 5 5 5 5 5 5 5 5 5 5 5 5 5 5 5 5 5 5 6 6 5 5 5 5 5 5 5 6 5 5 5 5 5 5 6 5 5 5 5 5 5 5 5 6 5 5 6 5 5 5 5 5 5 5 5 5 5 6 5 5 5 5 5 5 5 5 5 5 5 5 5 5 5 5 5 6 6 5 6 5 5 5 5 5 6 5 5 5 5 5 5 5 6 5 5 5 5 5 5 5 5 5 5 5 5 5 5 6 5 5 5 5 5 5 6 5 5 5 5 5 5 5 5 5 5 5 5 5 5 5 6 5 5 6 5 6 5 5 5 5 5 6 6 5 5 5 5 6 6 5 5 5 5 5 5 5 5 5 5 6 5 5 5 5 5 5 5 5 5 6 5 5 6 6 6 5 5 6 5 5 5 6 5 5 5 5 6 5 5 5 6 5 5 5 5 5 5 5 6 5 5 5 6 5 5 5 5 5 5 5 5 5 5 5 5 5 5 6 5 5 5 6 5 5 5 5 5 5 6 5 5 5 5 5 5 5 5 6 5 5 5 5 5 5 5 5 5 5 5 5 5 5 5 5 5 5 5 5 5 5 5 6 5 5 6 5 5 6 6 5 5 6 5 5 5 5 5 5 5 5 6 5 5 5 5 5 5 5 5 5 5 6 5 5 5 5 5 5 5 5 5 5 5 5 5 5 5 5 5 5 5 5 5 5 5 5 5 5 5 6 5 6 5 5 5 5 5 6 5 5 6 5 5 6 5 5 5 5 5 5 5 5 5 5 5 6 5 5 5 6 5 5 5 5 5 5 5 5 5 5 6 5 5 5 5 5 5 6 5 5 5 5 5 5 5 5 6 5 5 5 5 6 5 5 5 5 5 5 5 5 5 5 5 5 5 5 5 5 5 5 5 5 6 5 5 5 5 6 5 5 5 5 5 5 5 5 5 5 5 5 5 6 5 5 5 5 6 5 5 5 5 5 6 6 5 5 5 5 6 5 5 5 5 5 5 5 5 5 5 5 5 5 5 5 5 5 5 5 5 5 5 5 5 5 5 5 6 5 5 5 5 6 5 5 5 5 5 6 5 5 5 6 5 5 5 5 5 5 5 5 6 5 5 5 5 5 5 6 5 5 5 5 6 5 5 5 5 5 5 5 5 5 5 5 6 5 5 5 5 5 5 5 5 6 5 5 5 5 6 5 5 5 5 6 5 5 5 6 5 5 5 5 5 5 5 5 5 6 5 6 5 5 5 5 6 5 6 5 5 5 5 5 6 5 5 6 5 5 6 5 5 6 5 5 6 6 6 5 6 5 6 5 5 5 6 5 5 6 6 5 6 5 6 5 5 5 5 5 5 5 5 5 5 5 5 5 5 5 5 5 5 5 5 5 5 5 5 6 5 5 5 5 5 5 5 5 5 5 5 5 5 5 5 5 5 5 5 5 5 6 5 5 5 5 5 5 5 5 5 5 5 5 5 5 5 5 5 5 5 5 5 5 5 5 5 5 5 5 6 5 6 5 5 5 5 5 5 5 5 5 5 5 5 5 5 5 5 5 5 5 5 5 5 5 6 5 5 6 5 5 5 6 5 5 5 6 5 5 5 5 5 5 5 5 5 5 5 5 5 5 5 5 6 5 6 6 6 5 5 5 5 6 5 5 6 6 5 5 5 6 6 5 5 5 5 5 5 5 5 6 6 5 5 5 6 5 6 5 5 5 6 5 5 5 5 6 5 6 5 5 5 5 5 5 5 5 5 5 5 5 5 6 5 5 6 5 6 5 6 6 5 5 5 5 5 6 6 5 5 5 5 6 5 5 5 5 5 5 6 5 6 5 5 5 6 5 5 6 5 5 5 5 5 5 6 5 6 5 5 5 5 6 5 5 5 5 5 5 5 6 5 5 5 5 5 5 6 5 5 6 5 5 6 5 5 5 5 5 5 5 5 5 5 5 5 5 6 5 5 5 5 5 5 5 6 6 5 5 5 5 6 5 5 5 5 5 5 5 6 5 5 6 5 6 5 6 6 5 5 5 5 5 5 5 6 5 5 5 5 6 5 6 5 5 6 5 5 5 5 5 5 5 5 5 5 5 5 5 5 5 5 5 5 5 5 5 6 5 5 5 5 5 5 5 5 5 6 5 5 5 5 5 5 6 5 5 5 5 5 5 5 5 5 5 5 5 5 5 5 5 6 5 5 5 5 5 6 5 5 5 5 5 5 5 5 5 5 5 5 5 5 5 5 5 5 5 5 5 6 5 5 5 5 5 6 5 5 5 5 5 5 5 5 6 5 5 5 5 5 5 5 5 5 5 5 5 6 5 5 5 5 6 5 5 5 5 6 5 5 5 5 5 5 5 5 5 5 5 5 6 5 5 5 5 5 5 5 5 5 5 5 5 5 5 5 5 5 6 6 5 5 5 6 5 6 5 6 5 5 6 5 5 5 5 5 5 6 5 6 5 5 5 5 5 6 5 6 5 5 5 5 5 5 5 5 5 5 5 5 5 5 5 5 5 5 6 5 5 5 5 5 6 5 5 5 5 5 5 5 5 5 5 5 5 5 5 5 6 5 5 6 5 5 5 5 6 5 5 6 6 5 5 5 6 5 6 6 5 5 6 5 6 5 6 5 5 6 5 6 5 6 5 5 5 5 5 6 5 5 5 5 5 5 5 6 6 5 5 5 6 5 6 5 5 5 5 5 5 5 6 5 5 5 5 5 6 5 5 5 5 5 6 6 5 5 5 5 5 5 5 5 5 5 5 5 5 5 5 5 5 5 5 5 5 5 5 5 5 5 5 6 5 5 6 6 5 5 5 5 6 5 5 6 5 5 5 5 5 5 5 5 5 5 6 5 5 5 6 5 5 5 6 5 6 5 5 5 5 5 5 6 5 6 5 5 5 5 5 5 6 5 5 5 5 6 6 6 5 6 5 5 5 5 5 5 5 6 5 5 5 5 5 5 5 5 5 5 5 6 5 5 5 5 6 5 5 6 5 5 6 5 6 5 6 5 6 6 5 5 6 5 6 5 5 5 5 5 5 5 6 5 5 5 5 5 5 5 5 5 6 5 5 6 5 5 5 5 5 5 5 5 5 6 5 5 6 5 5 5 5 5 5 5 5 5 5 5 5 5 5 5 5 5 5 5 5 5 5 5 5 5 5 5 5 5 5 5 5 5 5 5 5 5 5 5 5 5 5 5 5 6 6 5 5 5 5 5 5 5 6 5 5 5 6 5 5 5 5 6 5 5 6 5 5 5 5 5 5 5 5 5 5 5 5 5 5 5 5 5 5 5 5 5 5 5 5 5 5 6 5 6 5 5 5 5 6 6 6 5 5 5 5 5 6 5 6 5 5 5 5 5 5 5 5 5 5 5 5 5 5 5 5 5 5 5 6 5 5 6 5 5 5 5 5 5 5 5 5 5 5 5 5 5 5 5 5 5 5 5 5 5 6 5 5 5 5 6 6 6 5 5 5 5 5 5 6 5 5 5 5 5 5 5 5 5 5 5 5 5 5 5 5 6 5 5 5 5 6 5 5 5 5 5 5 5 5 6 5 5 5 5 5 5 5 5 6 5 6 5 5 6 5 6 5 5 6 5 5 6 5 6 5 5 5 5 5 6 5 5 5 5 5 6 5 5 5 5 5 5 5 5 6 5 5 5 5 5 6 5 5 6 6 5 6 5 5 5 5 5 5 5 5 5 6 5 5 5 6 5 5 5 6 5 5 6 5 5 5 5 5 5 5 5 5 5 5 5 5 5 5 5 5 5 5 6 6 5 6 5 5 5 5 5 5 5 6 5 5 5 5 5 6 5 6 5 5 5 5 5 5 5 5 5 5 5 5 5 5 5 5 5 5 5 5 5 5 5 5 6 5 6 5 5 5 5 5 5 6 6 5 5 5 6 5 5 5 6 5 5 5 6 5 6 5 5 5 5 5 5 5 5 5 5 5 5 5 6 5 5 5 5 6 5 5 5 5 5 5 5 5 5 5 5 5 5 6 5 5 5 5 5 5 5 5 5 6 5 5 6 6 5 5 5 5 5 6 5 5 5 5 5 5 5 6 5 5 5 5 5 5 5 6 5 5 5 5 5 5 6 6 5 6 5 5 5 5 5 5 6 5 6 5 6 5 5 5 5 6 5 6 5 6 5 5 5 5 5 5 5 5 5 5 5 5 5 5 5 5 5 6 5 5 5 5 6 5 5 5 5 5 6 5 6 5 5 5 5 5 5 5 5 5 5 6 5 5 5 5 5 5 5 5 5 5 5 6 5 5 5 5 5 5 5 5 5 5 5 5 5 5 5 6 6 5 5 6 5 5 6 6 5 5 5 5 6 5 5 5 5 5 5 6 6 5 5 5 6 5 5 5 6 5 6 5 5 5 6 5 5 6 5 5 5 6 5 5 5 5 5 5 5 5 5 5 5 5 5 5 5 5 5 5 5 6 5 5 5 5 5 5 5 5 6 5 5 5 5 5 5 5 6 5 5 5 5 5 5 5 5 5 5 5 5 5 5 5 5 5 5 5 5 5 5 5 5 5 5 5 5 5 5 5 5 5 5 5 5 5 5 5 5 5 5 5 5 5 5 5 5 5 5 5 5 5 5 5 5 5 5 5 5 5 5 5 5 5 5 5 5 5 5 5 5 6 5 5 5 5 5 5 5 6 5 5 5 5 5 5 5 6 5 5 5 5 5 5 5 5 5 5 5 5 5 5 5 5 5 5 5 5 5 5 5 5 5 5 5 5 5 5 5 5 5 6 5 5 6 5 5 5 6 5 5 5 5 5 5 5 5 5 5 5 5 6 5 5 5 5 5 5 5 5 5 5 5 5 5 5 5 5 5 5 5 5 5 5 5 5 5 5 5 5 5 5 5 5 5 5 5 5 5 5 5 5 6 5 5 5 5 5 5 5 5 5 5 5 5 5 5 5 5 5 5 5 6 5 5 5 5 6 5 5 6 5 5 5 5 5 5 5 5 5 5 5 5 5 5 5 5 5 6 5 6 5 5 5 5 6 5 5 5 5 5 5 5 5 5 5 5 5 5 5 5 5 5 5 5 5 5 5 5 5 5 5 5 5 5 5 5 5 5 5 5 5 5 5 5 5 5 5 5 5 5 5 5 5 5 5 5 5 5 5 5 5 5 5 5 5 5 5 5 5 5 5 5 5 5 5 5 5 5 5 5 5 5 5 5 5 5 5 5 5 5 5 5 5 5 5 5 5 5 5 5 5 5 5 5 5 5 5 5 5 5 5 5 5 5 5 5 6 5 5 6 5 5 6 5 5 5 6 5 5 5 5 5 6 5 5 5 5 5 5 5 5 5 6 5 5 5 5 5 5 5 5 5 6 5 5 5 5 5 5 5 5 5 5 5 5 5 5 5 5 5 5 5 5 5 5 5 5 5 5 5 5 5 5 5 5 6 5 5 5 5 5 5 5 5 5 5 5 5 5 5 5 5 5 5 5 5 5 5 5 5 5 5 5 5 5 5 5 5 5 5 5 5 5 5 5 5 5 5 5 5 5 5 6 5 5 6 5 5 5 5 5 5 5 5 5 5 5 5 5 5 6 5 5 5 6 5 5 5 5 5 5 5 5 5 5 5 5 5 5 5 5 5 5 5 5 5 5 5 5 5 5 5 5 5 5 5 5 5 5 5 5 5 5 5 5 5 5 5 5 5 5 5 5 5 5 5 5 5 5 5 5 5 5 5 5 5 5 5 5 6 5 5 5 5 5 5 5 5 5 5 5 5 6 5 5 5 5 5 6 6 5 5 5 5 6 5 6 6 5 6 5 5 6 5 6 5 5 5 5 5 5 5 6 5 5 5 5 5 6 5 5 5 5 6 5 5 5 6 5 6 5 5 5 5 5 5 6 5 5 5 5 5 5 5 5 5 5 5 6 5 5 5 5 5 5 6 5 5 5 5 5 5 5 5 5 5 5 5 6 5 5 6 5 5 6 5 5 5 5 5 5 5 5 5 5 5 5 5 5 5 5 6 5 5 5 5 5 6 5 5 5 5 5 5 5 5 5 5 5 5 5 5 5 6 5 5 5 5 5 5 5 5 5 5 6 5 5 5 5 5 5 5 6 5 5 5 5 5 5 6 5 5 5 5 5 5 5 5 5 5 5 5 5 5 5 5 5 5 5 5 5 5 5 5 5 5 5 5 5 5 5 5 5 5 5 5 5 5 5 5 5 5 5 5 5 5 5 5 5 5 5 5 5 6 5 5 5 5 5 5 5 5 5 5 5 5 5 5 5 5 5 5 5 5 5 5 5 5 5 5 5 5 6 5 5 5 5 5 5 5 5 5 6 5 5 5 5 5 5 6 6 5 5 5 5 5 5 5 5 5 5 5 5 6 5 5 5 6 6 5 5 5 5 5 5 5 5 5 5 5 5 5 5 5 5 6 6 5 5 5 5 5 6 5 5 6 5 5 5 5 5 6 5 5 5 5 6 5 5 5 5 5 5 5 5 5 6 5 5 5 5 5 5 5 5 5 5 5 5 5 5 5 5 5 5 5 5 5 5 6 5 5 5 5 5 5 6 5 5 5 5 5 5 5 5 5 5 5 5 6 5 5 5 6 5 6 5 5 5 5 5 5 6 5 5 5 5 5 6 5 5 5 5 5 5 5 5 5 5 5 6 6 5 5 5 5 5 5 5 5 5 5 5 6 5 5 5 5 5 5 5 5 5 5 5 5 6 5 5 5 5 5 5 5 5 6 5 5 6 5 5 5 5 6 6 5 5 5 5 6 6 5 5 5 5 5 5 5 5 5 5 5 5 5 5 5 5 5 5 5 5 5 5 6 5 5 5 5 5 5 5 5 6 5 6 5 5 5 5 5 5 5 5 5 5 5 5 5 6 5 5 5 5 5 5 6 5 5 6 6 6 5 5 5 5 5 5 5 6 6 5 5 5 5 5 6 5 6 6 6 5 5 6 5 5 5 5 5 5 6 5 5 5 6 5 5 5 5 5 5 6 5 5 5 5 5 5 5 5 5 5 5 5 5 5 5 5 5 5 5 5 5 5 5 5 5 5 5 5 5 5 5 5 5 5 5 5 5 5 5 6 5 5 5 5 5 5 5 5 5 5 5 5 5 6 5 5 5 5 5 5 5 5 5 5 5 5 5 5 5 5 5 5 5 5 5 5 5 5 5 5 5 5 5 5 5 5 5 5 5 5 5 5 5 5 5 5 5 5 5 5 5 5 5 5 5 5 5 5 5 5 5 5 5 5 5 5 5 5 5 5 5 5 5 5 5 5 5 5 5 6 5 5 5 5 6 6 5 5 5 5 5 5 5 6 6 5 5 5 5 5 6 5 5 6 5 5 5 5 5 5 6 5 5 5 5 5 5 5 5 5 5 6 5 5 5 5 5 5 5 5 5 5 5 6 5 5 6 5 5 5 6 5 5 5 5 6 5 5 5 5 5 5 5 5 5 5 5 5 5 5 5 5 5 5 5 5 5 5 5 5 5 5 5 5 5 5 5 5 5 5 5 5 5 5 5 5 5 5 5 5 5 5 5 5 5 5 5 5 5 5 5 5 5 5 5 5 5 5 5 5 5 5 5 5 5 5 5 5 5 5 5 5 5 5 6 5 5 5 5 6 5 5 5 5 6 5 5 6 5 5 5 5 5 6 5 5 5 5 5 5 6 5 5 5 5 6 5 5 5 5 5 5 5 5 5 5 5 5 5 5 6 5 6 5 5 5 5 5 5 5 5 5 5 5 5 5 5 5 5 5 5 5 5 6 5 5 5 6 5 5 5 5 5 5 5 5 5 5 5 5 5 5 5 5 5 6 5 5 5 5 5 6 5 5 5 5 6 5 5 6 5 5 5 5 5 5 5 5 5 5 6 5 5 5 5 5 5 5 5 5 5 6 5 5 6 5 5 6 5 5 6 5 5 5 5 5 5 5 5 5 5 6 5 5 6 6 5 5 5 5 5 5 5 5 5 5 5 5 5 5 5 5 5 5 5 5 5 5 5 5 5 5 5 5 5 6 5 5 5 5 5 5 5 5 6 5 5 6 5 5 5 5 6 5 5 5 5 5 6 5 5 5 5 5 5 5 6 5 5 5 5 5 5 5 5 6 5 5 5 5 5 5 5 5 5 5 5 5 5 5 5 5 5 5 5 5 5 5 5 5 5 5 5 5 5 5 5 5 5 5 5 5 5 5 5 5 5 5 5 5 5 5 5 5 5 5 5 5 5 5 5 6 5 5 5 6 5 5 5 5 5 5 6 5 6 5 5 6 5 5 5 6 5 5 5 5 5 5 5 5 6 5 5 6 5 5 5 5 5 5 5 5 5 6 5 5 5 5 5 5 5 5 5 5 5 5 5 5 5 5 5 5 5 5 5 5 5 5 5 6 5 5 5 6 5 5 5 5 5 5 6 5 6 5 5 6 5 5 5 6 5 5 5 6 6 5 5 5 6 6 5 5 5 5 5 5 5 6 6 5 5 6 5 6 5 5 5 5 5 5 5 6 5 5 5 5 5 6 5 5 5 5 5 5 5 5 5 6 5 5 6 5 5 5 5 5 5 5 5 6 5 5 5 5 5 6 5 5 5 5 5 5 5 5 5 5 6 5 5 5 6 5 5 5 5 5 5 5 5 5 5 5 5 6 5 5 5 5 6 5 6 5 6 5 5 5 5 5 5 5 5 5 5 5 5 5 5 5 5 5 6 5 5 5 6 5 6 5 6 6 5 5 5 5 5 5 5 6 6 5 5 5 6 5 6 5 5 5 5 5 5 5 5 5 5 5 6 5 6 5 5 5 6 5 5 5 5 5 5 5 5 5 5 6 6 5 5 5 5 6 5 5 5 5 6 5 5 5 5 5 5 6 5 5 5 6 5 6 5 5 5 5 6 5 5 5 5 5 5 5 5 6 5 5 5 5 5 5 5 5 5 5 5 5 5 5 5 5 6 5 5 6 5 6 5 5 5 5 5 5 5 5 6 5 5 5 5 5 6 5 5 5 5 5 6 5 5 5 5 5 5 5 5 6 5 5 5 5 5 5 6 6 5 5 5 5 5 5 5 5 6 5 5 5 5 5 5 6 5 5 6 5 5 6 5 5 5 5 5 5 5 5 5 5 5 5 5 5 5 5 5 5 5 5 5 5 5 5 5 5 5 5 5 5 5 5 5 5 5 5 5 5 5 5 5 5 5 5 5 5 5 5 5 5 5 5 5 5 5 5 5 5 5 5 5 5 6 5 5 5 5 5 5 5 5 5 5 5 5 5 5 5 5 5 5 5 5 5 5 5 5 5 5 5 5 5 5 5 5 5 5 5 5 5 5 5 5 5 5 5 5 5 5 5 5 5 5 5 5 5 5 5 5 5 5 5 5 5 5 5 5 5 5 5 5 5 5 5 5 5 5 5 5 5 5 6 5 5 5 6 5 5 5 5 5 6 6 5 5 6 5 5 5 5 5 5 6 6 5 5 5 5 5 5 5 5 5 5 5 5 5 5 5 5 5 6 5 5 5 5 5 5 5 5 5 5 5 5 5 5 5 6 6 5 5 5 5 5 5 5 5 5 5 5 5 5 5 5 5 5 5 5 6 5 5 5 5 5 5 5 5 5 5 5 5 5 5 5 6 5 5 5 6 6 6 5 6 5 5 5 6 6 5 5 6 5 5 6 5 5 5 5 6 5 5 6 6 5 5 5 5 5 5 6 5 5 5 5 5 5 5 5 5 5 5 6 5 5 5 5 5 5 5 5 5 5 5 5 5 5 5 5 5 5 5 6 5 6 5 5 5 5 5 5 5 5 5 5 5 5 5 5 5 5 5 5 5 5 5 6 5 5 5 5 5 5 5 5 5 5 5 5 5 5 5 5 6 5 6 5 5 6 5 5 5 5 5 5 5 5 5 5 5 5 5 5 6 5 5 5 5 5 5 5 5 5 5 5 6 5 5 5 5 5 5 5 5 5 5 5 5 6 5 5 5 5 5 5 5 5 5 5 5 5 5 6 5 5 5 5 5 5 5 5 5 5 5 5 5 5 5 5 5 5 5 5 5 5 5 6 5 5 5 5 6 5 5 5 5 5 5 5 5 5 5 5 6 5 5 5 5 5 5 5 5 5 5 5 5 5 5 5 5 5 5 5 5 5 5 6 5 5 5 5 6 5 5 5 5 5 5 5 5 5 5 5 5 5 5 6 5 6 5 5 5 6 5 5 5 5 6 6 5 5 5 5 5 5 5 5 5 5 5 5 6 5 5 6 5 5 5 5 5 5 5 5 5 5 5 5 5 5 5 5 5 5 5 5 5 5 5 5 5 5 5 5 5 5 5 5 5 5 6 5 5 5 5 6 5 5 5 5 5 6 5 5 5 6 5 5 5 5 6 5 5 5 5 6 5 5 5 6 5 5 5 5 5 5 6 5 5 5 5 5 5 5 6 6 5 5 5 5 5 5 5 6 5 5 5 5 6 5 5 5 5 6 5 5 5 5 5 5 5 5 5 5 5 5 5 5 5 5 5 5 5 5 5 6 5 5 5 5 5 5 5 5 5 5 5 5 5 5 6 6 5 5 5 5 6 6 5 5 6 5 5 5 5 5 5 5 5 5 5 5 5 5 6 5 5 5 5 5 5 5 6 5 5 5 6 5 5 5 5 5 6 5 5 5 5 5 5 5 5 5 5 5 5 5 5 5 5 5 6 5 5 5 5 5 5 5 5 5 5 5 5 5 5 5 5 5 6 5 5 5 6 5 5 5 5 5 5 5 5 5 5 5 5 5 5 5 5 5 5 5 5 5 5 5 5 5 5 5 5 5 5 5 5 5 5 5 5 5 5 5 5 5 5 5 5 5 5 5 5 6 5 5 5 5 5 6 5 5 5 5 5 5 5 5 6 5 5 6 5 5 5 5 5 5 5 5 5 5 6 5 6 6 5 5 5 6 5 5 5 5 5 6 6 5 5 5 5 5 5 5 5 5 5 5 5 5 5 5 6 5 5 5 5 6 6 5 5 5 5 5 5 5 5 5 5 5 5 5 6 5 5 5 5 5 5 5 5 5 5 5 5 5 5 5 5 5 5 5 5 5 5 5 5 5 5 5 5 5 5 5 5 5 5 5 5 6 5 5 5 5 5 5 5 5 5 5 5 5 5 5 5 5 5 5 5 5 5 6 5 5 5 5 6 5 5 5 5 5 5 5 5 5 6 5 6 5 5 5 5 6 5 5 5 6 5 5 5 5 6 6 6 5 6 5 5 5 6 5 6 5 5 5 5 6 5 5 5 5 6 5 5 6 5 5 5 5 6 5 5 5 5 5 5 5 5 5 5 5 5 5 5 5 5 5 5 5 6 5 5 5 5 5 5 5 5 5 5 5 5 5 5 5 5 5 5 5 5 5 5 5 5 5 5 5 5 5 5 5 5 5 5 5 5 5 5 5 5 5 5 5 5 5 5 5 5 5 5 5 5 5 5 6 5 5 5 6 6 5 5 6 6 5 6 6 5 5 5 5 6 6 5 5 6 5 5 5 5 5 5 5 5 5 5 5 5 5 5 5 6 5 5 5 5 5 5 5 6 5 5 6 5 5 5 6 5 5 5 5 5 5 5 5 6 5 5 5 5 5 5 5 5 5 5 5 5 5 6 5 5 5 5 5 6 6 5 6 5 5 6 5 5 5 5 5 6 5 5 5 5 5 5 6 5 5 5 5 5 5 5 5 5 5 6 5 5 5 6 5 5 5 5 5 5 5 6 5 5 5 5 5 5 5 5 5 5 5 5 5 5 5 5 5 6 5 5 5 5 5 5 5 5 5 5 5 5 5 5 5 5 5 5 5 5 5 5 5 5 5 5 5 5 5 5 5 5 5 5 5 5 5 5 5 5 5 5 5 5 5 5 5 6 5 5 5 6 5 5 5 5 5 6 5 5 5 5 5 5 5 5 5 5 5 5 5 5 5 5 6 5 6 5 5 5 5 5 5 5 5 6 5 5 5 6 5 5 5 6 5 5 5 6 5 6 5 5 5 5 5 5 5 5 5 6 5 5 5 5 6 5 5 5 5 5 5 5 5 6 5 6 5 5 5 5 6 5 5 5 5 5 5 5 5 6 5 5 5 5 6 5 5 5 5 5 5 6 5 5 5 6 5 5 5 5 5 5 5 5 5 5 5 5 5 5 5 5 5 5 5 5 5 6 5 5 5 5 5 5 5 5 5 5 5 5 5 5 5 5 6 5 5 5 5 5 6 5 5 5 5 6 5 5 5 5 5 5 5 6 5 5 5 5 5 5 5 5 5 5 5 5 5 5 5 5 5 5 5 5 6 5 5 5 5 5 5 6 5 5 5 5 5 6 5 5 5 6 5 5 5 5 5 5 5 5 5 5 5 6 6 5 5 5 5 5 5 5 5 5 5 6 5 5 6 6 5 5 5 5 5 5 6 5 5 5 6 6 6 5 5 6 5 5 5 6 5 6 6 5 5 5 5 5 6 6 5 6 6 5 6 5 5 5 5 5 5 5 5 5 5 5 6 5 5 5 6 5 5 5 5 5 5 6 5 5 5 5 5 5 5 6 5 6 5 5 5 5 6 5 5 6 5 6 6 6 5 5 6 5 5 5 5 5 6 5 5 6 5 5 6 5 5 6 6 5 5 5 5 5 5 5 5 5 5 6 5 5 5 5 5 5 5 6 6 5 5 5 5 5 5 5 6 5 5 5 5 6 5 6 5 6 5 6 6 5 5 6 5 6 5 5 6 5 5 6 5 6 5 5 5 5 5 5 5 5 5 5 5 5 6 5 5 5 5 5 5 5 5 5 5 5 6 5 5 6 5 5 5 6 5 6 5 5 5 5 6 5 5 5 5 5 5 5 5 5 5 5 5 5 6 6 5 5 6 5 5 6 6 5 5 5 5 5 5 5 5 5 6 5 5 6 5 5 6 6 5 6 5 5 6 5 5 6 5 6 5 5 5 6 5 5 5 5 5 5 5 5 5 5 5 5 5 5 5 6 5 5 5 5 5 5 6 5 5 6 5 5 6 5 5 5 5 5 5 6 5 5 5 6 5 5 6 5 5 5 5 5 6 5 5 6 5 5 5 5 6 5 6 5 6 5 5 5 6 5 5 5 5 5 5 6 5 6 5 5 5 5 5 5 5 5 5 5 5 6 5 5 5 5 5 5 5 6 5 5 5 5 5 5 5 6 5 5 5 5 6 5 5 5 5 5 5 5 5 5 5 5 5 5 5 5 5 5 5 5 5 5 5 5 5 5 5 5 5 5 5 6 5 5 5 5 5 5 5 5 5 5 5 6 5 5 6 6 5 5 5 5 6 5 5 6 5 5 6 5 6 5 5 6 5 5 5 5 5 5 6 6 5 5 5 5 5 5 5 6 5 5 5 6 5 5 5 5 5 5 5 5 5 5 5 5 5 5 5 6 5 5 5 5 5 6 5 5 5 5 5 5 5 5 5 5 5 5 5 6 5 6 5 5 5 5 5 6 5 6 5 5 5 5 5 5 5 5 5 5 5 5 6 5 6 5 5 5 5 6 5 6 5 5 5 6 5 6 5 5 6 6 5 6 6 5 5 5 5 5 5 5 6 5 5 5 5 5 6 5 5 6 5 6 5 5 6 5 5 5 5 5 5 6 5 6 5 6 5 5 5 5 6 5 6 6 5 5 5 5 5 5 5 5 5 5 5 5 6 6 6 5 5 5 5 5 5 5 5 5 5 5 5 5 5 5 5 5 5 6 5 5 5 5 6 5 5 5 5 5 5 5 5 5 6 6 5 5 6 5 5 5 5 5 6 5 5 5 5 5 5 5 5 5 5 5 5 5 5 6 5 5 5 5 5 5 5 5 5 5 5 5 5 5 5 5 5 5 5 6 5 5 5 5 5 5 5 6 5 5 5 5 5 6 5 5 5 5 5 5 5 5 5 5 5 5 5 5 6 5 5 5 5 5 5 5 5 5 5 6 5 5 5 5 6 5 5 5 5 5 5 5 5 5 5 5 5 5 5 5 5 5 5 5 5 5 5 5 5 5 5 5 5 5 5 5 5 5 5 5 5 5 5 5 5 5 5 5 5 5 5 5 5 5 5 5 5 5 5 5 5 5 5 5 5 5 5 5 5 5 5 5 6 5 5 5 5 5 6 5 5 5 5 6 5 5 5 5 5 5 5 5 5 5 5 5 5 5 5 5 5 5 5 5 5 5 5 5 5 5 5 5 5 5 6 5 5 5 6 5 5 5 5 5 5 5 5 5 5 5 5 5 5 5 5 5 5 5 5 5 5 6 5 5 5 5 6 5 5 6 5 5 6 5 5 5 5 5 6 5 5 5 5 6 6 5 5 6 5 5 5 5 6 6 5 5 5 6 6 5 5 5 6 6 5 5 6 5 5 5 5 5 6 5 5 6 5 5 5 6 5 6 5 5 5 5 5 5 5 5 5 5 5 5 5 5 5 6 5 5 5 6 5 5 5 5 5 5 5 5 5 5 5 6 5 5 6 5 6 5 5 5 6 6 5 5 5 6 5 5 5 5 6 5 5 5 5 5 5 6 5 5 5 5 5 6 5 6 5 5 5 5 5 5 5 5 6 5 5 5 5 5 5 5 5 5 5 5 5 5 5 5 5 5 5 5 6 5 5 5 5 5 5 5 5 5 6 5 5 5 5 5 5 5 5 6 5 5 6 5 5 5 5 5 5 5 5 5 5 5 5 5 5 5 5 5 5 5 5 5 6 5 5 5 5 5 5 5 5 5 5 5 6 5 5 5 5 5 5 5 6 5 5 5 5 5 5 5 5 5 5 5 6 5 5 5 5 5 6 5 5 5 5 5 5 5 5 5 5 5 5 6 5 5 5 5 5 5 5 5 5 5 5 5 5 5 5 5 5 5 5 5 5 5 5 5 5 5 5 5 5 6 5 5 5 5 5 5 5 6 5 5 5 5 5 6 5 5 5 5 5 5 6 5 5 5 6 5 5 5 5 5 5 5 5 5 5 5 5 5 6 5 5 5 6 5 5 5 5 5 5 5 5 5 5 5 5 5 5 5 5 5 5 5 5 5 5 5 5 5 5 5 5 5 5 5 5 5 5 5 5 5 5 5 5 5 5 5 5 6 5 5 5 5 5 5 6 5 5 5 5 5 5 6 5 5 5 5 5 5 5 5 5 5 5 5 5 5 5 5 5 5 5 5 5 5 5 5 5 5 5 5 5 6 5 5 6 5 5 6 5 5 5 5 6 5 5 5 6 5 5 5 5 5 5 5 5 5 5 5 5 5 6 5 5 5 5 5 6 5 5 5 5 5 5 6 5 5 6 5 5 5 5 6 5 5 5 5 5 5 5 5 6 6 5 5 5 5 5 6 5 5 5 5 5 5 5 5 5 5 5 5 5 5 6 5 5 5 5 5 5 6 5 5 5 5 6 5 5 5 5 5 5 5 6 5 5 5 5 5 6 6 5 5 5 5 5 6 5 5 5 5 5 5 5 5 5 5 5 5 5 5 5 5 5 5 5 5 5 5 5 5 5 5 5 5 5 6 5 5 5 5 6 5 5 5 5 5 5 5 5 5 5 5 5 5 5 5 5 5 5 5 5 5 5 5 6 5 5 5 6 5 5 5 5 6 5 5 5 5 5 5 5 5 5 5 5 5 6 5 5 5 6 5 5 5 6 5 5 5 5 5 5 5 5 5 5 5 5 5 5 5 5 5 5 5 6 5 5 5 5 5 5 5 5 5 5 5 6 5 5 5 5 5 5 6 5 6 5 6 5 5 5 5 5 5 5 5 5 5 5 5 5 6 6 5 5 5 5 5 6 5 5 5 5 6 5 5 5 5 5 5 5 5 5 5 5 5 5 5 5 5 5 5 6 5 6 5 5 5 5 6 5 5 6 5 5 5 5 5 5 5 5 5 5 5 5 5 5 6 5 5 5 5 5 5 5 5 5 5 5 5 5 5 5 5 6 5 5 5 5 5 6 5 5 6 5 5 5 6 5 5 5 5 6 5 5 5 5 5 5 5 5 5 5 5 5 5 5 5 5 5 5 6 5 5 6 5 5 5 5 6 5 5 5 5 6 5 5 5 5 5 5 5 5 5 5 5 5 5 5 5 5 6 5 6 5 5 5 5 5 5 5 6 5 5 5 5 6 5 5 6 5 5 5 5 5 6 5 5 5 5 5 5 5 5 5 5 5 5 5 5 5 5 5 6 5 6 6 5 5 5 5 5 5 5 5 5 5 5 5 5 5 6 5 5 5 5 5 6 5 5 5 5 5 6 5 5 5 5 5 5 5 5 5 5 5 5 5 5 5 5 5 5 5 5 5 6 6 5 5 5 6 5 5 5 5 5 5 5 5 5 5 5 6 5 5 5 5 5 5 5 5 5 5 5 5 5 5 5 5 5 5 5 5 5 5 5 5 5 5 5 5 5 5 5 5 5 5 5 6 5 5 6 5 5 5 5 5 5 5 5 5 5 5 5 5 5 5 5 5 5 5 5 5 5 6 5 5 5 5 5 5 6 5 5 5 5 5 5 5 5 5 5 5 5 5 5 6 5 5 5 5 5 5 6 5 5 5 6 5 5 5 5 5 5 5 5 5 5 5 5 5 5 5 5 5 5 5 5 5 5 5 5 5 5 5 5 5 6 5 5 5 5 5 5 5 6 5 5 6 5 5 5 5 5 5 5 5 
</DataArray>
<DataArray type="Float64" Name="stress" NumberOfComponents="9" format="ascii">
-93.017849241270596 598.5729982409739 0 598.5729982409739 -121.72579104758915 0 0 0 0 -2211.3242442004703 1535.0794129088135 0 1535.0794129088135 4.6755443469807583 0 0 0 0 -498.24650948976341 766.73289765527807 0 766.73289765527807 286.29320768451726 0 0 0 0 -1.1685103373638412 490.16270856277151 0 490.16270856277151 -379.25729951094763 0 0 0 0 -8.068898126821864 2.6049978105843081 0 2.6049978105843081 -0.05217632995287147 0 0 0 0 -489.10767816094449 -174.2199319004867 0 -174.2199319004867 682.9350781930043 0 0 0 0 -702.65052423145971 -87.404152352741221 0 -87.404152352741221 663.09526140155504 0 0 0 0 -281.92251075577224 -122.00478173235751 0 -122.00478173235751 349.27692745158856 0 0 0 0 -575.90148507094818 184.1061253259636 0 184.1061253259636 -42.140509265213041 0 0 0 0 -301.33030302802945 -148.42150297949047 0 -148.42150297949047 360.52374327962752 0 0 0 0 -140.5275078915729 115.90854859854153 0 115.90854859854153 -194.95441429413768 0 0 0 0 -175.8295704010543 384.00461791875932 0 384.00461791875932 -566.66636012104573 0 0 0 0 -214.27312287539098 481.48695145271631 0 481.48695145271631 -484.35667617173385 0 0 0 0 -1098.1247130600095 459.6758670415029 0 459.6758670415029 -177.42635856194102 0 0 0 0 -191.06978431304742 520.77194318756301 0 520.77194318756301 -548.93606818912303 0 0 0 0 -173.15149261820989 199.78801196360018 0 199.78801196360018 -355.04103744400345 0 0 0 0 -523.15976741299892 880.87232628540369 0 880.87232628540369 -932.33107517075041 0 0 0 0 35.984372176702891 167.93501640213071 0 167.93501640213071 -1213.3299628881687 0 0 0 0 -988.43558211750496 -38.317964454385219 0 -38.317964454385219 -265.91643614348868 0 0 0 0 -34.187852163438947 173.88253178286686 0 173.88253178286686 -225.71872419250576 0 0 0 0 -259.81704608833752 202.51197648126436 0 202.51197648126436 512.73346403949836 0 0 0 0 -334.63583222073794 -390.19553004790578 0 -390.19553004790578 851.57704379442657 0 0 0 0 -100.43350048780849 -192.38114069959011 0 -192.38114069959011 156.66558019579679 0 0 0 0 -15.959763764010859 22.876505435197032 0 22.876505435197032 -360.47648544346498 0 0 0 0 -4.7356452002713922 15.328164865764847 0 15.328164865764847 0.172442006301989 0 0 0 0 44.579963394658989 -371.91813840790928 0 -371.91813840790928 525.02710721685435 0 0 0 0 227.01178689228254 510.7639266711376 0 510.7639266711376 568.29503570307861 0 0 0 0 470.41409437677066 146.30814369345171 0 146.30814369345171 238.02414302620491 0 0 0 0 -17.086913499925942 7.9807233159327708 0 7.9807233159327708 -1.229199980359347 0 0 0 0 235.93360681352351 394.32038301584544 0 394.32038301584544 -0.022029027735698037 0 0 0 0 -430.06071461107786 373.5961219895471 0 373.5961219895471 1249.2333166337121 0 0 0 0 48.737881959774313 147.15862084329456 0 147.15862084329456 301.48296148676309 0 0 0 0 -372.9710272278262 85.138219564731116 0 85.138219564731116 859.22285887778708 0 0 0 0 -8.7342682613109162 5.9698215838588098 0 5.9698215838588098 -1.9108889545644629 0 0 0 0 -1594.8378645120756 1111.1783804686584 0 1111.1783804686584 1.1440964732901193 0 0 0 0 -518.88482070159807 1184.885013604202 0 1184.885013604202 -595.36068616239754 0 0 0 0 -256.32315481401019 1131.1374132203964 0 1131.1374132203964 -1214.423216689298 0 0 0 0 -1716.0571169595351 2113.6019223906624 0 2113.6019223906624 -899.5987551144899 0 0 0 0 -617.30976276975707 1032.9833171026985 0 1032.9833171026985 -560.88776289189263 0 0 0 0 413.36166782964574 650.68353086182469 0 650.68353086182469 -871.28319076072512 0 0 0 0 -117.07780034396274 127.76375289835778 0 127.76375289835778 -0.00048728301408118568 0 0 0 0 -226.80718624214205 41.726109151735727 0 41.726109151735727 26.614639578023343 0 0 0 0 -0.4917727700239638 1.503463634770938 0 1.503463634770938 -3.709190394873616 0 0 0 0 -1944.2178768003687 578.4004385756366 0 578.4004385756366 -784.93243964576686 0 0 0 0 92.990098948637751 56.630506526569661 0 56.630506526569661 -28.27488431036727 0 0 0 0 -90.816120181225415 56.036950710502424 0 56.036950710502424 -11.886281220671663 0 0 0 0 -84.374563643384136 71.694315082866524 0 71.694315082866524 8.773128145330702 0 0 0 0 -32.091867766892335 1.3896507251818093 0 1.3896507251818093 22.897389933469697 0 0 0 0 -26.166078728085608 5.566516429914401 0 5.566516429914401 25.218030498984433 0 0 0 0 -39.237239305188268 86.69857508586756 0 86.69857508586756 -54.970900467384126 0 0 0 0 -30.828186100035964 12.30601831495369 0 12.30601831495369 25.315085866346635 0 0 0 0 -51.022992646102011 13.347294612918404 0 13.347294612918404 30.271065960721899 0 0 0 0 -51.24980892328449 14.628384974651226 0 14.628384974651226 33.6606040887782 0 0 0 0 -428.79596000140009 1048.724452979397 0 1048.724452979397 -1158.2304853712485 0 0 0 0 -676.60523759887201 1271.3373054233502 0 1271.3373054233502 -839.88020399140078 0 0 0 0 -513.66182446371386 1009.614712945131 0 1009.614712945131 -781.68407706205471 0 0 0 0 2.6537897009729292 2.2003654568781172 0 2.2003654568781172 -4.888120912042325 0 0 0 0 -33.626021638287057 9.1598620777149335 0 9.1598620777149335 -17.075848919601412 0 0 0 0 -51.354767818211258 74.273641104273338 0 74.273641104273338 -77.286189859301885 0 0 0 0 -23.940647765596239 11.242970056451171 0 11.242970056451171 28.213257443902464 0 0 0 0 1.5921814987141616 13.053549781910689 0 13.053549781910689 -4.7840448244402864 0 0 0 0 -0.27333329674186047 8.6490065222396666 0 8.6490065222396666 -14.847113010199365 0 0 0 0 -18.850632125137054 -75.651665950856113 0 -75.651665950856113 -594.4870640192039 0 0 0 0 -5.6058745832933283 5.9539203060034609 0 5.9539203060034609 15.822284142474999 0 0 0 0 -2.7738384740901907 3.8842623336419138 0 3.8842623336419138 -2.8225758294719583 0 0 0 0 2.2367562520312845 6.0583200602661691 0 6.0583200602661691 -2.5862339178987099 0 0 0 0 -26.824199167978804 6.6602028573834104 0 6.6602028573834104 28.80301314128883 0 0 0 0 -30.638673208231921 4.0250834441394545 0 4.0250834441394545 42.607231661040714 0 0 0 0 -6.7339898512800573 16.375090843732323 0 16.375090843732323 27.252735111658694 0 0 0 0 -3.1799625966907783 1.875519869228107 0 1.875519869228107 10.043140584138655 0 0 0 0 -29.46320321231542 -6.5683155776459898 0 -6.5683155776459898 17.763564066306571 0 0 0 0 -20.783017518129782 4.2942306738113984 0 4.2942306738113984 10.279555955898104 0 0 0 0 -6.9284355644776952 -2.6850832319832989 0 -2.6850832319832989 2.8658485356427263 0 0 0 0 -3.3046413363481406 22.778952839080375 0 22.778952839080375 -23.964312298179721 0 0 0 0 -22.371848065435188 16.116249294303998 0 16.116249294303998 12.608194943648414 0 0 0 0 -40.273460501150112 12.460393389656019 0 12.460393389656019 14.988120422014617 0 0 0 0 -40.411380873076894 -7.2017617940219765 0 -7.2017617940219765 -13.951893172168639 0 0 0 0 -35.048503689009522 10.737308154795755 0 10.737308154795755 34.499681904439058 0 0 0 0 -39.622600880888058 18.083911306592199 0 18.083911306592199 27.74098632883215 0 0 0 0 -61.481600288152549 22.389109864030615 0 22.389109864030615 30.29560063284589 0 0 0 0 -30.974376025893434 45.257796152514857 0 45.257796152514857 43.629454461231944 0 0 0 0 -6.1857536734223686 10.870893954202984 0 10.870893954202984 -14.531375913546071 0 0 0 0 -20.287113783433597 34.153824914370489 0 34.153824914370489 -2.5211079397995491 0 0 0 0 -17.599258594600542 29.659758380732455 0 29.659758380732455 -18.636010455171345 0 0 0 0 -34.051319518130185 -39.860902170145891 0 -39.860902170145891 128.55790819649701 0 0 0 0 -41.242688285452459 6.4594976784810569 0 6.4594976784810569 21.53951719871111 0 0 0 0 165.08282992008026 -6.7099835598201025 0 -6.7099835598201025 -11.585552606915371 0 0 0 0 175.49405542160093 -218.73439565857916 0 -218.73439565857916 264.00873608022448 0 0 0 0 -192.71141297209397 42.983009160299844 0 42.983009160299844 48.662243753139592 0 0 0 0 499.95997205164167 161.81376672356419 0 161.81376672356419 -28.801863419437723 0 0 0 0 -21.166172574437951 189.90776155180538 0 189.90776155180538 23.228084724512883 0 0 0 0 0.55878492955991987 5.6118002923584953 0 5.6118002923584953 3.0073767883985596 0 0 0 0 -263.09839117943557 -109.09256844008814 0 -109.09256844008814 549.10095822292897 0 0 0 0 13.244645895581925 -24.745891445953021 0 -24.745891445953021 -7.3180444710087613 0 0 0 0 -18.868730761729239 361.50205764916245 0 361.50205764916245 121.69875761268486 0 0 0 0 -196.587036089717 137.42987618400366 0 137.42987618400366 536.45514191707116 0 0 0 0 19.387993284064578 167.66880250335817 0 167.66880250335817 413.27740953112152 0 0 0 0 -2.7099401437153574 7.3316276158348046 0 7.3316276158348046 15.70390322656749 0 0 0 0 -1.5530554283793094 4.1529325295904727 0 4.1529325295904727 -0.26987456739556848 0 0 0 0 -33.368696368517703 192.48411478879643 0 192.48411478879643 427.53521439096585 0 0 0 0 -87.465981073219154 -51.462248649919275 0 -51.462248649919275 -15.67151051566907 0 0 0 0 -2.4899393883042649 1.6321129945135198 0 1.6321129945135198 2.3176247250315285 0 0 0 0 19.846175297439913 -63.987868592499581 0 -63.987868592499581 213.91145912898719 0 0 0 0 -0.63900923451166136 1.1910671288326569 0 1.1910671288326569 1.8788796911552765 0 0 0 0 207.95304517807745 268.71976936076862 0 268.71976936076862 377.34495741098362 0 0 0 0 39.451212183150346 -34.227624589322659 0 -34.227624589322659 329.64392815007159 0 0 0 0 -65.805975964132813 150.40593819476453 0 150.40593819476453 369.56388795176099 0 0 0 0 120.45996275515063 20.454300082690679 0 20.454300082690679 74.090033199399841 0 0 0 0 -12.125586963249816 7.0027212198553919 0 7.0027212198553919 0.28111754252550725 0 0 0 0 -38.231494129693601 226.56869971505876 0 226.56869971505876 373.31844987415752 0 0 0 0 4.0246509332209826 19.46554572630339 0 19.46554572630339 53.982988054758607 0 0 0 0 -4.7704158126647371 0.92122833094694023 0 0.92122833094694023 -0.011807707176053839 0 0 0 0 -14.682494393768138 61.594444652472475 0 61.594444652472475 386.91142576363927 0 0 0 0 -74.680883680637635 -24.864166935634785 0 -24.864166935634785 35.915617447586555 0 0 0 0 -7.6532455707364306 3.6940618994468792 0 3.6940618994468792 0.10315067152634327 0 0 0 0 135.81596047921994 50.075273563295013 0 50.075273563295013 387.72545344722312 0 0 0 0 -224.76280623383354 287.27580958469844 0 287.27580958469844 571.00590162200206 0 0 0 0 50.995330998877762 -303.78192892936204 0 -303.78192892936204 992.30180886280141 0 0 0 0 -0.78897029425291976 1.9724742576606644 0 1.9724742576606644 -0.080465135326818427 0 0 0 0 -75.056452157106833 161.88306190741787 0 161.88306190741787 85.65336695779115 0 0 0 0 126.765212340586 169.58701097298035 0 169.58701097298035 70.822224246658152 0 0 0 0 -165.26306320510776 62.521213372798229 0 62.521213372798229 63.290584093876532 0 0 0 0 -52.761113582979306 52.948473797063343 0 52.948473797063343 52.088657651122048 0 0 0 0 -0.049302588588034268 266.75035623732947 0 266.75035623732947 -247.34400811337946 0 0 0 0 -53.728669526695739 65.154233541365102 0 65.154233541365102 -3.6875759632339395 0 0 0 0 22.077823084269767 78.013424927139567 0 78.013424927139567 -2.6452388971101755 0 0 0 0 -237.0726413256707 228.83124679207867 0 228.83124679207867 15.835494570195351 0 0 0 0 -180.82857773374053 66.104932353613549 0 66.104932353613549 217.52914885271821 0 0 0 0 -7.5130406405260146 -117.83438579180256 0 -117.83438579180256 405.79828783196717 0 0 0 0 -762.55847497985815 539.88817785486754 0 539.88817785486754 342.17550540787033 0 0 0 0 -129.25057060509425 272.73552734028453 0 272.73552734028453 -591.68772672554769 0 0 0 0 -395.55400764883598 480.81328286607095 0 480.81328286607095 -406.13008552475367 0 0 0 0 -155.10379801048111 453.81826221545998 0 453.81826221545998 -460.98713473074895 0 0 0 0 -184.62340204806969 375.17093561533693 0 375.17093561533693 -404.50590615491456 0 0 0 0 -261.85069804842351 464.71572460903189 0 464.71572460903189 -404.91192563982258 0 0 0 0 -190.42669576430853 456.70785753374184 0 456.70785753374184 -460.71392300601292 0 0 0 0 -384.08538217753812 640.36001788148133 0 640.36001788148133 -471.11085964863014 0 0 0 0 -377.82373275113059 471.94355673977407 0 471.94355673977407 -291.32637454672658 0 0 0 0 -275.41864767263178 491.90940015856904 0 491.90940015856904 -355.15734077871093 0 0 0 0 -738.52474445849657 485.3214420326949 0 485.3214420326949 -182.12709126720438 0 0 0 0 -394.52607843675651 107.54710565863206 0 107.54710565863206 -1.7414470752482885 0 0 0 0 -264.40686097183789 -45.064200268454442 0 -45.064200268454442 -38.168718358144361 0 0 0 0 -78.908519825476105 274.83823535888587 0 274.83823535888587 -209.42373404479213 0 0 0 0 -14.868950562777172 17.685051964843296 0 17.685051964843296 4.0361645603188663 0 0 0 0 -2.3813507581116937 17.705765743815391 0 17.705765743815391 3.597390712784545 0 0 0 0 4.7823886210733946 2.9926076251974507 0 2.9926076251974507 -0.86336537562087301 0 0 0 0 -145.12121006340021 235.46552653837352 0 235.46552653837352 -257.11757451995436 0 0 0 0 -204.17926032369724 439.61578251836545 0 439.61578251836545 -774.9598470313249 0 0 0 0 158.50493090468808 216.44099521246244 0 216.44099521246244 266.23433205160109 0 0 0 0 -2.4361314004329984 1.3160912531600104 0 1.3160912531600104 0.17810299886500758 0 0 0 0 28.32224600308291 18.284760223990816 0 18.284760223990816 8.7466832813370274 0 0 0 0 -6.021527074102778 34.343955507774808 0 34.343955507774808 21.793303908547387 0 0 0 0 -0.11947680775483605 44.956670348794432 0 44.956670348794432 9.7083791002150974 0 0 0 0 -73.260395082682862 96.181536140766639 0 96.181536140766639 -0.42032115218171384 0 0 0 0 -61.77578731630274 42.532078661675769 0 42.532078661675769 20.992148242003168 0 0 0 0 -20.115295095900365 35.909035320259136 0 35.909035320259136 13.812871512425772 0 0 0 0 -112.78836889288141 10.111056238838501 0 10.111056238838501 24.312805193207168 0 0 0 0 -2.3688099000859566 5.9593291398945283 0 5.9593291398945283 -2.3051266918428723 0 0 0 0 -23.121908681392597 23.195913361696967 0 23.195913361696967 14.332013576138706 0 0 0 0 4.3879504928718234 3.937819369848512 0 3.937819369848512 18.999449188326253 0 0 0 0 53.494114606846779 46.337103950125311 0 46.337103950125311 21.409911763614218 0 0 0 0 7.4894781028669968 12.037567084380498 0 12.037567084380498 0.024561036363593303 0 0 0 0 -2.0422988393242605 2.223325018213572 0 2.223325018213572 -3.2399246506869019 0 0 0 0 -173.93475757967826 -13.651525145076448 0 -13.651525145076448 30.977831815434911 0 0 0 0 -190.84040063674183 25.853386177888751 0 25.853386177888751 61.425913301260152 0 0 0 0 -152.45215142326197 17.126927106190124 0 17.126927106190124 55.124217171789496 0 0 0 0 -0.26570176163978232 0.54370543867940668 0 0.54370543867940668 -1.6634962410867047 0 0 0 0 -455.75361770276504 -145.61723613032518 0 -145.61723613032518 8.0293554011850574 0 0 0 0 -237.85307647642912 189.73509747022945 0 189.73509747022945 -0.13681685655683395 0 0 0 0 4.9966782367846463 69.14195510027821 0 69.14195510027821 13.1756472362149 0 0 0 0 -28.643178965852712 161.86654722434469 0 161.86654722434469 41.537648451456334 0 0 0 0 -15.3078067106253 55.686725245181151 0 55.686725245181151 175.23664504277986 0 0 0 0 -111.32683626958897 141.5019971396905 0 141.5019971396905 132.81214566277231 0 0 0 0 -211.60204054679343 82.268270654749358 0 82.268270654749358 141.51448689669633 0 0 0 0 -142.85451064273002 64.272637984443463 0 64.272637984443463 92.172160233472823 0 0 0 0 -163.72904714597826 109.5102341857164 0 109.5102341857164 65.531458494762774 0 0 0 0 -167.10652367494276 112.24982389308025 0 112.24982389308025 129.80459321397939 0 0 0 0 -124.83511701747193 207.13224252244618 0 207.13224252244618 70.763954628990177 0 0 0 0 -115.99671172363742 164.71815800164768 0 164.71815800164768 169.79063037880746 0 0 0 0 -0.48791024498054014 2.3729993848856914 0 2.3729993848856914 -3.8943880965129836 0 0 0 0 -79.768596875886942 -99.731216802481867 0 -99.731216802481867 -91.038622332609521 0 0 0 0 -26.528315041781681 29.233330175360027 0 29.233330175360027 -29.54834570692104 0 0 0 0 2.9061707440559985 145.06638620717058 0 145.06638620717058 163.21951820268441 0 0 0 0 144.42015279184852 40.637770948262187 0 40.637770948262187 -83.234667473123409 0 0 0 0 -3.2901785642898176 0.61780708526566741 0 0.61780708526566741 -32.083331851797993 0 0 0 0 -3.2042598734921768 6.563528263355348 0 6.563528263355348 -9.2336226996285973 0 0 0 0 184.81943872186093 117.87389072747465 0 117.87389072747465 71.63841574601247 0 0 0 0 139.56898460930461 229.88447054406151 0 229.88447054406151 147.99974977961392 0 0 0 0 -4.2031914024919388 111.49420492283389 0 111.49420492283389 126.90188278667483 0 0 0 0 109.23960809584969 140.54350237783183 0 140.54350237783183 46.53698043654731 0 0 0 0 -1.0591997482151783 111.78557028557725 0 111.78557028557725 78.824396673167939 0 0 0 0 114.33328859520225 148.42611960845716 0 148.42611960845716 -0.010860150327062001 0 0 0 0 134.18380359359435 114.00572487651152 0 114.00572487651152 56.128203447965461 0 0 0 0 177.95646169622341 144.56675166228888 0 144.56675166228888 45.330671952906414 0 0 0 0 100.27764391334131 116.1435832089046 0 116.1435832089046 161.15727494835301 0 0 0 0 158.29225176514956 161.95790168403983 0 161.95790168403983 74.591058078789501 0 0 0 0 3.2520098791428609 24.523391695671307 0 24.523391695671307 -0.47172354492067825 0 0 0 0 16.993362641209387 24.17416595404211 0 24.17416595404211 -4.8575574304122711 0 0 0 0 -5.1411832642912003 10.635345522734895 0 10.635345522734895 -12.355812990710348 0 0 0 0 -23.073115637014695 21.843111432923092 0 21.843111432923092 -16.430478086283657 0 0 0 0 117.26016354148305 78.125895262102858 0 78.125895262102858 0.14345886064040808 0 0 0 0 138.71544108573289 137.56619207646918 0 137.56619207646918 85.466115881201404 0 0 0 0 -220.60147140097979 37.042496566915361 0 37.042496566915361 21.936520328104962 0 0 0 0 -218.29586136912258 -23.974095316254534 0 -23.974095316254534 0.89060473008430563 0 0 0 0 -2.0156399423892424 0.27034629707629776 0 0.27034629707629776 1.3196745657691054 0 0 0 0 -5.7906306394288549 -32.228980114203296 0 -32.228980114203296 -1.7062071585060039 0 0 0 0 -26.056385862090366 19.669586385502541 0 19.669586385502541 -1.2370470651728454 0 0 0 0 -38.772446439521445 32.58294050441873 0 32.58294050441873 5.8839902469608205 0 0 0 0 -38.797120168736001 32.256316443784726 0 32.256316443784726 21.834119669467327 0 0 0 0 -5.9723962429052335 49.548653494503014 0 49.548653494503014 30.102505925815422 0 0 0 0 -72.090467870839348 38.955293207211071 0 38.955293207211071 90.84100840398969 0 0 0 0 -61.805477855130448 10.10024639673793 0 10.10024639673793 34.265667464991566 0 0 0 0 -79.273592063662363 -4.327378674683132 0 -4.327378674683132 37.375599348845753 0 0 0 0 -65.470080686238362 12.849261404391655 0 12.849261404391655 -20.604498549950222 0 0 0 0 -78.618645748763811 -19.526241622952512 0 -19.526241622952512 50.109683302365738 0 0 0 0 -72.678318285196838 48.34946388680919 0 48.34946388680919 31.132480919426598 0 0 0 0 -143.53265806872946 30.00471732662885 0 30.00471732662885 -41.088251601700904 0 0 0 0 -162.71950804890366 31.564516170337811 0 31.564516170337811 -0.89505765710782725 0 0 0 0 -140.85829638609107 164.55136111259094 0 164.55136111259094 -157.06116081705841 0 0 0 0 -138.77496647346561 60.30957451653012 0 60.30957451653012 -94.994871085727937 0 0 0 0 -90.692054079216177 3.9397969602377998 0 3.9397969602377998 -47.409424910634698 0 0 0 0 -151.14844185359834 61.282738514353696 0 61.282738514353696 -29.764920519675798 0 0 0 0 -96.815958010214672 -7.3934882202811423 0 -7.3934882202811423 50.712522623580298 0 0 0 0 -216.64470547511883 109.37531689918615 0 109.37531689918615 64.119478139564308 0 0 0 0 -198.24200236153411 99.841696871986642 0 99.841696871986642 -76.635557099201833 0 0 0 0 -165.40811215920257 24.445554418045504 0 24.445554418045504 164.59777779032447 0 0 0 0 -212.43435649582625 260.79757490072075 0 260.79757490072075 96.18031904235977 0 0 0 0 -206.84993045842566 216.08309844639734 0 216.08309844639734 -2.0550447416462703 0 0 0 0 -260.61657728468708 199.48304669575009 0 199.48304669575009 20.255601026070508 0 0 0 0 -214.23442799218446 271.19719248840693 0 271.19719248840693 -87.81828802817472 0 0 0 0 -148.08081309632689 391.26112510361054 0 391.26112510361054 -15.929094587909049 0 0 0 0 3.5598404224177926 5.2663768295239777 0 5.2663768295239777 -0.00019019896123495528 0 0 0 0 -287.00550764597574 272.4789000397177 0 272.4789000397177 -114.56427118260763 0 0 0 0 54.337662115055537 8.7438144079703761 0 8.7438144079703761 -20.433303733007051 0 0 0 0 -274.94513239784283 231.49670875656375 0 231.49670875656375 -113.77933811744879 0 0 0 0 -429.56635770173307 190.61950501152751 0 190.61950501152751 -27.897841953599709 0 0 0 0 -256.40937902425503 196.79686176010136 0 196.79686176010136 -190.07377137708681 0 0 0 0 -329.94977031209783 85.677574189849111 0 85.677574189849111 -102.65340198226477 0 0 0 0 -277.98972819329356 152.02984119104076 0 152.02984119104076 -40.579478842602839 0 0 0 0 -416.66051379389273 381.55813245008437 0 381.55813245008437 -119.87291618643212 0 0 0 0 266.3732439359519 -33.581016011796237 0 -33.581016011796237 -5.3290623532739119 0 0 0 0 1.6191084994093927 1.9194392058934966 0 1.9194392058934966 0.20176479154352478 0 0 0 0 96.572262049274286 -41.114995125855785 0 -41.114995125855785 14.863113606945262 0 0 0 0 12.407916315876292 4.1765981125622602 0 4.1765981125622602 -6.2487803331294742 0 0 0 0 4.1616592893697089 44.490867909491499 0 44.490867909491499 -13.669261279301281 0 0 0 0 105.506593340564 16.512759772867867 0 16.512759772867867 -25.242706685992744 0 0 0 0 47.819908254721668 40.541858315253194 0 40.541858315253194 -41.707716285603965 0 0 0 0 173.02039719460299 103.26464647505782 0 103.26464647505782 9.1966021175794594 0 0 0 0 262.38503782299813 42.583874493735493 0 42.583874493735493 18.886687562204315 0 0 0 0 -7.0522010552737697 5.0635455172336776 0 5.0635455172336776 0.98271790664844616 0 0 0 0 47.376145528076449 58.128884627356456 0 58.128884627356456 23.368198317903989 0 0 0 0 106.47973006492975 34.761238136001339 0 34.761238136001339 -60.967970224810415 0 0 0 0 142.65796883111034 105.13410954368737 0 105.13410954368737 20.52485913921555 0 0 0 0 169.73415797549387 71.50986468703195 0 71.50986468703195 9.9669416282122256 0 0 0 0 189.8892847941861 45.60466881434877 0 45.60466881434877 -125.08872203446663 0 0 0 0 240.41520672553452 78.361936254512329 0 78.361936254512329 -1.0892146040914668 0 0 0 0 169.68218382560553 89.696406092381721 0 89.696406092381721 -23.223864208732266 0 0 0 0 4.8505920625851431 6.9729952791179883 0 6.9729952791179883 -12.870217141707585 0 0 0 0 34.246150262144511 -21.481294575027277 0 -21.481294575027277 -55.54381932477736 0 0 0 0 142.77244074470946 92.920841233570172 0 92.920841233570172 -23.249255756214552 0 0 0 0 165.97210364912462 66.455539942755422 0 66.455539942755422 3.7825380472058896 0 0 0 0 -98.784600865576067 219.59293956067268 0 219.59293956067268 150.3246170416096 0 0 0 0 -1.0703307819989902 1.5128685827663944 0 1.5128685827663944 -4.028762153458942 0 0 0 0 -47.798787528274261 -113.77067544156489 0 -113.77067544156489 183.2098528190545 0 0 0 0 -160.10837618213554 184.06960715717287 0 184.06960715717287 -167.49100231936609 0 0 0 0 -36.408077291642257 325.35375116194155 0 325.35375116194155 -179.47774242632295 0 0 0 0 108.17941250751028 402.04579829684371 0 402.04579829684371 -421.78311502640645 0 0 0 0 41.445144476310816 134.49507705986616 0 134.49507705986616 -420.92178771094905 0 0 0 0 150.49772550741363 -92.216037560251607 0 -92.216037560251607 -113.68631192708563 0 0 0 0 -79.867984062846517 -20.401011451624072 0 -20.401011451624072 214.04415381263971 0 0 0 0 72.660794968251139 -0.80728021868708311 0 -0.80728021868708311 -85.88863355624926 0 0 0 0 70.461908607969235 462.40553540951441 0 462.40553540951441 -233.76351715443889 0 0 0 0 -31.364785401861653 34.582735474681826 0 34.582735474681826 -37.686534939576262 0 0 0 0 184.79089903870226 232.0597305254214 0 232.0597305254214 -234.61463172852382 0 0 0 0 -117.42274061040735 -86.110634737638975 0 -86.110634737638975 -67.76394010331569 0 0 0 0 -31.694852183627518 71.531093120342121 0 71.531093120342121 12.525281376205385 0 0 0 0 -54.510961491076159 148.28309060524407 0 148.28309060524407 -219.42144244827068 0 0 0 0 -28.040160261192796 23.88397354427434 0 23.88397354427434 59.451878450825461 0 0 0 0 -269.42526815665769 79.02853532291374 0 79.02853532291374 142.58312106380617 0 0 0 0 -6.5708382955599518 164.23812853941126 0 164.23812853941126 132.16522921882279 0 0 0 0 162.03567377814034 120.19077206482643 0 120.19077206482643 -53.551846773865691 0 0 0 0 -25.908219919421228 39.603024120759898 0 39.603024120759898 -36.517251004913888 0 0 0 0 44.608738694287695 55.667709892831454 0 55.667709892831454 12.711118913015525 0 0 0 0 31.932578107284044 26.295501486647865 0 26.295501486647865 -9.2306690840936696 0 0 0 0 35.014859875846014 45.618437267312402 0 45.618437267312402 -36.293173333129744 0 0 0 0 5.5736910233936214 73.234641621733317 0 73.234641621733317 38.699066128137929 0 0 0 0 10.783472862499821 46.082410175866833 0 46.082410175866833 -14.135751084279079 0 0 0 0 31.172815351295867 49.746829060008167 0 49.746829060008167 -36.960177092428239 0 0 0 0 -2.017550014104927 66.928936907796015 0 66.928936907796015 41.790611780059407 0 0 0 0 48.202328377512458 45.014681537551951 0 45.014681537551951 -57.165801752289553 0 0 0 0 -47.105112785284291 -39.323784921427432 0 -39.323784921427432 84.794795267705922 0 0 0 0 21.292337987535575 117.74383349721757 0 117.74383349721757 -56.378618270489824 0 0 0 0 4.3114397104949518 4.3748429532686224 0 4.3748429532686224 3.0547017542921253 0 0 0 0 -71.176580996951088 48.435785351455706 0 48.435785351455706 -0.16294464424572652 0 0 0 0 24.567113570548827 15.419666612258879 0 15.419666612258879 -115.15357464399858 0 0 0 0 -19.420287205983186 69.308384684431076 0 69.308384684431076 -38.804144302077475 0 0 0 0 -40.891896961404655 9.6477852435291425 0 9.6477852435291425 80.230476961296517 0 0 0 0 -21.143988043695572 49.599948394945386 0 49.599948394945386 -0.18425202225125759 0 0 0 0 -4.9780535169119986 21.06648676035438 0 21.06648676035438 19.588182676619823 0 0 0 0 1.417554931504128 44.324272986847063 0 44.324272986847063 -21.914848204869486 0 0 0 0 -34.396688736747819 37.086498692335226 0 37.086498692335226 16.552921176458767 0 0 0 0 27.939869588873989 14.623117337367148 0 14.623117337367148 3.7940204743536015 0 0 0 0 -89.228800718218736 68.423204045310285 0 68.423204045310285 -2.2977480760891922 0 0 0 0 67.092425238799478 7.1896923058338871 0 7.1896923058338871 -38.227214920239931 0 0 0 0 10.309447662699753 14.103094430725676 0 14.103094430725676 10.966106212089755 0 0 0 0 -202.73136856324709 37.112446614031796 0 37.112446614031796 27.825207806163235 0 0 0 0 -41.76547233778183 88.418544840065806 0 88.418544840065806 -16.82246023202606 0 0 0 0 -59.205280816917366 74.761000809543475 0 74.761000809543475 -9.8881371984825819 0 0 0 0 -86.162652360475477 115.89182809743943 0 115.89182809743943 -72.591116127026908 0 0 0 0 -95.174545420108188 87.864346707158347 0 87.864346707158347 -3.2273815806911443 0 0 0 0 -52.163314981546137 98.240248975467694 0 98.240248975467694 -13.082693119760734 0 0 0 0 -52.190124486836794 99.497322046054251 0 99.497322046054251 17.706981164767058 0 0 0 0 -35.894796749413217 99.890774771944052 0 99.890774771944052 -22.254721439458081 0 0 0 0 53.706285286138154 53.056455495261616 0 53.056455495261616 -63.999680728091334 0 0 0 0 -39.373105795646552 84.231719951887499 0 84.231719951887499 -5.6469901868222223 0 0 0 0 7.7881514977223887 12.28834443296725 0 12.28834443296725 0.3018263313815055 0 0 0 0 9.1508404317810346 115.35039732822224 0 115.35039732822224 -113.69968160790449 0 0 0 0 -5.6466861442769698 15.94143361616625 0 15.94143361616625 28.296507369351971 0 0 0 0 -8.2237276764899434 -43.695949824614218 0 -43.695949824614218 54.588038817208144 0 0 0 0 24.271670350768545 41.309648177393683 0 41.309648177393683 -18.229307291367149 0 0 0 0 -40.652245519060671 59.044280142774369 0 59.044280142774369 14.622521438694093 0 0 0 0 61.654762786916763 -7.995906217409356 0 -7.995906217409356 14.169151576425065 0 0 0 0 3.0283859562354429 14.112371578715788 0 14.112371578715788 28.264800324534576 0 0 0 0 -654.88235412946051 115.1459854812183 0 115.1459854812183 55.068963948075179 0 0 0 0 0.4023498406244741 1.5729491698037634 0 1.5729491698037634 3.9454633593015132 0 0 0 0 -50.976987307600211 108.64151438631961 0 108.64151438631961 -31.324271822708397 0 0 0 0 -347.18346345469945 -41.932587320333369 0 -41.932587320333369 37.114883981341336 0 0 0 0 -313.84631895149596 15.899108471503496 0 15.899108471503496 -23.32209770047848 0 0 0 0 -7.5920364099343018 9.7434419895644098 0 9.7434419895644098 14.378777444601674 0 0 0 0 -51.654465453388184 8.8471333243442132 0 8.8471333243442132 81.986837938122335 0 0 0 0 -233.09181253918268 149.08703995875476 0 149.08703995875476 -167.63758779377895 0 0 0 0 -4.7696128909328763 -47.176599239294774 0 -47.176599239294774 49.024389730904659 0 0 0 0 5.0686588452788186 16.35306512253252 0 16.35306512253252 20.244295459586112 0 0 0 0 282.46152535344299 432.97528164262621 0 432.97528164262621 -156.9318810525819 0 0 0 0 -16.709567028479796 38.710345057066661 0 38.710345057066661 33.442902149330621 0 0 0 0 -27.879286930958187 11.786041352450411 0 11.786041352450411 -28.068006759807758 0 0 0 0 -53.602782744412252 74.065985789529805 0 74.065985789529805 -37.161399842128048 0 0 0 0 -97.075616534515575 30.518621909359354 0 30.518621909359354 -62.602271560659574 0 0 0 0 -17.334402058175328 24.306605708708958 0 24.306605708708958 -4.6875684536498738 0 0 0 0 4.8905998038393435 1.6909247751315917 0 1.6909247751315917 -3.914856008590192 0 0 0 0 -188.6023081274152 143.04569116411312 0 143.04569116411312 -34.977680669275287 0 0 0 0 -165.56233019065985 112.41120707196023 0 112.41120707196023 -136.3258299960662 0 0 0 0 -1.0060724848185458 4.7627865302281407 0 4.7627865302281407 2.7564869048395906 0 0 0 0 -186.34237000409121 97.820022912284912 0 97.820022912284912 -28.648395304131554 0 0 0 0 -92.047418292058865 58.963265586280613 0 58.963265586280613 -37.514572965606021 0 0 0 0 -68.243459657927815 75.017939689723789 0 75.017939689723789 -35.011281532220892 0 0 0 0 -149.96434369560393 155.6159542353389 0 155.6159542353389 -57.628448351671977 0 0 0 0 -21.607346133378087 122.17052811176836 0 122.17052811176836 -113.56709436371602 0 0 0 0 -73.611224393473094 28.660298805840284 0 28.660298805840284 -7.111050569685176 0 0 0 0 44.709007785542781 27.166381018424545 0 27.166381018424545 -50.995262620221183 0 0 0 0 94.870277185647865 -20.810871768579091 0 -20.810871768579091 -79.316307418068391 0 0 0 0 43.088564527150083 -4.3929631856426568 0 -4.3929631856426568 -20.15421488625725 0 0 0 0 46.768978875941684 -6.5783709043789713 0 -6.5783709043789713 -25.300947771676874 0 0 0 0 53.752770063191747 49.138402653237108 0 49.138402653237108 -8.9602375320100691 0 0 0 0 26.83694794628471 12.473432443815312 0 12.473432443815312 2.7234868542417736 0 0 0 0 1.9730399160225645 23.684870180038196 0 23.684870180038196 -30.68647803771708 0 0 0 0 43.225160377256543 31.471639384708396 0 31.471639384708396 -16.632199582840258 0 0 0 0 138.64143936587789 51.556108100279744 0 51.556108100279744 -45.720906568920327 0 0 0 0 31.142549942657652 20.782719781389432 0 20.782719781389432 -6.962566690392979 0 0 0 0 70.797868145764369 20.894579356070608 0 20.894579356070608 -13.104126932412328 0 0 0 0 69.101923530260137 85.246008685213383 0 85.246008685213383 18.169405354627088 0 0 0 0 113.20931422806461 59.005192427628572 0 59.005192427628572 33.779389032588369 0 0 0 0 75.756094400174334 83.683264657074687 0 83.683264657074687 57.238283349473932 0 0 0 0 62.307474385357636 56.885555981469224 0 56.885555981469224 52.939025593805127 0 0 0 0 82.362343107088236 59.977792519281138 0 59.977792519281138 7.0082299798013992 0 0 0 0 35.198944520399891 40.119370853179589 0 40.119370853179589 37.305607744616282 0 0 0 0 -8.5729639117962613 13.657192546749048 0 13.657192546749048 -23.486757055432619 0 0 0 0 -10.515927249645756 139.10000188745471 0 139.10000188745471 4.790195378932367 0 0 0 0 -24.752616148251036 2.3455808218550374 0 2.3455808218550374 -23.830697475916168 0 0 0 0 91.69204472436104 134.99753288370266 0 134.99753288370266 5.9328688907687592 0 0 0 0 77.006311401739367 74.31022128647237 0 74.31022128647237 39.248723182827234 0 0 0 0 77.490610733068024 92.161261004170228 0 92.161261004170228 54.797317336375272 0 0 0 0 64.177884627657477 76.765451331182703 0 76.765451331182703 64.646686589549063 0 0 0 0 130.54082060668588 115.55174262730725 0 115.55174262730725 81.162772386553115 0 0 0 0 -2.0633583928724875 1.7632351969718414 0 1.7632351969718414 -0.65096264249930158 0 0 0 0 54.30179654211679 108.58689571684226 0 108.58689571684226 121.18858714757516 0 0 0 0 -3.4176639493744361 0.82678759153497339 0 0.82678759153497339 2.7365588772928788 0 0 0 0 95.547255449513614 131.60836620862028 0 131.60836620862028 97.153762232002919 0 0 0 0 24.212550301119336 77.660110842090944 0 77.660110842090944 100.19899808641276 0 0 0 0 64.993424488355231 93.657771547608718 0 93.657771547608718 84.919664581379038 0 0 0 0 46.671098277507554 48.567155703207391 0 48.567155703207391 74.922770118566405 0 0 0 0 79.968881965378387 69.832617482597925 0 69.832617482597925 68.920599215205584 0 0 0 0 114.86482216492004 53.396434940284962 0 53.396434940284962 59.433861916550086 0 0 0 0 132.93794530129526 89.632203732438938 0 89.632203732438938 57.368656899137932 0 0 0 0 109.48923915386695 87.161282889655922 0 87.161282889655922 52.625327734607708 0 0 0 0 73.995626447765972 66.787960877521982 0 66.787960877521982 68.781864234376599 0 0 0 0 64.96786174862973 77.343668423428426 0 77.343668423428426 56.694768264664162 0 0 0 0 148.57201367618472 98.291255509187977 0 98.291255509187977 56.507088541133271 0 0 0 0 1.3788506505665339 -0.093401683686906267 0 -0.093401683686906267 1.5852526543095991 0 0 0 0 128.78651502294815 92.38416074329507 0 92.38416074329507 72.504296248836908 0 0 0 0 125.73819138113322 76.772414557519369 0 76.772414557519369 52.013092112782033 0 0 0 0 8.9356550953671103 8.8280137916162857 0 8.8280137916162857 -22.6566553256107 0 0 0 0 -17.6730226614618 14.81057967696961 0 14.81057967696961 8.6208074014612066 0 0 0 0 -133.61358415791983 -3.6678310345050704 0 -3.6678310345050704 112.08329197515559 0 0 0 0 246.22992248548326 167.84782053699746 0 167.84782053699746 33.429105018207338 0 0 0 0 0.80235318677640777 -0.76596176280042272 0 -0.76596176280042272 -0.26578139395998335 0 0 0 0 181.98063601301692 103.59322770827202 0 103.59322770827202 36.059568868520728 0 0 0 0 195.62375096277083 62.03860078171374 0 62.03860078171374 56.424851548657898 0 0 0 0 96.594330019201152 95.042711897647678 0 95.042711897647678 68.201971487003902 0 0 0 0 64.036588262853911 69.852793655885762 0 69.852793655885762 61.960762172770046 0 0 0 0 98.313868236582493 67.925695696315415 0 67.925695696315415 -11.192142580955988 0 0 0 0 59.634547597353958 32.669631750681219 0 32.669631750681219 -21.64274750450295 0 0 0 0 77.497659546113937 -18.617280317459517 0 -18.617280317459517 -62.328172751011152 0 0 0 0 68.300105317775433 32.153192950041607 0 32.153192950041607 -7.621667687805596 0 0 0 0 72.154027439328274 41.882530647513704 0 41.882530647513704 -78.167837342320126 0 0 0 0 174.14688917722378 68.808498484795564 0 68.808498484795564 -92.959294224245241 0 0 0 0 61.948089931524777 26.184855635023105 0 26.184855635023105 4.8007326437650093 0 0 0 0 77.363984999205059 55.618916638360588 0 55.618916638360588 -60.811777806440659 0 0 0 0 8.1198158960723958 59.691032481616276 0 59.691032481616276 28.053712928467576 0 0 0 0 22.733339941275972 162.16251654690495 0 162.16251654690495 -16.746580189581437 0 0 0 0 24.785809534331271 28.420088412551351 0 28.420088412551351 23.708953234536892 0 0 0 0 137.09010815418333 177.59103272918401 0 177.59103272918401 87.941326124688203 0 0 0 0 94.298510233096749 143.12909033499818 0 143.12909033499818 100.11294302674651 0 0 0 0 -1.964811461957197 -21.402815822286811 0 -21.402815822286811 2.6557308385745273 0 0 0 0 -59.416708369230037 14.132763430159685 0 14.132763430159685 24.901388465506898 0 0 0 0 -30.914591066873982 -15.258977454534033 0 -15.258977454534033 -133.15088566796476 0 0 0 0 -3.5518303141070646 47.404335955750867 0 47.404335955750867 -22.732445541185371 0 0 0 0 3.0817606861982085 5.5418325392368928 0 5.5418325392368928 7.070422903107314 0 0 0 0 -20.47221764103233 -19.733511516888029 0 -19.733511516888029 12.913741014250263 0 0 0 0 24.993027325090225 13.407876825050153 0 13.407876825050153 7.0636259853781667 0 0 0 0 -7.3146368646121118 31.384358160823467 0 31.384358160823467 16.426391843124293 0 0 0 0 2.5111854379804015 12.616366059897231 0 12.616366059897231 9.3293245581340773 0 0 0 0 185.43803695717361 49.248786088441193 0 49.248786088441193 18.062768917396625 0 0 0 0 -140.6827739802975 446.47362847660406 0 446.47362847660406 -172.06835505094205 0 0 0 0 -156.85462377428485 330.4970213086599 0 330.4970213086599 -418.32907608726237 0 0 0 0 -0.48930016358397665 1.3432109912579762 0 1.3432109912579762 1.9020930814045283 0 0 0 0 83.098415705724619 353.92140592154556 0 353.92140592154556 -527.76183295896044 0 0 0 0 51.513594056661532 -84.411983913210861 0 -84.411983913210861 99.458716981447651 0 0 0 0 0.63680162451751698 0.74320305320163982 0 0.74320305320163982 2.5810007127492156 0 0 0 0 464.25148028751573 -196.00690822776232 0 -196.00690822776232 -199.90097468267777 0 0 0 0 -138.37460369079781 -12.547674176319561 0 -12.547674176319561 213.00195332702606 0 0 0 0 -174.19840541264239 50.302356457496899 0 50.302356457496899 125.4916525454646 0 0 0 0 -175.24389112646168 99.74457737148623 0 99.74457737148623 128.21238759738844 0 0 0 0 7.4838297232066182 28.513716511080659 0 28.513716511080659 22.823737448552876 0 0 0 0 -5.0916244820957282 -0.20720583275767268 0 -0.20720583275767268 1.3962765951162766 0 0 0 0 -60.362576593877748 40.804591923410044 0 40.804591923410044 8.9389596693163185 0 0 0 0 -126.34257180126906 42.713944460645052 0 42.713944460645052 1.1212206488562515 0 0 0 0 -44.860171579122834 29.133211763842375 0 29.133211763842375 3.1882708838016072 0 0 0 0 -13.393697287582114 10.656497856276488 0 10.656497856276488 -0.70090180305010108 0 0 0 0 156.48609938425943 82.697269979149496 0 82.697269979149496 46.20991958675404 0 0 0 0 285.66148842903203 -169.54536968757748 0 -169.54536968757748 245.17489318751905 0 0 0 0 73.809304784736014 135.21038132952526 0 135.21038132952526 86.666589549673517 0 0 0 0 68.048809919659107 146.64886884079897 0 146.64886884079897 31.857730674910272 0 0 0 0 -5.9051618088281685 8.6326151911754607 0 8.6326151911754607 10.261347210307449 0 0 0 0 -52.824756712227099 24.828557688355431 0 24.828557688355431 35.431951636390295 0 0 0 0 -30.966557456325972 59.850150743644917 0 59.850150743644917 18.622501929923601 0 0 0 0 -115.50342314979935 25.489101198429125 0 25.489101198429125 36.043711262139368 0 0 0 0 -81.951422049496614 78.106703042190929 0 78.106703042190929 31.561820271941542 0 0 0 0 12.623453729771427 59.658924287916307 0 59.658924287916307 27.319329447978816 0 0 0 0 -103.01035150389725 190.69741324610004 0 190.69741324610004 -115.71103657923231 0 0 0 0 497.94978459775302 -208.80666218700208 0 -208.80666218700208 146.48015370030771 0 0 0 0 1.2238036142605466 1.3937471763763938 0 1.3937471763763938 3.8511358860965856 0 0 0 0 -2.6414740616492054 -82.788381263136216 0 -82.788381263136216 115.3922286279012 0 0 0 0 782.21447524363612 116.46587015515343 0 116.46587015515343 -408.18258922044333 0 0 0 0 -385.58276843749627 -10.277244165670709 0 -10.277244165670709 212.20555493150459 0 0 0 0 59.207128861315141 380.0150073275945 0 380.0150073275945 -187.97789394707797 0 0 0 0 -2.6315785713316586 3.0025655433550398 0 3.0025655433550398 -2.9340246440555404 0 0 0 0 18.479039848236425 39.452985747464481 0 39.452985747464481 -89.248637416418205 0 0 0 0 -40.79632134429994 49.260570414993708 0 49.260570414993708 35.248251791403163 0 0 0 0 -44.066941099733185 -15.495430094762298 0 -15.495430094762298 22.019759049468121 0 0 0 0 29.467029224149883 47.315752118767705 0 47.315752118767705 38.777543595133125 0 0 0 0 7.4700683128758101 10.039680998936092 0 10.039680998936092 40.006759164083633 0 0 0 0 34.108749762817752 -9.3744017070712289 0 -9.3744017070712289 4.4057460578660539 0 0 0 0 46.319843041754211 110.62823529180241 0 110.62823529180241 16.505878696544642 0 0 0 0 -8.1666949299933123 8.3669056333071694 0 8.3669056333071694 -8.9658665145821459 0 0 0 0 31.6912730830295 29.234694224518762 0 29.234694224518762 32.912580457123113 0 0 0 0 -239.63948912505111 -5.648747726540023 0 -5.648747726540023 88.08269523067429 0 0 0 0 32.690764183687861 39.151706258226113 0 39.151706258226113 -95.337729720151401 0 0 0 0 -2.0559035260104821 1.4801136771632315 0 1.4801136771632315 -2.0906524957078432 0 0 0 0 37.028914166392497 6.3875979550357442 0 6.3875979550357442 6.2814161311034695 0 0 0 0 9.0825723980142499 10.457755002436876 0 10.457755002436876 -6.8154665644941872 0 0 0 0 107.21213468541737 51.962313353609261 0 51.962313353609261 -30.282110522206494 0 0 0 0 -9.2524841234314241 31.594554147382617 0 31.594554147382617 5.9238867291942512 0 0 0 0 80.506919466832187 26.069546694141536 0 26.069546694141536 15.050002524072625 0 0 0 0 47.908244895032112 50.233153800825676 0 50.233153800825676 16.684848496006452 0 0 0 0 34.924678359148857 13.621092694985691 0 13.621092694985691 -16.425901384456665 0 0 0 0 1.2903444016064896 -7.8363245336040563 0 -7.8363245336040563 3.9769566208415199 0 0 0 0 131.94858764937453 9.158321792327115 0 9.158321792327115 -0.35640511367273575 0 0 0 0 0.44117986863871295 0.52551082394244375 0 0.52551082394244375 -3.2912393289758342 0 0 0 0 22.203531666133131 20.023784039326529 0 20.023784039326529 -3.6466163613149547 0 0 0 0 82.942361272540438 24.920620994265846 0 24.920620994265846 -9.8025130038513453 0 0 0 0 69.87808112645871 71.190170111362022 0 71.190170111362022 -71.993644391965063 0 0 0 0 -4.4571969283842616 30.19408491846243 0 30.19408491846243 3.2584342712658412 0 0 0 0 26.350202027555497 13.368929043754179 0 13.368929043754179 6.8391491670699907 0 0 0 0 5.6705954362089983 6.2546957244339687 0 6.2546957244339687 -4.6158583411709806 0 0 0 0 34.648759506682836 11.580249614555214 0 11.580249614555214 -10.573950673973741 0 0 0 0 37.262484475953897 8.3327721941018353 0 8.3327721941018353 -6.5831559813159402 0 0 0 0 -14.551196266547754 30.764536441954093 0 30.764536441954093 2.0629563547759489 0 0 0 0 143.01439663144811 84.571670307951536 0 84.571670307951536 54.561975414493645 0 0 0 0 175.79050623046351 116.04154252836815 0 116.04154252836815 82.961345708128647 0 0 0 0 0.60266140349449415 0.19189562821991402 0 0.19189562821991402 -0.30187379538838854 0 0 0 0 75.727449288475327 30.730289018789335 0 30.730289018789335 70.35449104012514 0 0 0 0 68.961153672564251 65.833594172021549 0 65.833594172021549 33.142587992184417 0 0 0 0 82.403641769764363 53.3672096843693 0 53.3672096843693 63.973245245208091 0 0 0 0 170.20554839425017 42.334618987426325 0 42.334618987426325 48.427493397372018 0 0 0 0 82.867874302978635 50.572669128485813 0 50.572669128485813 70.110442827019142 0 0 0 0 43.675754898831656 27.965588994358768 0 27.965588994358768 58.158075118990382 0 0 0 0 -88.696638944660663 23.848955660638239 0 23.848955660638239 46.097838493249583 0 0 0 0 -41.518351791717578 80.660016773384996 0 80.660016773384996 114.429687988978 0 0 0 0 -24.184133448868124 49.509942888055548 0 49.509942888055548 40.823284283156681 0 0 0 0 -13.699551547072133 95.24376714366872 0 95.24376714366872 -40.38728410148542 0 0 0 0 -143.97934314899794 148.52723103585686 0 148.52723103585686 12.414047788726748 0 0 0 0 98.050591979321325 57.727485088311369 0 57.727485088311369 -15.698855244660081 0 0 0 0 120.37083604995223 85.688495454305439 0 85.688495454305439 15.265603080260917 0 0 0 0 -130.83186285096781 82.711613361422678 0 82.711613361422678 -52.712140090687171 0 0 0 0 0.7753893859304597 -0.41742659694087791 0 -0.41742659694087791 -1.9175394179115415 0 0 0 0 -9.6454530123137374 -30.43624655518397 0 -30.43624655518397 -52.963043725852913 0 0 0 0 45.523947389923705 81.338812233905628 0 81.338812233905628 -133.27952417478446 0 0 0 0 -28.234648367247246 130.45901703580512 0 130.45901703580512 -38.793554224634136 0 0 0 0 -37.662910496543191 56.532260168327412 0 56.532260168327412 7.2032143180513231 0 0 0 0 -241.98546464765059 134.66477347788805 0 134.66477347788805 -12.703513969881897 0 0 0 0 225.21278454736375 21.09627842558325 0 21.09627842558325 6.0821691641467623 0 0 0 0 2.1363280362132127 9.6344237677319242 0 9.6344237677319242 15.603773231849971 0 0 0 0 -502.52268454908881 147.91279939024025 0 147.91279939024025 88.178049631731483 0 0 0 0 1.459759208090448 6.3020361224335346 0 6.3020361224335346 10.399563649242012 0 0 0 0 -172.73019984629718 86.858707712057367 0 86.858707712057367 -63.280048593447646 0 0 0 0 -188.82686151240523 218.7817494894216 0 218.7817494894216 -15.042021425182611 0 0 0 0 365.57727162409083 74.749317848037208 0 74.749317848037208 0.14087812242360087 0 0 0 0 -29.969939601949591 22.259309733479313 0 22.259309733479313 -5.9166259868470661 0 0 0 0 7.1955493695038371 4.9707117786560815 0 4.9707117786560815 1.816730941409233 0 0 0 0 -109.6493423426291 188.87147776703932 0 188.87147776703932 -269.02512629979174 0 0 0 0 -35.344948655631015 38.058916073185173 0 38.058916073185173 -15.446435208796174 0 0 0 0 -29.052895051499945 43.017921501883393 0 43.017921501883393 -25.597593632541248 0 0 0 0 -13.032956238195766 33.671654475903779 0 33.671654475903779 -20.1947805618438 0 0 0 0 2.9827527016089164 0.11750939230418567 0 0.11750939230418567 -2.8002526931618235 0 0 0 0 -122.1776775877297 176.69767357334422 0 176.69767357334422 -220.69451239365299 0 0 0 0 -129.11304983003356 133.90584113935074 0 133.90584113935074 -140.52037711179946 0 0 0 0 -149.82794902168553 210.45618427434101 0 210.45618427434101 -223.23683184541005 0 0 0 0 -141.24536843410897 166.38660730512402 0 166.38660730512402 -223.40753549725196 0 0 0 0 -151.62825585053361 151.80698590683551 0 151.80698590683551 -125.35794859372982 0 0 0 0 -125.79987437930527 202.58907706910293 0 202.58907706910293 -144.06995956131141 0 0 0 0 5.8489019216972338 3.4830823380439568 0 3.4830823380439568 1.2580766851169898 0 0 0 0 -32.806019065028522 67.792840249599976 0 67.792840249599976 -32.569669170766247 0 0 0 0 19.666448898082308 1.541269979235949 0 1.541269979235949 -44.131568638087629 0 0 0 0 124.77042757276649 127.29538894874531 0 127.29538894874531 27.488833726467419 0 0 0 0 0.13048134273049072 74.050252964934771 0 74.050252964934771 4.8701086281507742 0 0 0 0 -2.3178026325540486 32.709330451296864 0 32.709330451296864 62.439359798052465 0 0 0 0 -2.9921630641897536 23.40801980178901 0 23.40801980178901 -16.418923969475145 0 0 0 0 -0.29521030572504969 96.500656326752505 0 96.500656326752505 -91.366659674651601 0 0 0 0 0.75462100051603898 -0.79698950393428447 0 -0.79698950393428447 -0.80337096258982399 0 0 0 0 -58.080272943829186 93.229299871409239 0 93.229299871409239 -10.368112486325117 0 0 0 0 -54.196709949868364 51.723160971341031 0 51.723160971341031 18.312141893016815 0 0 0 0 -42.432870434564393 54.790767752525426 0 54.790767752525426 0.58128083651172346 0 0 0 0 -11.910521791069186 26.863583664526232 0 26.863583664526232 25.707288109675574 0 0 0 0 -22.033948266573134 21.506580634921193 0 21.506580634921193 -8.8820320514896594 0 0 0 0 0.56140771488745145 -0.67629069297343847 0 -0.67629069297343847 -0.64089315157045235 0 0 0 0 -21.348309944820357 21.31063761882433 0 21.31063761882433 -24.169952315485716 0 0 0 0 -16.953046008769888 30.418002316017009 0 30.418002316017009 -49.827888827596325 0 0 0 0 -28.761210581134947 29.901134420362723 0 29.901134420362723 -20.183258258999558 0 0 0 0 -27.995230408632779 32.213633337640204 0 32.213633337640204 -13.375022695503503 0 0 0 0 0.61342590512452944 -0.82401301770281066 0 -0.82401301770281066 -0.69761583483045086 0 0 0 0 -30.087003871978595 -32.1978965261535 0 -32.1978965261535 86.022159338583151 0 0 0 0 -9.6322069161997206 44.386588161277359 0 44.386588161277359 16.544174520327942 0 0 0 0 -34.322042159510602 36.932680025564878 0 36.932680025564878 18.577959356451174 0 0 0 0 -25.991273897889187 68.621249414034537 0 68.621249414034537 -59.160876940321032 0 0 0 0 6.3929172316861838 10.020553181152351 0 10.020553181152351 4.9673715923472912 0 0 0 0 -58.92363664930599 -219.87544276009203 0 -219.87544276009203 -83.762484346938436 0 0 0 0 -2.1958372183289612 16.872699681302038 0 16.872699681302038 -1.5892627454013564 0 0 0 0 -278.01407630169706 91.019971871701273 0 91.019971871701273 78.006680538856017 0 0 0 0 -415.26749591156295 -81.59204397604617 0 -81.59204397604617 -133.00767448364059 0 0 0 0 -22.248809707089094 265.17789720121436 0 265.17789720121436 -735.39486863552156 0 0 0 0 237.14169910404598 68.780108189654129 0 68.780108189654129 -207.05679032836815 0 0 0 0 -29.938604196766391 301.24799126539438 0 301.24799126539438 -154.90514909137892 0 0 0 0 8.9678865685986864 4.9573069111729495 0 4.9573069111729495 1.5027425669785686 0 0 0 0 218.49695027455255 9.551212601129464 0 9.551212601129464 6.5852691426043748 0 0 0 0 -16.629964755513356 18.22595160052515 0 18.22595160052515 -15.486375131418754 0 0 0 0 -28.834979457169538 24.221836081838774 0 24.221836081838774 -6.9704270153088146 0 0 0 0 -17.475550488758017 29.567714868764597 0 29.567714868764597 -26.251449982548365 0 0 0 0 -29.211915498104645 41.417903226720227 0 41.417903226720227 -22.235477559443098 0 0 0 0 -34.199603822020435 33.738590801999635 0 33.738590801999635 -5.9443696730959346 0 0 0 0 -335.13864064358495 554.63818625492058 0 554.63818625492058 -200.6873614798651 0 0 0 0 -278.42407191744496 238.44399947180045 0 238.44399947180045 65.720237725414336 0 0 0 0 -528.50413952460804 391.02290988826644 0 391.02290988826644 -16.391411459413575 0 0 0 0 46.532581480017143 199.19423392672161 0 199.19423392672161 -497.17742620584977 0 0 0 0 -326.68403157046851 -11.492105219338555 0 -11.492105219338555 11.495984919613875 0 0 0 0 -4.9352096994739441 5.0200217474304978 0 5.0200217474304978 0.85179789762506886 0 0 0 0 -323.25741414012646 430.72431749631392 0 430.72431749631392 -375.57354140757889 0 0 0 0 -330.82612628464267 492.15670574802425 0 492.15670574802425 -442.4391445614383 0 0 0 0 -117.59459584500291 -151.93071793350828 0 -151.93071793350828 -88.453422995717119 0 0 0 0 -516.80272596771829 424.45178733378634 0 424.45178733378634 -266.34875013501733 0 0 0 0 19.139892908839101 174.99380778568411 0 174.99380778568411 118.09948558556061 0 0 0 0 -38.555279255357163 56.325034370220237 0 56.325034370220237 -101.85581096011265 0 0 0 0 -321.00520883111312 100.53540835012973 0 100.53540835012973 197.85794997320954 0 0 0 0 -284.72453007625154 347.97622986539682 0 347.97622986539682 -405.6080646670116 0 0 0 0 -6.3200525088538768 2.2442476509082887 0 2.2442476509082887 -1.5359812956248007 0 0 0 0 -22.131056933867512 -35.815929362586758 0 -35.815929362586758 83.621132358686737 0 0 0 0 -202.49268056521669 86.450962501737195 0 86.450962501737195 15.708495851387852 0 0 0 0 -209.92203998862624 32.503324759532461 0 32.503324759532461 65.096967417819542 0 0 0 0 -85.078530099679483 2.4308548125445668 0 2.4308548125445668 37.074651952256318 0 0 0 0 -4.5150867693300825 32.649389398069616 0 32.649389398069616 34.699126753723249 0 0 0 0 -80.012183203914901 3.3648755936155794 0 3.3648755936155794 18.313158905588352 0 0 0 0 -139.81662179317937 -25.65941846059286 0 -25.65941846059286 87.27997465232329 0 0 0 0 104.24798342458234 120.15907111428896 0 120.15907111428896 41.106873612923664 0 0 0 0 76.688135151554889 -4.0616232566935651 0 -4.0616232566935651 27.024990363141114 0 0 0 0 -54.603294397427817 67.904725008284004 0 67.904725008284004 58.482269204858312 0 0 0 0 -16.407996564579662 229.11103923748306 0 229.11103923748306 -263.50335972776156 0 0 0 0 -98.336403865614557 237.0780729914477 0 237.0780729914477 -254.30559729215747 0 0 0 0 -93.541095568187302 255.76489253273394 0 255.76489253273394 -205.69882975939254 0 0 0 0 -94.572537030471722 220.79908719573723 0 220.79908719573723 -215.33373279821899 0 0 0 0 -205.85357173690863 265.83827844736516 0 265.83827844736516 -276.10008712385024 0 0 0 0 -146.17773212651082 181.94427889324288 0 181.94427889324288 -219.96768702430563 0 0 0 0 -0.16438048415055562 0.9834380157151088 0 0.9834380157151088 0.46484285110276602 0 0 0 0 -85.141468351284857 176.47501840293262 0 176.47501840293262 -225.91434415588083 0 0 0 0 28.940113020857098 135.05192751873983 0 135.05192751873983 -252.1813357463252 0 0 0 0 121.4234422344598 196.58188178234559 0 196.58188178234559 -353.58151031626039 0 0 0 0 -28.121874642805778 244.72409513454477 0 244.72409513454477 -283.62690737743105 0 0 0 0 131.5577472324585 277.33828573176788 0 277.33828573176788 -394.33285634792992 0 0 0 0 -484.45319553702575 356.96730192726136 0 356.96730192726136 -52.615451136996853 0 0 0 0 -150.91371837086626 367.15327695938322 0 367.15327695938322 -189.3954059574171 0 0 0 0 14.962560172243684 347.01244757563109 0 347.01244757563109 -389.27618418935162 0 0 0 0 -152.02509362946148 354.51861627963081 0 354.51861627963081 -253.95788139822253 0 0 0 0 -347.96110336239508 570.86307618290084 0 570.86307618290084 -393.30233031783428 0 0 0 0 -363.87749510268623 232.24128576217117 0 232.24128576217117 69.843299550935626 0 0 0 0 -288.4261842553824 375.39644643941574 0 375.39644643941574 -177.40338311951564 0 0 0 0 -123.54968164056481 307.22578943492408 0 307.22578943492408 -224.09806041723277 0 0 0 0 -212.6250276354549 293.2908857562179 0 293.2908857562179 -104.49733214276785 0 0 0 0 -178.85283180189435 214.79860416365773 0 214.79860416365773 -85.06953654094832 0 0 0 0 -271.19036048003181 179.41399276513948 0 179.41399276513948 -23.155769462355238 0 0 0 0 -229.60063521657139 108.4067823412006 0 108.4067823412006 73.57391005210161 0 0 0 0 -198.5277812344284 79.692397757335129 0 79.692397757335129 22.689691467916418 0 0 0 0 -161.80476241723227 112.76679078230882 0 112.76679078230882 -31.409046952787321 0 0 0 0 -167.45597384966095 176.85338321769814 0 176.85338321769814 -91.070165862718568 0 0 0 0 -137.77788780402625 144.0938475166804 0 144.0938475166804 -104.57013880948034 0 0 0 0 -177.07034443652083 215.35534581482352 0 215.35534581482352 -134.99955152496113 0 0 0 0 -122.18858606174763 199.88580928820738 0 199.88580928820738 -222.07361615414629 0 0 0 0 -122.7068027476007 213.61866840927814 0 213.61866840927814 -173.44428606262954 0 0 0 0 -139.98370578303002 168.75673262730925 0 168.75673262730925 -159.69062927110645 0 0 0 0 -143.82957597602945 189.87351655726161 0 189.87351655726161 -185.0371683314479 0 0 0 0 -157.61589312460274 141.372384489654 0 141.372384489654 -56.305453702301747 0 0 0 0 -108.5443574585006 134.33274766655268 0 134.33274766655268 -61.42147567471693 0 0 0 0 -139.32864409745525 113.34101546527381 0 113.34101546527381 -26.521807479904965 0 0 0 0 -177.32180350817362 124.59611815757671 0 124.59611815757671 -28.434750718188297 0 0 0 0 -113.73944241029676 99.972681324670702 0 99.972681324670702 -46.13978175853299 0 0 0 0 -115.30012457631528 51.796663686451211 0 51.796663686451211 -11.615363595181407 0 0 0 0 -89.848252097443037 70.035491639919201 0 70.035491639919201 -29.399125834130245 0 0 0 0 -137.37311392649281 65.279478768698027 0 65.279478768698027 -17.545843487085222 0 0 0 0 -53.554081600408608 81.475345186317554 0 81.475345186317554 5.3538458709372208 0 0 0 0 -53.901560198843072 66.982694092119345 0 66.982694092119345 -31.148017531118057 0 0 0 0 -59.30001585662103 130.91494933601462 0 130.91494933601462 -7.8377046631248959 0 0 0 0 -99.551100894603223 159.88671423393316 0 159.88671423393316 0.88462439410795923 0 0 0 0 -85.447555488492071 107.73802301275646 0 107.73802301275646 -26.177741510816759 0 0 0 0 -120.51504421766003 97.33309226417623 0 97.33309226417623 50.472396188897619 0 0 0 0 -84.18894244582043 15.35684692493669 0 15.35684692493669 20.238071134332131 0 0 0 0 -14.109855902068375 19.23165684768901 0 19.23165684768901 3.7992088529936154 0 0 0 0 -114.58581078071438 -57.492774719408771 0 -57.492774719408771 -69.411240233806893 0 0 0 0 -80.057243189447036 -13.664336549098607 0 -13.664336549098607 -30.134416566317668 0 0 0 0 -70.718844807393907 10.071250817512919 0 10.071250817512919 -78.231212207814679 0 0 0 0 -114.34349060249224 -0.55383079337116214 0 -0.55383079337116214 26.334933384241594 0 0 0 0 -129.93079272408795 28.65022616272654 0 28.65022616272654 -27.350359467920498 0 0 0 0 -64.448343837502762 28.028619001044717 0 28.028619001044717 -28.135312053900634 0 0 0 0 -41.118965704830771 52.111877950930648 0 52.111877950930648 -71.243895505824185 0 0 0 0 -41.032725200071582 38.710280873357988 0 38.710280873357988 -56.34386538176841 0 0 0 0 -191.56803139627664 46.537352547061346 0 46.537352547061346 44.698063155461568 0 0 0 0 -42.250091365805019 25.07059482125419 0 25.07059482125419 -207.33727596355311 0 0 0 0 -119.79279794050672 122.75768035528017 0 122.75768035528017 -84.593810920363467 0 0 0 0 -128.7444937844266 -94.374210219415545 0 -94.374210219415545 1.1615691926490399 0 0 0 0 51.228754748211941 162.64005206265938 0 162.64005206265938 117.98900837930745 0 0 0 0 9.8433658801513957 23.911295734114901 0 23.911295734114901 12.005233224721451 0 0 0 0 -132.52459348554839 -17.566848464532086 0 -17.566848464532086 113.62901483781752 0 0 0 0 -27.486269613407785 45.461534806367126 0 45.461534806367126 -23.830665485053032 0 0 0 0 -55.217302365785145 91.978332767853317 0 91.978332767853317 7.6171129880822264 0 0 0 0 -42.710449745274673 60.83148516273468 0 60.83148516273468 30.776715384983618 0 0 0 0 0.84526839470058235 -0.43361746759105557 0 -0.43361746759105557 0.087313011785698613 0 0 0 0 -127.95337201392249 57.928265387533429 0 57.928265387533429 329.95711962915993 0 0 0 0 -148.74778481452086 151.71900407824432 0 151.71900407824432 152.98289448593277 0 0 0 0 -0.86207550766984298 1.7611130043170959 0 1.7611130043170959 1.604432178082007 0 0 0 0 218.79345959757484 126.64639571610678 0 126.64639571610678 -21.048182251048274 0 0 0 0 -167.5063632750871 -78.197037098115288 0 -78.197037098115288 81.97056689371675 0 0 0 0 157.53309532131971 13.323157242846719 0 13.323157242846719 7.7872032156956266 0 0 0 0 61.010470670102222 94.296573457677368 0 94.296573457677368 22.595240478185588 0 0 0 0 -65.350178949200199 107.25365395240306 0 107.25365395240306 39.348255774795689 0 0 0 0 -50.622537277879019 159.91684704373506 0 159.91684704373506 -8.5379990574765543 0 0 0 0 -24.075825313220776 107.52921564647022 0 107.52921564647022 16.183468195973546 0 0 0 0 20.812625527607452 18.083499251746616 0 18.083499251746616 110.3091085504966 0 0 0 0 -41.524470351261698 136.91386329454235 0 136.91386329454235 67.422328774084235 0 0 0 0 2.6447115668209449 0.83283768259704516 0 0.83283768259704516 -0.056153966803734079 0 0 0 0 24.390333481031121 120.43819302574593 0 120.43819302574593 24.951557762438824 0 0 0 0 -52.706736798827478 117.15722607901262 0 117.15722607901262 40.09842958430454 0 0 0 0 -52.208527946109825 112.58400207364866 0 112.58400207364866 -140.77545721226852 0 0 0 0 160.76648136645963 178.36659157438589 0 178.36659157438589 -403.76492879173202 0 0 0 0 1.7465323167262738 0.39174633586142704 0 0.39174633586142704 -0.060107473797505584 0 0 0 0 5.8022982125730778 231.74244104948411 0 231.74244104948411 -7.7911233807644749 0 0 0 0 -75.150357687984069 209.93464857568324 0 209.93464857568324 1.7157732014429712 0 0 0 0 20.274988797937112 223.60182803071802 0 223.60182803071802 -134.22745045368356 0 0 0 0 -111.13747265183338 158.58779911942656 0 158.58779911942656 7.4540823373372405 0 0 0 0 -86.702434411286958 208.01910198860242 0 208.01910198860242 40.329036166491278 0 0 0 0 -144.47534429153893 139.94959717246638 0 139.94959717246638 5.9265188970512099 0 0 0 0 -126.21395314126312 212.7585917054389 0 212.7585917054389 103.3442075589046 0 0 0 0 0.60025324322486995 271.63512307396923 0 271.63512307396923 42.766730278803152 0 0 0 0 -120.57805729375104 82.965203141919119 0 82.965203141919119 -66.456021567082644 0 0 0 0 -155.46645538100711 161.89875863121233 0 161.89875863121233 -59.459993150667287 0 0 0 0 -128.94045098168135 146.95249443109424 0 146.95249443109424 -127.3997290059815 0 0 0 0 -120.14267006230511 156.12301338925681 0 156.12301338925681 -59.215509533420118 0 0 0 0 -140.06665371981217 126.89821171974836 0 126.89821171974836 -18.799859079510497 0 0 0 0 0.082378085323393135 142.78040785462591 0 142.78040785462591 67.096423509523447 0 0 0 0 204.90882780635002 360.53095961690087 0 360.53095961690087 298.48626731689097 0 0 0 0 2.6771747627835794 1.3012616166594171 0 1.3012616166594171 0.19617163409879623 0 0 0 0 -112.65045209053642 181.30673668341115 0 181.30673668341115 293.2746980802076 0 0 0 0 213.85345946321092 90.31268204906911 0 90.31268204906911 -64.323537547425076 0 0 0 0 -10.798585556201942 292.30147521109939 0 292.30147521109939 32.649718867887714 0 0 0 0 139.65227476065775 443.91315589070109 0 443.91315589070109 185.1686559954087 0 0 0 0 214.64229870998679 152.26222218177463 0 152.26222218177463 297.45941500355514 0 0 0 0 0.14300078415544704 361.59453844126801 0 361.59453844126801 93.372164503205568 0 0 0 0 164.43511257335922 372.20183757080304 0 372.20183757080304 60.694418018993019 0 0 0 0 167.84979169236613 365.70809477943476 0 365.70809477943476 0.55361014276149945 0 0 0 0 178.46600985807891 394.27049942065059 0 394.27049942065059 -105.00807669148708 0 0 0 0 283.21331497518986 347.60128433719728 0 347.60128433719728 -195.08001838370092 0 0 0 0 284.82565232761647 472.43384140979833 0 472.43384140979833 -54.239340525877196 0 0 0 0 231.60007764161855 395.19584714007578 0 395.19584714007578 70.122124072371662 0 0 0 0 0.37189572564966511 479.31847121789178 0 479.31847121789178 2.883214643534302 0 0 0 0 187.1439401304815 512.59849400691382 0 512.59849400691382 -133.18410316149311 0 0 0 0 -1.8825917539636521 1.5268093812660943 0 1.5268093812660943 0.18371596648610478 0 0 0 0 256.52671905794705 259.06508617255167 0 259.06508617255167 -97.368799548149582 0 0 0 0 1.9209005129006815 203.14176469535417 0 203.14176469535417 397.81893869744454 0 0 0 0 366.37085215657135 352.39571659429748 0 352.39571659429748 -30.013361285622523 0 0 0 0 366.72007024787331 362.18760864770371 0 362.18760864770371 224.19455460935933 0 0 0 0 268.6983545832918 303.38670096370879 0 303.38670096370879 389.27631869726247 0 0 0 0 308.38088750941097 313.71444275754766 0 313.71444275754766 246.97355287091341 0 0 0 0 259.74069705278816 222.91557351046504 0 222.91557351046504 226.30583886383465 0 0 0 0 318.75671085761132 391.41805055210534 0 391.41805055210534 361.06212637894714 0 0 0 0 187.30247277535273 480.65138234786582 0 480.65138234786582 475.0832882467439 0 0 0 0 -0.52843585723049102 0.27228293927606373 0 0.27228293927606373 1.6155250333920605 0 0 0 0 -3.4853251132952607 3.6947796609699246 0 3.6947796609699246 -1.1961625663008206 0 0 0 0 548.53543897156487 190.09050909854705 0 190.09050909854705 675.82968453501235 0 0 0 0 276.73234567880718 301.54977590256931 0 301.54977590256931 429.36404320904694 0 0 0 0 282.37699185592646 217.83571447403665 0 217.83571447403665 347.84038548017998 0 0 0 0 -0.94815158579754666 0.12902759565449884 0 0.12902759565449884 2.0473451095087398 0 0 0 0 0.27581947766884696 274.29422618507033 0 274.29422618507033 486.80972733224189 0 0 0 0 53.792931247429806 224.42754477944436 0 224.42754477944436 480.75037020527816 0 0 0 0 37.397116965858004 191.56679615631401 0 191.56679615631401 328.92361291672205 0 0 0 0 145.77234459064493 349.56340274862123 0 349.56340274862123 329.6352059841156 0 0 0 0 260.89957506035717 394.15564127577454 0 394.15564127577454 323.59869393923941 0 0 0 0 286.74610828414734 335.79799228592674 0 335.79799228592674 321.81131144811661 0 0 0 0 364.94475021473772 348.80426550569064 0 348.80426550569064 302.13188624219038 0 0 0 0 356.83209422187065 304.79863210030999 0 304.79863210030999 293.83157963164695 0 0 0 0 265.08183630934582 319.21874092696089 0 319.21874092696089 443.74929227591565 0 0 0 0 292.81692689964802 281.00079596280079 0 281.00079596280079 297.6208832016564 0 0 0 0 313.40826231963001 283.99737373731841 0 283.99737373731841 221.75343363758657 0 0 0 0 346.60751806260669 410.45447625457564 0 410.45447625457564 333.07658280790747 0 0 0 0 -3.1177995773926597 3.8372920014003356 0 3.8372920014003356 -1.3098773960208803 0 0 0 0 141.07969382724696 720.53828368730137 0 720.53828368730137 281.2061880178444 0 0 0 0 301.60930509142781 455.59238344768528 0 455.59238344768528 444.81682594213862 0 0 0 0 314.36365018999277 607.89148040966302 0 607.89148040966302 354.43433335767259 0 0 0 0 270.18610588234878 410.70732098675307 0 410.70732098675307 450.00132608589774 0 0 0 0 363.84014693873905 532.99039638105478 0 532.99039638105478 396.69461620553193 0 0 0 0 82.001173988697701 417.37404311401224 0 417.37404311401224 468.86154520793934 0 0 0 0 360.90355635368905 761.11358134121656 0 761.11358134121656 260.17084374159094 0 0 0 0 204.85103506613814 546.12148283636998 0 546.12148283636998 424.09518697838212 0 0 0 0 77.285646961096063 465.4913162815219 0 465.4913162815219 385.55687135935295 0 0 0 0 45.138255048888823 507.36194889421949 0 507.36194889421949 362.97970241076473 0 0 0 0 527.6845670697985 473.20472958052869 0 473.20472958052869 590.45601374642501 0 0 0 0 549.62694983618712 483.77708823255398 0 483.77708823255398 329.54991437024069 0 0 0 0 684.05722431881622 270.15352505685041 0 270.15352505685041 -144.22718402950704 0 0 0 0 115.66909757321264 259.67548127000737 0 259.67548127000737 421.23461303497425 0 0 0 0 35.261513082885358 232.36111181049273 0 232.36111181049273 428.54082459606116 0 0 0 0 192.06392522905662 371.64134721022128 0 371.64134721022128 460.30568309670707 0 0 0 0 43.908042912138626 304.21893214217562 0 304.21893214217562 453.36388821171568 0 0 0 0 188.0692965783237 435.48183580986006 0 435.48183580986006 481.2962021410458 0 0 0 0 118.32457377883838 403.46099002147093 0 403.46099002147093 490.72063413182786 0 0 0 0 -31.555602357228054 362.33714769682047 0 362.33714769682047 472.23178562339672 0 0 0 0 97.751792283321265 413.2384468105256 0 413.2384468105256 398.69649728331933 0 0 0 0 -131.92665347389266 318.70708560042294 0 318.70708560042294 375.26049777564413 0 0 0 0 39.772423582508054 207.84384507318282 0 207.84384507318282 129.86042269430618 0 0 0 0 -0.13617211308519472 328.673279666501 0 328.673279666501 303.61319773424384 0 0 0 0 -78.529716662516876 278.50298628647215 0 278.50298628647215 8.0905995139946754 0 0 0 0 0.078772422551992349 260.20084620480975 0 260.20084620480975 -138.73846911552391 0 0 0 0 -176.67642296138365 295.05533574508627 0 295.05533574508627 -167.68929357162278 0 0 0 0 -93.209851131701726 205.63093916045182 0 205.63093916045182 -197.69127735504071 0 0 0 0 -249.24659864410205 261.88016135726593 0 261.88016135726593 -33.627889941806643 0 0 0 0 -61.947287223967578 263.06868884827827 0 263.06868884827827 -55.130245242919045 0 0 0 0 -136.91048039482121 173.9614711018221 0 173.9614711018221 127.61614639905383 0 0 0 0 -373.8245837221184 281.35900031293386 0 281.35900031293386 248.30189909975161 0 0 0 0 -1177.361531249393 300.37892739653944 0 300.37892739653944 176.11584795105227 0 0 0 0 -146.31168641284421 781.5744110001574 0 781.5744110001574 348.98792392883479 0 0 0 0 -889.71760469579021 534.2796082014429 0 534.2796082014429 278.11857803728344 0 0 0 0 1566.9635521294913 797.35849220902674 0 797.35849220902674 102.47815019137306 0 0 0 0 777.10114329379576 361.22399707725162 0 361.22399707725162 155.97464124501494 0 0 0 0 1903.8478560107469 190.62263035119213 0 190.62263035119213 -178.40876638036571 0 0 0 0 1239.2218423362062 434.23894647643243 0 434.23894647643243 117.15810663560478 0 0 0 0 890.53455625676725 -99.602615427656929 0 -99.602615427656929 113.66836738066741 0 0 0 0 1209.4118227311219 -138.31071838064861 0 -138.31071838064861 63.573547988475184 0 0 0 0 990.36319677266874 243.80382721939714 0 243.80382721939714 48.37230635006199 0 0 0 0 731.15052958255546 328.9696728409881 0 328.9696728409881 150.28582944570007 0 0 0 0 0.53672530978363042 6.0172244657485976 0 6.0172244657485976 3.5534712459348654 0 0 0 0 -1160.7477180847782 302.54111568804365 0 302.54111568804365 -63.618356007122202 0 0 0 0 -496.7451534660795 226.4094354153749 0 226.4094354153749 -182.1847864562078 0 0 0 0 -213.33819306857185 284.83847220839834 0 284.83847220839834 -274.90067061685841 0 0 0 0 -488.34676815498096 259.36533301825511 0 259.36533301825511 -381.19466116348121 0 0 0 0 -1130.3756799137566 383.95820450561826 0 383.95820450561826 -136.61554740341671 0 0 0 0 -579.98158039301052 175.4875600732812 0 175.4875600732812 -62.824996568968345 0 0 0 0 1.613241097270453 3.3967066748339363 0 3.3967066748339363 -0.71970348838109999 0 0 0 0 -387.10578150465153 383.24581987814963 0 383.24581987814963 -185.1306782989268 0 0 0 0 -248.76113862193597 306.76598229856609 0 306.76598229856609 -155.06829403589654 0 0 0 0 -1.6873007636720914 1.8496259615057085 0 1.8496259615057085 4.4153382227478488 0 0 0 0 -59.968570646073431 15.947934849923598 0 15.947934849923598 10.608857456543774 0 0 0 0 -393.10448817987344 197.71420796474922 0 197.71420796474922 -67.187079683168122 0 0 0 0 518.53341603020817 107.36150125366976 0 107.36150125366976 58.657345791263651 0 0 0 0 2.173184550164545 11.929345819350203 0 11.929345819350203 4.8155294158357762 0 0 0 0 -394.30749431113509 196.26044154861574 0 196.26044154861574 -28.641500443209225 0 0 0 0 -370.29526277184777 213.32014674794482 0 213.32014674794482 -62.828237637033453 0 0 0 0 -397.06544414206292 272.74910398592874 0 272.74910398592874 -86.328309185253602 0 0 0 0 -286.16982290487795 229.68878959993526 0 229.68878959993526 -75.224803163971956 0 0 0 0 -252.24809579002613 163.20315733156349 0 163.20315733156349 -52.407249110070552 0 0 0 0 -370.24649843405592 205.10640925678621 0 205.10640925678621 -57.502761427247606 0 0 0 0 647.87309261827431 334.56851342512778 0 334.56851342512778 96.953567909909907 0 0 0 0 699.40938813867979 223.75533684443053 0 223.75533684443053 18.116776043269056 0 0 0 0 616.49701156174706 -14.297023382705447 0 -14.297023382705447 110.33873154254616 0 0 0 0 715.583555741905 182.3719785384701 0 182.3719785384701 14.207795429210819 0 0 0 0 680.53040085804241 206.06462409271535 0 206.06462409271535 44.339413841669739 0 0 0 0 583.92971620401659 145.9024299413968 0 145.9024299413968 4.1056492558363971 0 0 0 0 612.97032658004537 275.58227174087233 0 275.58227174087233 -1.0843652856019617 0 0 0 0 570.93238747568103 248.95468410652757 0 248.95468410652757 23.153264691935874 0 0 0 0 521.55449065052017 231.02689037476557 0 231.02689037476557 6.8317784979335556 0 0 0 0 484.24687647639803 73.605497888564969 0 73.605497888564969 -126.73198883042824 0 0 0 0 581.21765484067873 167.82879081281726 0 167.82879081281726 -52.125087885226094 0 0 0 0 324.61649323059828 -7.1735934735897899 0 -7.1735934735897899 -75.322597015924657 0 0 0 0 357.17609073774656 129.88182553690876 0 129.88182553690876 -7.7665258379265651 0 0 0 0 559.34033586572696 202.06767698279646 0 202.06767698279646 -75.656794243697732 0 0 0 0 -371.44171211510184 135.38514431395652 0 135.38514431395652 -35.112847243606666 0 0 0 0 -173.86432361550396 62.831495630414793 0 62.831495630414793 -29.204294575184576 0 0 0 0 -117.44076559953101 215.1506008348681 0 215.1506008348681 -108.90389340544425 0 0 0 0 -86.893329371217988 188.23955652742461 0 188.23955652742461 -86.14805680619753 0 0 0 0 -87.314899473203695 198.49495845345427 0 198.49495845345427 -129.27275213886878 0 0 0 0 -67.180971393993559 242.09469999267458 0 242.09469999267458 -143.5933400641934 0 0 0 0 -0.096450116725463886 210.2921257281746 0 210.2921257281746 -164.62301989966363 0 0 0 0 -67.936806132174297 229.42621153148326 0 229.42621153148326 -169.79965445012931 0 0 0 0 -222.35148294406463 239.08270349629493 0 239.08270349629493 -136.88448272088863 0 0 0 0 -285.67536250848116 249.03418999901362 0 249.03418999901362 -102.40611306439678 0 0 0 0 -198.55496277390193 231.23033914989901 0 231.23033914989901 -101.12308898119591 0 0 0 0 -181.04557381762424 209.25659250359422 0 209.25659250359422 -107.33039777235103 0 0 0 0 325.33758478157688 234.50987676162958 0 234.50987676162958 122.57568845848891 0 0 0 0 211.87247485708212 220.67072258099688 0 220.67072258099688 198.50061362584529 0 0 0 0 190.35954095410852 215.78042237391901 0 215.78042237391901 153.92457930199271 0 0 0 0 212.90772270835714 200.00866887100347 0 200.00866887100347 141.42367077024937 0 0 0 0 258.29231623210944 214.83579208813808 0 214.83579208813808 87.720740701739487 0 0 0 0 211.92970015710307 246.75159710615344 0 246.75159710615344 104.07753519575317 0 0 0 0 344.38934474663984 252.87502080093191 0 252.87502080093191 89.487810011938109 0 0 0 0 259.73281080744891 222.23077339888414 0 222.23077339888414 125.59185655587135 0 0 0 0 434.2165705441148 259.93943174279048 0 259.93943174279048 54.719090257796779 0 0 0 0 495.1958118009934 253.37000442628687 0 253.37000442628687 55.415220363186677 0 0 0 0 517.87850268871262 228.39454194346399 0 228.39454194346399 5.1870485365107015 0 0 0 0 358.866028710916 325.13772186536698 0 325.13772186536698 202.68676645193227 0 0 0 0 569.23020870320033 268.57866249075505 0 268.57866249075505 42.107911785151373 0 0 0 0 559.22887788789467 337.72098615848438 0 337.72098615848438 98.802417780612814 0 0 0 0 346.30882365650905 264.26226670086908 0 264.26226670086908 157.41034583591409 0 0 0 0 340.84376171985605 271.48108225328633 0 271.48108225328633 165.30046927644435 0 0 0 0 560.50261231791228 453.06786888215265 0 453.06786888215265 275.63129808171652 0 0 0 0 709.59329275954224 296.35199253861174 0 296.35199253861174 106.78540676514604 0 0 0 0 559.84903386436781 642.65566454344753 0 642.65566454344753 523.07220980185593 0 0 0 0 285.50089177124755 261.31276094936493 0 261.31276094936493 306.96718537702623 0 0 0 0 310.0916236631856 272.50659965151681 0 272.50659965151681 176.80525588628007 0 0 0 0 184.48493450004753 230.25814972103035 0 230.25814972103035 191.74576775247442 0 0 0 0 190.95404697047343 206.58370802398122 0 206.58370802398122 241.78467200996602 0 0 0 0 279.74446133849779 271.85530633335338 0 271.85530633335338 234.08741233593719 0 0 0 0 132.35555356246914 180.72992985510791 0 180.72992985510791 231.89605463741862 0 0 0 0 175.2599897289092 209.45657383518073 0 209.45657383518073 236.23153458725119 0 0 0 0 108.47022681268936 164.87735685843745 0 164.87735685843745 143.70501452294866 0 0 0 0 30.100118270187522 40.097542765530761 0 40.097542765530761 57.870347036176099 0 0 0 0 149.18921468948247 147.36947181858523 0 147.36947181858523 139.85076884419323 0 0 0 0 1.9488500178267714 29.397855737871396 0 29.397855737871396 17.088622806537387 0 0 0 0 -1.6208707408685541 1.6412578137039411 0 1.6412578137039411 0.15762252055142767 0 0 0 0 261.19131027333424 436.99664562221187 0 436.99664562221187 435.17658688575284 0 0 0 0 166.5984366680209 257.88258945398246 0 257.88258945398246 194.02548241107797 0 0 0 0 199.70589408269007 244.10547285496068 0 244.10547285496068 161.88717218173224 0 0 0 0 81.827256350512471 209.48863952197462 0 209.48863952197462 207.37792709537462 0 0 0 0 249.90199972919618 221.81896275486588 0 221.81896275486588 282.93629527029589 0 0 0 0 132.63668957656046 280.09165775880047 0 280.09165775880047 260.87603977711296 0 0 0 0 87.21820641022714 81.417276353171815 0 81.417276353171815 24.930464392306021 0 0 0 0 -2.510470066434209 -40.08246175507054 0 -40.08246175507054 46.0228795999883 0 0 0 0 114.11499018078848 33.167804006735651 0 33.167804006735651 60.612749141801032 0 0 0 0 54.458415881214023 151.40232823590122 0 151.40232823590122 -95.455184375939382 0 0 0 0 52.573048229885899 56.513236664514807 0 56.513236664514807 20.099081525266229 0 0 0 0 -78.308715906321595 28.138905801211877 0 28.138905801211877 33.548419525353893 0 0 0 0 -1.3562453171580202 2.5459705955608172 0 2.5459705955608172 3.2344560074501771 0 0 0 0 36.824188431921357 76.707848496394035 0 76.707848496394035 -249.90190389796913 0 0 0 0 -26.142707807273837 16.25826635834801 0 16.25826635834801 -69.635395843011793 0 0 0 0 65.908225442661205 8.3443960647200583 0 8.3443960647200583 56.840518377382978 0 0 0 0 31.985800474853022 43.268509053859816 0 43.268509053859816 55.409975803282236 0 0 0 0 3.1281017083019833 41.331926796501648 0 41.331926796501648 23.994824253641127 0 0 0 0 -2.9306601891221362 24.024391807113716 0 24.024391807113716 40.246734876003757 0 0 0 0 31.101910354118445 49.41915002006499 0 49.41915002006499 19.350398671447692 0 0 0 0 -3.6966927301182295 51.038175358209628 0 51.038175358209628 23.674693368677254 0 0 0 0 35.616946437603474 35.979517995061087 0 35.979517995061087 12.329798548274994 0 0 0 0 -0.7984793226205511 57.43792107995796 0 57.43792107995796 18.290810799355313 0 0 0 0 -1.6071358217595844 51.799281666575553 0 51.799281666575553 16.855574509861526 0 0 0 0 -2.7777534462447875 47.443060013065633 0 47.443060013065633 15.034927379947476 0 0 0 0 9.466010085758171 26.185786494741478 0 26.185786494741478 -9.9257067832550092 0 0 0 0 -2.5136329560627928 48.765167355579251 0 48.765167355579251 15.577661578314292 0 0 0 0 -16.753214084547778 25.165683692842805 0 25.165683692842805 11.74678111854729 0 0 0 0 5.0289340989693301 66.229066453706764 0 66.229066453706764 32.747129950001636 0 0 0 0 -6.5067489430640393 15.500029269583152 0 15.500029269583152 -15.001177403404824 0 0 0 0 26.702758030027326 49.325131169540327 0 49.325131169540327 56.691147519413789 0 0 0 0 73.861812750368699 143.11259221478213 0 143.11259221478213 -14.820532797542 0 0 0 0 -13.027316693970526 22.543800148086564 0 22.543800148086564 -12.248134241269383 0 0 0 0 -22.759286631546274 41.137289878217416 0 41.137289878217416 55.96288420601536 0 0 0 0 2.3643845722835977 52.137470489726184 0 52.137470489726184 8.3968035384568793 0 0 0 0 14.14556299378637 69.766511726741783 0 69.766511726741783 17.699850814169622 0 0 0 0 -5.0117116327121494 3.90284221431628 0 3.90284221431628 0.74082340727214557 0 0 0 0 -1.0045483521389542 58.839763741501883 0 58.839763741501883 13.454005939838567 0 0 0 0 39.383913835918065 67.846229757808032 0 67.846229757808032 13.19990940655407 0 0 0 0 15.470625279391243 69.846748956495048 0 69.846748956495048 15.299890543808942 0 0 0 0 0.33834195384406485 64.00060892539841 0 64.00060892539841 21.21714818482269 0 0 0 0 62.260404275915789 -11.982507229634848 0 -11.982507229634848 96.253859679631205 0 0 0 0 39.230177682409703 88.083930229574889 0 88.083930229574889 -109.74453569486468 0 0 0 0 -14.887809118110454 144.39733481025905 0 144.39733481025905 -178.69927333321539 0 0 0 0 -36.677717835300314 32.478497733259928 0 32.478497733259928 -4.0636487054939749 0 0 0 0 13.826340871870343 68.425776126782694 0 68.425776126782694 40.153806562995669 0 0 0 0 -40.346989062285161 30.063379269616455 0 30.063379269616455 -5.3100167519984609 0 0 0 0 13.372480228681525 64.348928827795135 0 64.348928827795135 19.885362239926508 0 0 0 0 -11.417558404195006 67.000017679624762 0 67.000017679624762 43.183058772337972 0 0 0 0 -32.029015222236922 47.231389847462196 0 47.231389847462196 26.380155675954484 0 0 0 0 -24.679021811396524 36.50279012979172 0 36.50279012979172 -6.392009536641126 0 0 0 0 -55.615642920833125 38.630241959177283 0 38.630241959177283 20.923609879348078 0 0 0 0 -1.3978147259629381 2.6107147410269675 0 2.6107147410269675 3.7432261837356648 0 0 0 0 -13.665000416367548 30.735572457226226 0 30.735572457226226 11.818429418312462 0 0 0 0 1.9023353686752671 61.429430745259651 0 61.429430745259651 11.963440199204342 0 0 0 0 -17.076447962521343 61.533470265258075 0 61.533470265258075 19.069894340775136 0 0 0 0 123.0547495646565 13.95001065886072 0 13.95001065886072 -20.483317834274203 0 0 0 0 -152.87329775305079 59.615442172609619 0 59.615442172609619 23.571909175967448 0 0 0 0 3.9862881966612678 10.308032810965905 0 10.308032810965905 21.133437899293966 0 0 0 0 -80.146851528574189 37.299682036358718 0 37.299682036358718 -36.458461680762866 0 0 0 0 -51.261236131806072 47.207561835356501 0 47.207561835356501 13.707879123373459 0 0 0 0 18.982191792901176 40.887518623561391 0 40.887518623561391 19.123775825893972 0 0 0 0 -113.5092423329661 92.778427264420316 0 92.778427264420316 7.2720439494642051 0 0 0 0 -21.110831939082345 113.2747829879936 0 113.2747829879936 54.096624976175917 0 0 0 0 -32.784180152484048 25.482892935682635 0 25.482892935682635 -20.993699655227118 0 0 0 0 0.95399577607949482 1.5324699446142054 0 1.5324699446142054 -5.309372870109577 0 0 0 0 16.159512280370109 97.161494028725429 0 97.161494028725429 68.876036850129822 0 0 0 0 54.466421273136802 113.56779619427471 0 113.56779619427471 35.429054635267676 0 0 0 0 31.927645607269369 54.916457740444457 0 54.916457740444457 34.085362376219564 0 0 0 0 -49.795500150023145 86.033290797737209 0 86.033290797737209 41.556830773104593 0 0 0 0 -31.404919074630016 38.456657937345881 0 38.456657937345881 -3.4539606698526768 0 0 0 0 -12.473120595990991 2.188926306344122 0 2.188926306344122 11.462514456000577 0 0 0 0 -53.508350690000952 41.948018320981646 0 41.948018320981646 16.010137333312741 0 0 0 0 -42.668162943817151 46.532814434391184 0 46.532814434391184 11.81165840403628 0 0 0 0 -53.381224144074622 47.683640105227823 0 47.683640105227823 54.462905698208488 0 0 0 0 -50.400388894372242 34.881106529733991 0 34.881106529733991 -10.774346190828048 0 0 0 0 -80.181741013821011 68.111625495444969 0 68.111625495444969 47.575076021397763 0 0 0 0 -5.9109268311570196 18.14972417700163 0 18.14972417700163 25.308912685482781 0 0 0 0 -10.576112911759992 104.74703499747102 0 104.74703499747102 35.150609889290536 0 0 0 0 40.810989522417231 67.508180348906194 0 67.508180348906194 -7.636729054935131 0 0 0 0 -43.055580710404683 58.516448597709541 0 58.516448597709541 72.411506651335912 0 0 0 0 -31.891001571166498 34.689916406302153 0 34.689916406302153 -14.911559729735796 0 0 0 0 -93.595107851343528 59.858420539534563 0 59.858420539534563 35.439365397884103 0 0 0 0 -4.3175810445242533 36.212638581795204 0 36.212638581795204 30.837883568500015 0 0 0 0 -32.42845287484306 62.407321319807352 0 62.407321319807352 25.793062129019745 0 0 0 0 -80.192433912912747 60.88148098897409 0 60.88148098897409 22.233038443864643 0 0 0 0 -66.834844072822307 44.076965558379015 0 44.076965558379015 37.308621596824878 0 0 0 0 -12.13957325141395 27.311229771003447 0 27.311229771003447 22.991258273763172 0 0 0 0 -62.115400597147527 53.363409403555124 0 53.363409403555124 21.51651202891162 0 0 0 0 -33.980984540983684 31.291644041952168 0 31.291644041952168 -2.5076231190168841 0 0 0 0 -26.636178277294675 34.140859546683714 0 34.140859546683714 14.402617616656698 0 0 0 0 -6.8575115701542018 84.285917136646503 0 84.285917136646503 29.191296007944402 0 0 0 0 -30.198155965284968 49.542393687332151 0 49.542393687332151 38.981305232493469 0 0 0 0 21.968980089684919 94.762831729686695 0 94.762831729686695 64.079575689196645 0 0 0 0 -40.399487050437628 29.581688121631466 0 29.581688121631466 -4.2699824238888908 0 0 0 0 13.59303396858013 95.837395387329707 0 95.837395387329707 64.097070233847262 0 0 0 0 -15.297054392154678 109.3059939370587 0 109.3059939370587 75.736402185071711 0 0 0 0 -1.983963602600852 59.402468522586332 0 59.402468522586332 -21.644942488362176 0 0 0 0 -1.7034734672342893 118.88223620223062 0 118.88223620223062 34.108018510101829 0 0 0 0 -44.915507220241125 114.00077347351544 0 114.00077347351544 76.674090909579718 0 0 0 0 56.557541099391528 181.89556941412229 0 181.89556941412229 92.495175586616824 0 0 0 0 55.498096400791837 133.55359339577581 0 133.55359339577581 66.217633601034322 0 0 0 0 57.507952065180689 124.05122922641215 0 124.05122922641215 45.589042660971245 0 0 0 0 218.59508663222368 156.17001515144511 0 156.17001515144511 48.779920119138296 0 0 0 0 -64.407100956734212 50.368066353524227 0 50.368066353524227 10.851735965947682 0 0 0 0 -49.732509197195412 59.181385111096432 0 59.181385111096432 20.835663260738219 0 0 0 0 -26.899267143226449 2.1609261657584966 0 2.1609261657584966 0.73623620974055726 0 0 0 0 91.912461581312527 199.07501732437186 0 199.07501732437186 -27.971185454057832 0 0 0 0 55.224343291672483 56.716941536668735 0 56.716941536668735 38.725760450609812 0 0 0 0 -140.36184320566645 18.543984511119902 0 18.543984511119902 56.689187419133305 0 0 0 0 -38.561095574134015 48.012474216132432 0 48.012474216132432 48.16064004940381 0 0 0 0 -22.922460970598792 29.859348330195743 0 29.859348330195743 45.203929444414662 0 0 0 0 -48.639826207378064 28.992131157914628 0 28.992131157914628 65.066395609652773 0 0 0 0 -58.287056690463942 61.357413434010596 0 61.357413434010596 43.275813253410888 0 0 0 0 6.4271660489969946 11.157793525578676 0 11.157793525578676 9.8991115176639681 0 0 0 0 -68.29604539484717 41.443420354823502 0 41.443420354823502 62.518398562796619 0 0 0 0 -31.667302153880883 55.452662893092338 0 55.452662893092338 6.4520102902934013 0 0 0 0 -60.466186138388366 63.536849911581896 0 63.536849911581896 5.1166041867591048 0 0 0 0 40.971479708903644 167.2452058009585 0 167.2452058009585 171.46220972204299 0 0 0 0 -0.95640637129418593 2.0758954893741475 0 2.0758954893741475 2.2338632325722756 0 0 0 0 -157.27349170602065 -20.273225392061931 0 -20.273225392061931 68.01899891148787 0 0 0 0 255.48842534970026 223.22412757154234 0 223.22412757154234 152.24689498204543 0 0 0 0 -89.570682711921108 56.201761877870467 0 56.201761877870467 150.19096881708356 0 0 0 0 -0.14170084169018082 60.338602690561856 0 60.338602690561856 42.236730502030241 0 0 0 0 -3.1202212153511937 70.906253565651696 0 70.906253565651696 90.322774294178089 0 0 0 0 9.1444607164958143 75.209578697112192 0 75.209578697112192 40.21519163803147 0 0 0 0 -17.593814038766141 95.34356277190318 0 95.34356277190318 83.779094552441165 0 0 0 0 -23.609288501096671 101.15737441655938 0 101.15737441655938 113.11201967374836 0 0 0 0 -0.045344512946030591 107.50673368732896 0 107.50673368732896 70.191557675400873 0 0 0 0 -14.41812111688705 101.67823330186218 0 101.67823330186218 69.149728010133913 0 0 0 0 24.22425526855659 134.23970263438514 0 134.23970263438514 -13.320837461677911 0 0 0 0 15.40513423988159 112.17157941342248 0 112.17157941342248 5.3998431880454518 0 0 0 0 68.633070102040165 156.54326004533786 0 156.54326004533786 85.260364245423261 0 0 0 0 69.378240770660341 170.77336121833696 0 170.77336121833696 64.532781304009404 0 0 0 0 113.3311145734915 198.90969929686798 0 198.90969929686798 124.90242024290876 0 0 0 0 117.11452655675021 136.70253846260221 0 136.70253846260221 121.36799046921988 0 0 0 0 173.7797853601005 177.30569829095634 0 177.30569829095634 64.640996225491108 0 0 0 0 163.65590527404856 185.57233974453493 0 185.57233974453493 -26.533830371774002 0 0 0 0 188.67369973971654 240.460287259094 0 240.460287259094 87.512284530026363 0 0 0 0 214.43899342313671 268.32230073501796 0 268.32230073501796 3.6244075400660449 0 0 0 0 56.923554292414337 322.91747580284436 0 322.91747580284436 18.814643564082871 0 0 0 0 219.52785430437143 492.95447349465348 0 492.95447349465348 110.95008777531189 0 0 0 0 188.09584538445051 299.88652631192701 0 299.88652631192701 1.7695555231748585 0 0 0 0 254.60308707341028 203.57774868212391 0 203.57774868212391 7.8842485922709784 0 0 0 0 511.32859353016829 380.15671523453511 0 380.15671523453511 -149.93726204499634 0 0 0 0 143.22698776231118 161.25977030884292 0 161.25977030884292 -155.08602851510113 0 0 0 0 124.23460740763403 216.04517702893708 0 216.04517702893708 -40.737586697776351 0 0 0 0 66.838807663829357 96.767150179511191 0 96.767150179511191 -221.38325445104601 0 0 0 0 61.049568171245483 130.8488772117137 0 130.8488772117137 -112.55384273872005 0 0 0 0 5.6878667990604299 102.40378794152662 0 102.40378794152662 -29.157871473187811 0 0 0 0 29.176279948002048 38.958521008739211 0 38.958521008739211 -104.04397036474256 0 0 0 0 28.510868267689432 24.991482566239654 0 24.991482566239654 20.292687859999958 0 0 0 0 21.930491450992122 -4.5885445406843246 0 -4.5885445406843246 -215.39419938570035 0 0 0 0 1.741768387293547 4.7134348240982575 0 4.7134348240982575 4.2686952925589345 0 0 0 0 5.529299964625551 4.6521447866005516 0 4.6521447866005516 4.1434969676876632 0 0 0 0 77.8480528975997 14.67529504828417 0 14.67529504828417 22.329304532232072 0 0 0 0 79.85390026339519 45.146522240747345 0 45.146522240747345 16.221567543903802 0 0 0 0 -4.8098478028190641 6.5293053641665679 0 6.5293053641665679 4.6404552432552819 0 0 0 0 93.246074194019457 254.8201786786928 0 254.8201786786928 309.20943512324828 0 0 0 0 101.73645132208048 354.65496618780156 0 354.65496618780156 874.26802446954866 0 0 0 0 746.05945523633272 504.82495160728377 0 504.82495160728377 71.654980284961596 0 0 0 0 712.54455338829575 -269.52488786775882 0 -269.52488786775882 -37.427565384739125 0 0 0 0 -67.388040825830103 -455.89397636965799 0 -455.89397636965799 -595.79835486931211 0 0 0 0 -26.106914067575417 -134.46882814308714 0 -134.46882814308714 723.85198271731724 0 0 0 0 -261.51566739926784 -444.45905891529446 0 -444.45905891529446 15.774329806704714 0 0 0 0 7.5867391503124963 56.627236312759237 0 56.627236312759237 -127.82024211575964 0 0 0 0 -162.00113214003068 -92.38552245391854 0 -92.38552245391854 -17.367172851052771 0 0 0 0 19.460176802473143 318.84216405394136 0 318.84216405394136 105.43728864839545 0 0 0 0 302.03213637847512 672.92851723157253 0 672.92851723157253 544.98043712623462 0 0 0 0 966.66601342968352 195.78978438320405 0 195.78978438320405 2.1018458258126884 0 0 0 0 102.01767691185069 218.66725453585582 0 218.66725453585582 44.381228646143427 0 0 0 0 46.922262300072362 68.509463582338526 0 68.509463582338526 65.756536042556036 0 0 0 0 -30.329264958858403 144.72404951235876 0 144.72404951235876 6.4343102596340032 0 0 0 0 3.6498160018944716 -1.1876721630786307 0 -1.1876721630786307 -4.6682810594465423 0 0 0 0 -1.1607100707842619 83.41582285714594 0 83.41582285714594 111.13473621114542 0 0 0 0 -13.193435263960055 32.996369732707421 0 32.996369732707421 99.716284244035705 0 0 0 0 24.740829642820245 50.217775782891295 0 50.217775782891295 101.29264752789277 0 0 0 0 51.790921144005551 98.552233127332329 0 98.552233127332329 109.11496915853604 0 0 0 0 -96.709370297474379 148.38492305978593 0 148.38492305978593 26.386459968642157 0 0 0 0 -86.574485087978246 -35.819684653964032 0 -35.819684653964032 4.2113565584850221 0 0 0 0 43.793893883495912 44.070248464280667 0 44.070248464280667 52.799394186737118 0 0 0 0 48.812636248927689 36.402779468273344 0 36.402779468273344 28.513247149143357 0 0 0 0 11.489187066021259 138.08419918595951 0 138.08419918595951 -91.72129945568031 0 0 0 0 70.407972366461763 33.835509458870092 0 33.835509458870092 -3.9052689268985432 0 0 0 0 37.961924928356211 -38.515205443040728 0 -38.515205443040728 54.472377342380241 0 0 0 0 67.4318731307485 27.136543514821938 0 27.136543514821938 -4.8552944633681818 0 0 0 0 75.045484098845918 128.9904026082404 0 128.9904026082404 20.51527601060792 0 0 0 0 22.168058431666168 67.918226793570327 0 67.918226793570327 -120.37058099408659 0 0 0 0 25.025151512454613 32.341332662938839 0 32.341332662938839 10.521448143677048 0 0 0 0 1.7588758434143728 -1.6223953441968675 0 -1.6223953441968675 -3.6933561125249987 0 0 0 0 -30.093726582264935 47.081094005391947 0 47.081094005391947 -5.7202764924811618 0 0 0 0 -267.30885378376479 13.588082891474301 0 13.588082891474301 17.482924658510001 0 0 0 0 -6.5261372902459698 29.604618102812282 0 29.604618102812282 27.655714472394493 0 0 0 0 7.8728113485885842 139.07487976519519 0 139.07487976519519 -62.184282372995767 0 0 0 0 75.966918024931147 62.11593895510623 0 62.11593895510623 -45.096342699896468 0 0 0 0 -12.869328057628081 -4.9851896987681812 0 -4.9851896987681812 43.664762867751961 0 0 0 0 -9.7143519115088566 0.34955194307372039 0 0.34955194307372039 49.248758017905857 0 0 0 0 -1.2512828107369245 2.9250447717354504 0 2.9250447717354504 19.538100317380827 0 0 0 0 -125.99537040399082 -0.63463414407863183 0 -0.63463414407863183 -5.6339417897052044 0 0 0 0 6.9245088960815337 32.837027216646931 0 32.837027216646931 26.044144779496378 0 0 0 0 1.3431909750250313 1.9340951997674836 0 1.9340951997674836 -4.7044832534824206 0 0 0 0 -118.87634234745747 25.600886557210487 0 25.600886557210487 66.858663683993655 0 0 0 0 -77.113244051091897 88.787322467183913 0 88.787322467183913 15.156733517816974 0 0 0 0 50.582691721025185 -44.719884294347139 0 -44.719884294347139 -46.275724337972861 0 0 0 0 -185.44544102129294 6.7428726889274913 0 6.7428726889274913 114.94442452076964 0 0 0 0 -84.536878917264403 75.699565779806562 0 75.699565779806562 2.4843254313460079 0 0 0 0 -4.9197098337544816 0.56170618562053676 0 0.56170618562053676 4.4373336432761148 0 0 0 0 -12.963053639714218 12.290665089613391 0 12.290665089613391 -9.8741091514003472 0 0 0 0 308.59829407359939 475.4304488036027 0 475.4304488036027 377.5365626409465 0 0 0 0 54.060124199963411 144.68063783434519 0 144.68063783434519 72.357241055486838 0 0 0 0 190.207110503281 211.30781412046099 0 211.30781412046099 414.75992061811536 0 0 0 0 -11.711194339495705 11.034305314430185 0 11.034305314430185 64.814968449872367 0 0 0 0 228.87039087960511 394.79117432634439 0 394.79117432634439 305.42013048296775 0 0 0 0 -12.009091266746822 8.7294549621066224 0 8.7294549621066224 -4.6030026468628451 0 0 0 0 389.54763926234409 294.12998675915037 0 294.12998675915037 140.27433978689601 0 0 0 0 201.99972818555034 126.97893028098957 0 126.97893028098957 196.65850675671243 0 0 0 0 24.590395662380615 -149.86392080256974 0 -149.86392080256974 141.26093843469323 0 0 0 0 67.837548493771465 12.232267744618639 0 12.232267744618639 -43.421559150267967 0 0 0 0 39.422684507649251 3.5719631643074479 0 3.5719631643074479 -13.964273919003942 0 0 0 0 161.20679541900972 54.730501383935291 0 54.730501383935291 -88.514350138218106 0 0 0 0 68.508034588332521 144.72754093884123 0 144.72754093884123 214.76979447173051 0 0 0 0 10.41657102098084 8.8947727165118806 0 8.8947727165118806 6.4763114471758936 0 0 0 0 9.9647968615863647 152.11754820225633 0 152.11754820225633 198.5747554183863 0 0 0 0 -40.098277380668151 72.483543681262745 0 72.483543681262745 482.53449209211612 0 0 0 0 27.690206972380111 312.6607103128672 0 312.6607103128672 301.19484560789215 0 0 0 0 52.738108185360034 241.67855729788016 0 241.67855729788016 287.88504929085684 0 0 0 0 49.211461967628566 -176.76559960323902 0 -176.76559960323902 -25.188165237178964 0 0 0 0 30.268661314272748 11.361837024920771 0 11.361837024920771 -22.406714467812812 0 0 0 0 2.1343840084709598 5.7630447133250229 0 5.7630447133250229 7.8493192307659818 0 0 0 0 67.878434740207013 226.10208144338185 0 226.10208144338185 265.32852139300121 0 0 0 0 215.95573142690409 147.56799385241084 0 147.56799385241084 -120.24126915144052 0 0 0 0 120.82870806760184 191.73734015650007 0 191.73734015650007 244.13777184427818 0 0 0 0 305.51721460043336 237.18976559788189 0 237.18976559788189 119.29514982672481 0 0 0 0 -41.101569333535735 -56.711805040861691 0 -56.711805040861691 -62.50341911102214 0 0 0 0 24.750312259973725 201.97368726853847 0 201.97368726853847 133.65064599089192 0 0 0 0 109.32194035358771 303.13092526965238 0 303.13092526965238 320.30168333077472 0 0 0 0 158.29611583890073 206.81288868186243 0 206.81288868186243 105.89263279889747 0 0 0 0 463.02381594720646 195.16264634060144 0 195.16264634060144 251.76121674240585 0 0 0 0 433.69310231407871 324.89313831241725 0 324.89313831241725 123.53390396506529 0 0 0 0 225.08288476356392 233.66191472457695 0 233.66191472457695 249.50353610015554 0 0 0 0 247.60092593875015 196.53551583768285 0 196.53551583768285 106.01461924029786 0 0 0 0 -11.224417139430557 13.877173736942225 0 13.877173736942225 -9.1590814197639361 0 0 0 0 444.89117792871548 506.58994558459335 0 506.58994558459335 301.5419943771185 0 0 0 0 -17.516261138975096 70.306190420808434 0 70.306190420808434 99.708920452934535 0 0 0 0 583.85235550871948 400.68201094084782 0 400.68201094084782 172.59013863213386 0 0 0 0 328.24494052157388 435.2740781775392 0 435.2740781775392 257.55246311376868 0 0 0 0 560.7130234852084 443.07180170510128 0 443.07180170510128 336.33826684731685 0 0 0 0 237.30396299311542 528.575247269785 0 528.575247269785 457.96883708019061 0 0 0 0 -0.89051829214440659 259.1526166992262 0 259.1526166992262 405.81828165770366 0 0 0 0 275.23746836060309 419.01282199664035 0 419.01282199664035 338.00386252045246 0 0 0 0 195.25750257473555 354.43579353827317 0 354.43579353827317 285.97440362001748 0 0 0 0 87.056902377167717 108.67957601005219 0 108.67957601005219 80.657170062424484 0 0 0 0 -104.87620352423983 -84.014492015654469 0 -84.014492015654469 254.25448896610578 0 0 0 0 163.74025687927497 203.78508894262768 0 203.78508894262768 203.5427191801391 0 0 0 0 -325.28595733243856 -173.9452834809581 0 -173.9452834809581 414.65038511745843 0 0 0 0 -89.606309374870307 268.63754170958418 0 268.63754170958418 597.69052092540733 0 0 0 0 276.7996753939442 653.82725505537564 0 653.82725505537564 -53.817145005330531 0 0 0 0 -543.61604788885597 113.463471624867 0 113.463471624867 665.04240860330901 0 0 0 0 965.16812818571634 165.56325702196045 0 165.56325702196045 291.89497629035395 0 0 0 0 126.0346611336463 584.38118008792287 0 584.38118008792287 1030.3771712493653 0 0 0 0 56.067106456321198 213.71696190995226 0 213.71696190995226 588.6772197072969 0 0 0 0 126.09100866645895 476.48225033929657 0 476.48225033929657 621.53561661956701 0 0 0 0 290.53481577220373 463.23215702067318 0 463.23215702067318 465.83147972151687 0 0 0 0 1076.7966306945164 427.73368562869109 0 427.73368562869109 304.78679548075343 0 0 0 0 993.789223127882 856.7140874761626 0 856.7140874761626 733.97043948730607 0 0 0 0 357.88711083378439 662.51951112461711 0 662.51951112461711 674.80714981027268 0 0 0 0 -0.88359515857867166 1.7019884089101041 0 1.7019884089101041 2.408565427516935 0 0 0 0 395.9959777292388 454.34513895393457 0 454.34513895393457 968.67766514595678 0 0 0 0 -47.804032520612964 -32.237644670971804 0 -32.237644670971804 34.117572545304057 0 0 0 0 341.24287476946847 593.36118209686811 0 593.36118209686811 615.92950575701252 0 0 0 0 1487.8874163599976 508.11053009482384 0 508.11053009482384 320.43349666529775 0 0 0 0 -5.3686504953466994 1.1289813695032436 0 1.1289813695032436 4.5153378716369623 0 0 0 0 766.71979178127367 647.57450664082353 0 647.57450664082353 335.23929461543958 0 0 0 0 446.72022394828673 302.7023471229495 0 302.7023471229495 93.196309854231913 0 0 0 0 78.018830978016922 518.07493100107285 0 518.07493100107285 800.10811293570441 0 0 0 0 -8.512675942207153 10.303179809130327 0 10.303179809130327 30.138754378687288 0 0 0 0 -5.1284501117388572 21.011041760318221 0 21.011041760318221 38.097800549872773 0 0 0 0 -2.97817479848527 44.851609000472024 0 44.851609000472024 36.162682794522993 0 0 0 0 406.84451130028174 497.05028126863908 0 497.05028126863908 400.05664204764344 0 0 0 0 626.70712865257155 796.64221478636648 0 796.64221478636648 890.36494875041535 0 0 0 0 480.45718035050959 371.47072831519108 0 371.47072831519108 601.31425239964392 0 0 0 0 -55.686292275055166 101.57702737769813 0 101.57702737769813 -201.90634576085824 0 0 0 0 353.91503515906516 -225.55930249537249 0 -225.55930249537249 -650.51638953276608 0 0 0 0 45.040435200001255 -2.7916654494973088 0 -2.7916654494973088 -10.350908997433272 0 0 0 0 24.161204559546604 -1.2550943302201745 0 -1.2550943302201745 -112.40507615197788 0 0 0 0 176.30069852295856 315.15098561874765 0 315.15098561874765 27.069882179414208 0 0 0 0 177.07774841425999 200.96782109636484 0 200.96782109636484 262.45428126621806 0 0 0 0 129.95744677403127 -37.414537561110933 0 -37.414537561110933 -195.98036369651442 0 0 0 0 91.83146051014046 190.5312595507545 0 190.5312595507545 168.46022724756313 0 0 0 0 46.40728524902282 -1.4182083471151543 0 -1.4182083471151543 -12.833746326981625 0 0 0 0 306.7158015877294 513.8218505031283 0 513.8218505031283 485.03738137501114 0 0 0 0 463.95094402523318 73.069480322017512 0 73.069480322017512 -52.97713564566584 0 0 0 0 300.44411954675161 287.15256168612541 0 287.15256168612541 139.9114252425702 0 0 0 0 -114.53401882654362 -106.74461153958237 0 -106.74461153958237 474.94138766529795 0 0 0 0 298.59550753978328 -165.87493884082483 0 -165.87493884082483 755.06687269495387 0 0 0 0 22.181751194199023 288.09392670220768 0 288.09392670220768 934.36400424663793 0 0 0 0 62.821455391007476 132.61117890532387 0 132.61117890532387 394.96903075085083 0 0 0 0 1174.9249958226865 40.105488734307073 0 40.105488734307073 209.08514634237667 0 0 0 0 893.93292250085597 1025.1092444553406 0 1025.1092444553406 808.29628599588432 0 0 0 0 345.7623284052097 422.0621613030421 0 422.0621613030421 236.28579807111919 0 0 0 0 -71.710822033288423 318.53510895980185 0 318.53510895980185 543.18218592717221 0 0 0 0 127.49972816963782 695.04193912370613 0 695.04193912370613 1088.8707344572231 0 0 0 0 393.76527623995207 581.25117083586065 0 581.25117083586065 352.30493612673126 0 0 0 0 392.04857379836903 595.46203807454776 0 595.46203807454776 234.90202934394256 0 0 0 0 632.37346660485855 514.79159967218152 0 514.79159967218152 27.725045499665612 0 0 0 0 378.76105940096022 674.76346651386802 0 674.76346651386802 521.38405252537393 0 0 0 0 162.53176717192332 218.63483359991136 0 218.63483359991136 121.83182474366458 0 0 0 0 5.4758891813326045 -13.092649639309457 0 -13.092649639309457 119.30236478306691 0 0 0 0 -0.38882950659146331 0.88307149341004276 0 0.88307149341004276 -2.8089570973475038 0 0 0 0 143.54339424564159 53.066216542455521 0 53.066216542455521 67.952126289573243 0 0 0 0 -32.076648334332276 35.01663246429689 0 35.01663246429689 114.07496899716807 0 0 0 0 -41.42445516918815 40.509481003309702 0 40.509481003309702 121.73291648532177 0 0 0 0 -128.19152579738875 -69.879991205350052 0 -69.879991205350052 75.409982837080179 0 0 0 0 -52.296377658426536 0.69338290313993411 0 0.69338290313993411 140.24726319555703 0 0 0 0 -8.404691724859731 45.866238793089451 0 45.866238793089451 2.192599468273329 0 0 0 0 8.4715665693865958 17.744315602688062 0 17.744315602688062 48.302620476231823 0 0 0 0 19.399653715481691 61.495473996869805 0 61.495473996869805 100.24222656904203 0 0 0 0 78.627582343833637 98.143656299856957 0 98.143656299856957 51.887648392098072 0 0 0 0 672.22714583217748 769.84170637253192 0 769.84170637253192 854.35923178759003 0 0 0 0 114.44060234466633 -1.7523559815048202 0 -1.7523559815048202 -17.004088675307685 0 0 0 0 7.7308451168941872 1.4705774744946964 0 1.4705774744946964 -1.1812926117320259 0 0 0 0 -0.80128727866794236 6.8404628682338995 0 6.8404628682338995 -6.2186826424984822 0 0 0 0 34.124381119254394 77.872839603218381 0 77.872839603218381 66.35327044382575 0 0 0 0 82.223158720568335 59.694009468078974 0 59.694009468078974 8.3552996607359091 0 0 0 0 -2.6397168628172949 30.177276915440416 0 30.177276915440416 52.105855825790059 0 0 0 0 -3.5874313831436098 8.1598813886784143 0 8.1598813886784143 6.4813624166678352 0 0 0 0 16.530754954696505 7.1445360971925211 0 7.1445360971925211 -10.91174044468811 0 0 0 0 668.5008290319638 586.0489388253111 0 586.0489388253111 1090.5389543038527 0 0 0 0 53.57022614012385 46.871395415320194 0 46.871395415320194 -8.7606391461126805 0 0 0 0 688.4022198830171 822.46075647609973 0 822.46075647609973 901.16930063367158 0 0 0 0 33.071361280201614 -1.6989525869381765 0 -1.6989525869381765 -7.0450891048279258 0 0 0 0 736.02069366831347 791.43854204026138 0 791.43854204026138 861.26307362513808 0 0 0 0 -51.121423890421283 6.5051022285626914 0 6.5051022285626914 50.526382290605852 0 0 0 0 -0.45623804734701423 9.2928209192330797 0 9.2928209192330797 29.022065809034171 0 0 0 0 -26.611491737246979 -6.7658729431964275 0 -6.7658729431964275 46.029208116217887 0 0 0 0 -36.753783143103647 5.7639199403354269 0 5.7639199403354269 34.671128011353176 0 0 0 0 -22.339537113322876 1.5164098655895941 0 1.5164098655895941 35.49794409178503 0 0 0 0 -8.7442750939934442 7.9035178461062827 0 7.9035178461062827 47.80871812423468 0 0 0 0 -37.642944169681869 14.21934287467775 0 14.21934287467775 77.914848914733739 0 0 0 0 5.7594736788672378 11.01373442207165 0 11.01373442207165 -4.545325259497444 0 0 0 0 2.5524026135568008 1.2988236996299207 0 1.2988236996299207 13.765532507707245 0 0 0 0 -54.569626609292754 25.764656891643426 0 25.764656891643426 72.797833455917498 0 0 0 0 45.547152173759969 -33.572121823798739 0 -33.572121823798739 -39.879866952162956 0 0 0 0 15.907372669607867 52.682626486730442 0 52.682626486730442 46.181036913134449 0 0 0 0 -25.738538810532191 10.122020650330796 0 10.122020650330796 35.142649329921085 0 0 0 0 31.442119263694622 15.4084328144354 0 15.4084328144354 43.365005265239233 0 0 0 0 25.695306515775883 19.879754830948059 0 19.879754830948059 -11.749793406255776 0 0 0 0 -22.196057206543628 54.602782985877639 0 54.602782985877639 16.410797195669147 0 0 0 0 12.815181323592697 52.347165949887994 0 52.347165949887994 26.984146444401631 0 0 0 0 37.793562544873566 -58.132973154581123 0 -58.132973154581123 9.0144722224030147 0 0 0 0 -47.553613311196386 1.48650239378685 0 1.48650239378685 51.318954748452597 0 0 0 0 -33.3167579690803 29.850243553527861 0 29.850243553527861 33.420475399035922 0 0 0 0 -67.78043290966707 47.888467895264284 0 47.888467895264284 64.668310312064932 0 0 0 0 2.0744823052151773 11.712084148100743 0 11.712084148100743 24.22397458038256 0 0 0 0 13.047999143367633 94.044036403141945 0 94.044036403141945 33.595743051120621 0 0 0 0 -118.96913469846913 -13.006067099552183 0 -13.006067099552183 42.591448509463589 0 0 0 0 0.58869328656412989 -2.3916871307939402 0 -2.3916871307939402 6.3738519202198951 0 0 0 0 107.05235743910453 70.754690361537087 0 70.754690361537087 -6.8146507544443011 0 0 0 0 201.86177211703762 138.88432648874959 0 138.88432648874959 51.73700484739993 0 0 0 0 0.52276730326357068 -1.0059114230434858 0 -1.0059114230434858 1.9567792172046978 0 0 0 0 35.558696538973891 -31.535610563167666 0 -31.535610563167666 13.208323080845901 0 0 0 0 2.0337827803110127 10.276277868534393 0 10.276277868534393 18.748683937536732 0 0 0 0 -107.23590742315355 33.065752658480505 0 33.065752658480505 76.674963500851391 0 0 0 0 9.5967058262976934 23.170571686134508 0 23.170571686134508 -4.0859251349351666 0 0 0 0 83.114797978680144 -5.6348488927420703 0 -5.6348488927420703 -114.4520265212434 0 0 0 0 3.3051673136761224 2.000150557836232 0 2.000150557836232 -1.4178350448914359 0 0 0 0 0.58564442651550053 36.943482481083038 0 36.943482481083038 10.585716243211664 0 0 0 0 27.150276172069425 123.09603195467662 0 123.09603195467662 52.365214506835628 0 0 0 0 1.7328516921697883 39.977178111221633 0 39.977178111221633 13.717608648776832 0 0 0 0 62.705354866523521 70.043543081690686 0 70.043543081690686 343.14917057346952 0 0 0 0 -0.28399486694615916 306.05450173452465 0 306.05450173452465 714.8353527897599 0 0 0 0 106.22957452447736 481.21632743523946 0 481.21632743523946 705.44285225225826 0 0 0 0 198.42181818340032 -52.417389614693548 0 -52.417389614693548 28.88171762147158 0 0 0 0 -52.299991171701549 29.030327666248809 0 29.030327666248809 4.7634892901699004 0 0 0 0 0.18900094165741166 0.32366621081295932 0 0.32366621081295932 0.50124941049982219 0 0 0 0 81.60449188259372 -81.75259731736196 0 -81.75259731736196 -159.48069454180904 0 0 0 0 -0.22696863348755869 56.905221493827639 0 56.905221493827639 32.232358162967785 0 0 0 0 -7.5649882276338758 34.837320533830621 0 34.837320533830621 91.389553771687133 0 0 0 0 12.057114301642287 120.36616355377555 0 120.36616355377555 187.32107152594176 0 0 0 0 183.45973047862935 114.49584670974696 0 114.49584670974696 63.431033458999536 0 0 0 0 0.092788412528726383 1.043946613805204 0 1.043946613805204 2.132822579206227 0 0 0 0 52.142921688930073 27.38407257075869 0 27.38407257075869 14.63193244285776 0 0 0 0 37.555249033262953 79.063108721667049 0 79.063108721667049 89.585783718849839 0 0 0 0 -36.544229102873942 -7.2542973449594683 0 -7.2542973449594683 58.010448555816765 0 0 0 0 -26.446262913079408 39.652541190115926 0 39.652541190115926 41.338244146224724 0 0 0 0 -5.4388748607743764 -26.489726662076464 0 -26.489726662076464 119.48997729428788 0 0 0 0 -27.099980981220142 37.459105754194979 0 37.459105754194979 149.26109717145823 0 0 0 0 19.838969517128135 15.173867608047203 0 15.173867608047203 -0.85229896787404869 0 0 0 0 -0.31655062275660661 0.85923607472633989 0 0.85923607472633989 0.13534812335063862 0 0 0 0 17.897717050047731 -42.674596106822023 0 -42.674596106822023 47.706375762901189 0 0 0 0 12.652245748686255 17.742376623195923 0 17.742376623195923 7.5800012712252283 0 0 0 0 -22.628462069231318 -16.427763411450997 0 -16.427763411450997 49.315411699360311 0 0 0 0 -19.552814715440036 -9.8648960669119106 0 -9.8648960669119106 45.173795676691043 0 0 0 0 -15.392123178906331 -0.21468728045306307 0 -0.21468728045306307 54.20140207278564 0 0 0 0 -21.265717207861599 -19.427223128446713 0 -19.427223128446713 30.254367910764358 0 0 0 0 -26.121252723765792 -6.2979800657763008 0 -6.2979800657763008 43.472212525262421 0 0 0 0 -12.113027578525362 -0.4226626116665102 0 -0.4226626116665102 15.326662271000714 0 0 0 0 -16.603389339561346 1.8686872070523783 0 1.8686872070523783 8.5132912351618693 0 0 0 0 -12.767549068346852 2.6405882527969879 0 2.6405882527969879 10.222075688182741 0 0 0 0 -0.89016091495523142 -0.2513457717184977 0 -0.2513457717184977 0.96733020980608053 0 0 0 0 -23.040455385955283 -8.3012556179464809 0 -8.3012556179464809 9.6501293609471759 0 0 0 0 1.225972495147289 3.6864713028951428 0 3.6864713028951428 4.627692661591027 0 0 0 0 -14.003502991872665 16.458658142203831 0 16.458658142203831 9.8645265814184313 0 0 0 0 10.910130906260747 -8.6648506774567977 0 -8.6648506774567977 7.9818519124555678 0 0 0 0 -1.95707185638787 2.2838868160979757 0 2.2838868160979757 0.84458038149202252 0 0 0 0 -1.2176549484631209 4.8222505784964902 0 4.8222505784964902 7.3081333309010006 0 0 0 0 -4.6262846154857797 1.0720214950279683 0 1.0720214950279683 3.6102487623915955 0 0 0 0 0.17635280286776833 5.307175692927558 0 5.307175692927558 7.1533752328332412 0 0 0 0 -2.3456549354086085 11.791645387860399 0 11.791645387860399 16.782386103952462 0 0 0 0 31.094913165921753 15.911307451902758 0 15.911307451902758 -35.051546052407502 0 0 0 0 1.0896144961145353 3.4699900859100303 0 3.4699900859100303 1.667559346559317 0 0 0 0 -39.416148752628942 -0.60405379334656573 0 -0.60405379334656573 12.294560714224644 0 0 0 0 -26.222676765457436 13.971528636954872 0 13.971528636954872 25.141488296068474 0 0 0 0 -14.993080259617273 0.28521199134024755 0 0.28521199134024755 5.8702148765487436 0 0 0 0 -26.940158789522684 -1.8821603076537485 0 -1.8821603076537485 8.0279762967043098 0 0 0 0 0.081042296586938359 37.361389151187446 0 37.361389151187446 43.936374493709991 0 0 0 0 19.700959170426358 37.864044815809393 0 37.864044815809393 38.402602949015545 0 0 0 0 27.702814884345571 23.465763052504826 0 23.465763052504826 26.222715703129779 0 0 0 0 -0.52795939762558319 1.7706713986217864 0 1.7706713986217864 5.8909801034702767 0 0 0 0 -10.172484493377851 22.0471664399156 0 22.0471664399156 -11.139899953532222 0 0 0 0 -18.580281657952582 -15.760108762169693 0 -15.760108762169693 13.809202652370914 0 0 0 0 -0.47037122995001823 -0.53436256344253508 0 -0.53436256344253508 1.4761609730469409 0 0 0 0 20.842445860147564 13.210212645803495 0 13.210212645803495 12.258836996288665 0 0 0 0 -0.92739882674938645 4.1252277717959913 0 4.1252277717959913 5.2746715834858477 0 0 0 0 -0.041474229300320076 5.8282337701343749 0 5.8282337701343749 2.2588544792251923 0 0 0 0 -1.9633308873640374 0.93721935650994226 0 0.93721935650994226 2.1792804395584024 0 0 0 0 0.013847410675225547 20.928241928143962 0 20.928241928143962 25.551810849858157 0 0 0 0 -24.842810285190353 121.95546369574913 0 121.95546369574913 -130.34716905320056 0 0 0 0 -1.4378026028008861 -0.20098716552595164 0 -0.20098716552595164 0.90765885696769999 0 0 0 0 16.819568553895806 63.985771571793521 0 63.985771571793521 -167.09107363981457 0 0 0 0 12.6618910280813 -6.3095365383742319 0 -6.3095365383742319 -113.932402151102 0 0 0 0 29.739999397730571 13.83149532163452 0 13.83149532163452 -68.260595730829664 0 0 0 0 -32.55650746950414 93.778007719614834 0 93.778007719614834 -75.396077325247461 0 0 0 0 -19.042719491058961 68.744789267948363 0 68.744789267948363 -99.105617387116581 0 0 0 0 -37.298710274742916 92.435442692499237 0 92.435442692499237 -56.747140375542585 0 0 0 0 10.92337167848018 9.060333860911669 0 9.060333860911669 -27.649838798535711 0 0 0 0 -24.095155203219292 -32.449014749726871 0 -32.449014749726871 156.2126440025495 0 0 0 0 0.09376936265575786 2.2840566166433547 0 2.2840566166433547 -0.22765017718586122 0 0 0 0 -8.8293501844491402 -9.1793181067559999 0 -9.1793181067559999 -23.24745276619069 0 0 0 0 -73.412609883774167 5.4070185161905329 0 5.4070185161905329 8.089182306361181 0 0 0 0 -82.148073991775163 75.950925646584437 0 75.950925646584437 -48.324927592773747 0 0 0 0 -17.181831923197024 35.613469840121979 0 35.613469840121979 -27.081756359128121 0 0 0 0 -24.415283527545398 13.682000616088771 0 13.682000616088771 -12.494601054038867 0 0 0 0 -26.896840257468284 29.177139021057883 0 29.177139021057883 -31.234037447035007 0 0 0 0 -0.17605269463440987 1.5709828082509603 0 1.5709828082509603 0.061129305220880781 0 0 0 0 -223.60800246137887 112.77535432793684 0 112.77535432793684 -18.850716603526962 0 0 0 0 90.743153792544035 96.462336509479883 0 96.462336509479883 -44.581758027760316 0 0 0 0 -135.46336140332278 170.87766877003924 0 170.87766877003924 -86.950194802684848 0 0 0 0 -134.08285966941912 41.127445629737849 0 41.127445629737849 -9.9167937804595567 0 0 0 0 -113.27869808379182 131.6964359899232 0 131.6964359899232 -76.169003083519783 0 0 0 0 -0.067693993847144793 139.9748161949143 0 139.9748161949143 -122.29077365963894 0 0 0 0 -48.275620372885896 173.04115239990824 0 173.04115239990824 -122.56162219539578 0 0 0 0 -75.591917620658933 124.92192954508482 0 124.92192954508482 -85.40701979739606 0 0 0 0 -25.036406268707651 -4.5907415069191302 0 -4.5907415069191302 1.4797875310105155 0 0 0 0 -23.407744046560765 -1.6153722150477279 0 -1.6153722150477279 3.753653040129393 0 0 0 0 -30.075857175881538 -5.9842053070483416 0 -5.9842053070483416 4.2087800822264398 0 0 0 0 -34.774996119078423 63.945737539599122 0 63.945737539599122 64.209563313026592 0 0 0 0 0.79986435648822152 1.5429954691144019 0 1.5429954691144019 1.110644701896959 0 0 0 0 -42.707918938904186 -24.159082498765429 0 -24.159082498765429 2.9392451737057854 0 0 0 0 63.515939435172186 64.890641007566956 0 64.890641007566956 -55.638370926375501 0 0 0 0 -56.541455790993496 8.7390185522872343 0 8.7390185522872343 5.0867043055395698 0 0 0 0 0.36940869482473104 11.919141276742124 0 11.919141276742124 12.298635542702119 0 0 0 0 51.180075183381859 97.95547818017711 0 97.95547818017711 158.31268158768398 0 0 0 0 197.25265270495584 249.94234944225832 0 249.94234944225832 186.15289228794973 0 0 0 0 475.68132531904848 177.37324380851669 0 177.37324380851669 -3.5577571297480972 0 0 0 0 518.37794657692575 332.48400351884766 0 332.48400351884766 223.55809154908388 0 0 0 0 474.41679169246231 156.77200891228483 0 156.77200891228483 91.462169980438375 0 0 0 0 673.51776918193355 401.63555057125348 0 401.63555057125348 70.201883365696176 0 0 0 0 -0.89328930328479572 1.9678383668944974 0 1.9678383668944974 3.8274196473488402 0 0 0 0 603.99377600587104 327.18378722982652 0 327.18378722982652 70.569297195064792 0 0 0 0 493.03472372500255 223.75669994846652 0 223.75669994846652 24.822842754590056 0 0 0 0 495.66203196160495 229.15381218181199 0 229.15381218181199 -121.42153969386345 0 0 0 0 559.22204342167242 361.75570226540276 0 361.75570226540276 70.995093935479019 0 0 0 0 381.74680544643343 194.42404752981747 0 194.42404752981747 68.230672338512704 0 0 0 0 431.50462544933544 253.70070903072701 0 253.70070903072701 61.922267102655496 0 0 0 0 264.46624740766856 199.18202167929667 0 199.18202167929667 74.008606213049461 0 0 0 0 243.49503856973024 244.64699646634199 0 244.64699646634199 64.30497175900075 0 0 0 0 144.7283504722509 274.50760837331291 0 274.50760837331291 73.789551537135139 0 0 0 0 214.44569208761459 236.01296796940187 0 236.01296796940187 46.609786234166677 0 0 0 0 127.97526704375196 287.69776524946201 0 287.69776524946201 -4.4243879885152637 0 0 0 0 204.46698671265767 205.85927508501106 0 205.85927508501106 36.242853492388349 0 0 0 0 401.7076583825401 248.32239622952216 0 248.32239622952216 -0.62459774332035067 0 0 0 0 329.45295215161968 166.09209358574162 0 166.09209358574162 18.927037790706436 0 0 0 0 229.29342873183487 86.815950692003639 0 86.815950692003639 -114.96864112702474 0 0 0 0 53.848533034535649 249.06246731323563 0 249.06246731323563 27.602638468780867 0 0 0 0 415.14331831442541 38.56425993476563 0 38.56425993476563 -374.60077049049323 0 0 0 0 299.00133899095817 174.1831094140307 0 174.1831094140307 -159.99643010158286 0 0 0 0 -28.105034657241049 -46.47659455292694 0 -46.47659455292694 -288.31015791750565 0 0 0 0 699.92232263549522 58.499324915035686 0 58.499324915035686 -957.89884594093246 0 0 0 0 -166.5687341226876 144.71635755905146 0 144.71635755905146 -21.988249044090537 0 0 0 0 83.610865419283073 110.23418149669496 0 110.23418149669496 -309.07740009796669 0 0 0 0 53.229861173094832 322.82531424578212 0 322.82531424578212 4.8195370660627077 0 0 0 0 -173.66638910445909 94.839367618821939 0 94.839367618821939 -376.17110414899673 0 0 0 0 -406.67779295270884 -203.17997019914321 0 -203.17997019914321 -283.90639561412888 0 0 0 0 157.95409994389411 -473.22926179515571 0 -473.22926179515571 -984.11719699229536 0 0 0 0 1547.7835317895006 2061.0308677436915 0 2061.0308677436915 2027.1954291883526 0 0 0 0 11.802919510694238 0.0022131894125436702 0 0.0022131894125436702 -1.2158463443093521 0 0 0 0 34.867652952700155 48.544443923596646 0 48.544443923596646 39.845870586167791 0 0 0 0 -2.5971535887282471 2.7402484781704146 0 2.7402484781704146 4.3939460748125345 0 0 0 0 78.87810792082746 24.054394106041627 0 24.054394106041627 52.654108720503643 0 0 0 0 2360.2627470040461 1436.0985154827274 0 1436.0985154827274 1398.3449485697156 0 0 0 0 83.403969460588996 61.315287382196516 0 61.315287382196516 318.19057776815316 0 0 0 0 41.303018901890027 311.34978878281481 0 311.34978878281481 490.04097803398918 0 0 0 0 18.776707733748481 132.32084911939569 0 132.32084911939569 772.31703683326828 0 0 0 0 115.58229528060474 202.94415390021254 0 202.94415390021254 344.99567257837771 0 0 0 0 112.09799337950835 105.6256381877277 0 105.6256381877277 -21.66254329426738 0 0 0 0 74.340411171902815 -7.1702316497127754 0 -7.1702316497127754 -47.481393382844544 0 0 0 0 4.5137883383431472 -101.61834184738973 0 -101.61834184738973 -69.074545362635945 0 0 0 0 -24.007325765764108 -28.346080048953354 0 -28.346080048953354 -51.326927728611508 0 0 0 0 149.11319415867911 -3.6721383184277556 0 -3.6721383184277556 -33.833450000433913 0 0 0 0 142.77391042518138 16.42457300537626 0 16.42457300537626 -68.641403156363594 0 0 0 0 -1.9078165012797044 2.8263621527057552 0 2.8263621527057552 9.2190547535411724 0 0 0 0 150.19469603546713 88.319033505554756 0 88.319033505554756 56.713841224044927 0 0 0 0 -14.486326530502993 4.4896189391754433 0 4.4896189391754433 21.335185098962711 0 0 0 0 -0.38750153758245176 0.24110406107230631 0 0.24110406107230631 -1.1010121583344628 0 0 0 0 -181.71377084949927 -68.181656433332819 0 -68.181656433332819 -16.964389060497979 0 0 0 0 -19.830348193074315 3.4238123933284896 0 3.4238123933284896 36.158443076671574 0 0 0 0 -13.459651460454324 2.1031971569032919 0 2.1031971569032919 13.500661114218598 0 0 0 0 -6.894866264099619 142.23944639796008 0 142.23944639796008 386.48306784426904 0 0 0 0 328.09534946286294 316.04505128776646 0 316.04505128776646 81.431424185256674 0 0 0 0 696.09007398944232 528.8860202465994 0 528.8860202465994 -170.21878812199114 0 0 0 0 812.82977724983357 414.49255343867708 0 414.49255343867708 -72.781153621150452 0 0 0 0 1140.0823545312014 545.87997128273457 0 545.87997128273457 -475.74636207152196 0 0 0 0 1217.8194178755202 1139.4032169069235 0 1139.4032169069235 498.871576950872 0 0 0 0 225.36294426058885 736.64653103752289 0 736.64653103752289 1447.6109380574253 0 0 0 0 323.9824082647101 772.94553571618189 0 772.94553571618189 1146.8460900568089 0 0 0 0 530.91030594818585 657.32397533898541 0 657.32397533898541 477.61290764105513 0 0 0 0 74.216969510147464 331.99839404016348 0 331.99839404016348 406.95821107650448 0 0 0 0 13.406840307587686 11.22759245735233 0 11.22759245735233 -45.423851382416615 0 0 0 0 7.3624353323795466 11.367139243235453 0 11.367139243235453 -22.548349872714965 0 0 0 0 -32.274303751139996 36.415752030142357 0 36.415752030142357 -21.312198480430197 0 0 0 0 4.5321500550053075 15.455711686991087 0 15.455711686991087 -18.875381231629547 0 0 0 0 -10.968894965968957 -10.581193678309319 0 -10.581193678309319 -29.306585120233649 0 0 0 0 3.2789108159868192 100.98922106622558 0 100.98922106622558 -93.830135160209466 0 0 0 0 -59.90001854410184 148.40952300239951 0 148.40952300239951 -52.616325278955628 0 0 0 0 -194.61044982953899 -2.2529196109862824 0 -2.2529196109862824 22.141550009146158 0 0 0 0 -26.183617727629098 34.221937210571014 0 34.221937210571014 20.014071119258006 0 0 0 0 -38.161776450975594 28.251110950292059 0 28.251110950292059 24.185514419121318 0 0 0 0 -29.092258598117041 23.481056565797189 0 23.481056565797189 24.940707915779058 0 0 0 0 5.742570310776685 14.873548450865201 0 14.873548450865201 -12.894366872182218 0 0 0 0 -27.637701300867775 -2.2242154446103086 0 -2.2242154446103086 -7.4103853124252055 0 0 0 0 31.748941380513713 0.88135555635199125 0 0.88135555635199125 -19.832239459889024 0 0 0 0 10.917542020119271 79.742525682409905 0 79.742525682409905 -45.58111161308625 0 0 0 0 134.03537103140502 251.84010323881103 0 251.84010323881103 6.9688157545460854 0 0 0 0 189.18154444523407 37.02815898517656 0 37.02815898517656 -54.603193811932215 0 0 0 0 -92.752026090897459 153.34104847146773 0 153.34104847146773 6.0778133148269262 0 0 0 0 -16.43214408018116 49.997378271484195 0 49.997378271484195 -69.360803185052646 0 0 0 0 -10.410087854676995 41.005113506147609 0 41.005113506147609 -53.070772358456452 0 0 0 0 -45.875425142065801 37.215564505076145 0 37.215564505076145 -32.375129041873151 0 0 0 0 -12.718698613781285 97.322318823415117 0 97.322318823415117 -130.34916097136374 0 0 0 0 53.397557962342034 211.73782637096065 0 211.73782637096065 -251.75548145555058 0 0 0 0 -22.741835486000387 31.430975058814646 0 31.430975058814646 29.701026739123247 0 0 0 0 441.89662180170126 -133.97082774198498 0 -133.97082774198498 -79.227244285538291 0 0 0 0 292.56749209168811 338.65675044678756 0 338.65675044678756 219.004014338856 0 0 0 0 -325.22751212578623 264.20761846620098 0 264.20761846620098 208.15698851105117 0 0 0 0 -279.95636378791096 217.33658696784369 0 217.33658696784369 -40.065959060777459 0 0 0 0 -33.550704778630518 30.161972719985183 0 30.161972719985183 27.039618154081083 0 0 0 0 -155.87517449822917 79.634328474681752 0 79.634328474681752 1.8994977184429445 0 0 0 0 -21.196678403010964 62.126153075272669 0 62.126153075272669 -93.824099690347794 0 0 0 0 -34.054361098660067 25.281012079439279 0 25.281012079439279 -43.288329379720381 0 0 0 0 -30.272621813501246 55.248151967271951 0 55.248151967271951 -24.538291554289913 0 0 0 0 1.5825886796119297 16.943279495417798 0 16.943279495417798 -34.096364434533854 0 0 0 0 102.61251938923306 -6.9465981945909334 0 -6.9465981945909334 -72.83063930593562 0 0 0 0 -20.371157338847752 20.828872407939798 0 20.828872407939798 -22.505447173454741 0 0 0 0 3.9307671062927367 16.245764437300387 0 16.245764437300387 -18.6072513256942 0 0 0 0 -25.564786041337129 18.419641447493142 0 18.419641447493142 -1.7176749906253264 0 0 0 0 16.390392104469356 11.947517728709499 0 11.947517728709499 26.385193427526247 0 0 0 0 31.174476047784992 -68.136442418057413 0 -68.136442418057413 66.103180636986508 0 0 0 0 23.487237072269636 -2.1521980528741551 0 -2.1521980528741551 -60.286446399893066 0 0 0 0 -18.998387221716257 56.507577195585327 0 56.507577195585327 -56.028636535025726 0 0 0 0 0.42880241231978289 51.215273178273492 0 51.215273178273492 -123.27586493665876 0 0 0 0 49.694895880154945 -13.625302044647469 0 -13.625302044647469 -31.255397639099101 0 0 0 0 -11.010354236148487 17.712924648628359 0 17.712924648628359 34.816282361305639 0 0 0 0 25.388966365964734 -14.606733297019673 0 -14.606733297019673 -110.2515729730876 0 0 0 0 -9.9017823732938268 89.834956722261268 0 89.834956722261268 -149.4936605699404 0 0 0 0 -164.022365477329 78.250780450423918 0 78.250780450423918 -4.3338786386339052 0 0 0 0 -176.39820332352247 34.005479510806254 0 34.005479510806254 -131.04207799343567 0 0 0 0 -158.62973756537394 143.03302449807234 0 143.03302449807234 -223.46767414967326 0 0 0 0 -145.77435668910766 125.94927840599121 0 125.94927840599121 -373.92820740879688 0 0 0 0 0.7378208909199806 1.3767854086657252 0 1.3767854086657252 -1.0562514474921159 0 0 0 0 -617.77078586517018 407.7533837803785 0 407.7533837803785 -373.76221130106427 0 0 0 0 -118.57488802901207 27.986929625488301 0 27.986929625488301 -180.20312884830491 0 0 0 0 -34.175642842426896 117.53756517963848 0 117.53756517963848 -170.475782971851 0 0 0 0 -45.311624260910321 161.94787955566426 0 161.94787955566426 -288.61754922132059 0 0 0 0 -66.515575290599372 122.65495277016817 0 122.65495277016817 -126.02382301342732 0 0 0 0 -436.27468570890369 218.11252513568229 0 218.11252513568229 -58.441894240626425 0 0 0 0 -64.847344481688197 154.82724952830904 0 154.82724952830904 -192.50430882570072 0 0 0 0 -38.485568225878524 -15.846396447484949 0 -15.846396447484949 28.303640647925931 0 0 0 0 -154.0308852948001 218.33663391286427 0 218.33663391286427 -159.5133856340999 0 0 0 0 -1.4189281553588771 -0.30595138409790223 0 -0.30595138409790223 0.47934452823543694 0 0 0 0 -202.13128695652267 186.04354761284958 0 186.04354761284958 -88.126871998920251 0 0 0 0 3.1877751035376782 7.6039814219435797 0 7.6039814219435797 7.3802737944486267 0 0 0 0 -418.62780561536601 229.30864541248275 0 229.30864541248275 -70.028358801842842 0 0 0 0 -104.31687395554582 10.515176197459368 0 10.515176197459368 -139.30071610871892 0 0 0 0 -236.27400904177557 89.27679056600391 0 89.27679056600391 -55.596974729176509 0 0 0 0 -105.36050722855725 47.690514539321157 0 47.690514539321157 17.102420141307448 0 0 0 0 -61.376938713259733 74.715784241070651 0 74.715784241070651 -71.073799915433483 0 0 0 0 10.717504384148924 -50.771769804268843 0 -50.771769804268843 -46.430439232699428 0 0 0 0 -49.483609180253552 79.630811416071083 0 79.630811416071083 -108.48863002162398 0 0 0 0 -107.58601637510583 123.00115816432299 0 123.00115816432299 -91.941153581979961 0 0 0 0 -12.732215325431753 240.53577609599051 0 240.53577609599051 -166.84574818611327 0 0 0 0 -160.25730832357476 181.90723069644991 0 181.90723069644991 -136.96706277740668 0 0 0 0 -172.31162625166326 234.66648305693889 0 234.66648305693889 -126.98280928202803 0 0 0 0 -175.80665209506196 264.78922418137631 0 264.78922418137631 -112.16096918135372 0 0 0 0 -244.40643277751951 209.92762156782919 0 209.92762156782919 -95.982904246484395 0 0 0 0 -266.77656713233955 232.86332487696927 0 232.86332487696927 -103.90100478856039 0 0 0 0 -270.52204899180288 226.08942706717608 0 226.08942706717608 -92.366443872884702 0 0 0 0 -249.01188407552945 236.55886484312578 0 236.55886484312578 -205.96263677231036 0 0 0 0 -236.146823549494 358.16384397600996 0 358.16384397600996 41.698671681759151 0 0 0 0 -272.36330861858733 215.30200800852799 0 215.30200800852799 -104.64851206669118 0 0 0 0 2.713008004291531 6.0285964420129048 0 6.0285964420129048 6.6625361933648009 0 0 0 0 -314.80947656118951 189.156467185574 0 189.156467185574 -117.4943921046688 0 0 0 0 -379.76209207056672 169.32806895682006 0 169.32806895682006 -101.34234568808097 0 0 0 0 -429.16961408458974 183.44840117425883 0 183.44840117425883 -65.262570946957567 0 0 0 0 -328.95056788346847 196.80062765696493 0 196.80062765696493 -95.521525638425373 0 0 0 0 -366.76969899582036 187.81317847102764 0 187.81317847102764 -91.475134800708474 0 0 0 0 -321.12622987395844 222.45727176688888 0 222.45727176688888 -91.949968503293348 0 0 0 0 -354.62655787098265 212.31990905319435 0 212.31990905319435 -89.089057735225651 0 0 0 0 -395.36714819662302 215.02490784080874 0 215.02490784080874 -64.403644559410168 0 0 0 0 -408.7701643851251 208.07210681887955 0 208.07210681887955 -67.79690915041283 0 0 0 0 -426.13056191845681 236.39088954600811 0 236.39088954600811 -70.380921905923969 0 0 0 0 -369.08905449449958 246.18337057326789 0 246.18337057326789 -69.063990621085395 0 0 0 0 -357.62407621720376 225.39685112947882 0 225.39685112947882 -87.345396949836868 0 0 0 0 -301.63220055224883 250.55835577230391 0 250.55835577230391 -95.669441916197684 0 0 0 0 -301.06090539099512 266.23887691794152 0 266.23887691794152 -100.99256213969784 0 0 0 0 -365.1939508080759 251.12448907247017 0 251.12448907247017 -84.560504933186166 0 0 0 0 -307.76400089771778 231.87137509432068 0 231.87137509432068 -88.866823963830029 0 0 0 0 -296.16336814989336 206.97761525939859 0 206.97761525939859 -104.69916779553932 0 0 0 0 -261.96542836302524 218.45594153028424 0 218.45594153028424 -113.51742309979454 0 0 0 0 -256.68539861990394 253.30339021623899 0 253.30339021623899 -106.17896824140917 0 0 0 0 -220.75661533002858 244.95356675499352 0 244.95356675499352 -116.21466457151473 0 0 0 0 -209.41531195529751 263.2056728873722 0 263.2056728873722 -122.6879101925997 0 0 0 0 -223.42880180030988 283.06588829879547 0 283.06588829879547 -115.47258220002914 0 0 0 0 -201.26409718117975 282.23494017620669 0 282.23494017620669 -118.9174729095248 0 0 0 0 -97.208028439406917 283.64360035707068 0 283.64360035707068 -150.60023888118394 0 0 0 0 -88.989172818924999 300.78876105009113 0 300.78876105009113 -154.76840024110425 0 0 0 0 -138.46069229291243 249.80807789774008 0 249.80807789774008 -131.44420918229662 0 0 0 0 -155.6515836489707 312.84222251337633 0 312.84222251337633 -138.68744687483195 0 0 0 0 -150.15816125833771 291.07997662252455 0 291.07997662252455 -135.19429948726975 0 0 0 0 -246.18276404557491 289.8748894687451 0 289.8748894687451 -117.65066215224942 0 0 0 0 -223.20864495798378 338.64055058992744 0 338.64055058992744 -119.10165923743625 0 0 0 0 -389.98172309236907 308.1947066461853 0 308.1947066461853 -92.04441859437793 0 0 0 0 -338.33066856391451 250.60632836422883 0 250.60632836422883 -98.330949339724611 0 0 0 0 -315.96118111921533 291.29151738389555 0 291.29151738389555 -103.29833977510862 0 0 0 0 -350.35871369876622 264.7030747896315 0 264.7030747896315 -97.827613908717467 0 0 0 0 -372.87533941001493 272.58576907625866 0 272.58576907625866 -92.435776692916988 0 0 0 0 -391.59000103905248 287.90732427554565 0 287.90732427554565 -94.024509827853763 0 0 0 0 -472.01280386761209 271.96553652439252 0 271.96553652439252 -71.465810946858255 0 0 0 0 -601.37098811092437 283.27052031016319 0 283.27052031016319 -59.037013243923866 0 0 0 0 -415.86236784204084 355.03842750718468 0 355.03842750718468 -88.887323048704275 0 0 0 0 -415.32939043006263 332.32850895002048 0 332.32850895002048 -96.730063351466015 0 0 0 0 -179.1414080989523 268.77746485975018 0 268.77746485975018 -105.6533928910103 0 0 0 0 -253.24944741059517 341.2337173392134 0 341.2337173392134 -126.48198024713201 0 0 0 0 -240.21890614333461 294.3678880748048 0 294.3678880748048 -111.62221452626682 0 0 0 0 -138.85826160072611 356.54741310277495 0 356.54741310277495 -128.36860296285886 0 0 0 0 1.3102314328661038 0.34254520113412212 0 0.34254520113412212 -1.4380804169226593 0 0 0 0 16.925326743337791 -67.539034601204548 0 -67.539034601204548 55.122165975670214 0 0 0 0 -98.077714311451018 178.62681494648768 0 178.62681494648768 -98.069767301276443 0 0 0 0 43.649803675465591 -11.176866057128791 0 -11.176866057128791 2.4168202887158259 0 0 0 0 -54.167526949788225 121.69919238317743 0 121.69919238317743 -168.47201898268031 0 0 0 0 19.795859251753427 52.167103911850063 0 52.167103911850063 -40.001493273688538 0 0 0 0 -420.92025274900516 221.48778807362623 0 221.48778807362623 -82.187566202228481 0 0 0 0 -523.45141024597251 164.69597500223063 0 164.69597500223063 -100.16475997973794 0 0 0 0 1.8653184025957987 4.8708955154329914 0 4.8708955154329914 6.5192010620730514 0 0 0 0 -80.525829893696937 41.6455748708795 0 41.6455748708795 44.089079649806081 0 0 0 0 -702.34456422945186 253.54689921500449 0 253.54689921500449 -14.829055493568376 0 0 0 0 -600.8580476270572 279.74713166146307 0 279.74713166146307 -64.043927053520747 0 0 0 0 -48.706459279135743 -28.792531780991339 0 -28.792531780991339 40.441980771007366 0 0 0 0 -78.047941369214413 1.6101627376865508 0 1.6101627376865508 50.439211185752356 0 0 0 0 -67.153699884285743 -19.394384039049328 0 -19.394384039049328 104.09893267428924 0 0 0 0 -32.651956753321429 9.2228203068407311 0 9.2228203068407311 -13.859095279523899 0 0 0 0 -43.546687391426531 26.611747548067797 0 26.611747548067797 87.440698806332875 0 0 0 0 -36.334271928601083 42.933248305973393 0 42.933248305973393 -14.410352903627142 0 0 0 0 -55.133037600575335 39.41508384854933 0 39.41508384854933 -10.439611876035997 0 0 0 0 -3.2041117544546687 4.618898477921114 0 4.618898477921114 2.0250064384213431 0 0 0 0 -43.95690053627186 26.29826279610279 0 26.29826279610279 -20.907333930415916 0 0 0 0 -770.549398280692 205.70907776763306 0 205.70907776763306 -11.780566657760573 0 0 0 0 -727.72429143988484 218.6285781441602 0 218.6285781441602 -77.517059495388366 0 0 0 0 -1610.2083951327186 78.971053068300535 0 78.971053068300535 126.18744999092451 0 0 0 0 -723.3444674971106 741.4844148927059 0 741.4844148927059 -427.69382505931935 0 0 0 0 -2.7864960782139221 2.5321675218805098 0 2.5321675218805098 -3.8632825442521188 0 0 0 0 -1026.1358145166887 884.9992116357098 0 884.9992116357098 -337.09455194809198 0 0 0 0 -182.97919764688129 362.05176826684755 0 362.05176826684755 -182.59608853278769 0 0 0 0 -3.2299705614732375 155.63272733451686 0 155.63272733451686 -137.95917049549826 0 0 0 0 -60.315533186996618 331.12223416619963 0 331.12223416619963 -109.15225827312679 0 0 0 0 -158.58453132052455 330.77412549656765 0 330.77412549656765 -196.34090520560585 0 0 0 0 -449.29068767107674 438.73934043996633 0 438.73934043996633 -151.04210097672058 0 0 0 0 -684.01950452274559 362.83225463094368 0 362.83225463094368 -65.197301672982576 0 0 0 0 -142.54871371909121 333.19049791298767 0 333.19049791298767 -218.9933696949447 0 0 0 0 -42.336693005918278 71.091720728857581 0 71.091720728857581 185.92632892300026 0 0 0 0 64.718792879470129 309.96405683304329 0 309.96405683304329 -636.93994617764747 0 0 0 0 34.800744654756272 -66.210959356360036 0 -66.210959356360036 -96.67234115022211 0 0 0 0 115.66762369563116 174.69709226275154 0 174.69709226275154 78.195410611857369 0 0 0 0 49.331917596473431 -69.848867523358422 0 -69.848867523358422 -136.0351723577769 0 0 0 0 -7.0491768009971381 2.7572332161172142 0 2.7572332161172142 -0.62626326707164992 0 0 0 0 -652.34435019420016 534.94434662749518 0 534.94434662749518 -752.12898456801122 0 0 0 0 33.431913653518222 63.584084654014077 0 63.584084654014077 16.010949754447211 0 0 0 0 -1.1708843595729519 5.1085723638791336 0 5.1085723638791336 -12.651802446774425 0 0 0 0 -1211.0714768012667 563.05612195792492 0 563.05612195792492 -147.480008424056 0 0 0 0 -4.5361392191231928 1.9627637273289622 0 1.9627637273289622 -0.5522032947759925 0 0 0 0 -800.01615180299814 -24.039488442085712 0 -24.039488442085712 288.61580443186904 0 0 0 0 -1306.3553616378649 700.51843365124114 0 700.51843365124114 -286.25226465251762 0 0 0 0 -1241.3493399107083 489.17975025329179 0 489.17975025329179 54.149255065625766 0 0 0 0 -1204.5917342124849 249.05503693979517 0 249.05503693979517 186.7112320619508 0 0 0 0 -1162.5634729295216 312.56124338099653 0 312.56124338099653 -55.268530654283495 0 0 0 0 370.37493206070576 120.47354398906646 0 120.47354398906646 11.823816043281113 0 0 0 0 775.13404542363878 166.09737750193744 0 166.09737750193744 -99.231756169685468 0 0 0 0 -18.826787510769464 297.78998629965281 0 297.78998629965281 142.62192462746771 0 0 0 0 195.56858592293838 459.34607861450786 0 459.34607861450786 53.018729694496869 0 0 0 0 23.321889112564918 229.064275279708 0 229.064275279708 191.72258892501122 0 0 0 0 314.7119818468484 344.0740533747703 0 344.0740533747703 140.07616339415108 0 0 0 0 -41.916799520859058 258.95965980722212 0 258.95965980722212 363.3696739643201 0 0 0 0 7.4264890977046889 75.480319027836231 0 75.480319027836231 85.096082163785468 0 0 0 0 -6.0259256372919481 37.803561066673865 0 37.803561066673865 36.973749689575925 0 0 0 0 -36.510433744928378 29.240328422245511 0 29.240328422245511 -22.496836030277336 0 0 0 0 -35.783223379308765 25.478680735723174 0 25.478680735723174 -27.142157491351099 0 0 0 0 34.960928506808159 42.097539046868405 0 42.097539046868405 -21.247835801852489 0 0 0 0 -30.256026038547638 18.59541772697575 0 18.59541772697575 -8.9343475592252553 0 0 0 0 -8.2223205189327508 6.7290693876282273 0 6.7290693876282273 -1.9228280592412546 0 0 0 0 -11.431131139659556 15.599622978632397 0 15.599622978632397 -82.687281073951453 0 0 0 0 -1.0825377281988853 1.2675066496730665 0 1.2675066496730665 2.9717428735255709 0 0 0 0 -36.681732436156608 14.562492666434991 0 14.562492666434991 44.769752578271437 0 0 0 0 -8.1805143529829252 106.97582901381753 0 106.97582901381753 237.72163504231139 0 0 0 0 -64.57958700970687 -10.574014054996042 0 -10.574014054996042 -40.465210608206689 0 0 0 0 3.3695667787569619 2.3145712746627396 0 2.3145712746627396 -46.975476595009241 0 0 0 0 -37.608805274217957 17.260230810128633 0 17.260230810128633 -5.97654858797614 0 0 0 0 -16.07578730921341 25.610105059735361 0 25.610105059735361 -16.539618379294552 0 0 0 0 4.9431058147299574 15.247415938035559 0 15.247415938035559 -15.098000533758508 0 0 0 0 -10.960109425106822 15.89453254124782 0 15.89453254124782 -10.164600842563807 0 0 0 0 -5.5373105805360865 9.4784381838744594 0 9.4784381838744594 -19.397903821649379 0 0 0 0 -0.84024332762851639 17.681589241784245 0 17.681589241784245 -17.65954480170906 0 0 0 0 -37.715705312874888 31.144980630203463 0 31.144980630203463 0.060757716128136963 0 0 0 0 -28.523208410643747 22.614092400164736 0 22.614092400164736 -4.3712740177288651 0 0 0 0 -35.217588353651081 36.592464047527756 0 36.592464047527756 19.710610148842534 0 0 0 0 -36.859150121985294 34.263581975435955 0 34.263581975435955 -11.997173360345187 0 0 0 0 -30.015414593421156 30.499597537536829 0 30.499597537536829 -24.673490254172066 0 0 0 0 246.6596780332174 206.07646131854472 0 206.07646131854472 57.017805011550081 0 0 0 0 5.1777152585439143 1.5326114165244746 0 1.5326114165244746 -1.6154069349644899 0 0 0 0 205.22382658571144 243.85848391082618 0 243.85848391082618 180.12086456325051 0 0 0 0 44.95227451175937 -7.9536872304779536 0 -7.9536872304779536 -32.555564711496118 0 0 0 0 384.81761160881183 228.21491754619092 0 228.21491754619092 127.94802819799042 0 0 0 0 -47.306864266317007 12.395112742051424 0 12.395112742051424 108.45535003850819 0 0 0 0 94.91529518979678 52.170144689278459 0 52.170144689278459 209.47709200847112 0 0 0 0 129.79175302613748 241.41653120138653 0 241.41653120138653 281.4225215127808 0 0 0 0 91.896110363192747 194.9306584916776 0 194.9306584916776 180.88095815365159 0 0 0 0 -111.48885983163279 39.917209240174088 0 39.917209240174088 301.79165674113028 0 0 0 0 -136.58320594292815 126.40687424322823 0 126.40687424322823 210.39841019449887 0 0 0 0 -255.12770705042249 -138.04542734885399 0 -138.04542734885399 83.494399856712334 0 0 0 0 1243.7078263943436 329.469144899811 0 329.469144899811 -218.1730078152741 0 0 0 0 -592.4607119061402 -79.491763814184196 0 -79.491763814184196 453.48864307722033 0 0 0 0 0.66867411118799436 3.4709992143363895 0 3.4709992143363895 12.969098894313987 0 0 0 0 -17.731973230416973 489.55573192402176 0 489.55573192402176 977.20833978520022 0 0 0 0 -14.583586979759275 82.476927888199498 0 82.476927888199498 -282.00692471237562 0 0 0 0 0.57670746905111425 10.300779491371276 0 10.300779491371276 -3.2503799397632633 0 0 0 0 -1.7683662815220487 358.61931521568295 0 358.61931521568295 -114.91270093533058 0 0 0 0 -551.38891028202363 78.78899245466755 0 78.78899245466755 298.31078696911936 0 0 0 0 65.7830409604137 61.708966394008257 0 61.708966394008257 -31.219949994207127 0 0 0 0 370.04867990447656 288.98189150187136 0 288.98189150187136 27.112955096354199 0 0 0 0 229.09618745275111 31.954629642507371 0 31.954629642507371 -213.22929348722391 0 0 0 0 5.0603588063246576 4.3225962782652321 0 4.3225962782652321 3.726180078413563 0 0 0 0 639.32849737112883 229.39408198487217 0 229.39408198487217 -231.71862255910264 0 0 0 0 2.8225362985456348 -0.36958723827445006 0 -0.36958723827445006 13.861433007466516 0 0 0 0 155.09290749990214 167.38204281692924 0 167.38204281692924 179.49720170040746 0 0 0 0 9.2737876902994074 11.179459831131464 0 11.179459831131464 13.121310900047895 0 0 0 0 -3.286161281518762 -47.297874764318408 0 -47.297874764318408 655.21749048916899 0 0 0 0 -4.0522854556011225 294.06641295570626 0 294.06641295570626 1181.6726922303424 0 0 0 0 1076.5913100603484 524.6293848136138 0 524.6293848136138 132.39819536623691 0 0 0 0 775.7644153677345 -291.23301744296487 0 -291.23301744296487 -352.26435624722581 0 0 0 0 398.71953912489039 922.63970396800028 0 922.63970396800028 915.45040774080189 0 0 0 0 -162.01102921118036 211.23664466440096 0 211.23664466440096 -49.204345593471317 0 0 0 0 -195.81265622815999 -15.585852492240519 0 -15.585852492240519 -25.214876493946122 0 0 0 0 -200.65877194387053 42.559119163252035 0 42.559119163252035 192.11016303098927 0 0 0 0 -170.68301303526437 150.59151472851772 0 150.59151472851772 -28.422967442943445 0 0 0 0 -618.66440654467374 74.669035309841973 0 74.669035309841973 191.09530289611575 0 0 0 0 -21.179662042777181 366.09755324601247 0 366.09755324601247 247.48045584857573 0 0 0 0 -1.4501027231785479 5.2769759199366781 0 5.2769759199366781 36.332257466220042 0 0 0 0 -399.5147790279334 10.911866317560566 0 10.911866317560566 138.92590245562769 0 0 0 0 2.2332404646984187 1.8758397568216836 0 1.8758397568216836 0.89081728651891545 0 0 0 0 73.25914296315932 225.83863897867116 0 225.83863897867116 -14.890916839991405 0 0 0 0 -125.00755671609295 -29.043420309193152 0 -29.043420309193152 -66.111677532489466 0 0 0 0 3.9834412491174689 -4.2172841725400687 0 -4.2172841725400687 -4.074928449523278 0 0 0 0 -776.41209069791512 -94.290203597671734 0 -94.290203597671734 300.55676689555185 0 0 0 0 -213.13567493319351 260.14136226447692 0 260.14136226447692 549.53238878471223 0 0 0 0 -311.07051388098625 -194.93954043736994 0 -194.93954043736994 45.139411619813472 0 0 0 0 -243.09818227525102 -99.285748248054006 0 -99.285748248054006 172.71056131690966 0 0 0 0 2.2229940997349331 -140.00730763481329 0 -140.00730763481329 151.1229883420034 0 0 0 0 145.5757940375297 -27.331402973948116 0 -27.331402973948116 52.379886553782853 0 0 0 0 546.33836172978408 89.556522940514697 0 89.556522940514697 -68.009748934306117 0 0 0 0 -172.21766906415178 126.16831406502342 0 126.16831406502342 225.73071169275272 0 0 0 0 -1020.8580052719117 -233.1445379271313 0 -233.1445379271313 341.77548587902857 0 0 0 0 -1.7846523767863616 -2.8224994219944968 0 -2.8224994219944968 5.5105961925946918 0 0 0 0 -8.1334193453191865 17.498449557790472 0 17.498449557790472 47.805967927276839 0 0 0 0 129.22376601834185 6.4196372061096554 0 6.4196372061096554 183.5196939945572 0 0 0 0 -60.101698754859171 68.183357796672681 0 68.183357796672681 12.668795237801532 0 0 0 0 -52.944259635397756 139.78102660684124 0 139.78102660684124 33.336901007627603 0 0 0 0 -61.901146004860493 62.249177284893449 0 62.249177284893449 -6.7739735802388168 0 0 0 0 11.790105131618326 22.256831217520464 0 22.256831217520464 28.210005085931662 0 0 0 0 -21.743918162074785 8.4609286208402263 0 8.4609286208402263 57.219231405120588 0 0 0 0 -51.217361288885513 77.609685848965455 0 77.609685848965455 55.084260317421808 0 0 0 0 -185.79720219218325 -205.00377731709432 0 -205.00377731709432 617.3815489686358 0 0 0 0 231.09504758933144 -522.57895894721332 0 -522.57895894721332 170.64778394161749 0 0 0 0 -1.4426092786108278 26.308896350647398 0 26.308896350647398 47.13090486035977 0 0 0 0 869.02176198753568 -134.84639560905453 0 -134.84639560905453 -314.47325601937519 0 0 0 0 151.98888313236239 -38.143793710845785 0 -38.143793710845785 181.74175758904764 0 0 0 0 -730.58094381235333 -537.17544727162385 0 -537.17544727162385 1023.5633594111932 0 0 0 0 -1.1865659691146924 2.138052854352825 0 2.138052854352825 5.4365685685490632 0 0 0 0 241.06124544997419 -42.283224737389446 0 -42.283224737389446 -83.257067285725498 0 0 0 0 -1490.5815408229009 542.74670972583226 0 542.74670972583226 382.28600121130967 0 0 0 0 143.04321219190274 -110.87986683663974 0 -110.87986683663974 -350.84132451103324 0 0 0 0 -73.954659434850328 11.762370705877402 0 11.762370705877402 98.384288726127124 0 0 0 0 130.82683656758309 123.68921086328373 0 123.68921086328373 -131.7564048632812 0 0 0 0 -0.82138324922562589 11.142977924119243 0 11.142977924119243 28.744370162708893 0 0 0 0 -102.77718299536355 224.66607087039301 0 224.66607087039301 -32.637469164706999 0 0 0 0 -19.032932330712356 28.250446140940312 0 28.250446140940312 30.853363055442969 0 0 0 0 -2.5588312828618882 13.108817872740246 0 13.108817872740246 23.098552752025178 0 0 0 0 3.9263966779253678 0.26002830831112078 0 0.26002830831112078 21.303690204838347 0 0 0 0 -5.6755256682938864 7.4138710494875752 0 7.4138710494875752 27.116814693256639 0 0 0 0 -109.96199752068424 184.51016626125693 0 184.51016626125693 6.8839824549336299 0 0 0 0 -7.7714720454105191 17.83037840217321 0 17.83037840217321 22.843566499593635 0 0 0 0 -18.712995826368569 35.554585373819378 0 35.554585373819378 36.093549255679847 0 0 0 0 0.65717534917882858 14.805786425318608 0 14.805786425318608 21.878643695672412 0 0 0 0 -0.94815299101901473 1.9879758409224451 0 1.9879758409224451 12.587345303758411 0 0 0 0 -24.740263349805446 7.8854228006023419 0 7.8854228006023419 66.982250851574918 0 0 0 0 -6.2184446640858368 22.136693195960561 0 22.136693195960561 32.542309020217544 0 0 0 0 7.5742642362529295 -17.110881828555648 0 -17.110881828555648 102.28033764658448 0 0 0 0 4.3751092920501833 -17.42736274094068 0 -17.42736274094068 118.18241352457153 0 0 0 0 -20.680709825828671 29.571511840200401 0 29.571511840200401 2.8817934194812551 0 0 0 0 0.61115213007050073 16.955773719036742 0 16.955773719036742 26.269380768247231 0 0 0 0 -26.449518239041026 42.164993635798055 0 42.164993635798055 22.203567085716713 0 0 0 0 -0.22984446739208408 14.138802297922709 0 14.138802297922709 28.481917662156306 0 0 0 0 6.5196175467708581 8.1475289040724306 0 8.1475289040724306 -10.268430163104725 0 0 0 0 82.23803062027946 89.422149145568255 0 89.422149145568255 -106.86633703920779 0 0 0 0 -155.9001294658292 -15.378749516970856 0 -15.378749516970856 127.99219898067167 0 0 0 0 -1001.6852698566072 636.49590162618279 0 636.49590162618279 136.16103443294924 0 0 0 0 89.9993224350319 697.14111810581562 0 697.14111810581562 -489.15603864043624 0 0 0 0 -298.83705760319538 67.271517331552786 0 67.271517331552786 -300.40402335907129 0 0 0 0 -337.67640138453135 271.11746184389631 0 271.11746184389631 -570.56432251649676 0 0 0 0 -596.18525820303466 372.29027880815374 0 372.29027880815374 -513.57760684553068 0 0 0 0 33.611765484732764 59.331612740007721 0 59.331612740007721 -8.4463004136913895 0 0 0 0 -338.50932686730681 260.94069418278826 0 260.94069418278826 -192.72865989224374 0 0 0 0 -316.81283114495454 624.27911212923209 0 624.27911212923209 -533.68868541016161 0 0 0 0 21.613677187004214 28.110426442684634 0 28.110426442684634 24.064245046617785 0 0 0 0 1048.3041184175454 508.93443869396651 0 508.93443869396651 556.52833343124075 0 0 0 0 7.8878700518016274 8.5109519214186093 0 8.5109519214186093 -5.2259555754635763 0 0 0 0 -428.29039335167272 -346.1763380352977 0 -346.1763380352977 591.91788530892154 0 0 0 0 -265.96163840209192 180.29213327052094 0 180.29213327052094 232.05020273927585 0 0 0 0 -170.78632616409232 556.25919444239116 0 556.25919444239116 1159.1977984900705 0 0 0 0 -156.46118190125253 560.50774082678458 0 560.50774082678458 129.43911994352675 0 0 0 0 672.94607074203634 615.92262316892493 0 615.92262316892493 132.74355558273601 0 0 0 0 166.27748656362382 342.10904480274621 0 342.10904480274621 -443.87722040315384 0 0 0 0 161.03281286177298 299.79392688416374 0 299.79392688416374 37.851612924394431 0 0 0 0 -4.0013273816257424 153.41407101921595 0 153.41407101921595 100.36040884255453 0 0 0 0 -31.438018216282217 211.40865426330311 0 211.40865426330311 215.71881578207649 0 0 0 0 -13.480054903538985 115.03115373011678 0 115.03115373011678 39.861555621904699 0 0 0 0 -35.389650901204732 68.169917278129105 0 68.169917278129105 145.37030637757289 0 0 0 0 -36.415627326818139 76.283325711264752 0 76.283325711264752 115.71020824721563 0 0 0 0 -93.804196581921133 46.669292391770796 0 46.669292391770796 332.13203277563207 0 0 0 0 118.94846937604052 -132.64680873213047 0 -132.64680873213047 206.57755081608411 0 0 0 0 -56.812809774528432 55.48304244187284 0 55.48304244187284 97.454754857324588 0 0 0 0 -33.85478136229176 63.135829732653292 0 63.135829732653292 49.587314720167342 0 0 0 0 -24.062944230798166 125.94790872358681 0 125.94790872358681 43.134597675457712 0 0 0 0 -107.75178761037205 93.841441211741312 0 93.841441211741312 55.221766364507857 0 0 0 0 -284.24464686177089 34.99710674938342 0 34.99710674938342 61.648453412845356 0 0 0 0 -71.958258087135619 55.402737487048398 0 55.402737487048398 41.336137795537525 0 0 0 0 -94.391815345861687 60.053032982997138 0 60.053032982997138 58.073272212735446 0 0 0 0 -55.674256278527309 74.713917360913143 0 74.713917360913143 -17.92203807605074 0 0 0 0 -217.8591382060315 140.53668038471005 0 140.53668038471005 60.843268508418987 0 0 0 0 -121.22192036924662 132.51969040136464 0 132.51969040136464 31.785188280409784 0 0 0 0 281.76414681740971 166.50255980184011 0 166.50255980184011 -54.01682459859876 0 0 0 0 -20.534300934826007 34.975627049072386 0 34.975627049072386 30.866693482732575 0 0 0 0 -102.32323607585386 173.12787116396066 0 173.12787116396066 -14.203534564221627 0 0 0 0 -102.15232786082458 169.15720525935103 0 169.15720525935103 26.596581399880961 0 0 0 0 -178.5425418897662 147.10637261623924 0 147.10637261623924 29.775864233590255 0 0 0 0 -203.16493318442053 185.18359974607301 0 185.18359974607301 81.249152358541323 0 0 0 0 -188.75564000063139 212.47281968604239 0 212.47281968604239 74.575716091538197 0 0 0 0 -127.52212894075205 260.95186110867144 0 260.95186110867144 211.0522881466427 0 0 0 0 -130.97004298436843 174.45179373000349 0 174.45179373000349 -5.7510433680727147 0 0 0 0 -3.9799995519206055 8.2208103317441505 0 8.2208103317441505 43.310651195497925 0 0 0 0 -218.80051131222967 225.16751288250089 0 225.16751288250089 10.479539874941111 0 0 0 0 -262.53507199942328 194.92880070022147 0 194.92880070022147 73.958300137266633 0 0 0 0 -394.05328895278603 -275.32124943422832 0 -275.32124943422832 106.22684553595536 0 0 0 0 -91.382142491540549 -249.75951022678146 0 -249.75951022678146 26.600535375444451 0 0 0 0 -2.8981218903669332 -3.8666378571216198 0 -3.8666378571216198 3.3014469890504472 0 0 0 0 287.46464143967023 -577.4321940728023 0 -577.4321940728023 -159.21690566970938 0 0 0 0 279.33875311370139 134.80808909697225 0 134.80808909697225 155.50230376581146 0 0 0 0 571.86686670201107 37.553397858629978 0 37.553397858629978 -135.36249184193366 0 0 0 0 554.41921521851327 96.285281234433569 0 96.285281234433569 -104.4868636276442 0 0 0 0 478.40060484897731 -250.7858841053494 0 -250.7858841053494 356.93003538736593 0 0 0 0 -311.3601907951371 244.07020328806078 0 244.07020328806078 -34.307459190751615 0 0 0 0 176.74547330426503 357.83648122262093 0 357.83648122262093 -188.70044028682059 0 0 0 0 594.00770434010076 157.82869626806951 0 157.82869626806951 -271.85692422191642 0 0 0 0 66.89262511830384 356.45381047327101 0 356.45381047327101 -333.30102123265897 0 0 0 0 26.195177724235691 270.23195193114589 0 270.23195193114589 -239.98567478620589 0 0 0 0 57.784888336869244 170.7132291154835 0 170.7132291154835 -161.43805542420887 0 0 0 0 -0.2451887504497634 5.2776460058152033 0 5.2776460058152033 2.5470967873751533 0 0 0 0 337.63063995650009 -122.89294604194765 0 -122.89294604194765 51.475161741096599 0 0 0 0 611.03531333395404 10.341802864198598 0 10.341802864198598 -211.74719386655488 0 0 0 0 327.96768696281652 146.82418050540218 0 146.82418050540218 -150.96824947404366 0 0 0 0 67.895700241289887 -39.658286783822405 0 -39.658286783822405 26.575833558466002 0 0 0 0 188.76895165179849 299.13275678024002 0 299.13275678024002 -11.445764450159913 0 0 0 0 288.74699836240688 161.01685556386838 0 161.01685556386838 15.308649393518863 0 0 0 0 7.2484911898282007 81.168918525407207 0 81.168918525407207 -6.0689842626670725 0 0 0 0 -124.73957120543128 233.56531396101127 0 233.56531396101127 1.8163867210460012 0 0 0 0 -66.200344172666064 249.51818133003326 0 249.51818133003326 -11.630598887422821 0 0 0 0 0.87222266454721087 2.3326387726053266 0 2.3326387726053266 3.0279147369893309 0 0 0 0 31.057211454312892 93.411794114571421 0 93.411794114571421 -27.440769107546657 0 0 0 0 9.5888533288452891 86.127232069095044 0 86.127232069095044 -16.338676031708019 0 0 0 0 9.1828725113883181 -9.8882750063814484 0 -9.8882750063814484 -46.871565522655146 0 0 0 0 508.57214460056366 551.40092273938262 0 551.40092273938262 -707.82878146426719 0 0 0 0 -516.13247404213871 620.10637978338127 0 620.10637978338127 -150.18926722259675 0 0 0 0 -310.94632974741944 7.5298957796258037 0 7.5298957796258037 112.43910972730737 0 0 0 0 581.17290533562118 91.706882199519896 0 91.706882199519896 -307.27093349856659 0 0 0 0 564.38466429404434 334.05396678202123 0 334.05396678202123 -91.136827611211629 0 0 0 0 499.829915435359 -638.7597914332182 0 -638.7597914332182 -1944.2405264888985 0 0 0 0 -347.08920572893112 -1199.1391579406227 0 -1199.1391579406227 177.5572161824457 0 0 0 0 8.9342263832115023 9.9830201740194262 0 9.9830201740194262 10.820116898736515 0 0 0 0 -277.54973887557026 -869.97856407773725 0 -869.97856407773725 819.60400152638886 0 0 0 0 135.92386928309134 -610.40061428060017 0 -610.40061428060017 303.22902530075953 0 0 0 0 5.731525910644109 5.6755696506557829 0 5.6755696506557829 7.7439049627391974 0 0 0 0 688.44730778758526 -252.55247395098186 0 -252.55247395098186 69.89608717592273 0 0 0 0 -421.63500892316006 -465.44862604786408 0 -465.44862604786408 43.736911156327551 0 0 0 0 294.28091095831041 120.47013677830819 0 120.47013677830819 -75.894944204925196 0 0 0 0 29.563335663093312 -37.368629127420718 0 -37.368629127420718 464.31121072061251 0 0 0 0 102.69643358530448 -265.26446125239454 0 -265.26446125239454 -585.61370724643893 0 0 0 0 763.94773556841392 1386.6996014095166 0 1386.6996014095166 890.87956482413392 0 0 0 0 -18.393699643216678 44.012449418331926 0 44.012449418331926 -73.84482759938237 0 0 0 0 11.905435160377962 24.107695756834016 0 24.107695756834016 10.388258873923174 0 0 0 0 -23.924951398395024 27.769983061705716 0 27.769983061705716 -111.01624672647267 0 0 0 0 -178.08700001873513 52.134200075506669 0 52.134200075506669 -24.158839317486127 0 0 0 0 -1182.5658330110705 1324.0891105558926 0 1324.0891105558926 2800.1301059998732 0 0 0 0 -7.3493681234884036 7.2839095856087033 0 7.2839095856087033 -4.049137509956509 0 0 0 0 -49.90889345568803 16.918368094804009 0 16.918368094804009 -0.18919926952457899 0 0 0 0 -2.4882597064857372 22.367135387541293 0 22.367135387541293 -25.683398145022757 0 0 0 0 -62.4372850594591 5.8329148350712785 0 5.8329148350712785 -9.8003169539551891 0 0 0 0 -4.9265165408253466 27.136777243660319 0 27.136777243660319 -29.447546049199833 0 0 0 0 -47.813893503387362 44.730429502513402 0 44.730429502513402 -84.987708441120049 0 0 0 0 -24.645991029544348 10.735931611126944 0 10.735931611126944 43.191265477424167 0 0 0 0 -47.80993176429547 -16.603229666903644 0 -16.603229666903644 -13.689855998721214 0 0 0 0 1.4062550392281992 44.484112594218459 0 44.484112594218459 -178.78131415265125 0 0 0 0 0.41111579670177889 -31.802446991007855 0 -31.802446991007855 -152.0205979722341 0 0 0 0 4.7045394176296895 -88.395672866898167 0 -88.395672866898167 -21.33702721931877 0 0 0 0 -75.060955816508795 -15.646017525366915 0 -15.646017525366915 85.118006892321318 0 0 0 0 -38.869018005105318 43.180932475119334 0 43.180932475119334 54.740993130812058 0 0 0 0 -70.115144724078164 30.735661714244998 0 30.735661714244998 41.729945977787793 0 0 0 0 31.600357968303797 15.650895540884449 0 15.650895540884449 23.097753182757515 0 0 0 0 -66.898765427785293 13.964947109178866 0 13.964947109178866 28.637966547725227 0 0 0 0 -113.86809677273232 71.490210824676069 0 71.490210824676069 27.877455989346345 0 0 0 0 126.69543642140434 174.28350444808257 0 174.28350444808257 -112.3045890838639 0 0 0 0 267.80340496903045 144.60805017192433 0 144.60805017192433 25.143332048729008 0 0 0 0 0.70866943500920954 0.10578267217586301 0 0.10578267217586301 0.061337995940743184 0 0 0 0 -73.983651506819115 -71.328612084319502 0 -71.328612084319502 86.823201527767651 0 0 0 0 -29.406910613696937 74.180490915617156 0 74.180490915617156 -23.496933577102027 0 0 0 0 -27.423292796591099 77.676081500158489 0 77.676081500158489 -29.785580688452455 0 0 0 0 -2.6960177977133561 11.375559160386789 0 11.375559160386789 8.8691050967069529 0 0 0 0 -30.901366788450559 26.044199907177244 0 26.044199907177244 30.217332789727152 0 0 0 0 -29.625201181038392 21.455150933496043 0 21.455150933496043 -59.493227290636696 0 0 0 0 -9.2224505721572356 7.9644580235337159 0 7.9644580235337159 0.32242776835162346 0 0 0 0 -74.780598891603361 84.741197322241035 0 84.741197322241035 5.9445009578121244 0 0 0 0 -99.601730580418007 94.346770263800863 0 94.346770263800863 -23.741222037122498 0 0 0 0 -79.966507068831788 50.036191333634179 0 50.036191333634179 -28.355005360455834 0 0 0 0 221.07102795740866 -144.15420736429587 0 -144.15420736429587 97.746718575874183 0 0 0 0 30.18614874378909 8.4570018481826992 0 8.4570018481826992 104.05914570691471 0 0 0 0 -68.525422226019145 356.13809077369115 0 356.13809077369115 -223.03519956653417 0 0 0 0 14.101156405737129 68.396267047908623 0 68.396267047908623 -0.18039209056951222 0 0 0 0 104.74454204444737 137.0926837907773 0 137.0926837907773 -89.926588721267763 0 0 0 0 -129.13962053686555 122.41393213984429 0 122.41393213984429 -33.577507115225671 0 0 0 0 -125.18849205699917 113.25275459407135 0 113.25275459407135 -25.051848801535016 0 0 0 0 -205.0147341900265 209.13247122110624 0 209.13247122110624 -86.240536295311358 0 0 0 0 -133.68829601602374 -31.359055208675727 0 -31.359055208675727 37.933756727445143 0 0 0 0 -22.214486021035555 81.069606073049727 0 81.069606073049727 -247.59771926763551 0 0 0 0 -3.2822661337719268 0.059024981241613261 0 0.059024981241613261 0.45701648693528441 0 0 0 0 292.73845114215146 35.546154357566138 0 35.546154357566138 -138.95270349095608 0 0 0 0 0.25553424303510575 31.680193641356841 0 31.680193641356841 -11.729496423716878 0 0 0 0 58.459099746060019 -171.04020613391276 0 -171.04020613391276 -205.64912109842408 0 0 0 0 137.72905677628114 160.63930524768193 0 160.63930524768193 8.784711037262241 0 0 0 0 -12.465901375641385 25.582865052285161 0 25.582865052285161 3.4957204405579887 0 0 0 0 57.621971573557516 30.52751469622342 0 30.52751469622342 -23.170601236521179 0 0 0 0 9.6028787812840264 3.4487854549762975 0 3.4487854549762975 -1.5471693495278132 0 0 0 0 -110.6398185046055 273.10837595245175 0 273.10837595245175 80.697449852290447 0 0 0 0 -10.507230106655697 37.658044422450985 0 37.658044422450985 60.323421080600383 0 0 0 0 -51.181690190157042 -4.6302500528429391 0 -4.6302500528429391 46.553165539229667 0 0 0 0 -202.37756279133646 29.331590840118224 0 29.331590840118224 87.526825295528397 0 0 0 0 17.152405824985181 73.213786576452549 0 73.213786576452549 74.210963848428946 0 0 0 0 -78.870245583893848 89.930833567561422 0 89.930833567561422 113.51376783103478 0 0 0 0 -23.072454312898117 54.544098417516125 0 54.544098417516125 58.665179486056331 0 0 0 0 -6.1351215715296448 29.282682411574502 0 29.282682411574502 12.799889315971544 0 0 0 0 0.68851463487953879 71.408684876965708 0 71.408684876965708 74.013863952981865 0 0 0 0 -17.442918661370641 62.996129243576434 0 62.996129243576434 70.875183188321898 0 0 0 0 27.271199843109798 100.83502040069834 0 100.83502040069834 31.690624302687866 0 0 0 0 95.128820398036623 56.08313240939242 0 56.08313240939242 58.726748669119161 0 0 0 0 -26.711234642507861 101.23384418090427 0 101.23384418090427 61.827120009254031 0 0 0 0 23.819661513494793 50.424952575695897 0 50.424952575695897 65.792444099788554 0 0 0 0 2.4450620878633345 42.221363669317725 0 42.221363669317725 64.116564231615484 0 0 0 0 -21.33893639697558 32.758055527120717 0 32.758055527120717 34.712109297787677 0 0 0 0 -18.231330927090312 39.006584021158233 0 39.006584021158233 63.789052694571069 0 0 0 0 17.934668548070135 68.061651219548366 0 68.061651219548366 108.14957199995115 0 0 0 0 178.1913758044592 100.73283236967609 0 100.73283236967609 55.82322600471889 0 0 0 0 -2.6028346940665137 -0.95045214504877862 0 -0.95045214504877862 -0.19171830122991196 0 0 0 0 -28.041841284557449 79.982196931059661 0 79.982196931059661 81.473505924922392 0 0 0 0 -27.086182914143592 90.738241649210067 0 90.738241649210067 100.18729144123427 0 0 0 0 -51.067468225852281 110.06586950654128 0 110.06586950654128 87.758232209364905 0 0 0 0 -54.947859408243858 113.51260891557013 0 113.51260891557013 130.86213451431468 0 0 0 0 355.494601448303 154.64827137164684 0 154.64827137164684 -162.95233774475946 0 0 0 0 402.28215934547188 84.616875557645471 0 84.616875557645471 -86.391173720490769 0 0 0 0 1.7234876814692832 1.6174307418339442 0 1.6174307418339442 5.7334785195197 0 0 0 0 -74.214118016163411 62.728680386954693 0 62.728680386954693 117.58902113852673 0 0 0 0 -78.703803192334931 18.343927313220433 0 18.343927313220433 28.558230724607711 0 0 0 0 -28.048949343839467 78.401652229792489 0 78.401652229792489 99.746432379797795 0 0 0 0 -42.972478307605343 81.487559005759977 0 81.487559005759977 27.500221595435505 0 0 0 0 -4.6945434707029534 30.703624135776444 0 30.703624135776444 47.062007718837641 0 0 0 0 -61.535090196277451 71.354532021804516 0 71.354532021804516 33.415931292976893 0 0 0 0 -40.742792769378866 92.251693777210676 0 92.251693777210676 52.931768797405766 0 0 0 0 -15.401972490786648 81.188578534118278 0 81.188578534118278 27.496446496195858 0 0 0 0 -41.269967147971329 75.208516205639171 0 75.208516205639171 26.160670874646712 0 0 0 0 8.9149775980577033 73.446555287193405 0 73.446555287193405 -0.74163158238479809 0 0 0 0 14.033554612538865 86.368714238364191 0 86.368714238364191 28.571920190532637 0 0 0 0 71.699687797115985 79.324705217156861 0 79.324705217156861 1.1790785568264255 0 0 0 0 54.152019973656934 55.153141292736109 0 55.153141292736109 34.860453026385585 0 0 0 0 -3.1368481875661018 101.63379255158907 0 101.63379255158907 12.15435839388374 0 0 0 0 71.35304315495523 129.11935465128408 0 129.11935465128408 21.702148924501671 0 0 0 0 71.209671865940436 133.78402319723386 0 133.78402319723386 -128.94514019737107 0 0 0 0 -0.042378547105883513 0.96355750173361798 0 0.96355750173361798 -8.5844191771040457 0 0 0 0 -427.26182337363207 154.40387392811635 0 154.40387392811635 25.099298415450903 0 0 0 0 160.32607824941806 65.656351144244582 0 65.656351144244582 -178.51275346354578 0 0 0 0 140.44794063343215 42.339934765911494 0 42.339934765911494 -35.104002086978653 0 0 0 0 10.430431227723602 6.9632855305608246 0 6.9632855305608246 -91.152938361073211 0 0 0 0 7.1638664789134054 21.870698367259592 0 21.870698367259592 -26.195002893560741 0 0 0 0 -0.96141812809901595 9.8332365953444594 0 9.8332365953444594 -19.760315920057515 0 0 0 0 -3.3459991778215468 6.1870392207308527 0 6.1870392207308527 -3.9467946761628099 0 0 0 0 -3.4695016768910136 44.163523757212715 0 44.163523757212715 59.084918570891205 0 0 0 0 -3.8381393602976459 33.754759743796967 0 33.754759743796967 38.236904504473387 0 0 0 0 -4.6832422737024899 44.981176470141691 0 44.981176470141691 61.222230746565401 0 0 0 0 -0.10259496528659184 19.733135591568249 0 19.733135591568249 22.76718209671624 0 0 0 0 2.8545897876228779 29.995403298578676 0 29.995403298578676 29.97532251388834 0 0 0 0 -4.1133470654658595 36.719491750057898 0 36.719491750057898 64.874385848192105 0 0 0 0 -8.4271757909264124 18.532166353246794 0 18.532166353246794 27.572856369411966 0 0 0 0 -21.738288697217286 31.894854619849866 0 31.894854619849866 74.643828059364751 0 0 0 0 -7.3822000750094823 18.022476677156142 0 18.022476677156142 49.745106817174943 0 0 0 0 -21.610577191993798 49.750128481799038 0 49.750128481799038 78.427988570845628 0 0 0 0 -15.117651999309601 40.506416310758141 0 40.506416310758141 38.964859916624846 0 0 0 0 -9.6652146951094835 35.421243938411195 0 35.421243938411195 36.463310966336394 0 0 0 0 -27.90906058787732 27.987204193510479 0 27.987204193510479 95.490278557655984 0 0 0 0 -8.7093115742691225 32.704792003599323 0 32.704792003599323 33.641525295079646 0 0 0 0 -8.2949664978671791 35.53341667863431 0 35.53341667863431 2.0956130276601215 0 0 0 0 3.0196954388011363 63.129344145963842 0 63.129344145963842 4.2310535341312061 0 0 0 0 -11.965342957121571 22.609683832568379 0 22.609683832568379 33.897204045756908 0 0 0 0 -0.75418269158193141 45.149235930918834 0 45.149235930918834 38.556878423012236 0 0 0 0 -22.135899009674176 67.177388338719993 0 67.177388338719993 57.619743550550538 0 0 0 0 -21.387291939770876 99.200539137795204 0 99.200539137795204 -2.9525249897469621 0 0 0 0 -26.147632580199115 77.391084047162281 0 77.391084047162281 48.942023792224063 0 0 0 0 -57.766554323574383 91.265797474545252 0 91.265797474545252 114.13518263912738 0 0 0 0 -32.746176032293945 32.189984744442455 0 32.189984744442455 -5.5198406512666232 0 0 0 0 -9.2105912833230832 61.246458559860457 0 61.246458559860457 15.858219172808276 0 0 0 0 -36.367540745061888 63.956452727646138 0 63.956452727646138 17.170573529001558 0 0 0 0 -12.480430645671731 73.969341294330661 0 73.969341294330661 4.3950865419574257 0 0 0 0 -27.221489816773101 47.847395124683317 0 47.847395124683317 48.954235596396757 0 0 0 0 -50.484694061289701 78.641463635284708 0 78.641463635284708 8.586587918252917 0 0 0 0 -117.30102832195007 72.956834856127898 0 72.956834856127898 68.952276747789256 0 0 0 0 -0.17327580427291522 0.11655348502801033 0 0.11655348502801033 -1.3262114499245001 0 0 0 0 -277.93075450992546 58.002435471980789 0 58.002435471980789 11.299810059965694 0 0 0 0 120.27595022676906 109.0617893186427 0 109.0617893186427 -41.623867003796477 0 0 0 0 -47.020810549851376 51.214252773288536 0 51.214252773288536 50.048081410459417 0 0 0 0 -138.64581341823759 6.5971667604935647 0 6.5971667604935647 44.293178768125927 0 0 0 0 51.116455626824973 71.63848085117661 0 71.63848085117661 32.874430087984365 0 0 0 0 1.2845101267295824 6.1273957394324068 0 6.1273957394324068 -0.13393371029390266 0 0 0 0 6.7148176419395895 36.573609333032437 0 36.573609333032437 33.479633089928029 0 0 0 0 6.4301266662259877 37.012443290526789 0 37.012443290526789 32.869476199659402 0 0 0 0 1.2756668945576166 25.609474062624031 0 25.609474062624031 20.604531803626742 0 0 0 0 -10.480739404192718 21.045658283059311 0 21.045658283059311 39.687473226821567 0 0 0 0 -48.476223957201 -11.040228176352684 0 -11.040228176352684 12.592331790256139 0 0 0 0 0.092389834160343298 0.20570320742248072 0 0.20570320742248072 -0.11124392642987857 0 0 0 0 115.42226426278648 180.43512193143943 0 180.43512193143943 92.875365846251952 0 0 0 0 2.9072466845609597 132.76594214749275 0 132.76594214749275 26.133027956977458 0 0 0 0 28.508715668443983 175.99181114857674 0 175.99181114857674 93.177948179316445 0 0 0 0 -5.1742141428148898 175.72536891114396 0 175.72536891114396 21.791800542367582 0 0 0 0 34.384547715346343 149.68058625754838 0 149.68058625754838 8.1077012604691845 0 0 0 0 -17.600507800187188 155.68791222036452 0 155.68791222036452 19.192051048792564 0 0 0 0 -77.169999760772043 177.06350770779682 0 177.06350770779682 11.678441515883605 0 0 0 0 -11.537774811964482 164.72631275650519 0 164.72631275650519 -43.969401860744256 0 0 0 0 -114.84279967760949 27.684895900481024 0 27.684895900481024 -33.381399991136277 0 0 0 0 -12.051018636751905 82.303067902470502 0 82.303067902470502 19.429902484499507 0 0 0 0 25.38922614011426 103.47393177719277 0 103.47393177719277 1.8008203180461351 0 0 0 0 14.081108353841046 44.567632649081133 0 44.567632649081133 23.804378618714509 0 0 0 0 3.7702158604533906 126.02420421056195 0 126.02420421056195 -87.955211930566293 0 0 0 0 0.15113533147676605 0.48583321581676131 0 0.48583321581676131 0.81869341480978619 0 0 0 0 -68.398856264704591 36.175586038808433 0 36.175586038808433 82.620389824103768 0 0 0 0 131.37423079687051 136.32856887655635 0 136.32856887655635 64.780053569382289 0 0 0 0 156.53484540704449 219.94298568196064 0 219.94298568196064 226.79999603748729 0 0 0 0 0.040189665576690459 -13.629414581119818 0 -13.629414581119818 48.54768870442058 0 0 0 0 39.616285120144312 29.297219201474945 0 29.297219201474945 32.471090449493204 0 0 0 0 0.92766032426082035 3.7812957219349954 0 3.7812957219349954 7.908891450783635 0 0 0 0 -64.911338978661661 14.842403701917647 0 14.842403701917647 337.9396513461499 0 0 0 0 60.463937957323601 63.704636390706042 0 63.704636390706042 8.8509825294785038 0 0 0 0 78.63794829928338 136.07796156998666 0 136.07796156998666 -23.092237573471721 0 0 0 0 -19.994345210823667 393.1348848656562 0 393.1348848656562 337.25866855607092 0 0 0 0 161.88420422542549 -144.64276289349073 0 -144.64276289349073 -50.372834183966916 0 0 0 0 53.195386566171919 -262.76829825641926 0 -262.76829825641926 357.99913187897619 0 0 0 0 63.063027817818238 78.98859302532901 0 78.98859302532901 225.75549086886167 0 0 0 0 82.176226801377197 186.32906469681984 0 186.32906469681984 359.92635821531439 0 0 0 0 51.813437720286281 64.27341090395376 0 64.27341090395376 -0.37377226848767808 0 0 0 0 15.349622120778804 167.35901975934576 0 167.35901975934576 39.445554777777943 0 0 0 0 183.05488863667415 44.428578788996674 0 44.428578788996674 -193.87294064479829 0 0 0 0 19.191469131837266 97.704931211929988 0 97.704931211929988 221.126335669127 0 0 0 0 23.218098723653384 132.52190234207228 0 132.52190234207228 170.28088692859819 0 0 0 0 -35.706028866674387 18.471372408268508 0 18.471372408268508 -32.023781204345141 0 0 0 0 3.2353921979447477 32.169768105246476 0 32.169768105246476 20.596070113692463 0 0 0 0 4.9063148272748833 27.871788751515641 0 27.871788751515641 9.2560626184279062 0 0 0 0 9.8393498205104848 34.939072543335051 0 34.939072543335051 -0.93511203944163412 0 0 0 0 1.9355379399722139 0.73388299868779683 0 0.73388299868779683 -4.0749315800087871 0 0 0 0 -12.620838122472833 9.6002713940154081 0 9.6002713940154081 24.245341273359372 0 0 0 0 24.907083656784835 93.18501343219782 0 93.18501343219782 261.12699316735234 0 0 0 0 23.751982290217711 80.905912339607312 0 80.905912339607312 130.78947375484495 0 0 0 0 0.60268812301659125 2.9018439012721391 0 2.9018439012721391 3.7114685382620323 0 0 0 0 77.52815664282025 111.1354568265524 0 111.1354568265524 145.36542524222023 0 0 0 0 45.380654619690176 134.00340451799639 0 134.00340451799639 201.46879519017602 0 0 0 0 85.429888042610401 144.18355203532701 0 144.18355203532701 118.60590692180813 0 0 0 0 44.907487676457094 158.08855012823733 0 158.08855012823733 247.16942469253081 0 0 0 0 44.465939559588151 108.36057442743004 0 108.36057442743004 101.94108944532127 0 0 0 0 46.302055187257793 141.6520898611725 0 141.6520898611725 58.229023881018293 0 0 0 0 56.596660612998676 152.90607954823827 0 152.90607954823827 90.573220215621404 0 0 0 0 70.138961106109491 120.09018360553546 0 120.09018360553546 43.101746186432138 0 0 0 0 16.450425447954331 149.87993392167664 0 149.87993392167664 29.50948216107281 0 0 0 0 34.894100986332887 89.765813260657296 0 89.765813260657296 3.3520060264818312 0 0 0 0 -1.9057732926303288 100.34115476277748 0 100.34115476277748 9.2850422283772787 0 0 0 0 0.1163131488765643 0.72563129742614763 0 0.72563129742614763 1.4297746761085079 0 0 0 0 -88.964482969181518 49.898440203269274 0 49.898440203269274 4.8271244569950795 0 0 0 0 -57.646651683744494 16.692121905360182 0 16.692121905360182 6.6768323293190406 0 0 0 0 86.175494062006692 55.085450332353048 0 55.085450332353048 -35.490156790696346 0 0 0 0 22.245216369310583 -16.911061150355636 0 -16.911061150355636 -27.388905214664192 0 0 0 0 26.456200691783124 -2.8893031857242022 0 -2.8893031857242022 9.7013869014444936 0 0 0 0 -6.2849820340943552 -31.306610294056554 0 -31.306610294056554 10.936554313942906 0 0 0 0 -24.856218743445424 29.393480353799532 0 29.393480353799532 5.7540512115210731 0 0 0 0 -13.196400557251764 101.07586542714671 0 101.07586542714671 148.93334477602912 0 0 0 0 66.938105168872426 -109.6666222562053 0 -109.6666222562053 24.470662871652166 0 0 0 0 305.78131602878148 157.77590289512864 0 157.77590289512864 65.128309157978947 0 0 0 0 -4.7017979718621064 -43.211905710279098 0 -43.211905710279098 -59.215146528984405 0 0 0 0 -43.559978634206345 -40.774526034088012 0 -40.774526034088012 -7.0225706328637898 0 0 0 0 6.0690959907805286 2.148882323176732 0 2.148882323176732 8.77176536882817 0 0 0 0 3.4877228826669651 8.6452690868635358 0 8.6452690868635358 2.3971338547469667 0 0 0 0 24.295312943287996 31.042785769256739 0 31.042785769256739 17.784368550279886 0 0 0 0 -47.572892574420621 39.206815607911267 0 39.206815607911267 71.960293522030042 0 0 0 0 160.45948987909287 -72.470921223757614 0 -72.470921223757614 -172.23971563477699 0 0 0 0 2.877727496782569 -0.86503401757200038 0 -0.86503401757200038 -0.26802010370221296 0 0 0 0 -44.310972547313213 76.362872239027638 0 76.362872239027638 325.38077356812573 0 0 0 0 37.581886751605452 19.141407186964898 0 19.141407186964898 37.982967835136151 0 0 0 0 96.330595372916832 209.31005826041428 0 209.31005826041428 6.2681898500013631 0 0 0 0 35.985290205172802 32.911226938325569 0 32.911226938325569 22.459439549209236 0 0 0 0 42.788091984758012 28.697663678465005 0 28.697663678465005 -29.358313978906835 0 0 0 0 29.923943339786092 46.186191310889853 0 46.186191310889853 15.596788848518372 0 0 0 0 21.796680411785538 23.845585330284099 0 23.845585330284099 9.1464387374966591 0 0 0 0 23.697637407542061 41.39049977102249 0 41.39049977102249 11.913824960400504 0 0 0 0 17.474881009206502 33.215015654564738 0 33.215015654564738 1.9698810884766065 0 0 0 0 -20.693294626928036 34.397328839502052 0 34.397328839502052 17.475880083256015 0 0 0 0 3.4549697856633905 6.2801608620556966 0 6.2801608620556966 8.8044606608148293 0 0 0 0 35.697372528081701 52.150988850286126 0 52.150988850286126 59.983338947925404 0 0 0 0 27.206533079848157 30.90181441806109 0 30.90181441806109 16.525843048389763 0 0 0 0 19.351324900108807 42.924552976949265 0 42.924552976949265 59.948607905812729 0 0 0 0 -0.92619912004118987 8.5196018949588606 0 8.5196018949588606 12.115665686612573 0 0 0 0 53.002982867064929 84.16959965928254 0 84.16959965928254 16.428757122026582 0 0 0 0 -1.0653253667151148 74.133964395185558 0 74.133964395185558 131.1396767179067 0 0 0 0 28.797788042634693 -57.490489727730164 0 -57.490489727730164 17.134095153808744 0 0 0 0 85.65341940869439 50.498933512684744 0 50.498933512684744 -101.23304457495715 0 0 0 0 152.73997839911499 132.29651540121085 0 132.29651540121085 59.825269128133186 0 0 0 0 40.507629710638874 30.657917958030886 0 30.657917958030886 25.111641205936014 0 0 0 0 39.886141778541514 108.01199104389411 0 108.01199104389411 135.00172993058516 0 0 0 0 25.897173660694534 39.574869917758406 0 39.574869917758406 -12.961135593949223 0 0 0 0 27.947739395937639 30.750946711204087 0 30.750946711204087 11.918607114488712 0 0 0 0 117.37718408041178 10.244440931042391 0 10.244440931042391 -27.025118150793787 0 0 0 0 19.014599272384658 -4.7648552964355986 0 -4.7648552964355986 175.43585109516425 0 0 0 0 -44.851049850918457 -26.269117486608479 0 -26.269117486608479 37.384455333591177 0 0 0 0 9.8343563503292799 27.18241483802592 0 27.18241483802592 57.670353673830071 0 0 0 0 -238.95926310585946 -178.39479122674766 0 -178.39479122674766 178.11117165162614 0 0 0 0 15.791817871459536 18.218581939836291 0 18.218581939836291 -0.72778953125337864 0 0 0 0 27.263880389692076 66.65988135373982 0 66.65988135373982 20.646170733800318 0 0 0 0 305.06898305168124 357.37798456304063 0 357.37798456304063 75.384098235879264 0 0 0 0 -111.92858341411443 74.879464676316275 0 74.879464676316275 37.245316006472422 0 0 0 0 -41.350165014749791 102.76294122761828 0 102.76294122761828 -23.923078823550895 0 0 0 0 1.4977123844521802 -2.6079640754011475 0 -2.6079640754011475 -2.29720356510893 0 0 0 0 291.22463376067026 196.5820068043522 0 196.5820068043522 -102.31242767096228 0 0 0 0 232.1685989094849 -71.64958131504045 0 -71.64958131504045 -44.683304185848101 0 0 0 0 32.556841297317305 54.36377217990389 0 54.36377217990389 31.664909723705932 0 0 0 0 32.980700211563089 29.30881306575975 0 29.30881306575975 12.451539398236832 0 0 0 0 37.678473619088436 50.568602826712777 0 50.568602826712777 39.282223569548137 0 0 0 0 24.955289767207432 31.106509142522555 0 31.106509142522555 1.1887247897302586 0 0 0 0 -204.39124947044911 283.04226537851491 0 283.04226537851491 -55.367525689882314 0 0 0 0 9.7697913295388865 13.100497778442637 0 13.100497778442637 14.026911010509004 0 0 0 0 82.608793760308799 41.69559179737098 0 41.69559179737098 4.4395977940921512 0 0 0 0 109.24471917283518 76.946084232740759 0 76.946084232740759 -246.07477247075576 0 0 0 0 32.459568878632126 60.381589181421532 0 60.381589181421532 8.4558483408472966 0 0 0 0 400.20174763371324 -168.04680334986688 0 -168.04680334986688 -76.563251622617827 0 0 0 0 0.14207560934186247 0.35055580679651399 0 0.35055580679651399 -0.037703743352174968 0 0 0 0 -301.84550469534406 115.43212460821633 0 115.43212460821633 37.904505707429962 0 0 0 0 282.25388395011942 276.20650198976011 0 276.20650198976011 -191.04794191932524 0 0 0 0 -514.56486313591768 347.05471385703231 0 347.05471385703231 88.153037296984621 0 0 0 0 -276.7976233235122 28.840443909334681 0 28.840443909334681 -88.186209207951833 0 0 0 0 363.44512275850047 46.003607589570947 0 46.003607589570947 -44.847054943686089 0 0 0 0 106.67300926461576 405.67628498214526 0 405.67628498214526 208.07710323336687 0 0 0 0 -204.14507431531092 -7.0972611178403895 0 -7.0972611178403895 338.98341879595091 0 0 0 0 -7.6051681309472059 7.3418561574780945 0 7.3418561574780945 4.3723721707993803 0 0 0 0 163.33298396912505 78.893135036396416 0 78.893135036396416 -54.977603705432557 0 0 0 0 11.862913178997587 -57.493630236246645 0 -57.493630236246645 50.29316026410379 0 0 0 0 -2.173695024390546 5.0982522351967674 0 5.0982522351967674 -1.9046538696677331 0 0 0 0 26.201749803021812 -21.035066468095465 0 -21.035066468095465 29.72892705454251 0 0 0 0 -58.751593544902789 63.411335631802103 0 63.411335631802103 -40.700381818540336 0 0 0 0 -247.32952699825728 102.63141727899256 0 102.63141727899256 84.523652397769183 0 0 0 0 -185.5012230993816 -46.249771466564198 0 -46.249771466564198 67.628302555644041 0 0 0 0 -390.96088508109023 56.07224178977782 0 56.07224178977782 66.589842030898581 0 0 0 0 0.82949684347849129 1.8834850106445629 0 1.8834850106445629 4.7784586731631151 0 0 0 0 -527.82001625407975 32.612363253848343 0 32.612363253848343 153.27453306756433 0 0 0 0 739.45572865227678 23.34624560860675 0 23.34624560860675 -76.901985795255314 0 0 0 0 -388.94280187384174 104.89898152354908 0 104.89898152354908 182.12110079518516 0 0 0 0 21.394738444069844 85.384705286278404 0 85.384705286278404 119.6646506390407 0 0 0 0 320.59477144838092 274.3048692114653 0 274.3048692114653 65.257749788540877 0 0 0 0 361.37445800720417 -47.760670260762822 0 -47.760670260762822 88.704771417698794 0 0 0 0 126.08992088789626 172.5456595124499 0 172.5456595124499 73.648630130024685 0 0 0 0 168.3834205524754 231.32727127400449 0 231.32727127400449 -17.859288584391834 0 0 0 0 186.16523231376323 60.342627389341033 0 60.342627389341033 -134.22877277268708 0 0 0 0 2.6999534976801574 6.7979644766903249 0 6.7979644766903249 12.051719221249606 0 0 0 0 74.781747436959222 34.354156740840381 0 34.354156740840381 98.249082188427565 0 0 0 0 -58.289883979593469 268.46473639126634 0 268.46473639126634 681.48738587237494 0 0 0 0 -126.37757628491818 71.589694993317607 0 71.589694993317607 291.82516191679088 0 0 0 0 -39.888123416527378 80.707424129568608 0 80.707424129568608 519.80050863291763 0 0 0 0 299.70638142324606 150.05205716177625 0 150.05205716177625 156.79966351374742 0 0 0 0 136.46231660557987 380.88252332636739 0 380.88252332636739 -130.88242722125869 0 0 0 0 -51.471883825191981 503.33141985549537 0 503.33141985549537 273.12663245063231 0 0 0 0 2.0398939165759771 2.387236797363478 0 2.387236797363478 2.2770226258325295 0 0 0 0 -214.56865324816317 -47.504912764812616 0 -47.504912764812616 612.79381648174603 0 0 0 0 -134.02375779308022 28.255695040611499 0 28.255695040611499 -11.949411062789295 0 0 0 0 -158.70779636018779 163.52213112566551 0 163.52213112566551 662.57452119030495 0 0 0 0 190.82956717200796 122.42704977689391 0 122.42704977689391 -0.93135265764612996 0 0 0 0 47.779842185928828 -100.87787318415985 0 -100.87787318415985 116.97663360189108 0 0 0 0 2.678881990132929 0.8190400856715172 0 0.8190400856715172 0.23942605816053231 0 0 0 0 114.039665427008 -54.809965574577291 0 -54.809965574577291 442.01897194643425 0 0 0 0 25.911447540434892 80.623566727968864 0 80.623566727968864 132.47588774214455 0 0 0 0 5.0099227432462285 7.1442251389240568 0 7.1442251389240568 -3.2128003078745166 0 0 0 0 -47.293334523868907 97.886399212671677 0 97.886399212671677 607.05064128829872 0 0 0 0 -46.146559629487456 137.96486787355389 0 137.96486787355389 97.034234097392982 0 0 0 0 -180.5091555481049 206.95934525513439 0 206.95934525513439 513.4839635747021 0 0 0 0 80.234818195305706 398.56382454317259 0 398.56382454317259 411.58069391060781 0 0 0 0 -100.63300704164612 211.07438151024417 0 211.07438151024417 186.42093651032337 0 0 0 0 -151.65579573447758 175.35998870154253 0 175.35998870154253 365.67361036601324 0 0 0 0 -44.464346683219446 171.1334816039257 0 171.1334816039257 80.351931052518921 0 0 0 0 -119.36007437879744 76.082096457410444 0 76.082096457410444 307.41837759545888 0 0 0 0 -144.07668865875394 111.49407073593829 0 111.49407073593829 341.95859580407341 0 0 0 0 -8.9715258615578932 250.53598452953884 0 250.53598452953884 391.42747430214149 0 0 0 0 -149.72717046702564 262.28482567874926 0 262.28482567874926 -183.78850590860748 0 0 0 0 -134.50761285038402 142.90800879463404 0 142.90800879463404 -5.3353349921562767 0 0 0 0 -181.34056252851587 109.75269404110441 0 109.75269404110441 53.103368269254133 0 0 0 0 -404.32863879204524 207.21298645816296 0 207.21298645816296 -139.07494928332198 0 0 0 0 18.572197828376375 443.91086080116111 0 443.91086080116111 -344.525069854506 0 0 0 0 -411.3583154625212 610.94897607373969 0 610.94897607373969 -233.56875198543275 0 0 0 0 -127.48972177787437 268.35324588019466 0 268.35324588019466 -150.72925851828222 0 0 0 0 -149.98850343932281 123.73316218108494 0 123.73316218108494 138.32004189785584 0 0 0 0 -170.53175340835332 177.8349484144328 0 177.8349484144328 -342.66438038580236 0 0 0 0 -169.54318397917632 310.15934969085993 0 310.15934969085993 -364.18053492722345 0 0 0 0 -174.86902672929318 306.83550106838447 0 306.83550106838447 -248.40653005342028 0 0 0 0 -360.21795725667107 169.8849274089589 0 169.8849274089589 -189.58318865403999 0 0 0 0 -122.3255545243378 50.054326166767623 0 50.054326166767623 -140.65476244768433 0 0 0 0 -110.294542220523 177.42812121655334 0 177.42812121655334 319.06152960756253 0 0 0 0 -92.237925558230927 149.0827042002802 0 149.0827042002802 -6.7390168573620031 0 0 0 0 84.021599261796837 77.037272857521657 0 77.037272857521657 -29.54250362181665 0 0 0 0 -74.6724766545085 120.99069861345015 0 120.99069861345015 -35.71434004170851 0 0 0 0 117.64346281262715 50.456964536279884 0 50.456964536279884 -55.778360251402773 0 0 0 0 33.743227229973854 107.27026651438791 0 107.27026651438791 169.73519130853992 0 0 0 0 -6.1284818053391064 103.73502857426865 0 103.73502857426865 -185.83003524474589 0 0 0 0 50.518248185373523 -4.688110837741533 0 -4.688110837741533 -151.68972499987103 0 0 0 0 -149.11711598775946 329.78069704683912 0 329.78069704683912 -430.71467957244431 0 0 0 0 -94.896871800953704 -7.6855906662844973 0 -7.6855906662844973 -316.42813138265592 0 0 0 0 -23.544764997450329 154.60807760869466 0 154.60807760869466 -193.48906392455683 0 0 0 0 -473.65760405446144 139.69854155896655 0 139.69854155896655 56.605009567727393 0 0 0 0 -258.04093890225431 412.87069921969146 0 412.87069921969146 -602.34400885895593 0 0 0 0 -291.9880393004496 173.39382472223679 0 173.39382472223679 -112.37747061696064 0 0 0 0 -223.16396726842868 77.160874956663974 0 77.160874956663974 -22.089354083447688 0 0 0 0 -3.0794109109401688 209.09614608722268 0 209.09614608722268 -120.19388481712667 0 0 0 0 -7.6616003572289628 233.1787473076547 0 233.1787473076547 -215.14845588919343 0 0 0 0 18.670145805059818 28.101917012505659 0 28.101917012505659 -3.8694179747108595 0 0 0 0 63.493061991652212 67.435239122471103 0 67.435239122471103 -49.026826840887225 0 0 0 0 6.0397846959893293 2.3678241271288911 0 2.3678241271288911 -8.3510263594051963 0 0 0 0 79.824718991915461 0.60198830848207763 0 0.60198830848207763 -40.271533827914027 0 0 0 0 -1.2869863106686026 5.5087691688136111 0 5.5087691688136111 4.1850082293389335 0 0 0 0 -150.36286646744338 229.1990450567364 0 229.1990450567364 -334.12410933566298 0 0 0 0 21.413112818797799 41.318694496315672 0 41.318694496315672 25.483736169763745 0 0 0 0 20.258866822568979 28.79661616654672 0 28.79661616654672 28.8336161172966 0 0 0 0 14.560926660411496 46.945158733618825 0 46.945158733618825 38.81891431168718 0 0 0 0 21.992620370700024 44.993612500048471 0 44.993612500048471 22.611395112739501 0 0 0 0 24.84702005168765 52.198114273473863 0 52.198114273473863 19.105628872000125 0 0 0 0 17.49203064521862 41.788274528742136 0 41.788274528742136 28.893719161292552 0 0 0 0 18.671865558068021 49.062305656195008 0 49.062305656195008 22.307104531843308 0 0 0 0 18.515853633986808 52.461649330321393 0 52.461649330321393 12.039749538747401 0 0 0 0 16.394524943894794 34.625475331648886 0 34.625475331648886 2.7232714839485084 0 0 0 0 6.8479569963947142 41.125368473473344 0 41.125368473473344 25.711035869282739 0 0 0 0 5.4698667704435593 18.827919244415725 0 18.827919244415725 -17.099384910311755 0 0 0 0 0.40469276203454108 17.359629747415205 0 17.359629747415205 18.523464122900098 0 0 0 0 15.13885493048341 19.494923360585979 0 19.494923360585979 13.649220503332693 0 0 0 0 11.140823389888965 36.031731023824122 0 36.031731023824122 3.6106748724741919 0 0 0 0 17.478681375024053 42.626585472828083 0 42.626585472828083 -6.1847375519719208 0 0 0 0 3.2140800921293362 40.550215753157318 0 40.550215753157318 28.174642844849586 0 0 0 0 3.3243530663833276 32.668191428364139 0 32.668191428364139 36.842111841120641 0 0 0 0 19.08318493952023 30.922295952202887 0 30.922295952202887 22.785202769013825 0 0 0 0 -32.936670115368543 8.9458780397093278 0 8.9458780397093278 -6.8028281936572057 0 0 0 0 -35.811603974048808 249.46336177190611 0 249.46336177190611 -155.80889854693487 0 0 0 0 17.823968363637398 22.663374485433721 0 22.663374485433721 31.002320716673793 0 0 0 0 -168.84518285098602 447.94603108409319 0 447.94603108409319 228.32227938290089 0 0 0 0 -42.615658604768328 328.83962404927814 0 328.83962404927814 47.494939642194367 0 0 0 0 15.362764169089587 56.116391811535721 0 56.116391811535721 -37.088935533087465 0 0 0 0 5.0970181734428479 59.191090815306211 0 59.191090815306211 4.4141761223229423 0 0 0 0 21.526839170359381 23.422316340360624 0 23.422316340360624 -59.742234047507736 0 0 0 0 0.23680696925082501 2.5358778134414037 0 2.5358778134414037 7.7054447948535234 0 0 0 0 -14.026006696130025 36.080827409993617 0 36.080827409993617 52.767585960460167 0 0 0 0 -12.197769780863382 70.121264813714106 0 70.121264813714106 20.014183074022071 0 0 0 0 -9.6375481498289446 37.391603951087745 0 37.391603951087745 -24.774549438507165 0 0 0 0 12.060924140530936 20.776198965605108 0 20.776198965605108 3.7563275173497459 0 0 0 0 6.8677353685980052 54.725594778036395 0 54.725594778036395 -3.760413812932029 0 0 0 0 -2.3395391630395928 23.800090245209649 0 23.800090245209649 19.58325155826093 0 0 0 0 5.4767569557943396 20.500304436683251 0 20.500304436683251 17.350750428222309 0 0 0 0 7.7060889495092724 23.313627589883595 0 23.313627589883595 9.1484256066888694 0 0 0 0 1.9912877544393268 15.279291849477886 0 15.279291849477886 0.91437564677471528 0 0 0 0 3.3446730678133463 35.940626361207251 0 35.940626361207251 -2.8593166093669424 0 0 0 0 6.1299202473539935 36.663781071870744 0 36.663781071870744 -16.778191611912916 0 0 0 0 11.316005803789722 40.935466640734376 0 40.935466640734376 -13.39378438867061 0 0 0 0 10.573970975763359 37.15289973456197 0 37.15289973456197 -16.784773977604345 0 0 0 0 4.4751984355698369 38.587058682371207 0 38.587058682371207 -15.763648060921696 0 0 0 0 8.0632743281621515 39.169936566331671 0 39.169936566331671 -14.672559373480908 0 0 0 0 10.476301511656629 39.421157540909917 0 39.421157540909917 -15.850515787253244 0 0 0 0 11.409245033335765 40.427893472285177 0 40.427893472285177 -14.820028656220529 0 0 0 0 13.267706291500872 37.073237038544903 0 37.073237038544903 -14.522362895600054 0 0 0 0 9.7075955439163408 38.616488671666048 0 38.616488671666048 -14.878627428915934 0 0 0 0 10.476279503931892 38.630662466297508 0 38.630662466297508 -17.971685505159257 0 0 0 0 3.1177883935311002 37.340851677359751 0 37.340851677359751 -11.841099085107999 0 0 0 0 10.749461806404156 35.963064757675511 0 35.963064757675511 -11.622823024626996 0 0 0 0 13.007069195346503 43.284532104742539 0 43.284532104742539 0.086255720947519876 0 0 0 0 9.8473425198196765 39.534850196271236 0 39.534850196271236 -6.5941562804800924 0 0 0 0 0.28671937989383878 39.917559719007841 0 39.917559719007841 10.938879757013638 0 0 0 0 -0.26400784141787881 33.505627724749502 0 33.505627724749502 11.467242247708782 0 0 0 0 11.553598982221047 35.920389946717478 0 35.920389946717478 -6.5458634343049198 0 0 0 0 10.805984561256196 33.177996381974936 0 33.177996381974936 -7.9815639557491522 0 0 0 0 11.947475127652979 27.710842466425675 0 27.710842466425675 1.8287900170471403 0 0 0 0 11.190901082857636 33.715989218224422 0 33.715989218224422 -10.214186783498008 0 0 0 0 12.922442439639781 29.62788170681597 0 29.62788170681597 1.3903959276576643 0 0 0 0 -9.9063855736421829 26.284419080766384 0 26.284419080766384 -53.900798382949461 0 0 0 0 -47.856292773412861 65.902781755334217 0 65.902781755334217 -37.057177211884664 0 0 0 0 9.303237952726704 31.426130349731466 0 31.426130349731466 -8.1945532131212531 0 0 0 0 72.555278102136526 43.251006890743156 0 43.251006890743156 -24.369440423572087 0 0 0 0 19.227246597958189 19.186679481306108 0 19.186679481306108 -7.4961029381458388 0 0 0 0 -10.367165380218466 37.592959375742794 0 37.592959375742794 -8.3983269501841278 0 0 0 0 2.7867821055477293 38.597775573573472 0 38.597775573573472 -16.593035160505679 0 0 0 0 19.457259642541878 11.988481898820908 0 11.988481898820908 -5.0403303424819512 0 0 0 0 -19.434674378071577 49.571199073445314 0 49.571199073445314 -27.651537113706581 0 0 0 0 -27.929450779858598 17.20617096778733 0 17.20617096778733 -8.1027765273556724 0 0 0 0 14.242834029934812 17.874679854419597 0 17.874679854419597 -7.0023769255308963 0 0 0 0 2.0736249076344393 84.656324962264989 0 84.656324962264989 -61.140394837195345 0 0 0 0 -12.107113966954785 15.073710436049623 0 15.073710436049623 -6.4533125644038591 0 0 0 0 -14.041488595465125 30.958494938218792 0 30.958494938218792 -18.42064382794797 0 0 0 0 4.7215901587250642 41.130822314157058 0 41.130822314157058 -17.146378593450208 0 0 0 0 12.30747490600902 27.759633028740609 0 27.759633028740609 13.842066677449111 0 0 0 0 0.20686980689136192 21.825861623572894 0 21.825861623572894 1.3541684979137987 0 0 0 0 -15.977453977059213 38.485924415699628 0 38.485924415699628 -20.130332856351743 0 0 0 0 3.2136398818872749 30.899860996965799 0 30.899860996965799 -20.188309763809229 0 0 0 0 8.8757936445130454 21.658716936679351 0 21.658716936679351 -9.8599793540878267 0 0 0 0 -28.224400916466948 44.541998420335403 0 44.541998420335403 -15.224377139540593 0 0 0 0 -12.704993253812518 37.171055631344643 0 37.171055631344643 -32.294665221488685 0 0 0 0 8.1331160729520242 36.032865716765443 0 36.032865716765443 8.5870514308549559 0 0 0 0 -12.629631895486467 36.853611157486625 0 36.853611157486625 8.1962013446369326 0 0 0 0 -0.96660384890128626 27.725938836483692 0 27.725938836483692 5.7964597753634735 0 0 0 0 -5.1404025802514433 31.309207655250376 0 31.309207655250376 -3.2084196130906832 0 0 0 0 -19.3806816055761 17.462843900521776 0 17.462843900521776 -3.4194500188872254 0 0 0 0 42.895652019029512 137.16826808561746 0 137.16826808561746 -85.265696380534791 0 0 0 0 -15.079870608035208 33.547606791953626 0 33.547606791953626 -9.3997834411566146 0 0 0 0 -40.473377114370123 35.849164474566805 0 35.849164474566805 23.362147492025542 0 0 0 0 -0.30630429636470069 0.80494539145183097 0 0.80494539145183097 -0.80743389571563995 0 0 0 0 -21.745196247473359 24.339374141563894 0 24.339374141563894 30.429970670549665 0 0 0 0 2.2607248499322807 0.97078103947252004 0 0.97078103947252004 -2.2852950101279497 0 0 0 0 -98.317362485935519 43.755580055270002 0 43.755580055270002 150.18000769149512 0 0 0 0 33.825435965503857 123.97285958839711 0 123.97285958839711 185.57785763006359 0 0 0 0 64.760302652797691 71.33015356771466 0 71.33015356771466 154.73343401066086 0 0 0 0 188.78669074673599 -18.741224258877992 0 -18.741224258877992 -51.072248917913385 0 0 0 0 77.627696874606045 6.4692331809746975 0 6.4692331809746975 -44.409762590348691 0 0 0 0 49.636106791916973 -40.550852903061241 0 -40.550852903061241 0.91971306103550887 0 0 0 0 4.2105150305524148 25.794842443980087 0 25.794842443980087 -17.065449189649371 0 0 0 0 13.82804809541426 11.536857905205657 0 11.536857905205657 -8.2671109684340109 0 0 0 0 72.987836813907052 -4.9214150209354557 0 -4.9214150209354557 -45.552065470772504 0 0 0 0 141.69709623104063 117.28633311000885 0 117.28633311000885 58.103513388528881 0 0 0 0 47.486243258680588 0.79634074964724277 0 0.79634074964724277 -6.6191816350874433 0 0 0 0 -91.613498875346522 14.577895718780383 0 14.577895718780383 120.49877414490038 0 0 0 0 231.56153894310683 8.4934837886657988 0 8.4934837886657988 29.310126002012112 0 0 0 0 274.90854594573648 37.783311380056148 0 37.783311380056148 -68.219326161408389 0 0 0 0 131.86959898606074 54.43529248429877 0 54.43529248429877 -33.811650245559576 0 0 0 0 115.453209398951 67.701293005389743 0 67.701293005389743 28.872028180917084 0 0 0 0 153.54065742041712 76.264879060110616 0 76.264879060110616 -11.834524759138731 0 0 0 0 94.6479759657268 72.075302170124814 0 72.075302170124814 -12.053548278945527 0 0 0 0 82.240900355991471 73.393663610602744 0 73.393663610602744 -3.169550297276146 0 0 0 0 111.60130574603136 54.702635418901991 0 54.702635418901991 -4.0371544916197308 0 0 0 0 85.62204344249767 62.787004887355579 0 62.787004887355579 -3.9652581034383161 0 0 0 0 89.722889902153838 68.317084871281622 0 68.317084871281622 -3.3439852595911361 0 0 0 0 69.044545531420226 56.387775911072822 0 56.387775911072822 46.87228861688709 0 0 0 0 66.460170515985737 44.016885378970983 0 44.016885378970983 8.1775335721176816 0 0 0 0 92.73521358861035 23.961712194680331 0 23.961712194680331 -52.891829901811434 0 0 0 0 94.092133102363732 31.100431346892037 0 31.100431346892037 -34.489532442523341 0 0 0 0 116.3063274170936 10.440517048123638 0 10.440517048123638 -73.611358503567317 0 0 0 0 107.35075458599022 36.12140830487624 0 36.12140830487624 -52.567874380394642 0 0 0 0 104.2810931148997 25.901705439891884 0 25.901705439891884 -113.93164839648671 0 0 0 0 111.30944366723634 32.713875393819762 0 32.713875393819762 -111.77755765483107 0 0 0 0 97.859091340942541 12.941482766120316 0 12.941482766120316 -76.336956922077661 0 0 0 0 100.06653953503701 -20.01427360859816 0 -20.01427360859816 -122.19308558401463 0 0 0 0 97.965300043313619 19.528497449437054 0 19.528497449437054 -50.483102295926074 0 0 0 0 138.07559001948175 23.450793172936756 0 23.450793172936756 -148.77350055382522 0 0 0 0 106.08729514497099 -55.117405748318561 0 -55.117405748318561 -152.77161095679548 0 0 0 0 99.259391072029757 -12.549778656950139 0 -12.549778656950139 -95.952871224944829 0 0 0 0 50.330818421442018 -0.51744889664951188 0 -0.51744889664951188 -45.652549048272704 0 0 0 0 71.652235103860221 11.5613141116919 0 11.5613141116919 -64.581903739217523 0 0 0 0 87.308139400363871 -4.0917694878280599 0 -4.0917694878280599 -49.776538606139184 0 0 0 0 76.413407376265241 7.59185890974004 0 7.59185890974004 -67.750914345520869 0 0 0 0 85.137709702645225 12.554765379631135 0 12.554765379631135 -73.124643030467269 0 0 0 0 86.1307626979833 14.267061842963813 0 14.267061842963813 -80.948264753020339 0 0 0 0 61.10549295473902 41.087198892717424 0 41.087198892717424 -81.095681420647523 0 0 0 0 64.506621120679483 12.721149313583737 0 12.721149313583737 -69.853303951467751 0 0 0 0 159.9638481871516 127.76636473994949 0 127.76636473994949 -4.8915562785841757 0 0 0 0 159.56260527635459 135.29422742220049 0 135.29422742220049 -100.9319200665268 0 0 0 0 110.6669721234166 -44.889421243241486 0 -44.889421243241486 -3.8305157771101221 0 0 0 0 14.146011589626141 57.008814039760182 0 57.008814039760182 60.912743371853139 0 0 0 0 67.802575321791664 24.057452471484794 0 24.057452471484794 -43.299288908521703 0 0 0 0 -5.8838623628566893 133.55969256409344 0 133.55969256409344 -101.14817767752902 0 0 0 0 -1.6416293730052303 0.68255386381957095 0 0.68255386381957095 0.043439150710085528 0 0 0 0 94.643819553539288 196.11723322797661 0 196.11723322797661 205.80768993551828 0 0 0 0 118.52919497239236 66.77459617835575 0 66.77459617835575 -226.41306580253695 0 0 0 0 100.2979628177527 225.72274854214265 0 225.72274854214265 82.250949799759837 0 0 0 0 112.72790122967126 159.03597458826334 0 159.03597458826334 164.52398600686729 0 0 0 0 0.86046763043123065 205.45463976119208 0 205.45463976119208 234.0282873499691 0 0 0 0 82.22963708397765 69.347919630997694 0 69.347919630997694 -7.6989542299852474 0 0 0 0 2.3789841179299174 3.0069436823695916 0 3.0069436823695916 -5.2539714536929623 0 0 0 0 107.40257946812926 207.86832156358287 0 207.86832156358287 18.583076698152581 0 0 0 0 134.26714056280616 237.88869571305258 0 237.88869571305258 -10.755090716596897 0 0 0 0 156.89944536142093 57.201567633871491 0 57.201567633871491 -288.02462389234279 0 0 0 0 143.35398195322341 29.112947543137125 0 29.112947543137125 -243.54635164124193 0 0 0 0 148.19391973413894 -1.0925470281645175 0 -1.0925470281645175 -282.26189983817312 0 0 0 0 145.63953923906865 4.1272111031930763 0 4.1272111031930763 -226.71537350930885 0 0 0 0 159.75105683451329 77.153880937155918 0 77.153880937155918 -204.38830807381692 0 0 0 0 121.50538637584941 43.782192656717598 0 43.782192656717598 -163.01852660161057 0 0 0 0 122.26263654961076 41.956277791510729 0 41.956277791510729 -166.25526281907378 0 0 0 0 129.34341206266436 38.587117922505968 0 38.587117922505968 -161.64889160922758 0 0 0 0 92.096476610409809 63.596841886967013 0 63.596841886967013 -161.3951865523486 0 0 0 0 49.279103988528732 221.53947973287177 0 221.53947973287177 166.54724369264659 0 0 0 0 129.11632038549396 60.502191722123825 0 60.502191722123825 -128.7762797071191 0 0 0 0 -3.4186478633579895 2.0027182607160299 0 2.0027182607160299 -0.53342142569439943 0 0 0 0 91.406986319814223 93.064991561314855 0 93.064991561314855 128.12141156020516 0 0 0 0 85.191326877157735 104.299595651049 0 104.299595651049 124.3428230617028 0 0 0 0 118.9224171112819 123.78160936506902 0 123.78160936506902 121.93339763415565 0 0 0 0 -5.0445164612416562 6.1886788730635107 0 6.1886788730635107 -7.1495107706941781 0 0 0 0 121.1618623094364 81.029914129310782 0 81.029914129310782 67.585129953618889 0 0 0 0 33.150683977497465 67.462707023860276 0 67.462707023860276 120.18394702298792 0 0 0 0 -10.743631714241928 8.5407120186500833 0 8.5407120186500833 -52.798590648615573 0 0 0 0 -18.448010685801819 7.8722801775265907 0 7.8722801775265907 -42.367840581879136 0 0 0 0 -12.418950754904017 -25.067468630523308 0 -25.067468630523308 -73.908412655357097 0 0 0 0 136.06010734558004 140.38549365721701 0 140.38549365721701 94.746896221595307 0 0 0 0 87.604430583814974 139.56869409176579 0 139.56869409176579 206.24533029964539 0 0 0 0 -8.3480225398497794 10.542120377587535 0 10.542120377587535 -11.380006425072203 0 0 0 0 91.977455720629223 135.7980963255668 0 135.7980963255668 166.23552327532161 0 0 0 0 14.942274027736858 -6.3562559711826907 0 -6.3562559711826907 -79.523011581463834 0 0 0 0 36.53863154035389 8.7533367085234204 0 8.7533367085234204 -69.78204609605018 0 0 0 0 -45.905308358826005 -74.401917275108644 0 -74.401917275108644 -109.52300851695327 0 0 0 0 20.491458134200002 17.811032040901409 0 17.811032040901409 -69.564698095706262 0 0 0 0 9.6808219205486239 20.329899254845031 0 20.329899254845031 -53.076763573553762 0 0 0 0 34.843096447184507 35.563643527490058 0 35.563643527490058 -53.118363739910038 0 0 0 0 1.2642460188162659 35.432019807770303 0 35.432019807770303 -37.255772634751338 0 0 0 0 6.4593292870849837 35.059214911849267 0 35.059214911849267 -37.378590499522033 0 0 0 0 12.72340573639849 50.037413678093799 0 50.037413678093799 -11.813741192621819 0 0 0 0 13.22720180030592 19.146259913452013 0 19.146259913452013 -58.207417459088902 0 0 0 0 -15.082161960917801 45.548440200471305 0 45.548440200471305 -38.952197031216201 0 0 0 0 -3.2265471026876185 30.579827292178379 0 30.579827292178379 -42.183772331591172 0 0 0 0 -5.5130012076679122 43.42196826741565 0 43.42196826741565 -22.554369748799218 0 0 0 0 -1.5393151995740482 36.694602239447704 0 36.694602239447704 -37.540570340985141 0 0 0 0 -17.466762397889397 36.764018469773873 0 36.764018469773873 -21.749714804116593 0 0 0 0 13.299117720031312 12.737104916733113 0 12.737104916733113 -19.808026481686539 0 0 0 0 1.3359700250211972 16.314219674193737 0 16.314219674193737 -16.081363958772272 0 0 0 0 10.748157334991545 14.3276514922741 0 14.3276514922741 -17.364164335314427 0 0 0 0 -0.82527118656980747 11.353650022363581 0 11.353650022363581 -30.098500814208705 0 0 0 0 -11.627971787347633 58.907707866092096 0 58.907707866092096 -29.102137118098199 0 0 0 0 11.299808239069698 18.270427507415896 0 18.270427507415896 -17.838486707155695 0 0 0 0 -53.426151780109649 14.675330553291133 0 14.675330553291133 -20.375106737497845 0 0 0 0 18.985878305615188 -9.6287823572929483 0 -9.6287823572929483 -30.16506450259476 0 0 0 0 15.657584842685537 58.424501370303915 0 58.424501370303915 -62.893092532685841 0 0 0 0 19.007487769618322 54.051580490404817 0 54.051580490404817 -69.358633795389323 0 0 0 0 8.2853654456821726 3.4613812227642029 0 3.4613812227642029 -7.1110162897775524 0 0 0 0 12.581634739407491 37.970941392035456 0 37.970941392035456 -65.02792802775366 0 0 0 0 15.766783988057043 46.183752413573131 0 46.183752413573131 -75.196929545883904 0 0 0 0 26.104029649398399 45.794298879911366 0 45.794298879911366 -76.616483255340427 0 0 0 0 31.721441456740877 38.104317716456535 0 38.104317716456535 -67.050583843927598 0 0 0 0 40.278190209521199 60.924925223880564 0 60.924925223880564 -92.126930303340487 0 0 0 0 -6.6792252290033503 81.309939482969639 0 81.309939482969639 -83.989642647968139 0 0 0 0 31.305753748825737 41.467594122274022 0 41.467594122274022 -42.251324785225734 0 0 0 0 68.17231557016845 39.0868359176186 0 39.0868359176186 -77.223634860521997 0 0 0 0 28.628821613187711 50.272104684390797 0 50.272104684390797 -64.57968455691298 0 0 0 0 20.379293381191296 11.583868031470988 0 11.583868031470988 -24.764674590608408 0 0 0 0 -7.0977240872489347 42.046925617443776 0 42.046925617443776 -45.893128437252017 0 0 0 0 -18.971614744513779 37.413663923025922 0 37.413663923025922 -100.77032165875426 0 0 0 0 7.7226198578437568 10.274831010469207 0 10.274831010469207 -6.5934698183500018 0 0 0 0 -20.078308242531421 156.0804072001265 0 156.0804072001265 -152.32726045781965 0 0 0 0 -0.14389688771660403 -0.25142895997311854 0 -0.25142895997311854 -0.37902916216440019 0 0 0 0 70.172809058706747 3.7853984328189654 0 3.7853984328189654 -47.770502550629317 0 0 0 0 -161.44400757571384 155.69144334862358 0 155.69144334862358 -66.273037364488118 0 0 0 0 -233.71556830685404 -18.816992494488659 0 -18.816992494488659 51.22731543003465 0 0 0 0 11.920865017674714 33.475638002495543 0 33.475638002495543 -43.031193865812384 0 0 0 0 -97.533559640133717 139.85440365108298 0 139.85440365108298 -110.15082205799808 0 0 0 0 12.362322420898209 20.602226436449509 0 20.602226436449509 -24.801374541936212 0 0 0 0 -19.674906790843579 32.517307690498455 0 32.517307690498455 -27.579060739531997 0 0 0 0 21.552777071326091 20.098695958884491 0 20.098695958884491 -27.723564469641133 0 0 0 0 -11.532064162476342 9.5786513387331951 0 9.5786513387331951 -11.40682128846025 0 0 0 0 -25.38047907648081 50.376229852799042 0 50.376229852799042 -35.040583258429251 0 0 0 0 11.049890554586455 35.243543254196993 0 35.243543254196993 -25.155509497155435 0 0 0 0 17.654884911552472 47.509126480814302 0 47.509126480814302 -43.699599993400625 0 0 0 0 29.100823441529428 46.926763713010587 0 46.926763713010587 -47.89445997664734 0 0 0 0 17.834378780433326 49.515231030449286 0 49.515231030449286 -21.341068245950737 0 0 0 0 -1.8169500816334878 0.78228916138996851 0 0.78228916138996851 -9.9459358216830651 0 0 0 0 10.787084823305122 25.676212304208093 0 25.676212304208093 0.42075086629483849 0 0 0 0 10.697086925289113 37.210121796100793 0 37.210121796100793 -16.051618450066599 0 0 0 0 -73.845997460672152 -26.289815173397074 0 -26.289815173397074 -371.07276149350218 0 0 0 0 -2.1383785614958839 23.345065562715533 0 23.345065562715533 -9.3993875554821855 0 0 0 0 9.3457905849418239 18.795589863329951 0 18.795589863329951 25.614437581054517 0 0 0 0 18.663860817565364 28.354843268989498 0 28.354843268989498 1.4805490564904176 0 0 0 0 17.077525029932076 2.8275021386507433 0 2.8275021386507433 34.472829497924977 0 0 0 0 22.541037850269731 14.664965344344637 0 14.664965344344637 9.4813181510544382 0 0 0 0 1.0549072591131825 31.13229128296193 0 31.13229128296193 -16.62367439545605 0 0 0 0 -73.666435936786002 98.562817702724715 0 98.562817702724715 -348.82635150371789 0 0 0 0 56.201144102778926 -167.56524550013273 0 -167.56524550013273 -251.65575255794101 0 0 0 0 -19.995763980163247 27.895648120302212 0 27.895648120302212 67.13916295276249 0 0 0 0 -0.72064156567479287 0.46034617590713367 0 0.46034617590713367 -0.25435492386151992 0 0 0 0 -4.357996831908622 43.008444320767012 0 43.008444320767012 -43.105764939413348 0 0 0 0 7.7278489212512795 22.425726205598039 0 22.425726205598039 18.251966943789739 0 0 0 0 -26.3875937046123 42.804933395869739 0 42.804933395869739 50.115522796266305 0 0 0 0 -37.861108152143288 58.496550070502053 0 58.496550070502053 30.11995829505031 0 0 0 0 6.2957121875433586 148.03676341296159 0 148.03676341296159 -106.65015141615731 0 0 0 0 -77.874365226012742 49.16174594529366 0 49.16174594529366 -29.903510357398773 0 0 0 0 8.3445360427385751 18.620178581424824 0 18.620178581424824 -4.5982540375220822 0 0 0 0 -94.463786926931789 118.71094453675869 0 118.71094453675869 16.526301781454094 0 0 0 0 -37.470488397873851 51.750150302439579 0 51.750150302439579 -44.496465473997887 0 0 0 0 254.58496745693265 -204.98023898828978 0 -204.98023898828978 -116.91862994852295 0 0 0 0 0.96831281611967324 65.993761124114769 0 65.993761124114769 -26.31788001058959 0 0 0 0 187.18786099574072 44.763244103446141 0 44.763244103446141 -16.703224708780908 0 0 0 0 -44.827733009955409 35.013996636318552 0 35.013996636318552 42.010437665438985 0 0 0 0 -1.1915829468313603 4.9607553715884691 0 4.9607553715884691 -5.6477204474523361 0 0 0 0 -14.625783985848102 14.899344655474124 0 14.899344655474124 -34.128104205185082 0 0 0 0 -7.4242510593121551 15.09661826863703 0 15.09661826863703 -43.032166019114811 0 0 0 0 -15.064529056596271 13.000806795723175 0 13.000806795723175 -7.2524721178628475 0 0 0 0 -13.428330649274358 29.801202988861405 0 29.801202988861405 -41.030820583282548 0 0 0 0 -26.533763473996956 31.369887647053798 0 31.369887647053798 -17.890668996084703 0 0 0 0 7.0485999830084012 9.2535305020964387 0 9.2535305020964387 -9.2543518595312264 0 0 0 0 -5.4719174693286732 43.829126905200155 0 43.829126905200155 -31.42921139192913 0 0 0 0 5.5665238619303636 8.5262849544160417 0 8.5262849544160417 -26.985552817628559 0 0 0 0 118.78487172439418 50.399458367612169 0 50.399458367612169 47.715513449728405 0 0 0 0 75.456058198253231 85.783807031016295 0 85.783807031016295 25.057193510143406 0 0 0 0 139.63584005982739 138.70769232595376 0 138.70769232595376 28.317157070675194 0 0 0 0 228.55201110527742 15.961373672794252 0 15.961373672794252 23.55493769640816 0 0 0 0 114.90118760706173 62.460558487111484 0 62.460558487111484 27.022002311743904 0 0 0 0 98.448425460581348 7.252922052914073 0 7.252922052914073 34.731394283058307 0 0 0 0 42.550770613778695 105.96126634204029 0 105.96126634204029 20.747655389077408 0 0 0 0 116.20132826911686 64.852962877719619 0 64.852962877719619 31.312288372833791 0 0 0 0 38.060335163957461 140.58170813494507 0 140.58170813494507 21.983250497160043 0 0 0 0 30.402015243325877 129.05490166094751 0 129.05490166094751 10.035037910196479 0 0 0 0 -8.826510895305546 160.61408308635765 0 160.61408308635765 21.927816639072262 0 0 0 0 -0.026733993659945554 150.13149296483061 0 150.13149296483061 31.103164697810826 0 0 0 0 -0.60338523826067103 153.93066280248604 0 153.93066280248604 8.721918045750499 0 0 0 0 -19.844782737707646 143.92724070036456 0 143.92724070036456 9.6991891223187849 0 0 0 0 6.6057742061238969 154.83583686680504 0 154.83583686680504 -5.324466809106525 0 0 0 0 -33.140672181687478 145.43316730199695 0 145.43316730199695 16.533406147336791 0 0 0 0 -25.871066666398292 142.60199291689878 0 142.60199291689878 -65.845071881050899 0 0 0 0 -5.0896801640901685 106.5601627961787 0 106.5601627961787 -3.6893867960768034 0 0 0 0 36.284748938951452 138.30552061031085 0 138.30552061031085 -6.4032303888925526 0 0 0 0 4.0894010689935385 46.742337056120959 0 46.742337056120959 7.1171547397223094 0 0 0 0 -4.5166247176712204 47.919098351610955 0 47.919098351610955 -85.86936694312044 0 0 0 0 7.1176094510183248 63.677586471138966 0 63.677586471138966 -66.81029793851485 0 0 0 0 -16.960204135909862 71.317076194972742 0 71.317076194972742 -124.25890848762356 0 0 0 0 -3.4066531917160319 84.062461748288115 0 84.062461748288115 -301.44035352087121 0 0 0 0 -183.10082810224776 205.23009161637856 0 205.23009161637856 -126.3359938084559 0 0 0 0 -182.92288916555145 137.53918441577275 0 137.53918441577275 -93.788316832062264 0 0 0 0 -83.905319140838401 139.73381747000531 0 139.73381747000531 -89.442179475123339 0 0 0 0 -208.83443542731675 147.21299322613368 0 147.21299322613368 -0.72673803960424266 0 0 0 0 -73.007509288087022 113.4302371957383 0 113.4302371957383 -26.198616312547529 0 0 0 0 -92.610970064790308 144.85585722418909 0 144.85585722418909 -9.3611324405319465 0 0 0 0 -32.040246312448573 123.20459782668374 0 123.20459782668374 -6.0894932976698328 0 0 0 0 -13.955226252131979 141.69077145728988 0 141.69077145728988 4.9132866501422541 0 0 0 0 -52.124928184388409 77.271040369561888 0 77.271040369561888 -0.1374934182040306 0 0 0 0 -79.225332507858184 77.954136747164739 0 77.954136747164739 26.466028865070257 0 0 0 0 -146.08671831775428 86.441960851192562 0 86.441960851192562 27.410779570240265 0 0 0 0 -93.232154314744548 102.76480571183492 0 102.76480571183492 10.794948589636533 0 0 0 0 -133.52373908880327 46.30981035266268 0 46.30981035266268 57.757472580713511 0 0 0 0 -134.5763777280024 -12.38246311927287 0 -12.38246311927287 84.079352907789144 0 0 0 0 -143.10394211927633 29.324156586671506 0 29.324156586671506 33.220987247368612 0 0 0 0 -99.230813232692526 8.4657298754609656 0 8.4657298754609656 -3.4182569010044972 0 0 0 0 -89.56838333023552 27.672067097104446 0 27.672067097104446 30.864311062723573 0 0 0 0 -0.9215301624764809 -0.6503658557945009 0 -0.6503658557945009 6.0440239052379354 0 0 0 0 16.754760613379403 11.655292365654532 0 11.655292365654532 -12.346029881038703 0 0 0 0 -6.0980363548696914 -7.3844283394009835 0 -7.3844283394009835 89.455438117831363 0 0 0 0 0.016627896375942086 0.29594302993330501 0 0.29594302993330501 0.58451619896105456 0 0 0 0 -3.1737710879206134 5.5540431973458908 0 5.5540431973458908 -10.593434384873035 0 0 0 0 -94.732008022256196 -8.9609680789953927 0 -8.9609680789953927 42.790357797330216 0 0 0 0 79.82507436949345 69.746682605775277 0 69.746682605775277 11.161564958296367 0 0 0 0 -0.10317981666976106 0.72599484310280005 0 0.72599484310280005 2.7885061417053123 0 0 0 0 -25.771763019623904 -68.991686925322028 0 -68.991686925322028 82.204207414062694 0 0 0 0 -176.78837404440128 58.431841153593268 0 58.431841153593268 69.425567062871778 0 0 0 0 -186.54033918084315 13.36157934593939 0 13.36157934593939 105.97589046693429 0 0 0 0 -179.28789702909398 83.260285552280038 0 83.260285552280038 42.82522667649755 0 0 0 0 -181.98134915789342 77.451286261206405 0 77.451286261206405 38.220078674246906 0 0 0 0 -285.0206151891216 167.48811548544109 0 167.48811548544109 -16.995799129477746 0 0 0 0 -242.5731732568438 27.878011520546352 0 27.878011520546352 80.675947337305843 0 0 0 0 -274.3470665750865 114.7429702559748 0 114.7429702559748 -40.029777088529954 0 0 0 0 -347.10163048435425 278.71943912368806 0 278.71943912368806 -214.74720836101187 0 0 0 0 -627.38211604719618 108.18629484815028 0 108.18629484815028 -148.00106024179331 0 0 0 0 -351.15824608996365 25.29858101563164 0 25.29858101563164 -130.25796771856403 0 0 0 0 -0.22777916040964818 0.59103576968835725 0 0.59103576968835725 0.37555277503334139 0 0 0 0 -88.162214970629066 42.332977708141698 0 42.332977708141698 -270.07462355646203 0 0 0 0 67.476313567749457 -68.796415404827712 0 -68.796415404827712 -143.80141960838591 0 0 0 0 48.583976582249306 -43.674157026303874 0 -43.674157026303874 16.199392667879692 0 0 0 0 -256.27377525855627 28.233315685043635 0 28.233315685043635 55.814438487540428 0 0 0 0 106.96071429447329 -53.173416725396237 0 -53.173416725396237 -312.63644422287325 0 0 0 0 -35.504111196307349 289.83323235868011 0 289.83323235868011 -315.55561779107484 0 0 0 0 136.39622411494929 67.298908169224887 0 67.298908169224887 -453.11998084542938 0 0 0 0 -281.12233219005611 -265.49851470457997 0 -265.49851470457997 -622.14285579359421 0 0 0 0 -4.6855870489883955 2.7901914572013933 0 2.7901914572013933 -1.9929693898109093 0 0 0 0 -398.23842289063941 379.33961399701184 0 379.33961399701184 -346.88247597481768 0 0 0 0 -523.93896622449756 300.756361334752 0 300.756361334752 -217.49070064778061 0 0 0 0 -487.8310611688986 -100.99256501093419 0 -100.99256501093419 47.745250097712415 0 0 0 0 87.641517237076187 45.216497608640566 0 45.216497608640566 -46.032383963601205 0 0 0 0 114.74748192022525 207.33572359443679 0 207.33572359443679 -106.83472231995256 0 0 0 0 -181.64769005925336 111.50598715058004 0 111.50598715058004 -57.491684811724554 0 0 0 0 5.2303001171167125 189.03567831142391 0 189.03567831142391 -67.589231241563539 0 0 0 0 -243.63701196448892 -42.944458346074498 0 -42.944458346074498 230.42600292653151 0 0 0 0 -198.00114267438403 215.32254544724856 0 215.32254544724856 208.59483055626447 0 0 0 0 32.172554168941019 100.18091199040208 0 100.18091199040208 -134.03300027987643 0 0 0 0 -2.8133786933723357 0.63084092121874136 0 0.63084092121874136 0.46640794569128019 0 0 0 0 -0.40902316167193931 309.54808581594989 0 309.54808581594989 -75.020006715312775 0 0 0 0 -120.17198459040264 103.49014168365466 0 103.49014168365466 66.351219027641491 0 0 0 0 1.2231074492673102 0.69425226629847003 0 0.69425226629847003 -0.21206158140821429 0 0 0 0 -156.41160966091684 199.07746411512744 0 199.07746411512744 -68.91330484779246 0 0 0 0 -305.12097781504053 72.590238412823965 0 72.590238412823965 -61.820402138727331 0 0 0 0 -0.012458790632862815 1.8441976371158155 0 1.8441976371158155 1.8490094973376898 0 0 0 0 18.611534022684836 10.10440995457472 0 10.10440995457472 0.86556267286671584 0 0 0 0 34.297420332189631 46.612101415605594 0 46.612101415605594 -14.273295772163692 0 0 0 0 19.792744768853481 11.550849700271101 0 11.550849700271101 -88.280111288391709 0 0 0 0 -11.924068338606226 8.1013183636895629 0 8.1013183636895629 -6.2385029091917374 0 0 0 0 -11.004842393250328 -26.867149673403645 0 -26.867149673403645 -82.570149529943592 0 0 0 0 -10.376575416971235 -1.3610512528108814 0 -1.3610512528108814 -93.656119603296247 0 0 0 0 -139.44378858790969 -29.954626515511336 0 -29.954626515511336 62.021511542261578 0 0 0 0 -67.944153827289483 115.21826307069932 0 115.21826307069932 -594.23789180557651 0 0 0 0 -27.162590382906274 -26.794565247446826 0 -26.794565247446826 -181.83547586299028 0 0 0 0 -42.789293047761021 -4.9606299898350699 0 -4.9606299898350699 -94.015006270213235 0 0 0 0 -5.6398900559597678 -15.068348055717252 0 -15.068348055717252 -141.36496955393523 0 0 0 0 -2.3679179943464987 2.437362646262045 0 2.437362646262045 -95.954407630481001 0 0 0 0 -2.9160155203062459 -8.2685695476393448 0 -8.2685695476393448 -46.90980518818651 0 0 0 0 -35.602509407664911 67.996347265227087 0 67.996347265227087 -50.202978477716897 0 0 0 0 -11.312168166502943 -40.197469929795261 0 -40.197469929795261 -103.14070434317182 0 0 0 0 -50.682547061227524 50.612565487727352 0 50.612565487727352 -57.004089543926966 0 0 0 0 12.703738635482296 6.6840260765602579 0 6.6840260765602579 -133.48619485851486 0 0 0 0 -0.31294075561791601 1.7763749951987293 0 1.7763749951987293 0.63466302078977321 0 0 0 0 2.1192430713817885 2.3948818729058985 0 2.3948818729058985 -45.363188932064077 0 0 0 0 -1.0315035164348956 32.967655563965309 0 32.967655563965309 -44.086653623750863 0 0 0 0 -14.210075381212405 16.171336574215104 0 16.171336574215104 -5.4804679688326772 0 0 0 0 13.663815323412564 38.627949228193756 0 38.627949228193756 -11.35012232692651 0 0 0 0 12.684766855902126 13.82329332338486 0 13.82329332338486 -11.617062489935051 0 0 0 0 32.28162828371569 88.291359561970239 0 88.291359561970239 -52.403877802800707 0 0 0 0 142.49332496210263 17.217271603207337 0 17.217271603207337 -112.05729638068442 0 0 0 0 -87.455570622631058 29.275751976587344 0 29.275751976587344 92.497696104743227 0 0 0 0 -44.424587414578127 95.825896989779721 0 95.825896989779721 -54.831918073545239 0 0 0 0 -7.3972826542776602 30.135917113489995 0 30.135917113489995 7.4238313805544749 0 0 0 0 13.828033506903466 15.293475953467805 0 15.293475953467805 -77.053183081232419 0 0 0 0 1.5248051262998459 3.3508411610154241 0 3.3508411610154241 3.2621509774253568 0 0 0 0 -15.408913813664185 25.922413504902579 0 25.922413504902579 13.004567665200739 0 0 0 0 -14.604019352015257 6.3939028652494017 0 6.3939028652494017 -17.322677476149693 0 0 0 0 2.088703251890486 15.065285211818853 0 15.065285211818853 4.4201233940491349 0 0 0 0 -0.70665615018165795 0.5159979434649884 0 0.5159979434649884 -3.059090450445467 0 0 0 0 16.608018142975197 42.698410401890214 0 42.698410401890214 -59.806554115959443 0 0 0 0 4.5063553500502174 10.015368457000742 0 10.015368457000742 -25.404341721758783 0 0 0 0 36.525738969017766 54.588582494001457 0 54.588582494001457 -158.44715016772534 0 0 0 0 19.229732481515384 -61.453285728190167 0 -61.453285728190167 16.777575386755416 0 0 0 0 2.8480002213800617 28.314607267977408 0 28.314607267977408 37.358906807243329 0 0 0 0 34.212767223259448 39.232868571333029 0 39.232868571333029 -30.899699172470719 0 0 0 0 -2.5772317203835513 2.5945795834155305 0 2.5945795834155305 -0.25533720783294456 0 0 0 0 124.22926229085806 -59.273834178077323 0 -59.273834178077323 30.69692043941177 0 0 0 0 40.53081860072416 9.7629283178412152 0 9.7629283178412152 15.855200882404461 0 0 0 0 60.488367838079284 37.06807042149012 0 37.06807042149012 0.49329238384052587 0 0 0 0 36.442409351144306 36.27964358857389 0 36.27964358857389 -24.447249039389135 0 0 0 0 15.199769475826649 24.891625014347582 0 24.891625014347582 20.324936706310481 0 0 0 0 -185.79354359944318 -52.269288896435683 0 -52.269288896435683 25.16877294745791 0 0 0 0 29.11132103818818 -45.652894919874598 0 -45.652894919874598 -148.0054558293773 0 0 0 0 256.52399590882123 301.45714277635307 0 301.45714277635307 86.994431103540819 0 0 0 0 32.365342450981188 -38.958942513638249 0 -38.958942513638249 -58.633387083522393 0 0 0 0 50.449321768926893 -4.8618162015864073 0 -4.8618162015864073 -185.34084225780862 0 0 0 0 -6.7465358308945724 -70.648540293795122 0 -70.648540293795122 -175.97522165134797 0 0 0 0 42.156305725378843 115.09064648906042 0 115.09064648906042 114.26332010391343 0 0 0 0 7.6911108273088757 -11.542763359764649 0 -11.542763359764649 7.4353513866844878 0 0 0 0 67.923968186107231 114.87492976709109 0 114.87492976709109 20.884293384817283 0 0 0 0 276.15244893673844 0.64903963629058126 0 0.64903963629058126 84.06768484128861 0 0 0 0 280.66894005435279 142.6031662177611 0 142.6031662177611 5.5493353064448456 0 0 0 0 794.86026117920846 80.35068621976643 0 80.35068621976643 -125.66968732586611 0 0 0 0 -0.52990571536947328 0.78249543713654646 0 0.78249543713654646 2.4340346416528433 0 0 0 0 -29.149776742042377 -27.462809832694802 0 -27.462809832694802 77.063007491262397 0 0 0 0 -6.161819254328293 -6.5249453789292602 0 -6.5249453789292602 5.3534049273876008 0 0 0 0 40.392384220505846 176.96442688415118 0 176.96442688415118 103.80664873217756 0 0 0 0 -11.363481735394039 15.968476054839062 0 15.968476054839062 -24.179606287161988 0 0 0 0 66.093072821316127 153.40209486240201 0 153.40209486240201 -40.745805572194513 0 0 0 0 0.14988869629087276 113.02010777751639 0 113.02010777751639 50.867925681046472 0 0 0 0 31.173782271005621 58.136425027351834 0 58.136425027351834 28.752301884473127 0 0 0 0 -190.17421993001335 -31.737836256714218 0 -31.737836256714218 1.9746934020404296 0 0 0 0 47.983770177064798 87.037724084297224 0 87.037724084297224 -198.46988322059769 0 0 0 0 -120.7255098454807 50.944401380510044 0 50.944401380510044 4.374543968726357 0 0 0 0 1.172876384837835 3.8997718820265526 0 3.8997718820265526 -0.21641036154700544 0 0 0 0 -86.349092615699192 135.93982717011386 0 135.93982717011386 -41.624413913974422 0 0 0 0 -35.613460057313205 110.19148324205162 0 110.19148324205162 -17.796442582852251 0 0 0 0 -46.700250948979374 99.818847431937684 0 99.818847431937684 15.926644053550262 0 0 0 0 34.427611260120102 -2.5419333258923871 0 -2.5419333258923871 -6.1818097259892966 0 0 0 0 -1.5938397006077309 2.6114858223440649 0 2.6114858223440649 2.9949611776670935 0 0 0 0 -20.112277489957705 34.002687819752737 0 34.002687819752737 84.096408905796125 0 0 0 0 -23.720960235197708 73.599524130419013 0 73.599524130419013 -6.7039387988043018 0 0 0 0 20.308403837011127 15.053672079800393 0 15.053672079800393 8.1213955208655904 0 0 0 0 -2.9413126394068634 13.085420160342634 0 13.085420160342634 17.164407759377568 0 0 0 0 31.869088782870676 27.659732506188448 0 27.659732506188448 4.0183052175889316 0 0 0 0 9.5150978669989854 32.837338640885719 0 32.837338640885719 51.813460030578426 0 0 0 0 69.771326250727725 21.199569249001797 0 21.199569249001797 5.09635015931417 0 0 0 0 4.1308544628591335 -17.849773644571542 0 -17.849773644571542 -36.921721842627448 0 0 0 0 17.497078572067039 14.198269422814519 0 14.198269422814519 -16.312458498017804 0 0 0 0 -9.6494957153970446 25.668007328959288 0 25.668007328959288 -20.16311342471721 0 0 0 0 51.689964061508363 17.094320432583118 0 17.094320432583118 -53.236434574442683 0 0 0 0 54.656630004621547 62.41815684820358 0 62.41815684820358 -8.6867032672034838 0 0 0 0 23.158460614248547 19.640383180004818 0 19.640383180004818 1.6351731211442093 0 0 0 0 0.64305027022419381 20.180834778901044 0 20.180834778901044 8.4271385217471106 0 0 0 0 20.599825730303564 0.99574792764906306 0 0.99574792764906306 26.858954773910227 0 0 0 0 -35.345941001964093 17.182329046678205 0 17.182329046678205 27.391762774284871 0 0 0 0 34.809294285863871 -40.843025258905982 0 -40.843025258905982 63.072169265968114 0 0 0 0 7.5179353717453523 43.956542621650442 0 43.956542621650442 16.934289648765116 0 0 0 0 11.12984148630494 29.764298946522104 0 29.764298946522104 12.898495102544075 0 0 0 0 -8.0616300923466042 29.646480101229827 0 29.646480101229827 14.119668303254002 0 0 0 0 -8.4852730074125446 16.69496903461485 0 16.69496903461485 5.5998359029933624 0 0 0 0 19.251224406652909 64.241934963167296 0 64.241934963167296 21.079792104392254 0 0 0 0 22.288913376858787 35.319975670654173 0 35.319975670654173 15.839975763111596 0 0 0 0 9.6228165347574759 50.088518978971479 0 50.088518978971479 39.170672529224248 0 0 0 0 8.4472200606105616 65.854024946012942 0 65.854024946012942 21.306283128002178 0 0 0 0 -14.29845546595061 38.222469484462636 0 38.222469484462636 48.225355088055949 0 0 0 0 -31.387537046364741 68.058571267469233 0 68.058571267469233 85.852839857538129 0 0 0 0 28.344190419883034 102.78135974546103 0 102.78135974546103 78.384117182642512 0 0 0 0 55.014825010806817 89.305778578707759 0 89.305778578707759 48.661383786162332 0 0 0 0 -52.278566126318765 24.293639622002956 0 24.293639622002956 67.552815626309894 0 0 0 0 3.2952147196262906 14.574850996999924 0 14.574850996999924 48.70725862361661 0 0 0 0 -49.372478903752381 27.193208593415875 0 27.193208593415875 46.904257017355121 0 0 0 0 -58.031691895666881 28.753899100180206 0 28.753899100180206 73.312133787865605 0 0 0 0 -25.754262168632522 30.831789359398499 0 30.831789359398499 47.313691855688376 0 0 0 0 7.4601778026874968 4.420266306336714 0 4.420266306336714 55.306081176269799 0 0 0 0 -33.892942178674275 -3.6349904721246276 0 -3.6349904721246276 81.958337579995714 0 0 0 0 -21.933629579936678 52.255421360106993 0 52.255421360106993 65.025482665234449 0 0 0 0 5.467659912976873 19.046423513064152 0 19.046423513064152 52.096195974690104 0 0 0 0 -9.2465865205213049 30.009744736637913 0 30.009744736637913 16.401548498557531 0 0 0 0 29.095150172914146 33.984001933087711 0 33.984001933087711 10.026701984606916 0 0 0 0 -13.982987596671592 49.417303927686589 0 49.417303927686589 28.695768639059679 0 0 0 0 -39.25095938380764 86.22882428606863 0 86.22882428606863 2.5819315472908784 0 0 0 0 3.9520804544507175 7.7404916687259835 0 7.7404916687259835 -2.5920715287603997 0 0 0 0 19.520354043215775 43.622668759617227 0 43.622668759617227 29.586646383761035 0 0 0 0 22.786191901650454 24.377923745716544 0 24.377923745716544 -0.22062914904381614 0 0 0 0 -2.4919774950758438 42.266281970598357 0 42.266281970598357 49.234360096786986 0 0 0 0 9.9542362519350718 48.269524697901943 0 48.269524697901943 18.202332738590485 0 0 0 0 4.9161702854453324 19.928569986035654 0 19.928569986035654 51.648102148872567 0 0 0 0 -9.0620154684903653 8.6464335487929684 0 8.6464335487929684 -0.10171219383700247 0 0 0 0 -21.908317176537821 59.461038509418358 0 59.461038509418358 132.07218414141607 0 0 0 0 -9.5717488484410751 -2.9462947011684264 0 -2.9462947011684264 135.36807585497445 0 0 0 0 16.530949058873375 28.845678792786202 0 28.845678792786202 -58.432646512490464 0 0 0 0 36.123278519593441 54.925438363814465 0 54.925438363814465 -35.329917756231225 0 0 0 0 -0.90200285869954655 0.66169551947294991 0 0.66169551947294991 8.5688025503936558 0 0 0 0 -1.2870993869782978 4.9929712476568966 0 4.9929712476568966 19.155538634808181 0 0 0 0 18.297554201746834 151.06830798827377 0 151.06830798827377 -229.00048240350225 0 0 0 0 17.133158820381141 142.43986114475229 0 142.43986114475229 29.42046352908983 0 0 0 0 -57.921030286890527 261.10445707715553 0 261.10445707715553 -19.85771977071272 0 0 0 0 4.3086686742899474 -60.146507112996915 0 -60.146507112996915 -200.7777415662963 0 0 0 0 92.095157886467859 119.71945814917399 0 119.71945814917399 39.778671117041085 0 0 0 0 -258.10742071900495 46.26311037377036 0 46.26311037377036 27.123402633729711 0 0 0 0 6.1146512600246865 -27.462644328911949 0 -27.462644328911949 8.2746488510383642 0 0 0 0 -60.306104391189365 -74.522702276010023 0 -74.522702276010023 144.84366023501934 0 0 0 0 -12.589376854073635 70.136874656811415 0 70.136874656811415 162.88561970726437 0 0 0 0 -2.5550074234702347 5.1408169561201902 0 5.1408169561201902 0.85017033969511147 0 0 0 0 88.117458319659136 87.071344472250075 0 87.071344472250075 36.285671990372066 0 0 0 0 -14.034367642545249 -7.9348464928318663 0 -7.9348464928318663 98.438796766789892 0 0 0 0 -3.8956517043692429 13.360292006015897 0 13.360292006015897 -7.5301869713822214 0 0 0 0 15.051196689175413 28.054078164899693 0 28.054078164899693 1.2676402784709353 0 0 0 0 -0.27369441604746836 12.785566206828868 0 12.785566206828868 -8.4671660876691419 0 0 0 0 -4.6648087463290722 16.471608753869077 0 16.471608753869077 1.6662505871536268 0 0 0 0 -0.88165644970649737 6.3370474207258667 0 6.3370474207258667 11.978257925937214 0 0 0 0 -0.62895598372585226 10.534178114598575 0 10.534178114598575 2.8363832764756651 0 0 0 0 0.93216310946129077 5.361724161580316 0 5.361724161580316 3.7505923813106108 0 0 0 0 3.6238663263029594 7.9186853691317083 0 7.9186853691317083 7.5846590886794729 0 0 0 0 -2.7610125280941133 3.8762175439233033 0 3.8762175439233033 5.076992250928015 0 0 0 0 5.3129926150468236 2.806186800407886 0 2.806186800407886 0.0028794552454521815 0 0 0 0 2.2710287977652541 1.548009937224009 0 1.548009937224009 -0.88520875855380154 0 0 0 0 -3.072354972065682 9.3424683598432239 0 9.3424683598432239 8.0501572977227625 0 0 0 0 -0.87156682905333582 6.760695982931793 0 6.760695982931793 -3.8653722518865834 0 0 0 0 -16.016463719875901 -2.6106457446658169 0 -2.6106457446658169 5.5566127664860687 0 0 0 0 4.5685596006346714 18.59647939405022 0 18.59647939405022 23.630487051268574 0 0 0 0 2.291525297005137 6.9276189140655333 0 6.9276189140655333 8.3664919942966662 0 0 0 0 -13.445671998404578 32.394940652346122 0 32.394940652346122 44.831849399815837 0 0 0 0 10.386190889672434 -20.612106007109105 0 -20.612106007109105 52.609606089143199 0 0 0 0 -2.705336376698348 5.8826868372589729 0 5.8826868372589729 3.6916938001827191 0 0 0 0 -35.199034785629919 14.013645237944729 0 14.013645237944729 40.630502191996129 0 0 0 0 29.775562669253304 35.575799979111252 0 35.575799979111252 -58.156791918860108 0 0 0 0 4.3630880166747374 11.847266485536238 0 11.847266485536238 -0.12419500146416299 0 0 0 0 -102.47670201830806 113.64889024511103 0 113.64889024511103 -64.541044381810934 0 0 0 0 -348.95563789253538 82.677374139031599 0 82.677374139031599 0.028460985311539844 0 0 0 0 -231.3254015561979 -46.015028889851237 0 -46.015028889851237 -34.300307186320424 0 0 0 0 -0.35637627956014484 1.230220228443649 0 1.230220228443649 -2.1688754667268313 0 0 0 0 -379.87216498074304 93.668855618001544 0 93.668855618001544 64.564705214062997 0 0 0 0 65.491877209291488 61.208720100583378 0 61.208720100583378 -3.2089266971452162 0 0 0 0 -195.75558385334807 -11.822279771084141 0 -11.822279771084141 101.35051858046063 0 0 0 0 -175.80436418464387 91.24006503847977 0 91.24006503847977 49.152845925164002 0 0 0 0 -148.34573405954688 78.066368591564242 0 78.066368591564242 55.443608026442234 0 0 0 0 -119.01700982622242 82.943505824565364 0 82.943505824565364 -21.103659197324305 0 0 0 0 -6.964505771762127 1.1943374314969759 0 1.1943374314969759 8.741109060118113 0 0 0 0 4.2435671936618746 -9.0346261673767003 0 -9.0346261673767003 34.918848666085978 0 0 0 0 10.331377526289891 20.921462407578169 0 20.921462407578169 13.539707388279595 0 0 0 0 3.1850702832198898 5.1099059223604968 0 5.1099059223604968 -1.0200021057762854 0 0 0 0 26.00115948743769 34.905821266045677 0 34.905821266045677 14.348766566239647 0 0 0 0 16.323169798859226 52.413315703472108 0 52.413315703472108 18.393690823901125 0 0 0 0 -25.132173957697887 47.609638111247477 0 47.609638111247477 53.335618610268284 0 0 0 0 -37.504344795659563 12.42779674976191 0 12.42779674976191 65.825598854940836 0 0 0 0 3.6417111850706227 16.812675432573037 0 16.812675432573037 42.486945725417399 0 0 0 0 -15.276494888512389 4.2761716975655872 0 4.2761716975655872 49.064738072593173 0 0 0 0 -98.470766852801717 -5.4957048325386495 0 -5.4957048325386495 79.6673595149623 0 0 0 0 -38.945910682075919 -43.377091952275805 0 -43.377091952275805 102.57305539845765 0 0 0 0 -1.4529775963384068 -0.40825091565609739 0 -0.40825091565609739 0.022493708566905468 0 0 0 0 -150.81425695504504 177.94117052600859 0 177.94117052600859 33.979233175101399 0 0 0 0 77.672104956509429 181.25259349396401 0 181.25259349396401 -56.066648628009716 0 0 0 0 -25.151633571273123 54.361711122452107 0 54.361711122452107 -122.78739071918972 0 0 0 0 -49.803408052051964 134.38112916492173 0 134.38112916492173 -40.596238560890924 0 0 0 0 120.55629366703943 186.66027234391004 0 186.66027234391004 34.625073621445608 0 0 0 0 -58.379489794973779 58.956857964077244 0 58.956857964077244 -21.097616949482472 0 0 0 0 -176.07158030993014 151.65375749483428 0 151.65375749483428 -40.940410811530455 0 0 0 0 -285.48269357012396 113.04326521823532 0 113.04326521823532 14.010193132111453 0 0 0 0 -231.56856058649646 291.35347191791516 0 291.35347191791516 -195.34999563824022 0 0 0 0 -163.78171642279449 128.31261807295959 0 128.31261807295959 63.328077847436361 0 0 0 0 -204.42291708947778 176.44983575688457 0 176.44983575688457 67.576674188239849 0 0 0 0 -279.87297775214574 223.5508227393093 0 223.5508227393093 9.3062432715450996 0 0 0 0 -128.80581031633119 86.533234678809094 0 86.533234678809094 -114.50262811783614 0 0 0 0 89.642516822135804 121.4488603332793 0 121.4488603332793 -0.036697144219942857 0 0 0 0 -129.63371791619693 71.418779627809386 0 71.418779627809386 76.47293059562071 0 0 0 0 95.550617066573977 63.550879220643765 0 63.550879220643765 21.326292874306091 0 0 0 0 -51.450099948538991 201.05195347311746 0 201.05195347311746 42.524183223449654 0 0 0 0 598.05837925287233 -42.191088052279156 0 -42.191088052279156 -39.692297289228009 0 0 0 0 294.8730050867016 239.45726613843726 0 239.45726613843726 89.32694617810921 0 0 0 0 270.01722893397528 -17.242878051616572 0 -17.242878051616572 98.714202005067023 0 0 0 0 83.993048965039634 29.345371514962608 0 29.345371514962608 0.078831919505319092 0 0 0 0 354.85389641586607 173.47138184332016 0 173.47138184332016 59.603148799949849 0 0 0 0 -43.885699274531362 38.72690041556416 0 38.72690041556416 31.205275978782993 0 0 0 0 16.950325341142161 4.1231703403573192 0 4.1231703403573192 -9.1242834751101327 0 0 0 0 0.11888235954739557 0.027602675006221489 0 0.027602675006221489 2.3308765945682524 0 0 0 0 219.06908603246484 24.165057127927867 0 24.165057127927867 -28.450035263864265 0 0 0 0 -4.4549722406227374 23.989686373326549 0 23.989686373326549 -6.2596241375595127 0 0 0 0 -0.46324410992099274 4.4203142796082346 0 4.4203142796082346 3.6547098336782824 0 0 0 0 209.75858045281348 24.909178420923126 0 24.909178420923126 -0.44897488322749268 0 0 0 0 236.23622692155914 40.806468117632903 0 40.806468117632903 -74.297446624092117 0 0 0 0 164.27388244196482 102.966409094548 0 102.966409094548 -54.411847874944215 0 0 0 0 113.97707570386956 108.57649656272042 0 108.57649656272042 -28.000819268905616 0 0 0 0 -22.881882390032843 78.584108061186271 0 78.584108061186271 74.069444190649392 0 0 0 0 0.62888546694353664 10.697720215539405 0 10.697720215539405 22.908338687014833 0 0 0 0 -6.3654796750824829 14.273509961813392 0 14.273509961813392 -16.207447837707676 0 0 0 0 165.81005451905048 90.49237154736602 0 90.49237154736602 15.09756150902831 0 0 0 0 48.010047946187115 12.402268177971564 0 12.402268177971564 108.5432056667305 0 0 0 0 -0.49928059152112425 0.75444622363977842 0 0.75444622363977842 -0.41861328392957375 0 0 0 0 -4.121022638040813 79.777773493933637 0 79.777773493933637 -107.48209378050888 0 0 0 0 -1.3675814010025533 65.664767518065673 0 65.664767518065673 -129.64965397931519 0 0 0 0 1.3112414226316105 -12.476168697648973 0 -12.476168697648973 -58.055538339216582 0 0 0 0 24.099960876214656 50.794889731237241 0 50.794889731237241 -9.4467789134941995 0 0 0 0 2.5135016010224724 5.2722881539349515 0 5.2722881539349515 -0.48656818758297504 0 0 0 0 9.1315957014430751 10.066355848432977 0 10.066355848432977 -0.79664632441563299 0 0 0 0 -2.2151299173000716 1.7207710215967893 0 1.7207710215967893 -0.55429621721554412 0 0 0 0 -38.485505967225436 8.1165497052388673 0 8.1165497052388673 2.1742692442785483 0 0 0 0 9.1066022456152496 13.532664969465259 0 13.532664969465259 14.445613981355564 0 0 0 0 10.183316103268908 10.823179433738005 0 10.823179433738005 16.767603078573302 0 0 0 0 20.687864697304576 21.899249290741864 0 21.899249290741864 21.936734872842862 0 0 0 0 -0.52042054927681747 0.7715563520742883 0 0.7715563520742883 -0.70711784094295638 0 0 0 0 -19.876836649719735 148.16411369910747 0 148.16411369910747 -67.948234741043962 0 0 0 0 -152.6747629149138 -15.318885236679307 0 -15.318885236679307 46.318183680261427 0 0 0 0 -22.901531268852068 188.85205933723046 0 188.85205933723046 -169.72825147365074 0 0 0 0 65.426218304324721 5.8212020597420633 0 5.8212020597420633 -43.889409681374673 0 0 0 0 -120.55160802309729 40.875238954247834 0 40.875238954247834 83.388255968966405 0 0 0 0 -105.36756506451547 43.169171975310746 0 43.169171975310746 -130.81999315427674 0 0 0 0 -78.018733177144895 -84.370024095318513 0 -84.370024095318513 75.703279539934556 0 0 0 0 -1.0105754094724198 0.42582607595676336 0 0.42582607595676336 -0.22266732931853284 0 0 0 0 -11.525472016955973 98.268969505494169 0 98.268969505494169 -215.87125968173132 0 0 0 0 -14.727911012889308 -1.157723781579989 0 -1.157723781579989 -38.492842448587908 0 0 0 0 -60.305438660450818 76.655983193879365 0 76.655983193879365 -54.765922378184769 0 0 0 0 -148.47403024748382 119.19748478473866 0 119.19748478473866 -41.685025901228073 0 0 0 0 -180.14575920555581 21.69778061308898 0 21.69778061308898 3.1305905371700646 0 0 0 0 -14.757771667604175 -2.679933384009928 0 -2.679933384009928 0.3903792548153433 0 0 0 0 3.3512654416997201 3.3884437112863424 0 3.3884437112863424 -1.7074547464719103 0 0 0 0 -9.7801251968439828 45.149348078510229 0 45.149348078510229 54.856320757417052 0 0 0 0 -60.77098954019948 14.495099689494964 0 14.495099689494964 39.090325857952848 0 0 0 0 11.011193917990976 16.611568517099609 0 16.611568517099609 -7.0749151774730024 0 0 0 0 14.89210865160976 31.183898137171127 0 31.183898137171127 -11.781689378476585 0 0 0 0 93.24590084160991 -69.97532803701688 0 -69.97532803701688 8.3337004223540134 0 0 0 0 -1.1664636161986754 15.125080092483202 0 15.125080092483202 0.66746730873623505 0 0 0 0 0.91012346676814104 18.724686790023043 0 18.724686790023043 -16.217064460775873 0 0 0 0 1.1571151677704137 21.19399953021798 0 21.19399953021798 -12.537200744038273 0 0 0 0 25.64109896325408 45.930485860852059 0 45.930485860852059 4.3529031274993031 0 0 0 0 -10.237920593356234 14.827624057218202 0 14.827624057218202 -4.2499596919356009 0 0 0 0 7.2977220890725487 6.2514995800044346 0 6.2514995800044346 -5.472318020278351 0 0 0 0 -19.338457397421735 37.38966173319568 0 37.38966173319568 45.132169076910941 0 0 0 0 -2.336897393950494 26.411053087349501 0 26.411053087349501 7.9669399067861377 0 0 0 0 -17.157291834625411 22.776795434447351 0 22.776795434447351 -19.61130256174026 0 0 0 0 -6.0974843147796491 43.116573917221103 0 43.116573917221103 -20.739859246169999 0 0 0 0 -41.532922641563346 2.8812717303117097 0 2.8812717303117097 36.877283734633238 0 0 0 0 -0.36474115166447518 31.223655420113573 0 31.223655420113573 -14.658792809244915 0 0 0 0 -3.2934316896607925 50.327052031241692 0 50.327052031241692 9.4259650234707806 0 0 0 0 11.245767863798847 61.215759213821002 0 61.215759213821002 5.4110299001040403 0 0 0 0 -21.144856258771377 20.258702883879948 0 20.258702883879948 -18.34271859092636 0 0 0 0 -35.352331755853811 107.30725266842092 0 107.30725266842092 43.051771500242467 0 0 0 0 -20.169844582862424 36.186623200595932 0 36.186623200595932 -123.27977436044148 0 0 0 0 -71.895959269356354 51.728030706995924 0 51.728030706995924 22.878864702506689 0 0 0 0 23.999378687225544 19.104161958261102 0 19.104161958261102 -3.8261257305639447 0 0 0 0 -0.63661759959586561 46.842001372916911 0 46.842001372916911 -10.556405701870972 0 0 0 0 77.365978104417081 61.982197797242407 0 61.982197797242407 -46.558289662325478 0 0 0 0 44.507074330478645 -22.24854950995541 0 -22.24854950995541 -28.833677146838454 0 0 0 0 90.02818593858683 101.49868914267063 0 101.49868914267063 32.215166783957102 0 0 0 0 194.2764942079375 78.514250859709136 0 78.514250859709136 -27.39197186067031 0 0 0 0 -4.3235292240279826 6.7955706375654898 0 6.7955706375654898 -1.3191444010908526 0 0 0 0 -18.458121173892799 21.216412703266379 0 21.216412703266379 -17.914679224969404 0 0 0 0 14.640898808516795 73.542204776666949 0 73.542204776666949 36.106953787144448 0 0 0 0 -32.708198651451312 39.823822459442454 0 39.823822459442454 24.080443108555301 0 0 0 0 -2.3109545755736676 2.058146721337522 0 2.058146721337522 -1.9477267693323768 0 0 0 0 -64.684984216433008 175.94844286003445 0 175.94844286003445 112.62946890313469 0 0 0 0 -10.139476758229648 23.522491341969726 0 23.522491341969726 -49.493439053439943 0 0 0 0 54.755617837638965 3.3862774666995392 0 3.3862774666995392 -117.88587350080343 0 0 0 0 51.725697515225875 19.701455892945887 0 19.701455892945887 -87.484009579275153 0 0 0 0 -59.0463739618408 -116.15115648315805 0 -116.15115648315805 -334.65910765884837 0 0 0 0 -28.983371476446337 204.56683260718637 0 204.56683260718637 -184.43564298962247 0 0 0 0 -18.01136797845902 81.823430714925053 0 81.823430714925053 58.496217450170661 0 0 0 0 65.325779106584378 144.37083156563676 0 144.37083156563676 -31.018587319101243 0 0 0 0 -25.695662804726453 143.50849384141475 0 143.50849384141475 103.11991942775785 0 0 0 0 -15.939055116071568 17.986470098703581 0 17.986470098703581 -17.137516302332941 0 0 0 0 -87.736604161909781 63.751132054252594 0 63.751132054252594 196.32901118980226 0 0 0 0 75.840987442481492 114.69145255313015 0 114.69145255313015 40.488631515912857 0 0 0 0 -11.462060888475616 16.70379607723963 0 16.70379607723963 -17.23226303997577 0 0 0 0 -20.144794314992396 19.758146794862114 0 19.758146794862114 32.781599199659468 0 0 0 0 -1.2387352307431572 10.557241394221219 0 10.557241394221219 2.6627411950167357 0 0 0 0 9.8238637127342372 15.761054408962082 0 15.761054408962082 -22.384576455970091 0 0 0 0 12.897030279391402 -0.44897287788626272 0 -0.44897287788626272 1.926692339759029 0 0 0 0 -2.1746870314810058 6.6562748843015669 0 6.6562748843015669 4.2711364199264494 0 0 0 0 -16.510462244650626 48.370538282291818 0 48.370538282291818 -79.016626038461254 0 0 0 0 -0.66468218382787114 1.6589605037575623 0 1.6589605037575623 0.71093743273364396 0 0 0 0 -41.001118856436733 -8.5702183779958432 0 -8.5702183779958432 5.7011200835586351 0 0 0 0 -80.318025232632863 60.402551745835808 0 60.402551745835808 49.576628332870314 0 0 0 0 -76.010617158413879 108.79598931243527 0 108.79598931243527 -7.2444570546176692 0 0 0 0 -8.3644298959423313 7.0204741448624262 0 7.0204741448624262 6.215686350958137 0 0 0 0 -12.622100138008136 12.661145406556898 0 12.661145406556898 35.554783126091934 0 0 0 0 -83.510801082169564 45.009162851412839 0 45.009162851412839 2.1106237344463636 0 0 0 0 -3.6471424257154319 -0.46191760669480786 0 -0.46191760669480786 0.45257405609507373 0 0 0 0 34.878068786466429 44.695940883812 0 44.695940883812 -14.773635039655346 0 0 0 0 -16.034090235443614 20.225195700338162 0 20.225195700338162 -18.946985476496366 0 0 0 0 -45.637801591767953 103.27980371190182 0 103.27980371190182 40.682870068085322 0 0 0 0 38.432669833404361 28.273843491087973 0 28.273843491087973 -91.272827692278952 0 0 0 0 -29.559089383022183 -7.4913266403236776 0 -7.4913266403236776 -34.765498539301916 0 0 0 0 -102.11248260814591 51.124679313936213 0 51.124679313936213 14.811523043143097 0 0 0 0 20.687337067101907 93.962298018261208 0 93.962298018261208 22.562000844434806 0 0 0 0 33.950710515837272 21.788170527746843 0 21.788170527746843 -29.347964419981508 0 0 0 0 13.382091095255646 22.630952572803835 0 22.630952572803835 -32.626397781306878 0 0 0 0 41.31147040545693 -13.687092797612422 0 -13.687092797612422 -7.2199765308978385 0 0 0 0 3.7365516513726149 -0.67094517377265106 0 -0.67094517377265106 0.76745199789347396 0 0 0 0 35.694891479360194 0.35041782219559536 0 0.35041782219559536 -10.477080404358276 0 0 0 0 -1.5869997396832822 2.257403775211543 0 2.257403775211543 1.2145074766595343 0 0 0 0 -19.102978618246198 3.3046994107644423 0 3.3046994107644423 8.2222662480853614 0 0 0 0 37.676962945756031 20.998649200627142 0 20.998649200627142 -35.487474886438577 0 0 0 0 206.57708945006607 23.377459512017595 0 23.377459512017595 -86.012318438253715 0 0 0 0 -2.4260105267342205 2.5706035756459045 0 2.5706035756459045 0.57986311458737561 0 0 0 0 0.067886455901316367 8.3407042613835074 0 8.3407042613835074 0.033738205529516563 0 0 0 0 -389.27433376101158 -258.86704676103273 0 -258.86704676103273 -182.17345730380475 0 0 0 0 -539.36518775568402 423.5084562503107 0 423.5084562503107 316.2919726746768 0 0 0 0 26.916392856172024 266.12773955814919 0 266.12773955814919 297.1550743458065 0 0 0 0 -112.49120179805868 442.51846556388864 0 442.51846556388864 260.137944936243 0 0 0 0 175.22871410278822 401.70486585320759 0 401.70486585320759 -0.74841341017599916 0 0 0 0 2.8779120248779915 -0.64826707359598501 0 -0.64826707359598501 0.89816251587865281 0 0 0 0 945.00088519124256 113.35479064358515 0 113.35479064358515 65.483448249840876 0 0 0 0 14.555977435041314 35.013614834293548 0 35.013614834293548 9.708348551292147 0 0 0 0 16.420180453366811 20.117310587398606 0 20.117310587398606 -4.1423707212597947 0 0 0 0 -146.46642476210945 -122.06055927362831 0 -122.06055927362831 134.65026883538417 0 0 0 0 -76.933014083062517 106.3365670419571 0 106.3365670419571 123.24470741458936 0 0 0 0 -9.4677310782875299 5.6255240672158209 0 5.6255240672158209 7.5735345388511917 0 0 0 0 12.549279111103715 9.5673052402635221 0 9.5673052402635221 0.030178950299159624 0 0 0 0 1.8562403362638751 1.4443126551677246 0 1.4443126551677246 1.0662480684040361 0 0 0 0 4.5363441443799886 5.8672345571772766 0 5.8672345571772766 -4.2630507504527202 0 0 0 0 8.5007457812071152 21.104980989020987 0 21.104980989020987 9.7698852580178936 0 0 0 0 -48.409227285203315 -1.9912387371068689 0 -1.9912387371068689 19.498103205216466 0 0 0 0 7.8526102843052286 24.090510406913381 0 24.090510406913381 -0.029187282729491157 0 0 0 0 -41.263296385024205 40.384165556177322 0 40.384165556177322 0.088700288946711225 0 0 0 0 136.89811681215451 110.74562358005642 0 110.74562358005642 -137.66815625462914 0 0 0 0 1.2605058419425337 -1.1382783379479164 0 -1.1382783379479164 -1.038549855281218 0 0 0 0 -128.14078593657041 -8.4262785309620085 0 -8.4262785309620085 145.86499583811383 0 0 0 0 -19.333925690380966 19.871728960865767 0 19.871728960865767 26.299540843894647 0 0 0 0 32.86733722790359 63.437562327620981 0 63.437562327620981 34.546008837525733 0 0 0 0 -2.7893999897574639 1.0894251028732533 0 1.0894251028732533 2.8959447326083989 0 0 0 0 7.2442328074448596 -2.1396863076552108 0 -2.1396863076552108 -10.617933789380913 0 0 0 0 -5.0416932559683012 8.2361397900311459 0 8.2361397900311459 -5.4607837048055927 0 0 0 0 -6.0226964307314574 -4.0797602056609321 0 -4.0797602056609321 29.812318558128027 0 0 0 0 40.784504715574712 33.041508103141496 0 33.041508103141496 16.474523495897301 0 0 0 0 8.4933982937563997 19.094233887728478 0 19.094233887728478 12.305951187099708 0 0 0 0 -5.8022620753472438 18.660626946957564 0 18.660626946957564 16.22533552342793 0 0 0 0 5.0335985374085794 24.760044763155747 0 24.760044763155747 3.9188317577845737 0 0 0 0 4.6639281137222497 14.787323428299715 0 14.787323428299715 17.47890636921511 0 0 0 0 6.714870764506486 12.523309106485613 0 12.523309106485613 18.86650377495971 0 0 0 0 -0.68722634541154548 6.2867553937394405 0 6.2867553937394405 4.4604114121175371 0 0 0 0 7.9970406373577134 20.049216897556107 0 20.049216897556107 11.92699372961215 0 0 0 0 -3.0940493956928421 3.5193115248235181 0 3.5193115248235181 1.8461420624647786 0 0 0 0 12.70121987613993 88.258008478322154 0 88.258008478322154 -5.0292612495759386 0 0 0 0 -50.424916441143068 -12.793614855993837 0 -12.793614855993837 -13.227802053326741 0 0 0 0 -2.8400593840927595 3.1079253786885594 0 3.1079253786885594 -1.3517599662927466 0 0 0 0 -9.0895984023821352 7.7602804592746537 0 7.7602804592746537 -6.0968242096678864 0 0 0 0 -37.478002734274924 11.446907906823981 0 11.446907906823981 10.76761951406661 0 0 0 0 21.346263572323267 60.946472258885478 0 60.946472258885478 22.337027220724849 0 0 0 0 -6.0469894955385826 35.95043909018932 0 35.95043909018932 6.9401165094950557 0 0 0 0 -12.582879802154594 14.21466697068275 0 14.21466697068275 -14.262780245573339 0 0 0 0 34.330856235278816 50.011208039408302 0 50.011208039408302 21.045434268147801 0 0 0 0 25.744490734146666 16.632914143636299 0 16.632914143636299 10.879350345241619 0 0 0 0 7.4663819000737988 16.036517741240459 0 16.036517741240459 0.41700627018872183 0 0 0 0 -35.55988358680861 15.129720951714262 0 15.129720951714262 14.740192675817525 0 0 0 0 -3.6848618179416159 1.8513260278216706 0 1.8513260278216706 -1.1577606642660072 0 0 0 0 22.315061219690506 -10.663202781755899 0 -10.663202781755899 -42.745576381712453 0 0 0 0 0.85262132391121881 0.23540121388946034 0 0.23540121388946034 -2.0769745942697 0 0 0 0 -98.709062558444657 -85.583155624316532 0 -85.583155624316532 40.250882173510035 0 0 0 0 54.262722606601983 46.138081534696539 0 46.138081534696539 -7.7354636397212744 0 0 0 0 52.038414250801736 25.41766768152911 0 25.41766768152911 -3.0380569575645495 0 0 0 0 26.019744831626156 26.754853776850723 0 26.754853776850723 -3.1044496349786641 0 0 0 0 36.215850391175991 48.468158061652503 0 48.468158061652503 -7.8001717743682093 0 0 0 0 -6.2605538265638643 32.103429095341198 0 32.103429095341198 8.730000355750235 0 0 0 0 17.994231354444054 30.84033864522462 0 30.84033864522462 -0.055940192225534702 0 0 0 0 -23.777876250123313 9.9314667623921196 0 9.9314667623921196 -2.4110086701221007 0 0 0 0 1.2586825977309966 0.80675884854682423 0 0.80675884854682423 1.9556831260630361 0 0 0 0 -68.913232160595271 35.208797818359017 0 35.208797818359017 0.031986642477247772 0 0 0 0 2.9042014854223805 3.9760415749859384 0 3.9760415749859384 6.1670109810589224 0 0 0 0 -14.014183186485184 40.731721211283002 0 40.731721211283002 -8.0111692805603525 0 0 0 0 -196.41955505674287 291.38774518111313 0 291.38774518111313 169.68797676872418 0 0 0 0 -233.83114649750428 135.03033615260665 0 135.03033615260665 -35.406243588906364 0 0 0 0 1145.3820310167623 33.769834654940496 0 33.769834654940496 -95.226031512807822 0 0 0 0 178.07365843840489 296.30836120872118 0 296.30836120872118 0.041425791546244151 0 0 0 0 223.82353153523309 6.4911485320408246 0 6.4911485320408246 111.26154852587206 0 0 0 0 36.199665235804787 149.52796541579301 0 149.52796541579301 62.292754274798426 0 0 0 0 -67.709440286484323 187.99804171011806 0 187.99804171011806 48.370622596004978 0 0 0 0 -73.141825758070354 257.40445583400651 0 257.40445583400651 25.078839840389264 0 0 0 0 220.50399857504391 304.50727883780763 0 304.50727883780763 -30.355203305720352 0 0 0 0 89.566197596624534 241.2652151569273 0 241.2652151569273 -91.240860846388387 0 0 0 0 -0.85729655001908522 1.5808850294098633 0 1.5808850294098633 -1.7919985501965812 0 0 0 0 -92.472155800808878 71.565248076796706 0 71.565248076796706 52.817812234439771 0 0 0 0 233.41564175542135 187.6034287686889 0 187.6034287686889 -133.13843239544622 0 0 0 0 137.04507960113074 -40.126014989790747 0 -40.126014989790747 -49.095620068845164 0 0 0 0 -76.168740472322938 37.887724106387395 0 37.887724106387395 13.357060387461388 0 0 0 0 2.4565149885962114 26.865573550825502 0 26.865573550825502 -13.733486271132278 0 0 0 0 526.455587995732 -69.916437139525442 0 -69.916437139525442 -100.02965625095021 0 0 0 0 263.84110187754914 54.640986040476491 0 54.640986040476491 -2.5039002550984151 0 0 0 0 85.767332277281639 212.46307442761827 0 212.46307442761827 -105.26053794833808 0 0 0 0 1.976100681407251 10.545018117248386 0 10.545018117248386 10.143876214626999 0 0 0 0 -20.428287149348421 50.91085954760274 0 50.91085954760274 13.587776535146986 0 0 0 0 -6.5445478547979663 20.567606432234875 0 20.567606432234875 -18.576574740858192 0 0 0 0 10.209594769576164 19.109614840465952 0 19.109614840465952 -7.4686887973438161 0 0 0 0 24.316774583585811 11.593595752980036 0 11.593595752980036 -13.849606113541086 0 0 0 0 2.9235387633059773 3.8264440588858051 0 3.8264440588858051 -2.9099483107637809 0 0 0 0 27.805864701240807 13.565151660481206 0 13.565151660481206 -13.414270265156119 0 0 0 0 109.9624940142603 127.91268683760063 0 127.91268683760063 -1.359623483857888 0 0 0 0 62.222165244605549 86.514258905626775 0 86.514258905626775 52.183702104373424 0 0 0 0 69.695056796265362 72.765238676503941 0 72.765238676503941 76.476631605401053 0 0 0 0 -2.3948405737095051 3.8407432275034665 0 3.8407432275034665 -3.939387669365999 0 0 0 0 71.771232588473367 101.16629423370796 0 101.16629423370796 73.911058513716853 0 0 0 0 41.334650348914977 102.85924332648324 0 102.85924332648324 74.188037793617696 0 0 0 0 37.815322422120062 83.020944696598235 0 83.020944696598235 82.518410313337881 0 0 0 0 -1.3684146444192464 0.66744511479741675 0 0.66744511479741675 -0.76809326747789441 0 0 0 0 118.07824600740696 77.611115220523061 0 77.611115220523061 -44.24004739670454 0 0 0 0 55.303200350595944 14.985892268063253 0 14.985892268063253 -5.89162291359753 0 0 0 0 8.7852303706879411 -5.7876137123603257 0 -5.7876137123603257 -0.31840547030878952 0 0 0 0 -34.241881136249049 17.433090911081308 0 17.433090911081308 82.126040705017658 0 0 0 0 61.842538865351798 66.154525781317716 0 66.154525781317716 -71.262254975990572 0 0 0 0 28.949674678247902 76.703582107527836 0 76.703582107527836 64.516766339114838 0 0 0 0 -0.98145749693198248 2.4744929734039971 0 2.4744929734039971 -2.5429242134150414 0 0 0 0 19.986140864436493 21.1552512058106 0 21.1552512058106 -20.740277783901547 0 0 0 0 29.108629686143672 31.7987383218574 0 31.7987383218574 -23.465267173058237 0 0 0 0 6.6835038133149283 -28.274966338261947 0 -28.274966338261947 -60.470020481363463 0 0 0 0 -159.88746944956847 95.001144919060607 0 95.001144919060607 23.508766071772698 0 0 0 0 -33.74627171269276 45.426621233862534 0 45.426621233862534 41.166636222798843 0 0 0 0 -20.204295545401301 19.122416577197825 0 19.122416577197825 -9.4875439649577231 0 0 0 0 18.526313107142968 19.18517359318307 0 19.18517359318307 1.1617657631850165 0 0 0 0 26.253174615601438 44.96523314013757 0 44.96523314013757 -10.415435598854856 0 0 0 0 -34.101270692193793 60.216720869120763 0 60.216720869120763 -6.2802563297000233 0 0 0 0 9.4460865748478682 10.419370393223289 0 10.419370393223289 -31.800667080380663 0 0 0 0 13.288528169285655 30.034044931534936 0 30.034044931534936 -22.056184030450822 0 0 0 0 15.991771223774776 19.218164440942928 0 19.218164440942928 -21.735080089587427 0 0 0 0 23.580783876972419 11.363645905898011 0 11.363645905898011 -35.51238908760206 0 0 0 0 -172.42623808324333 182.29572215587541 0 182.29572215587541 -30.86765903995547 0 0 0 0 13.748597047763099 105.05289954042064 0 105.05289954042064 -13.474088571223547 0 0 0 0 -305.6395137921827 35.60597374484496 0 35.60597374484496 69.659906148815935 0 0 0 0 -1.5094548794233145 1.8084346173847337 0 1.8084346173847337 -1.1011546960184404 0 0 0 0 224.65518269565064 161.21340855410745 0 161.21340855410745 -148.2622655396699 0 0 0 0 178.99644276987692 182.67611729684722 0 182.67611729684722 -158.23977109793123 0 0 0 0 5.6335571415856975 121.76907802472124 0 121.76907802472124 -64.933689474637504 0 0 0 0 200.13118735063563 20.201074812302977 0 20.201074812302977 -12.841412909769133 0 0 0 0 136.77384481520949 153.49827710062527 0 153.49827710062527 99.25692718857681 0 0 0 0 -36.954469904680082 28.190148969642905 0 28.190148969642905 61.644921404611523 0 0 0 0 -122.31493289349783 7.51360304955233 0 7.51360304955233 71.145943047045876 0 0 0 0 -143.24603213607838 -41.834893136140636 0 -41.834893136140636 43.408587135338166 0 0 0 0 -122.12307381541912 31.160888086286263 0 31.160888086286263 106.65778984726057 0 0 0 0 -148.61028977937349 -18.808935017630574 0 -18.808935017630574 95.078717747917835 0 0 0 0 -2.8094412405824327 4.0013264130592745 0 4.0013264130592745 -3.3947390588091082 0 0 0 0 7.7489831716147819 216.91965680140129 0 216.91965680140129 131.41430354872864 0 0 0 0 229.97285895575783 238.79553292097444 0 238.79553292097444 -108.65047312143361 0 0 0 0 -272.25551871403604 72.379769528011821 0 72.379769528011821 178.85946701323337 0 0 0 0 -9.4116315477240278 -0.66319040755843162 0 -0.66319040755843162 -63.032208640623139 0 0 0 0 -291.30393971223168 -170.12197613901526 0 -170.12197613901526 -61.508146306732669 0 0 0 0 1.3479176542957987 1.9284481704981573 0 1.9284481704981573 -3.4187779449151066 0 0 0 0 -10.408723949353771 97.94854648367982 0 97.94854648367982 -158.91277306309348 0 0 0 0 8.7356968801332631 5.4966689449356778 0 5.4966689449356778 -4.5890702220093829 0 0 0 0 -25.419953480550248 26.845664387368743 0 26.845664387368743 -8.2734185838789926 0 0 0 0 -18.689725891484727 12.610849553297285 0 12.610849553297285 -7.3808707169352772 0 0 0 0 -14.171782970093773 23.37577300844714 0 23.37577300844714 -9.416870419991028 0 0 0 0 -16.167553387665976 16.216312402730182 0 16.216312402730182 -7.4193020189050003 0 0 0 0 -122.87122949321925 0.55902501886555456 0 0.55902501886555456 19.019679627039295 0 0 0 0 -15.283455359864092 23.091181296940704 0 23.091181296940704 -11.911223095201422 0 0 0 0 -15.189578403316773 22.099764527396474 0 22.099764527396474 -2.1587586456080317 0 0 0 0 -13.62937471990881 15.260651355274604 0 15.260651355274604 -7.4605409831019642 0 0 0 0 -21.292771850394274 16.846013183894684 0 16.846013183894684 -3.746296297696972 0 0 0 0 -20.229624318430069 43.092023796045396 0 43.092023796045396 -18.820411935901575 0 0 0 0 12.019831038030619 5.601274816812456 0 5.601274816812456 -3.1749859614973843 0 0 0 0 -40.92360676823364 25.572359715672974 0 25.572359715672974 -18.995328401040751 0 0 0 0 -55.104092799232603 48.585555916987687 0 48.585555916987687 1.7134798793267692 0 0 0 0 -2.1465026521855179 15.213308558872086 0 15.213308558872086 -16.24277663473913 0 0 0 0 -88.417632111378225 -89.204021160130651 0 -89.204021160130651 0.17814888629618508 0 0 0 0 -280.13690564440958 26.157896849301324 0 26.157896849301324 69.602654920279747 0 0 0 0 -172.5286400920445 162.7545084129506 0 162.7545084129506 -68.241060137501336 0 0 0 0 -120.31307851674956 73.96743971901742 0 73.96743971901742 -7.844328702736675 0 0 0 0 -155.81887627258948 7.15935817290665 0 7.15935817290665 28.708424610849761 0 0 0 0 -123.30739386180903 4.910564569348935 0 4.910564569348935 57.260958740493152 0 0 0 0 -162.65960531385463 22.161980852077249 0 22.161980852077249 54.901437767977768 0 0 0 0 -197.19683214870111 109.55441825277376 0 109.55441825277376 28.564879780319188 0 0 0 0 -83.136036994184906 84.13760675854428 0 84.13760675854428 30.400956148238038 0 0 0 0 -402.45248537222142 248.53997113218065 0 248.53997113218065 120.06692703181034 0 0 0 0 -365.15201278691256 -14.331179323657125 0 -14.331179323657125 88.898311536519032 0 0 0 0 -165.51227549395139 34.407362372055104 0 34.407362372055104 74.013506522023818 0 0 0 0 -290.06713496153679 26.918119825477334 0 26.918119825477334 99.190816212270875 0 0 0 0 -108.68392037338708 -10.130952422325208 0 -10.130952422325208 34.080735778736198 0 0 0 0 -197.44290817024375 -69.460508979842416 0 -69.460508979842416 36.1912271032852 0 0 0 0 -205.4851305922798 -75.770271528175726 0 -75.770271528175726 39.317925527750049 0 0 0 0 37.422412103840543 29.714709462821702 0 29.714709462821702 -16.320123635799973 0 0 0 0 -3.3724002430284941 1.4125304809360273 0 1.4125304809360273 -0.69087462026600832 0 0 0 0 -32.246928760520177 42.755953444607258 0 42.755953444607258 -21.342985697512631 0 0 0 0 -20.423410044896173 -112.16602510447228 0 -112.16602510447228 -106.8036723852565 0 0 0 0 -136.43501883437057 -158.95044809556566 0 -158.95044809556566 -114.74762543759425 0 0 0 0 -778.90520699133776 63.153345075988909 0 63.153345075988909 -0.16456989029745725 0 0 0 0 -353.28920357386596 -223.21563096142927 0 -223.21563096142927 -125.4339156459373 0 0 0 0 -391.12278135000372 -12.56330117809739 0 -12.56330117809739 96.865068637023796 0 0 0 0 -409.06327534683442 -157.74608699264354 0 -157.74608699264354 1.6807750106745516 0 0 0 0 -563.27325766670947 440.90173849448911 0 440.90173849448911 -216.94206233509249 0 0 0 0 -759.82543580184392 -116.85073279384233 0 -116.85073279384233 69.195154598841327 0 0 0 0 -13.128733252413483 6.3473485475315101 0 6.3473485475315101 -1.2539244973343173 0 0 0 0 0.087529152065329185 35.063218783723158 0 35.063218783723158 6.5087706626873114 0 0 0 0 -22.100336824112674 25.705685168231867 0 25.705685168231867 2.8518172027179389 0 0 0 0 -35.349496657485361 25.818125361314742 0 25.818125361314742 -2.2702404345873219 0 0 0 0 -58.554923698804487 -32.675667902421992 0 -32.675667902421992 -5.5513850670395186 0 0 0 0 -0.76514020110334968 -1.2713880612354842 0 -1.2713880612354842 17.46150739328732 0 0 0 0 -9.6463170716019455 2.8827466804606132 0 2.8827466804606132 -0.92402452219060649 0 0 0 0 4.3890008880598543 -14.95968110247486 0 -14.95968110247486 -0.023924317283672281 0 0 0 0 -12.546171833599146 0.72393475825811038 0 0.72393475825811038 13.172624551541958 0 0 0 0 -30.368572342291372 41.88933035122318 0 41.88933035122318 68.950047462749353 0 0 0 0 -9.3774864295264706 1.0031787485313544 0 1.0031787485313544 -2.9677580938623578 0 0 0 0 -10.779576841444396 2.3570500920768609 0 2.3570500920768609 -1.5806992185971467 0 0 0 0 -10.370834246108643 1.2078399902438832 0 1.2078399902438832 0.11577971339283977 0 0 0 0 -9.1853228072350248 0.30824786762241274 0 0.30824786762241274 -1.1291290596309409 0 0 0 0 -1.6827861099198884 1.4984130729338787 0 1.4984130729338787 1.3337600059813752 0 0 0 0 10.825469064732101 7.5365483946531242 0 7.5365483946531242 -1.7927788288007349 0 0 0 0 43.749889115535552 -6.8726929288131942 0 -6.8726929288131942 -58.621532376375399 0 0 0 0 188.80336573001841 37.36534399791708 0 37.36534399791708 21.307476513688016 0 0 0 0 2.0472641291922002 2.3747371793054697 0 2.3747371793054697 -1.1805393504949961 0 0 0 0 157.80039869205871 155.13127766098796 0 155.13127766098796 -37.845060021238169 0 0 0 0 151.520617758762 80.951864659072726 0 80.951864659072726 6.4642001040192554 0 0 0 0 46.921968046521215 70.280403223259782 0 70.280403223259782 53.644562567016692 0 0 0 0 273.72302150282121 73.527937998263951 0 73.527937998263951 -38.441725646720442 0 0 0 0 244.4756528955586 107.32019950395988 0 107.32019950395988 -27.100725900920224 0 0 0 0 254.17333018893623 16.52033846964332 0 16.52033846964332 -9.2819457222321944 0 0 0 0 273.47934812029416 66.020112707919907 0 66.020112707919907 -0.04159268884541234 0 0 0 0 -22.413583994868532 183.82379901704917 0 183.82379901704917 30.319780155474291 0 0 0 0 -251.13532488631608 62.023936765050166 0 62.023936765050166 103.59898061166314 0 0 0 0 0.065976488632436769 -0.048101398401840356 0 -0.048101398401840356 -2.1419886065754667 0 0 0 0 -145.2770176972117 246.11248144151796 0 246.11248144151796 -0.38843621059034372 0 0 0 0 -0.023856835924245701 -0.7647515993828975 0 -0.7647515993828975 -0.2555194128372591 0 0 0 0 -216.34906603884428 -92.78090842803249 0 -92.78090842803249 9.7140686228740378 0 0 0 0 -15.856206740409107 53.302658568976767 0 53.302658568976767 24.6752535493506 0 0 0 0 -4.649237305717179 16.344800353912433 0 16.344800353912433 -44.69273535553657 0 0 0 0 31.866634038207849 64.769539530490874 0 64.769539530490874 -19.768454826800735 0 0 0 0 33.538970312616584 92.493514118752501 0 92.493514118752501 -9.4608707269653678 0 0 0 0 0.062309374165137044 -0.52609113622352766 0 -0.52609113622352766 -0.17921358986163227 0 0 0 0 4.9776929857771393 55.671382915139475 0 55.671382915139475 1.4287089043718879 0 0 0 0 -138.0662909169514 31.780299175141408 0 31.780299175141408 -3.516878323018318 0 0 0 0 -146.43207883330615 14.310880427525262 0 14.310880427525262 13.790581426146673 0 0 0 0 -127.94614045031449 0.24197223427108838 0 0.24197223427108838 17.642023717729899 0 0 0 0 -105.38053169120758 48.891733079610276 0 48.891733079610276 -7.2572253816324519 0 0 0 0 -56.799933273203351 58.119737717297539 0 58.119737717297539 -8.8711292756070179 0 0 0 0 18.556526467014919 50.944892558378342 0 50.944892558378342 1.7107135209880653 0 0 0 0 26.47841553091348 2.4616163733671783 0 2.4616163733671783 3.1987586856121197 0 0 0 0 85.604288020424065 26.858523431874346 0 26.858523431874346 -40.339061709721364 0 0 0 0 47.585250792528313 65.506587805688469 0 65.506587805688469 7.5301926050669863 0 0 0 0 -8.7068777979420702 20.780525245278113 0 20.780525245278113 -16.510345731810958 0 0 0 0 6.2651841846582101 46.263951041513792 0 46.263951041513792 -26.737762451186427 0 0 0 0 112.80143852101355 45.541857189686198 0 45.541857189686198 -41.836801750927407 0 0 0 0 4.7946922506235481 3.3713871257096635 0 3.3713871257096635 2.3224198306371591 0 0 0 0 0.54270428401999027 1.7656972191565288 0 1.7656972191565288 1.1617053478650234 0 0 0 0 45.434371546194598 60.861913106702559 0 60.861913106702559 48.185573273789487 0 0 0 0 0.1645484367836616 12.413304056113702 0 12.413304056113702 -3.8121987939575774 0 0 0 0 -5.4016267698971205 9.2547425572811335 0 9.2547425572811335 -0.0096215153316734359 0 0 0 0 -1.873648722003054 7.656846024976403 0 7.656846024976403 -2.6722102339044795 0 0 0 0 1.0343623702128752 10.955432408639354 0 10.955432408639354 0.0032953388945315965 0 0 0 0 0.33761398611750337 11.544495830145024 0 11.544495830145024 0.45664513016890851 0 0 0 0 7.5474459964957532 5.7882659525903364 0 5.7882659525903364 0.28113318014948163 0 0 0 0 5.3956921962653723 10.614358842774891 0 10.614358842774891 -2.0054051249007898 0 0 0 0 15.10063320194422 11.907637812117173 0 11.907637812117173 -0.00017284681189828647 0 0 0 0 -110.68135350968078 12.660465759312501 0 12.660465759312501 3.9405041207937757 0 0 0 0 -109.8484382499505 20.687080037062515 0 20.687080037062515 -9.3033495359850349 0 0 0 0 -0.37471510005968156 2.304321868364184 0 2.304321868364184 -4.5004367150512792 0 0 0 0 -7.3227267298993866 2.0689085387475643 0 2.0689085387475643 5.4838478898309404 0 0 0 0 -83.365369306757202 36.566858830257843 0 36.566858830257843 -8.6993330797722592 0 0 0 0 -2.0470961395963343 1.6639769038326762 0 1.6639769038326762 0.98145616948902159 0 0 0 0 -112.65939404897699 23.305585182655705 0 23.305585182655705 -11.627757075948466 0 0 0 0 3.7131912594167176 5.2793300115469783 0 5.2793300115469783 1.4981958609317019 0 0 0 0 1.3897857262676894 5.6386257512980791 0 5.6386257512980791 3.8843526286535308 0 0 0 0 1.0226235685768188 6.8306707630435994 0 6.8306707630435994 1.8919530113635119 0 0 0 0 0.93243300594351197 7.3657135314852624 0 7.3657135314852624 -0.5668169560989611 0 0 0 0 -6.4559125780724571 13.004092586321349 0 13.004092586321349 -4.1764904904230207 0 0 0 0 -1.3481424038114369 5.243786864288893 0 5.243786864288893 3.8547518364560034 0 0 0 0 -9.8353485099432874 17.834867774945451 0 17.834867774945451 -0.94251787985558622 0 0 0 0 -10.093636805075221 18.731950484616391 0 18.731950484616391 14.637667052680627 0 0 0 0 1.9596357122308277 0.91959976208745609 0 0.91959976208745609 -0.77224009683899908 0 0 0 0 5.7267761616685675 11.683425457205885 0 11.683425457205885 -3.2414724109767121 0 0 0 0 1.2473952662694501 9.1960362113095471 0 9.1960362113095471 2.0152752638186939 0 0 0 0 -0.33723710210460922 13.666674199801491 0 13.666674199801491 -1.9851605097646825 0 0 0 0 134.75856855583334 -55.184075094548461 0 -55.184075094548461 40.611857146119291 0 0 0 0 7.5167536740319179 4.4802129354677689 0 4.4802129354677689 0.49458910218083929 0 0 0 0 1.2651345321018681 5.5881090371430986 0 5.5881090371430986 5.4065022003434109 0 0 0 0 -2.6012312857601501 16.661368423889144 0 16.661368423889144 -22.627293071906024 0 0 0 0 -6.7393287940139999 19.366315237803065 0 19.366315237803065 -13.571167171656271 0 0 0 0 153.6838221791877 -75.812500889391231 0 -75.812500889391231 39.139667671703819 0 0 0 0 209.06278305377782 -89.231138647992339 0 -89.231138647992339 39.660600960374722 0 0 0 0 153.03078191609529 -76.918188280524191 0 -76.918188280524191 38.627700811837713 0 0 0 0 137.4203010320598 -88.382993724484891 0 -88.382993724484891 65.295326110768656 0 0 0 0 222.41153940742879 -24.119116018345267 0 -24.119116018345267 -0.51759104705706704 0 0 0 0 329.84944999414074 -212.59446509072222 0 -212.59446509072222 131.04160393565326 0 0 0 0 -0.88749902246490819 58.498194917097862 0 58.498194917097862 17.313892542457324 0 0 0 0 -34.052541807628586 151.72043275109172 0 151.72043275109172 -113.19275999120873 0 0 0 0 10.943296455567179 33.110574387184897 0 33.110574387184897 -257.12811413443706 0 0 0 0 198.30372937999346 -104.37035759506944 0 -104.37035759506944 -1.5679990516000544 0 0 0 0 0.32947146522603532 0.049231788393925058 0 0.049231788393925058 -1.2364528203592613 0 0 0 0 197.64748385781422 -34.98682964038926 0 -34.98682964038926 12.451681904989528 0 0 0 0 185.66129350594565 -69.484437709958002 0 -69.484437709958002 -86.812651858592289 0 0 0 0 106.4149161520254 109.26982247587875 0 109.26982247587875 -145.46951332442404 0 0 0 0 215.9795683356715 -26.398651815172343 0 -26.398651815172343 12.506031287084625 0 0 0 0 -9.647319811187117 16.544493916178908 0 16.544493916178908 -1.572426588871167 0 0 0 0 272.5289706941021 37.212508106067617 0 37.212508106067617 -66.635780375196191 0 0 0 0 27.482403650770721 -4.882624436471815 0 -4.882624436471815 15.08590347946074 0 0 0 0 4.5237211647520184 0.34920446068370836 0 0.34920446068370836 0.78203773185873615 0 0 0 0 6.108515769632433 12.3052586570677 0 12.3052586570677 -3.8297912897219248 0 0 0 0 124.31853555371526 -47.351810603948252 0 -47.351810603948252 18.01319285750651 0 0 0 0 6.378707925808115 9.4235455236764025 0 9.4235455236764025 -1.1876137952464205 0 0 0 0 -4.5567140017119527 14.633808517912257 0 14.633808517912257 -5.2927177200617734 0 0 0 0 5.0070308026492469 7.1003773752828998 0 7.1003773752828998 5.6623517753858295 0 0 0 0 -36.786995425991336 20.678851695487538 0 20.678851695487538 18.021415647799586 0 0 0 0 -5.9872977482009446 12.447241445684995 0 12.447241445684995 -1.7040853326689103 0 0 0 0 -9.0657379007125201 14.603262633815575 0 14.603262633815575 0.22563527301099384 0 0 0 0 -4.2303525556289969 19.231858473285683 0 19.231858473285683 -6.1213553617490106 0 0 0 0 1.6700004082886153 14.891377263280447 0 14.891377263280447 -12.607178229693091 0 0 0 0 -18.244535136516788 13.270539208890114 0 13.270539208890114 -5.9810605262609897 0 0 0 0 5.5481687760349274 12.418834079601776 0 12.418834079601776 -4.9621859055287985 0 0 0 0 -23.503043135860935 15.850327565036423 0 15.850327565036423 -3.7868246970901964 0 0 0 0 -7.9522576451858527 1.850445270838815 0 1.850445270838815 -2.5350306841723409 0 0 0 0 -0.18172097566639422 12.689503960911679 0 12.689503960911679 -13.487704171595396 0 0 0 0 -13.858991341148794 -3.6901379949886177 0 -3.6901379949886177 -11.073895575391361 0 0 0 0 23.643521700865676 12.185723831637006 0 12.185723831637006 -22.409698630770436 0 0 0 0 81.1520447948933 -0.1174176510739926 0 -0.1174176510739926 -21.484264085178438 0 0 0 0 -102.79128367010071 62.963433710528079 0 62.963433710528079 -72.856586670735851 0 0 0 0 -108.61223018828241 23.412093705548614 0 23.412093705548614 -3.3250299656938296 0 0 0 0 -1.0088264920399972 1.2010928299719943 0 1.2010928299719943 -1.5788081092119626 0 0 0 0 37.85358816723965 31.359327948845021 0 31.359327948845021 26.40420635722694 0 0 0 0 5.1826187018253815 11.44952006369008 0 11.44952006369008 -4.222749304178592 0 0 0 0 36.386360667955159 12.378416361978452 0 12.378416361978452 -20.303519009816227 0 0 0 0 6.469950739035994 -6.7041196292593668 0 -6.7041196292593668 -22.991057892650133 0 0 0 0 27.353282010402836 36.041282034578217 0 36.041282034578217 12.429772290051915 0 0 0 0 35.915263558286824 50.394872011667758 0 50.394872011667758 67.087976091592282 0 0 0 0 71.612776247049624 0.99637262940814253 0 0.99637262940814253 -2.7125631543894997 0 0 0 0 52.767705398644466 -6.1158501867330415 0 -6.1158501867330415 -9.8894738905510167 0 0 0 0 50.171510321335518 33.727334748473368 0 33.727334748473368 -27.43982590943051 0 0 0 0 79.53665891880155 21.608082119294522 0 21.608082119294522 -35.249087201496877 0 0 0 0 96.835483257669694 3.4920246406654769 0 3.4920246406654769 -24.075801696431881 0 0 0 0 68.108785754840937 25.164217960671522 0 25.164217960671522 -27.243107875114219 0 0 0 0 74.309767618004116 -9.216741779971926 0 -9.216741779971926 5.1242647408580524 0 0 0 0 57.405248690416556 -13.247909563127905 0 -13.247909563127905 4.1933796253142646 0 0 0 0 203.45763688889565 30.098792905027949 0 30.098792905027949 -29.513730407270486 0 0 0 0 111.03430278674205 -48.291749304989935 0 -48.291749304989935 8.7358228301281997 0 0 0 0 107.34398563892319 103.64304027164326 0 103.64304027164326 14.429217991441988 0 0 0 0 41.363164889502514 57.170055555827275 0 57.170055555827275 -2.3242372342356248 0 0 0 0 89.830096941982447 75.303081882460901 0 75.303081882460901 -20.989094696720713 0 0 0 0 27.098869288816786 43.940635080754873 0 43.940635080754873 -36.315519278345164 0 0 0 0 38.390233621175867 81.877773424035695 0 81.877773424035695 -75.165605229494759 0 0 0 0 0.094326033082325011 82.639495408377115 0 82.639495408377115 -7.3580858203276875 0 0 0 0 -0.73703967287951855 62.807223423224173 0 62.807223423224173 1.7793871566536836 0 0 0 0 21.584092231918476 81.813320104392915 0 81.813320104392915 17.37159125037762 0 0 0 0 22.33865871433045 11.159159275128332 0 11.159159275128332 -11.139965371276048 0 0 0 0 -1.6747962073526601 4.4488428047566373 0 4.4488428047566373 -1.2891946992245664 0 0 0 0 -12.637265298571947 16.171097006741547 0 16.171097006741547 -10.59093202042277 0 0 0 0 -25.966130161537876 22.088794112423784 0 22.088794112423784 16.052158271071676 0 0 0 0 103.93073696163719 9.7135388572605734 0 9.7135388572605734 -11.520361212442367 0 0 0 0 -0.1854954466588552 0.055664409763863887 0 0.055664409763863887 1.716001961417561 0 0 0 0 2.2733348525071051 100.5351412979071 0 100.5351412979071 41.404493028598154 0 0 0 0 12.953460993241606 97.429129441608893 0 97.429129441608893 -88.991414239313599 0 0 0 0 -0.57168131018715229 0.36135057058933739 0 0.36135057058933739 0.93766454316047998 0 0 0 0 -59.574184762725054 30.527265547738352 0 30.527265547738352 -2.3769535618412192 0 0 0 0 8.0987712749320053 -26.500918610732697 0 -26.500918610732697 33.281290402966988 0 0 0 0 11.436984726538789 10.675780065590558 0 10.675780065590558 11.077326916395279 0 0 0 0 -33.936276368054678 74.127126625899109 0 74.127126625899109 46.662333348939228 0 0 0 0 45.86834844389341 25.45507362833996 0 25.45507362833996 -33.806615839501319 0 0 0 0 3.4017386334307957 27.13559745969178 0 27.13559745969178 -14.790995158524311 0 0 0 0 24.082037757551007 29.647653635340248 0 29.647653635340248 -14.521271270005855 0 0 0 0 -1.0540304762762389 23.116821985553543 0 23.116821985553543 16.77792172160116 0 0 0 0 18.269249828956163 15.351226238690288 0 15.351226238690288 -9.20892703878053 0 0 0 0 24.741527599362598 44.850405567704001 0 44.850405567704001 31.662631589882949 0 0 0 0 27.972882898815442 21.883566234828322 0 21.883566234828322 56.365403175892425 0 0 0 0 41.973128158133477 23.797722168266773 0 23.797722168266773 20.077062581563951 0 0 0 0 13.50849799364574 17.284169908090472 0 17.284169908090472 12.790421507368961 0 0 0 0 -5.9997650258103477 44.913730071065856 0 44.913730071065856 11.228733743628254 0 0 0 0 12.248515497776907 25.326471076165831 0 25.326471076165831 -10.313983194573666 0 0 0 0 10.953931582029327 45.874560993019259 0 45.874560993019259 -37.825173615383392 0 0 0 0 2.1379740417958644 13.449427693555819 0 13.449427693555819 -13.425519127322545 0 0 0 0 18.718725537195496 16.746660419135878 0 16.746660419135878 -19.501424354384653 0 0 0 0 18.874882903750404 11.288141509834531 0 11.288141509834531 -17.881288726566709 0 0 0 0 12.82338091163183 19.264267702365032 0 19.264267702365032 -20.115836327064244 0 0 0 0 10.774921386966525 35.755298649979522 0 35.755298649979522 1.2701135484530823 0 0 0 0 3.2386637995883163 12.023277622831415 0 12.023277622831415 -15.297612213538685 0 0 0 0 13.126500192676758 13.092391018159105 0 13.092391018159105 -17.510964272379169 0 0 0 0 11.312241018560599 12.553200677262794 0 12.553200677262794 -6.2303612194573361 0 0 0 0 14.808350594681542 26.369443244664581 0 26.369443244664581 -10.217618395836325 0 0 0 0 2.2260016479813842 3.1265096104339278 0 3.1265096104339278 4.0712307046361627 0 0 0 0 15.756197712260473 16.425012186900858 0 16.425012186900858 -22.823784004853223 0 0 0 0 -5.7391343129893357 6.43610419385368 0 6.43610419385368 -21.22367329951544 0 0 0 0 9.5676738140591624 30.973238566377404 0 30.973238566377404 35.309756298367574 0 0 0 0 8.4325346826095782 16.651716085976528 0 16.651716085976528 15.784884861090632 0 0 0 0 -18.095669865673699 23.618021318065075 0 23.618021318065075 20.114173693273187 0 0 0 0 -43.431578972926218 69.090250327366448 0 69.090250327366448 56.746328594599618 0 0 0 0 1.1601897715227878 3.0897399505221088 0 3.0897399505221088 3.2014500135676833 0 0 0 0 -23.82435067231927 49.426867253147066 0 49.426867253147066 2.6167888183717878 0 0 0 0 -1.8698236881596131 -23.437302929719408 0 -23.437302929719408 135.31855710890522 0 0 0 0 -11.116084938767017 55.383826866436721 0 55.383826866436721 -7.6301498740722309 0 0 0 0 89.137844369761297 -11.261511051077832 0 -11.261511051077832 -5.4250140273798024 0 0 0 0 82.635562555195065 70.858777378645755 0 70.858777378645755 -13.851680792238767 0 0 0 0 5.724987079785933 15.414961466281966 0 15.414961466281966 -10.270311735433381 0 0 0 0 25.305981223864364 33.289371405131533 0 33.289371405131533 -9.257331174427236 0 0 0 0 4.8369725792963436 11.990763082158082 0 11.990763082158082 -1.0442450029222528 0 0 0 0 3.6975734107891114 16.294175159868978 0 16.294175159868978 -0.53997120617539429 0 0 0 0 6.6313359329307744 9.698713825459059 0 9.698713825459059 -4.4953345681635142 0 0 0 0 -3.8147206618092326 11.987184665518242 0 11.987184665518242 3.1857157149316464 0 0 0 0 -2.8147337505433825 14.387095368198061 0 14.387095368198061 7.3202378989553836 0 0 0 0 3.1132958887371984 1.5205404975451415 0 1.5205404975451415 -3.8189493336417248 0 0 0 0 3.2457257528767514 27.73280179545327 0 27.73280179545327 27.31269472270651 0 0 0 0 50.172650507647631 17.097453815757035 0 17.097453815757035 -92.494392631982919 0 0 0 0 0.20915258313470986 29.184296983643435 0 29.184296983643435 -21.283060763798403 0 0 0 0 1.0221820224827667 -1.2332263894793698 0 -1.2332263894793698 0.072740407312444688 0 0 0 0 -0.04259162443850073 20.523628516883036 0 20.523628516883036 140.86724974461686 0 0 0 0 31.093474030931247 -1.9289097406362998 0 -1.9289097406362998 56.212541956920177 0 0 0 0 19.509845327414951 2.9985686879517743 0 2.9985686879517743 -53.614298210246488 0 0 0 0 -6.2490253674914129 22.68465321644544 0 22.68465321644544 -1.2208071354471031 0 0 0 0 -4.459068214862782 13.92913665465494 0 13.92913665465494 -10.778980596151087 0 0 0 0 -36.148695262294495 51.57334634777726 0 51.57334634777726 -8.0143267040803039 0 0 0 0 -3.147013247450154 15.377700598339374 0 15.377700598339374 -9.6039146268052491 0 0 0 0 16.220658688065228 16.794688327482913 0 16.794688327482913 6.7932587843089394 0 0 0 0 -67.553638635286006 -45.967776090805273 0 -45.967776090805273 68.454182751462213 0 0 0 0 6.5114228496131545 37.93716838761793 0 37.93716838761793 -13.461110820989234 0 0 0 0 10.117744952869543 30.294171805744554 0 30.294171805744554 -10.531844583292695 0 0 0 0 20.181561086901638 27.932827706468743 0 27.932827706468743 -17.494987598032822 0 0 0 0 11.894559681593819 32.929418888383225 0 32.929418888383225 -9.7652454512572149 0 0 0 0 80.458106970436347 67.091841174908041 0 67.091841174908041 27.046460598041449 0 0 0 0 15.804602384956524 37.652965722259978 0 37.652965722259978 -30.50802676661624 0 0 0 0 25.91811535768656 14.298915269247455 0 14.298915269247455 1.7920762644404427 0 0 0 0 19.233557550813202 21.899500551200617 0 21.899500551200617 -47.85861702303373 0 0 0 0 -17.33526809292016 69.542085676730494 0 69.542085676730494 -12.17609331422409 0 0 0 0 19.51714608116707 9.3630402781927771 0 9.3630402781927771 4.3975533104364857 0 0 0 0 17.2946274701535 66.490471065479142 0 66.490471065479142 -81.169073816035961 0 0 0 0 46.576836744614411 -4.1386202766407223 0 -4.1386202766407223 -102.96013122889053 0 0 0 0 55.780307686045489 67.433715059682072 0 67.433715059682072 -117.34677707035553 0 0 0 0 0.95459753311224915 1.1481690869702277 0 1.1481690869702277 0.68788803407250754 0 0 0 0 -62.07809158226155 88.442307382983017 0 88.442307382983017 56.592373341387429 0 0 0 0 -112.09013501762456 8.5392107625939389 0 8.5392107625939389 50.18326332786819 0 0 0 0 117.27519760571158 94.042707076783699 0 94.042707076783699 -123.13929087669385 0 0 0 0 18.547959420376884 16.164520473641474 0 16.164520473641474 11.415864027848748 0 0 0 0 -8.3684291843874234 16.087215024592297 0 16.087215024592297 13.571332649644319 0 0 0 0 -74.475756380642906 264.61636471144823 0 264.61636471144823 -306.32380746111085 0 0 0 0 -87.203255039989017 148.68643413603786 0 148.68643413603786 -138.39660912201361 0 0 0 0 -4.2155498465856454 196.12180839132168 0 196.12180839132168 -234.66383509613297 0 0 0 0 -25.782357077560619 21.457971603038004 0 21.457971603038004 -23.871114935809601 0 0 0 0 32.338334814925986 27.368399349465182 0 27.368399349465182 18.488987585760682 0 0 0 0 -34.79794331586163 168.40082015943699 0 168.40082015943699 -132.7201360375384 0 0 0 0 -85.894457079863059 159.09382062014993 0 159.09382062014993 -80.595927017840495 0 0 0 0 4.8931470919924323 20.02572107782089 0 20.02572107782089 30.927483405765088 0 0 0 0 52.499969385222357 34.029991818495546 0 34.029991818495546 -75.984712762980962 0 0 0 0 53.314093940172825 41.697873036366218 0 41.697873036366218 -67.652268063277006 0 0 0 0 23.870483018030427 20.444760089921147 0 20.444760089921147 -24.457758590608137 0 0 0 0 29.053716696893957 29.719072801676582 0 29.719072801676582 18.618650128531513 0 0 0 0 49.584227624050982 20.8439731479084 0 20.8439731479084 119.0243995890778 0 0 0 0 -89.779007722361712 165.66735387817607 0 165.66735387817607 176.94503531271675 0 0 0 0 33.863642988817446 43.552567128386727 0 43.552567128386727 -27.667111344554542 0 0 0 0 12.652271829545613 17.17543232020887 0 17.17543232020887 -9.5476208175363411 0 0 0 0 22.519231703419791 51.445395524009655 0 51.445395524009655 99.38236361725285 0 0 0 0 187.81838539425371 239.23524543889653 0 239.23524543889653 1.3867530057323165 0 0 0 0 52.907559092036536 34.389919626020856 0 34.389919626020856 -64.976611912221415 0 0 0 0 21.766478331293911 14.435989335455815 0 14.435989335455815 -4.2243114801385673 0 0 0 0 16.20725734434447 24.863202197968498 0 24.863202197968498 0.54729267233533108 0 0 0 0 78.131132659051218 41.140796243245859 0 41.140796243245859 -2.5597652431933966 0 0 0 0 6.6272148859726769 23.272353552516265 0 23.272353552516265 -4.3939574044650698 0 0 0 0 10.049641237678971 27.25222523376496 0 27.25222523376496 7.7779681168021568 0 0 0 0 9.1199878030020045 26.727681417429267 0 26.727681417429267 -3.9507810690083716 0 0 0 0 19.73654826413258 83.742363104702235 0 83.742363104702235 35.565586644479481 0 0 0 0 6.6787469700747373 14.293334141163509 0 14.293334141163509 -5.8744605373921388 0 0 0 0 8.7707340303795718 13.989121602984142 0 13.989121602984142 -5.9145075977576198 0 0 0 0 -3.953898766774941 10.472712443259184 0 10.472712443259184 -2.6903143265708067 0 0 0 0 33.178672168112826 122.0688068365198 0 122.0688068365198 11.202406763310137 0 0 0 0 6.4143174952270385 1.4215687597074904 0 1.4215687597074904 -17.94492667637752 0 0 0 0 -122.20985198800918 80.441855659912108 0 80.441855659912108 -163.86313929764765 0 0 0 0 -288.01738700594433 284.57812233722507 0 284.57812233722507 -210.3105154200166 0 0 0 0 8.3675205770660739 6.5097556151929155 0 6.5097556151929155 -4.4247417525786013 0 0 0 0 -234.10975668081664 259.57725408657279 0 259.57725408657279 -224.13286978788528 0 0 0 0 -277.99071769695001 464.73990794456404 0 464.73990794456404 -442.59173175699834 0 0 0 0 151.96196110441815 192.58215732198732 0 192.58215732198732 -785.72725794914732 0 0 0 0 -133.88568552272773 327.9077853402232 0 327.9077853402232 -312.66547224691749 0 0 0 0 -108.69845405576052 406.24545982907875 0 406.24545982907875 -362.79924294193552 0 0 0 0 -391.66491302892973 244.45549295047385 0 244.45549295047385 -442.50047868954425 0 0 0 0 -158.16737440190627 415.91530137755035 0 415.91530137755035 -665.85251520262318 0 0 0 0 -211.9848242538319 312.08223028501379 0 312.08223028501379 -232.52189157705288 0 0 0 0 -66.370702903004712 106.8053224819887 0 106.8053224819887 6.9204373262982699 0 0 0 0 -117.37169006379554 117.47250607144815 0 117.47250607144815 15.755125749368744 0 0 0 0 -661.35188493132591 522.89997471519746 0 522.89997471519746 115.36009362373443 0 0 0 0 -0.73747220290763948 1.0763348112499784 0 1.0763348112499784 -0.33900422459946356 0 0 0 0 -72.826746798935346 -30.700533535899012 0 -30.700533535899012 -16.299415337503888 0 0 0 0 -0.064375074021981504 0.68460418291850544 0 0.68460418291850544 0.11146185396779629 0 0 0 0 -10.686703304760158 144.97189253216493 0 144.97189253216493 -19.682533120838343 0 0 0 0 28.869084881385788 39.41518750229443 0 39.41518750229443 257.49558259176774 0 0 0 0 19.849642920547012 80.967391473829139 0 80.967391473829139 -60.7818207386008 0 0 0 0 -69.805026398622431 155.77125705855724 0 155.77125705855724 -12.901177233390626 0 0 0 0 -96.690776919655036 151.40687646713923 0 151.40687646713923 -85.809438855525514 0 0 0 0 -110.61639928397244 274.46314617026587 0 274.46314617026587 -245.26931760993466 0 0 0 0 -125.16840805647371 242.69318352178379 0 242.69318352178379 -272.60495812261797 0 0 0 0 -146.49625782761177 341.61807469821451 0 341.61807469821451 -222.02057528515434 0 0 0 0 -82.936630798401893 308.81000319091982 0 308.81000319091982 -457.24647059286508 0 0 0 0 -110.18889852417487 252.66977918563316 0 252.66977918563316 -371.24069791334114 0 0 0 0 -97.64386754273437 241.51011054353512 0 241.51011054353512 -424.13802494108677 0 0 0 0 -87.095963952016973 320.44629456050097 0 320.44629456050097 -357.1716962240389 0 0 0 0 -145.40207455562631 275.0112305762832 0 275.0112305762832 -385.37246263666202 0 0 0 0 -180.88980692244058 361.75164349462148 0 361.75164349462148 -398.53856140581775 0 0 0 0 -117.3535932753307 303.26556470419678 0 303.26556470419678 -401.64177190046394 0 0 0 0 -98.076566901534534 275.65171511953122 0 275.65171511953122 -265.53523570026482 0 0 0 0 -150.14322574721882 254.12124211823902 0 254.12124211823902 -206.75512998651175 0 0 0 0 -241.7470890085915 231.23728764718908 0 231.23728764718908 -212.25101583361538 0 0 0 0 1.9849373906876622 2.1628352743249177 0 2.1628352743249177 1.0174255842991329 0 0 0 0 -202.78515481529212 299.94726190584424 0 299.94726190584424 -212.54257827523543 0 0 0 0 117.17596744104594 193.26364668242604 0 193.26364668242604 -371.43564827374576 0 0 0 0 -80.880965208089037 354.41086097119842 0 354.41086097119842 -217.12427636193513 0 0 0 0 -207.17963513450741 261.70352883677151 0 261.70352883677151 -160.67877603165653 0 0 0 0 -56.317057259804642 490.03496771635901 0 490.03496771635901 -329.93083444223521 0 0 0 0 -313.56426039853977 400.95503706027375 0 400.95503706027375 -265.66419580904039 0 0 0 0 -281.6734378026631 429.01998035192446 0 429.01998035192446 -316.89341447349034 0 0 0 0 -289.08877904102519 338.92113912060267 0 338.92113912060267 -120.50137040159461 0 0 0 0 -1054.0535588086859 523.96302589672814 0 523.96302589672814 -161.34756794083978 0 0 0 0 -268.78757123564401 552.286507203979 0 552.286507203979 -778.55879144302526 0 0 0 0 -465.37802125038797 49.143217453545731 0 49.143217453545731 -543.59012868897662 0 0 0 0 -120.67932319920874 95.823541429794204 0 95.823541429794204 -298.3950718836677 0 0 0 0 -125.14355421633218 276.21698232028177 0 276.21698232028177 -395.20403125656412 0 0 0 0 -88.191151122187421 74.850401565774405 0 74.850401565774405 -392.37204138498419 0 0 0 0 89.237134843609965 221.82009250300416 0 221.82009250300416 -507.99975220292072 0 0 0 0 3.4912855767293536 5.0309986473534156 0 5.0309986473534156 3.8250084625544858 0 0 0 0 -48.954225301531551 50.241802001728502 0 50.241802001728502 -4.8230581854895718 0 0 0 0 -49.926521460118238 40.470768571040026 0 40.470768571040026 -90.153253282647711 0 0 0 0 -142.70937681047508 38.918262480767225 0 38.918262480767225 16.318036808863326 0 0 0 0 -99.229143256205134 260.97537728302268 0 260.97537728302268 -302.32885107283073 0 0 0 0 -122.4011943401274 113.53009543611915 0 113.53009543611915 -129.44990822086493 0 0 0 0 7.7606149291003703 8.280604589605538 0 8.280604589605538 5.8311514274468834 0 0 0 0 -97.724213361214424 291.76341665382643 0 291.76341665382643 -205.41648245268152 0 0 0 0 8.6715639833419118 103.59642922041348 0 103.59642922041348 -55.08013885109176 0 0 0 0 38.822512533544796 230.96845971477887 0 230.96845971477887 -302.99400178743963 0 0 0 0 -203.62674811397301 305.32029473339571 0 305.32029473339571 -206.13190169881071 0 0 0 0 -50.823160904365068 193.43873297384653 0 193.43873297384653 -207.27505323795049 0 0 0 0 -357.94358334181743 144.47253246162109 0 144.47253246162109 -23.036153063341771 0 0 0 0 -90.385205810451225 -72.11087080721245 0 -72.11087080721245 95.419749722968845 0 0 0 0 -273.52245143697655 162.45684036530292 0 162.45684036530292 44.884579595076502 0 0 0 0 28.942501598427043 86.851574297328625 0 86.851574297328625 -146.3417737955242 0 0 0 0 -117.06919848100188 -171.00301705233232 0 -171.00301705233232 392.41363978098889 0 0 0 0 14.139003821606437 6.4316323264745989 0 6.4316323264745989 2.7270103222562625 0 0 0 0 -60.181047077834592 179.16170478933873 0 179.16170478933873 85.789458380444557 0 0 0 0 112.6616015336549 -30.316121857506005 0 -30.316121857506005 87.336306428465377 0 0 0 0 -73.917833755192987 -10.790198882052209 0 -10.790198882052209 272.06438936531777 0 0 0 0 28.779286176311871 34.858646209247127 0 34.858646209247127 -30.072893215361546 0 0 0 0 -11.188951740416087 99.197449788744052 0 99.197449788744052 24.958448543224222 0 0 0 0 292.01059682346477 -92.238587861314045 0 -92.238587861314045 -256.5727213837672 0 0 0 0 -0.92163882829845178 -0.2887153524073085 0 -0.2887153524073085 -6.1724992572994495 0 0 0 0 147.11426930257949 303.63300739893384 0 303.63300739893384 -961.59500467027829 0 0 0 0 119.04868223512312 147.8271181977052 0 147.8271181977052 -329.6347626806255 0 0 0 0 -16.82011509714448 216.67997067714259 0 216.67997067714259 -200.17045689666702 0 0 0 0 85.698765548670053 298.37493178395562 0 298.37493178395562 -643.53409790585283 0 0 0 0 43.663625213805062 454.98848878533681 0 454.98848878533681 -667.74018574267666 0 0 0 0 -49.274610545802716 465.23031454787088 0 465.23031454787088 -575.95132887655564 0 0 0 0 -192.76835710232626 616.03843670463721 0 616.03843670463721 -649.54288379637728 0 0 0 0 47.353023884606955 247.89551307007241 0 247.89551307007241 -536.77629466939288 0 0 0 0 29.469731293975201 324.32532029891991 0 324.32532029891991 -489.11811566684628 0 0 0 0 151.42788858283893 206.97484467879622 0 206.97484467879622 -597.17801846500515 0 0 0 0 -57.828003923023061 749.06006718363824 0 749.06006718363824 -1309.500662159975 0 0 0 0 237.02539023262943 396.04689630236862 0 396.04689630236862 -1101.9080843677948 0 0 0 0 -421.98788487543061 764.77901997783192 0 764.77901997783192 -841.88526624855876 0 0 0 0 76.22956079929827 353.49052312750064 0 353.49052312750064 -819.27826695785188 0 0 0 0 -54.637921477551572 510.57681443037654 0 510.57681443037654 -648.23160728524272 0 0 0 0 -444.89080557363923 447.47392778431822 0 447.47392778431822 -349.45418033529131 0 0 0 0 -61.667397862889629 543.38991995657852 0 543.38991995657852 -706.34719710074205 0 0 0 0 -267.05989807484002 409.58461207418077 0 409.58461207418077 -363.69846456069354 0 0 0 0 59.062952371938081 410.75463324343582 0 410.75463324343582 -577.80332381751941 0 0 0 0 -81.052664647664642 430.31657231161807 0 430.31657231161807 -547.38089422915073 0 0 0 0 -496.8874640290378 68.837044591025915 0 68.837044591025915 -64.097709847264923 0 0 0 0 -601.6192280563846 621.5122290049585 0 621.5122290049585 -541.42251720743661 0 0 0 0 -851.78311873482016 54.379171306485659 0 54.379171306485659 -363.84477960661388 0 0 0 0 -418.9420974703462 242.65309263668314 0 242.65309263668314 -284.69286438600102 0 0 0 0 -764.3718417299242 236.88218144140228 0 236.88218144140228 -483.62892817738611 0 0 0 0 -464.65052176182871 1036.8017781806593 0 1036.8017781806593 -1763.7702512559918 0 0 0 0 -1363.16680572318 -284.98920377860486 0 -284.98920377860486 -886.57558139650791 0 0 0 0 -434.64250570840477 533.65293699213953 0 533.65293699213953 -622.80573653467582 0 0 0 0 -1542.0766588657716 975.27048383638612 0 975.27048383638612 -783.40024280624493 0 0 0 0 -315.56960581480962 -54.058885505761282 0 -54.058885505761282 -910.90689513760663 0 0 0 0 -91.214811472222209 653.7375989295615 0 653.7375989295615 -943.15195638424655 0 0 0 0 2.7032300067201334 1.3780602735241256 0 1.3780602735241256 -2.1508046761556798 0 0 0 0 501.52140215021609 21.634795475541068 0 21.634795475541068 -432.20204293280767 0 0 0 0 -356.31667614740581 250.15894485337412 0 250.15894485337412 -320.60322874331814 0 0 0 0 -150.34692595564411 -281.41079021535916 0 -281.41079021535916 343.27910327678364 0 0 0 0 -136.51687580010184 238.7733536412652 0 238.7733536412652 58.311611040029675 0 0 0 0 -543.27983527807191 -72.023168699243797 0 -72.023168699243797 -106.12353541301127 0 0 0 0 -100.942405639551 235.7184813301501 0 235.7184813301501 -618.42410680987814 0 0 0 0 -240.14853667742864 35.373939280514605 0 35.373939280514605 -77.040826536569512 0 0 0 0 -165.76071266778854 -201.23989287871973 0 -201.23989287871973 113.62410561228899 0 0 0 0 -119.13383933607838 -193.47383075199832 0 -193.47383075199832 99.731281738910184 0 0 0 0 87.208641577686649 -202.41029147789232 0 -202.41029147789232 100.11803824984486 0 0 0 0 275.91205927715782 -412.59835046340959 0 -412.59835046340959 151.13508925401402 0 0 0 0 669.68483204067161 -89.574286664219471 0 -89.574286664219471 9.6096706840835395 0 0 0 0 99.054597477566858 -179.90436216042144 0 -179.90436216042144 12.117245127436036 0 0 0 0 38.561498077666329 56.147539033241628 0 56.147539033241628 -190.21462054596304 0 0 0 0 25.134370114623032 18.849874336774008 0 18.849874336774008 11.75579738073376 0 0 0 0 10.510523167556201 3.8000110970917689 0 3.8000110970917689 1.2416932001805847 0 0 0 0 0.28956281957653118 -9.0423134195625607 0 -9.0423134195625607 -81.503499495707501 0 0 0 0 176.43455029499091 -177.93857317295715 0 -177.93857317295715 -4.7360638323916646 0 0 0 0 -65.350038175973168 69.925791982666851 0 69.925791982666851 -77.336485110942704 0 0 0 0 77.967625498436973 -5.8928951918205712 0 -5.8928951918205712 -176.9962523546983 0 0 0 0 -137.77682665202519 17.187140930778696 0 17.187140930778696 237.11229027111949 0 0 0 0 -52.63604919937643 101.39088001908567 0 101.39088001908567 -5.0047137227775238 0 0 0 0 268.74745797210562 138.16677052892555 0 138.16677052892555 -82.869860686885659 0 0 0 0 30.796067234455151 20.735008230989095 0 20.735008230989095 13.202792365135906 0 0 0 0 85.118667086731875 146.52396711691108 0 146.52396711691108 -63.931018407274678 0 0 0 0 -12.307281625280211 56.620156012130565 0 56.620156012130565 24.348274516698439 0 0 0 0 -10.029359436044729 99.208112854436649 0 99.208112854436649 18.481339057369041 0 0 0 0 -103.78964076930424 7.1092625789751764 0 7.1092625789751764 -11.736028407388403 0 0 0 0 -2.4671686127221619 59.983092008987114 0 59.983092008987114 -204.30666606356499 0 0 0 0 4.2248356519045274 1.6213183153625792 0 1.6213183153625792 0.40114337639697339 0 0 0 0 39.802427544262173 161.37800003541815 0 161.37800003541815 79.782272833952447 0 0 0 0 56.54936481564755 219.953103317667 0 219.953103317667 181.78894634370954 0 0 0 0 -2.492849096423015 91.075172388264036 0 91.075172388264036 176.62893099998621 0 0 0 0 160.07774380981573 124.75620030793289 0 124.75620030793289 90.889917815686204 0 0 0 0 387.10613214378827 90.597902662910201 0 90.597902662910201 -407.36262610494668 0 0 0 0 -415.23049153437023 -15.793430964688014 0 -15.793430964688014 375.81185620360702 0 0 0 0 197.08955222758095 -71.144247663675969 0 -71.144247663675969 16.179588559556578 0 0 0 0 18.958355296368126 1.033690378578342 0 1.033690378578342 0.89696610652465125 0 0 0 0 -30.792045703194162 -19.001473477004765 0 -19.001473477004765 4.3444079704095202 0 0 0 0 248.54494943115787 2.0758556741957364 0 2.0758556741957364 -264.89140032729483 0 0 0 0 134.47297344743856 27.904448022089127 0 27.904448022089127 -66.47816355847317 0 0 0 0 -26.013975349567772 11.130231615130469 0 11.130231615130469 27.966492786261369 0 0 0 0 6.5407812589305507 1.1457774273941226 0 1.1457774273941226 0.27429648211643354 0 0 0 0 120.64346201901026 185.41393178646831 0 185.41393178646831 247.00609121828893 0 0 0 0 144.10301768972204 -273.45865723590032 0 -273.45865723590032 58.302722272389929 0 0 0 0 69.254300120199332 -120.13046846272846 0 -120.13046846272846 -242.39680111571579 0 0 0 0 313.74559722181584 -117.03618155981349 0 -117.03618155981349 -264.66561524363624 0 0 0 0 269.69918830240204 183.59611068819322 0 183.59611068819322 -111.53553813272356 0 0 0 0 46.47390992385408 108.62457315909342 0 108.62457315909342 -189.20417298691609 0 0 0 0 -39.01429213648953 37.965245368355681 0 37.965245368355681 -161.50123362707745 0 0 0 0 10.948945820451375 45.738217031031013 0 45.738217031031013 -101.62979676830435 0 0 0 0 -2.4651735507295598 69.824476585143202 0 69.824476585143202 -145.12030938073895 0 0 0 0 -10.393484007836378 71.159712810474048 0 71.159712810474048 -103.42678196017187 0 0 0 0 0.20185328669685987 52.448483041694999 0 52.448483041694999 -47.379995276462068 0 0 0 0 -14.605062989106955 45.209341042114829 0 45.209341042114829 -62.646050120693872 0 0 0 0 8.0682250276126339 33.59560322801277 0 33.59560322801277 -33.563581891949639 0 0 0 0 24.148985387320167 17.17352901910683 0 17.17352901910683 -19.37270070136627 0 0 0 0 -42.565658855794709 53.581273443698819 0 53.581273443698819 -61.482474524007557 0 0 0 0 16.75918072206218 24.151696471514395 0 24.151696471514395 16.256533740342757 0 0 0 0 -20.292465426065974 99.636221624307382 0 99.636221624307382 -138.34554496278724 0 0 0 0 -26.902261950508546 75.196764055017411 0 75.196764055017411 -102.35326599526002 0 0 0 0 -10.986349846954568 41.196177094725286 0 41.196177094725286 2.7279990788694013 0 0 0 0 3.2988839665947793 22.078564653791048 0 22.078564653791048 4.6725676919616816 0 0 0 0 -4.0800303611031268 54.689588222270686 0 54.689588222270686 -48.377530985681915 0 0 0 0 20.157508886987053 15.089227120282697 0 15.089227120282697 -5.2273823959594949 0 0 0 0 9.3086182561528403 57.395595850381142 0 57.395595850381142 -48.294645579819189 0 0 0 0 4.799794589373505 40.301615857617435 0 40.301615857617435 -8.3809847766206076 0 0 0 0 8.8956152559322561 22.959515746571846 0 22.959515746571846 16.187832734081191 0 0 0 0 16.718318429036877 21.147494843743903 0 21.147494843743903 -24.942466030006827 0 0 0 0 6.4131030400349118 45.733022368516686 0 45.733022368516686 -15.028627013667574 0 0 0 0 7.1959961843791689 41.506696826131702 0 41.506696826131702 -20.009944538938726 0 0 0 0 2.4048633387196787 39.690859720722074 0 39.690859720722074 -17.243497877949267 0 0 0 0 -17.552454205062531 36.470793036329269 0 36.470793036329269 -22.249497089622309 0 0 0 0 5.5368579039607084 34.354936743119652 0 34.354936743119652 -26.541833004619548 0 0 0 0 8.8017543637803328 40.097038340332801 0 40.097038340332801 -23.960972441858758 0 0 0 0 -8.0677485226797216 36.078153483980714 0 36.078153483980714 -25.389856876920021 0 0 0 0 -7.0128955694074193 24.658536419579832 0 24.658536419579832 -27.942300881397387 0 0 0 0 -3.5672835344123381 24.483766499802471 0 24.483766499802471 -15.61595189915402 0 0 0 0 -0.98438109267408436 21.05493084992122 0 21.05493084992122 -33.656688388484326 0 0 0 0 0.12730880799426814 28.024326956208824 0 28.024326956208824 -32.803810463683476 0 0 0 0 1.8593022152831509 35.095180751198313 0 35.095180751198313 -19.973388697791961 0 0 0 0 -0.78357502855396888 24.845933923559642 0 24.845933923559642 -24.533087574163801 0 0 0 0 -6.0522334598226735 19.763914846007538 0 19.763914846007538 -18.038207292542211 0 0 0 0 0.93650541328406689 25.984276467388554 0 25.984276467388554 0.78646323765133275 0 0 0 0 5.3358168910544919 29.452247650777281 0 29.452247650777281 -10.224799394043657 0 0 0 0 2.8202028189680277 31.958327789587202 0 31.958327789587202 -11.562784115656541 0 0 0 0 -1.5021773904209113 18.861539152421756 0 18.861539152421756 -13.476521078484438 0 0 0 0 8.3831055568157353 37.878284794436695 0 37.878284794436695 -13.865449573822843 0 0 0 0 3.8093060088576749 33.203893725876696 0 33.203893725876696 -18.260237212010907 0 0 0 0 -103.59950495523663 -0.57628365919481439 0 -0.57628365919481439 -86.351519308591378 0 0 0 0 33.127847302384907 45.122606401077064 0 45.122606401077064 -105.60615168416734 0 0 0 0 -120.73393250782465 179.636473676067 0 179.636473676067 -65.547445978965698 0 0 0 0 27.678683015903538 26.523749405740755 0 26.523749405740755 8.4613109580592294 0 0 0 0 9.5024649865035826 36.950740176278487 0 36.950740176278487 -27.173600024179905 0 0 0 0 15.538289216569344 16.273026867921722 0 16.273026867921722 -27.003365878912419 0 0 0 0 30.909514361472247 52.006476542221208 0 52.006476542221208 -87.516518900527444 0 0 0 0 10.270056578065336 12.531496574100203 0 12.531496574100203 -10.198274444994624 0 0 0 0 -8.0544954183537811 36.683237794602974 0 36.683237794602974 -40.33216940768034 0 0 0 0 -0.050209711931529455 40.089231792117062 0 40.089231792117062 55.016663760576193 0 0 0 0 -1.7799059167674898 27.551560323589044 0 27.551560323589044 -15.200382920367264 0 0 0 0 -5.6592506792951554 26.21637821171953 0 26.21637821171953 -44.82577265305008 0 0 0 0 44.336364760180004 -18.558568591768562 0 -18.558568591768562 -25.26589879533276 0 0 0 0 21.86651066930342 17.884628662804385 0 17.884628662804385 -30.406096209000623 0 0 0 0 8.1539085738768335 20.483505851014343 0 20.483505851014343 -12.93561641688575 0 0 0 0 10.986345173002068 22.537979226010567 0 22.537979226010567 -16.305424814227621 0 0 0 0 -13.041193347822627 26.305830719524238 0 26.305830719524238 -42.731791923879427 0 0 0 0 2.4252911441718652 25.468280298780883 0 25.468280298780883 90.409899108053651 0 0 0 0 52.827897648297949 15.028236070167623 0 15.028236070167623 -40.206717747838411 0 0 0 0 23.663443889598703 28.830082079956156 0 28.830082079956156 -13.240931072502484 0 0 0 0 4.2185064725413284 13.065859888323883 0 13.065859888323883 -1.4144999089547241 0 0 0 0 1.6866116649507603 29.412784744450619 0 29.412784744450619 -78.364511076799317 0 0 0 0 -3.9673725748434663 50.022909097649972 0 50.022909097649972 27.969232467748952 0 0 0 0 2.8728571449089415 5.8532072329277867 0 5.8532072329277867 0.44086769741458909 0 0 0 0 3.2723473035439383 45.92733831229998 0 45.92733831229998 24.30888130168205 0 0 0 0 29.05799052297607 34.460313686260633 0 34.460313686260633 54.10197645824519 0 0 0 0 26.490708924727116 24.06065381952039 0 24.06065381952039 13.633936406672376 0 0 0 0 9.8562775967493508 12.321454571403592 0 12.321454571403592 33.846512299714959 0 0 0 0 18.318599494925365 65.864347844304575 0 65.864347844304575 67.368030186964461 0 0 0 0 28.290263177766974 49.652585120835283 0 49.652585120835283 13.780923660429835 0 0 0 0 0.784514244597176 39.706390683342761 0 39.706390683342761 28.347468778694747 0 0 0 0 31.608844052196218 56.496213920720038 0 56.496213920720038 23.769159669871442 0 0 0 0 10.773262527412498 39.758261246033726 0 39.758261246033726 -36.243742523729452 0 0 0 0 -26.166686775197377 49.312387723071879 0 49.312387723071879 15.442897490480391 0 0 0 0 -3.1879799170824299 48.266161498693691 0 48.266161498693691 22.267257153360333 0 0 0 0 3.1491752604779322 53.579178959298588 0 53.579178959298588 3.7650670345301478 0 0 0 0 6.3686792532826075 57.966623738724593 0 57.966623738724593 32.110658002804485 0 0 0 0 -2.2803839843636524 22.488933307507978 0 22.488933307507978 -30.249286966631189 0 0 0 0 -2.4877459313772761 25.812380425692481 0 25.812380425692481 -23.403592010862006 0 0 0 0 9.3919375893788128 43.603948101805145 0 43.603948101805145 -0.11887190471315989 0 0 0 0 -6.1202023532632666 54.206563392417593 0 54.206563392417593 49.973864172485264 0 0 0 0 4.1213980675429411 52.789381317012158 0 52.789381317012158 17.357051977502124 0 0 0 0 -10.145493102227192 47.208750051169773 0 47.208750051169773 64.350586156619102 0 0 0 0 10.545165756112965 58.899030772781771 0 58.899030772781771 -41.617986871446192 0 0 0 0 -3.9146150766273422 59.034164994136518 0 59.034164994136518 17.854508823909782 0 0 0 0 3.4274415093268544 73.098809085266112 0 73.098809085266112 -42.363960883893014 0 0 0 0 1.1595097920844637 52.145146557028056 0 52.145146557028056 -50.983903394386289 0 0 0 0 -1.2510208859657723 75.00791852626935 0 75.00791852626935 -52.663762476397096 0 0 0 0 16.994949406003798 61.430616193687456 0 61.430616193687456 -49.204812989689117 0 0 0 0 4.4678441957626092 60.225134726162651 0 60.225134726162651 -11.603514395043021 0 0 0 0 19.560869842450302 47.254379097743367 0 47.254379097743367 -50.064632755275397 0 0 0 0 23.430533150657538 34.713896181470773 0 34.713896181470773 -82.44222593471568 0 0 0 0 21.156209573454362 57.481762415227422 0 57.481762415227422 -70.331257442878268 0 0 0 0 21.81706844318677 51.933509915507329 0 51.933509915507329 -105.58734216808807 0 0 0 0 10.805066398213967 23.450007726885815 0 23.450007726885815 -96.205681797908255 0 0 0 0 -8.7532068250312705 -12.350697685482373 0 -12.350697685482373 -155.80396422745252 0 0 0 0 3.3706967497976166 23.319887730922346 0 23.319887730922346 -84.369297402234224 0 0 0 0 1.0459194773723084 10.453609793169562 0 10.453609793169562 -65.552570836691302 0 0 0 0 7.4128082008073761 11.131410601170501 0 11.131410601170501 -94.303790814032254 0 0 0 0 13.289459025341444 34.484534429599989 0 34.484534429599989 -76.132428456781781 0 0 0 0 14.835045519146661 33.665542914146499 0 33.665542914146499 -77.491506879792723 0 0 0 0 -67.761234622168558 128.30508245987585 0 128.30508245987585 -140.56108511350249 0 0 0 0 -23.82380442939575 20.865615976127629 0 20.865615976127629 -32.159442768024746 0 0 0 0 -20.006769495651497 106.59210845768757 0 106.59210845768757 -129.59507870727975 0 0 0 0 -37.548082956058352 35.076802911386039 0 35.076802911386039 -36.110481518493543 0 0 0 0 35.450252465917401 8.7725422248058749 0 8.7725422248058749 -334.87635487732041 0 0 0 0 -0.40173617561049468 131.51357241454753 0 131.51357241454753 156.37245968272327 0 0 0 0 -0.83544331155480833 0.68065775649833427 0 0.68065775649833427 -0.38362761246506238 0 0 0 0 6.1060445663063092 147.86014258496289 0 147.86014258496289 -118.13400733220624 0 0 0 0 9.103113608970034 122.26197855962528 0 122.26197855962528 -161.45253467525617 0 0 0 0 8.6207689881838121 114.06799812355769 0 114.06799812355769 15.419565759031684 0 0 0 0 13.308109381821168 89.60431073826112 0 89.60431073826112 70.981748471080209 0 0 0 0 1.5070722555311722 5.1188055091671885 0 5.1188055091671885 2.1924703507129877 0 0 0 0 -8.6816038147442214 43.051512017187633 0 43.051512017187633 0.32946194836404175 0 0 0 0 49.221568353755174 46.946202290884685 0 46.946202290884685 -43.321831902168924 0 0 0 0 50.965499291769106 35.205204926509396 0 35.205204926509396 35.12028843027656 0 0 0 0 49.257029497148324 12.440208465353862 0 12.440208465353862 31.304385133640608 0 0 0 0 5.812112715721014 -1.927272426939453 0 -1.927272426939453 26.553046213266498 0 0 0 0 28.781992166588289 25.659685451644293 0 25.659685451644293 16.194976369218423 0 0 0 0 -116.14027358483236 184.59494804776841 0 184.59494804776841 -146.44797333205679 0 0 0 0 15.124098543463937 17.005325634543723 0 17.005325634543723 -3.6648435322109378 0 0 0 0 168.28234599898042 -77.220637272599561 0 -77.220637272599561 -219.0816821074477 0 0 0 0 21.850639821379264 13.772012812885244 0 13.772012812885244 -0.16412686207360139 0 0 0 0 -2.2594610739706695 75.231161458730639 0 75.231161458730639 16.501004244259093 0 0 0 0 41.427828257081273 -34.443379730211745 0 -34.443379730211745 -39.522280758759734 0 0 0 0 0.7245687940406853 0.058170077026872491 0 0.058170077026872491 0.10665623913458744 0 0 0 0 16.798352012696341 3.7147877926399815 0 3.7147877926399815 -43.95588904471515 0 0 0 0 20.608095602650337 11.86299045139549 0 11.86299045139549 18.335868898997433 0 0 0 0 -10.504744676229166 92.604770511643437 0 92.604770511643437 127.60890580550631 0 0 0 0 63.175936250594532 23.62348899278004 0 23.62348899278004 -2.8492668442759168 0 0 0 0 11.032254675015693 11.966594410009691 0 11.966594410009691 -2.3492842683942783 0 0 0 0 2.6807204496595745 0.96913232953350459 0 0.96913232953350459 -1.9961031027645788 0 0 0 0 14.271085448726808 41.571088958236942 0 41.571088958236942 41.223918444644369 0 0 0 0 -0.81562428137090137 41.725150426613709 0 41.725150426613709 72.160584744826338 0 0 0 0 19.351151325179671 54.87779864631193 0 54.87779864631193 55.406297283225285 0 0 0 0 -18.752641474677148 55.414108537173888 0 55.414108537173888 -39.654093573255523 0 0 0 0 17.116455677925842 0.81929790078720544 0 0.81929790078720544 -43.781041720081703 0 0 0 0 32.775879636144964 -26.473798713868746 0 -26.473798713868746 37.305167234393593 0 0 0 0 137.46244289831884 45.649882919709853 0 45.649882919709853 -98.391103172638395 0 0 0 0 -31.178459927941731 97.793757841260231 0 97.793757841260231 133.69124457668659 0 0 0 0 85.743931485767462 -19.795886098596384 0 -19.795886098596384 -158.68796751058107 0 0 0 0 -20.398562854501506 -6.9631011068468069 0 -6.9631011068468069 18.527163091599505 0 0 0 0 58.318679599869938 91.201155925475177 0 91.201155925475177 -158.07346789404932 0 0 0 0 20.882180262800901 16.87048867250649 0 16.87048867250649 10.99996716342001 0 0 0 0 90.538918821792322 85.777983288335236 0 85.777983288335236 -88.671931464035879 0 0 0 0 -105.79147647170976 12.589224453400675 0 12.589224453400675 -48.566258700431717 0 0 0 0 2.1957587375272709 1.7690753495518123 0 1.7690753495518123 0.84159182587438153 0 0 0 0 -66.841496355300478 13.94756601285917 0 13.94756601285917 -32.299068977961724 0 0 0 0 -32.150018845448358 -20.869981385701976 0 -20.869981385701976 -37.990649081213633 0 0 0 0 -72.615995958989515 3.6380853090377059 0 3.6380853090377059 -39.971939828634277 0 0 0 0 -75.162528748416662 61.526681519575504 0 61.526681519575504 -35.40402560135044 0 0 0 0 70.080260126098437 19.08245637370419 0 19.08245637370419 -84.995637418480328 0 0 0 0 93.601721190436365 66.134374539966302 0 66.134374539966302 -23.036687604893814 0 0 0 0 0.96008158338558047 0.84334638386765448 0 0.84334638386765448 0.45325766995345873 0 0 0 0 60.847403998588561 54.063145870743028 0 54.063145870743028 -21.601113456289568 0 0 0 0 68.302926819495042 88.378453910991084 0 88.378453910991084 10.280733761312149 0 0 0 0 13.837269767886028 51.559196221496677 0 51.559196221496677 -5.2296708192152437 0 0 0 0 4.2767409526313713 51.342620576597255 0 51.342620576597255 21.577554168822644 0 0 0 0 31.224089153328691 -15.08752971325066 0 -15.08752971325066 -7.4886043553706259 0 0 0 0 49.961072687183332 15.322833320426071 0 15.322833320426071 -25.892961248006031 0 0 0 0 26.225386277166535 23.197833625505652 0 23.197833625505652 17.92618635323187 0 0 0 0 37.319444950448087 21.609040226601792 0 21.609040226601792 11.203863327666113 0 0 0 0 -6.4722176723716984 -28.568429461371124 0 -28.568429461371124 -40.143043718082481 0 0 0 0 2.3588689569805865 34.318139071587211 0 34.318139071587211 -5.0618251834348484 0 0 0 0 -6.8194971238335711 36.984980497772995 0 36.984980497772995 -5.6469052993452351 0 0 0 0 0.009520551364403218 40.057743816667426 0 40.057743816667426 -6.3500621386920102 0 0 0 0 -4.2120071828685468 41.290657326175278 0 41.290657326175278 -6.4539134127644502 0 0 0 0 -12.335756745451363 20.733178067587687 0 20.733178067587687 57.619703098353057 0 0 0 0 -3.5036801869355259 46.466723785935756 0 46.466723785935756 17.462910562124307 0 0 0 0 -7.75417558724439 20.048651943481673 0 20.048651943481673 10.633828029106098 0 0 0 0 -1.93531513682683 40.14176378175398 0 40.14176378175398 6.8208412266130836 0 0 0 0 -3.2329992412996944 23.36595818731621 0 23.36595818731621 -4.4354535134343678 0 0 0 0 -8.630093059708841 15.089092814723585 0 15.089092814723585 -19.017031111682456 0 0 0 0 2.392122644760093 30.989442217748547 0 30.989442217748547 -8.058553116141411 0 0 0 0 -0.23662428903480759 34.897593622369641 0 34.897593622369641 -8.0161356922471896 0 0 0 0 0.75097090656345244 42.009712952876725 0 42.009712952876725 -15.931183916549344 0 0 0 0 -1.2799697922155246 30.900340495714772 0 30.900340495714772 -23.869989894461469 0 0 0 0 22.7279393393638 17.139577296864918 0 17.139577296864918 3.9313770356149718 0 0 0 0 3.0619925384771705 43.650229092582322 0 43.650229092582322 -18.313028032604052 0 0 0 0 -75.299299503931252 -33.905617002499639 0 -33.905617002499639 -121.1832061044006 0 0 0 0 -4.6498421551914362 45.488035827534986 0 45.488035827534986 -38.555776199402317 0 0 0 0 13.253040655212459 6.6488293718164027 0 6.6488293718164027 3.7197079491551222 0 0 0 0 -6.4257528577327321 26.511536178775714 0 26.511536178775714 -40.753789026228333 0 0 0 0 -0.57059354111697758 31.29938292042516 0 31.29938292042516 -20.986832966747897 0 0 0 0 -0.0035724903391383123 39.731601063956987 0 39.731601063956987 -25.500355534517439 0 0 0 0 -0.025180593129334738 36.251342767933238 0 36.251342767933238 -49.417197118980766 0 0 0 0 63.410028839374718 94.851164704252369 0 94.851164704252369 1.1758124187090289 0 0 0 0 4.1577940350404248 1.9712269945433611 0 1.9712269945433611 0.27543535334103808 0 0 0 0 -175.80733067305732 61.539688837226265 0 61.539688837226265 -185.57395731468205 0 0 0 0 -0.024727215721213724 859.05878043620396 0 859.05878043620396 -603.32779695526551 0 0 0 0 -236.60724173985363 341.97775474059381 0 341.97775474059381 -1061.2392603532571 0 0 0 0 -0.46009252359363018 764.53648127599809 0 764.53648127599809 -1351.7946901133855 0 0 0 0 2.4562113528905627 5.0487112720229987 0 5.0487112720229987 2.4781421866473252 0 0 0 0 -17.009375713183545 1449.1312866249209 0 1449.1312866249209 1770.1288120787649 0 0 0 0 -13.960516273982648 26.840658593364424 0 26.840658593364424 40.700650344098904 0 0 0 0 5.8878101294048264 12.069073850304711 0 12.069073850304711 7.9448330149133568 0 0 0 0 -198.31611328874556 854.83288329726815 0 854.83288329726815 -1195.0179531660688 0 0 0 0 5.0886443430235602 16.060252463847704 0 16.060252463847704 12.109849670195153 0 0 0 0 -215.58817645682984 714.8229711451329 0 714.8229711451329 -947.35442441427949 0 0 0 0 -313.47591046322123 343.49352398230803 0 343.49352398230803 -788.68657062641796 0 0 0 0 -40.987146721723548 121.4837241666246 0 121.4837241666246 -371.25724326707132 0 0 0 0 -197.09923280165242 552.48533047139313 0 552.48533047139313 -600.76666494646634 0 0 0 0 -118.21607534550276 509.70041259978825 0 509.70041259978825 -758.17601362499408 0 0 0 0 -149.36999810593261 507.18629518524722 0 507.18629518524722 -739.74227142094242 0 0 0 0 -293.62851434573349 792.00074052764285 0 792.00074052764285 -923.48397887691681 0 0 0 0 -798.71887680421423 295.18695506092627 0 295.18695506092627 -415.84348596585005 0 0 0 0 70.736163998465599 293.83058402336565 0 293.83058402336565 -1334.3721132703431 0 0 0 0 -9.5009920866978064 46.294738973148924 0 46.294738973148924 -15.868759028249769 0 0 0 0 3.9619636780101075 17.834862410793651 0 17.834862410793651 14.654278249224184 0 0 0 0 -9.7022796571200161 45.029004134061324 0 45.029004134061324 12.144808703515992 0 0 0 0 -6.0266456245553854 43.988884851701187 0 43.988884851701187 -14.417391917682835 0 0 0 0 -8.2601982227843109 50.072628822954357 0 50.072628822954357 -0.40057413471549808 0 0 0 0 -8.0113171972525379 41.352817470638911 0 41.352817470638911 -12.213138345890911 0 0 0 0 -4.7964209172641858 49.814328269916587 0 49.814328269916587 -30.528506854450825 0 0 0 0 -10.408876316523674 42.68673835257141 0 42.68673835257141 -12.371786287991654 0 0 0 0 35.130460203356051 117.93375229002777 0 117.93375229002777 -726.69281777284414 0 0 0 0 7.9032266101683604 20.528370698670027 0 20.528370698670027 16.315960276188072 0 0 0 0 -89.204618119092629 388.58105175403944 0 388.58105175403944 -683.4138289269722 0 0 0 0 -126.20618527336592 458.4245417274833 0 458.4245417274833 -616.34973368742794 0 0 0 0 -59.794302265436272 429.61381019011424 0 429.61381019011424 -825.86063393027507 0 0 0 0 -149.22719573336508 406.08324293657643 0 406.08324293657643 -586.90409171118881 0 0 0 0 -173.49627619260536 443.53842825312131 0 443.53842825312131 -515.02550578102819 0 0 0 0 -174.8667322205456 446.91644920082126 0 446.91644920082126 -421.09480804413033 0 0 0 0 -182.20455105369592 402.35153847823699 0 402.35153847823699 -502.45678202650743 0 0 0 0 -182.86982674061437 395.19998409612163 0 395.19998409612163 -450.87825071869884 0 0 0 0 -84.649871275578334 395.50703185385646 0 395.50703185385646 -416.19858068753274 0 0 0 0 -155.20372783965286 497.7999629400274 0 497.7999629400274 -579.41051421481097 0 0 0 0 -219.46532091790141 461.57383646247035 0 461.57383646247035 -359.57706156256609 0 0 0 0 -335.94494770732854 653.92782101033663 0 653.92782101033663 -637.84696398116284 0 0 0 0 -111.20791424580057 519.56151079663323 0 519.56151079663323 -710.93911977584503 0 0 0 0 -115.87105317947135 508.01146293826241 0 508.01146293826241 -716.67975320426194 0 0 0 0 -134.39269140201941 438.73183145875191 0 438.73183145875191 -615.34000885635032 0 0 0 0 -959.85264774543612 574.62749346409601 0 574.62749346409601 -289.78305969153735 0 0 0 0 -368.53253442846471 896.1619343077582 0 896.1619343077582 -1262.0834054623333 0 0 0 0 86.717299250238284 103.87618286189718 0 103.87618286189718 -1015.0494984027152 0 0 0 0 4.0289733569988542 8.0822538747213741 0 8.0822538747213741 -8.3057387429172991 0 0 0 0 20.301489444821669 19.072577092112684 0 19.072577092112684 4.369715185038622 0 0 0 0 -624.27125340423663 271.68621013630036 0 271.68621013630036 -32.57582351257588 0 0 0 0 -269.77783703892783 16.156679344152508 0 16.156679344152508 -31.908127399496756 0 0 0 0 -15.23762892241939 30.077804250599002 0 30.077804250599002 -21.552134678640869 0 0 0 0 17.163054513493989 31.838423094890459 0 31.838423094890459 -22.978896481170523 0 0 0 0 -23.344386842094536 34.529972374946738 0 34.529972374946738 -22.364679804755724 0 0 0 0 17.555573977202585 40.914076707540517 0 40.914076707540517 -18.230086365345414 0 0 0 0 26.287679417411709 45.589984482340697 0 45.589984482340697 -26.522331084386678 0 0 0 0 -3.3823602350233202 19.829515254891163 0 19.829515254891163 -19.906346993134164 0 0 0 0 28.442531686756411 14.475226421189291 0 14.475226421189291 -33.172131950543189 0 0 0 0 13.440637946194329 36.003891821230354 0 36.003891821230354 -12.76999853700363 0 0 0 0 9.4555833799604443 25.103518374387932 0 25.103518374387932 -34.529179237455537 0 0 0 0 1.9301197966706241 17.678305341538362 0 17.678305341538362 -40.490279253227527 0 0 0 0 -4.445298445491062 43.189626935280103 0 43.189626935280103 -51.023540793117718 0 0 0 0 85.227950600205077 45.588196945223899 0 45.588196945223899 -88.050683661142102 0 0 0 0 5.0235697857725157 -0.072047466192181275 0 -0.072047466192181275 -10.419742176875218 0 0 0 0 -29.755111481274071 54.245971897813433 0 54.245971897813433 -44.042387655492348 0 0 0 0 -38.332042622860172 -31.10669591279111 0 -31.10669591279111 15.958262189085872 0 0 0 0 -195.85203104231914 314.37687362344877 0 314.37687362344877 -335.96611980436137 0 0 0 0 -167.93041663380427 312.02282393491259 0 312.02282393491259 -436.83995890586812 0 0 0 0 -199.64070757651643 361.67119000163075 0 361.67119000163075 -395.94038829353303 0 0 0 0 -179.01566662140249 391.86278285272419 0 391.86278285272419 -441.19810658038659 0 0 0 0 -181.18419376741986 400.22374843245689 0 400.22374843245689 -444.76807373279007 0 0 0 0 23.617477324325591 -18.760841453040484 0 -18.760841453040484 -18.116423600702547 0 0 0 0 19.539025950802099 20.001260755793339 0 20.001260755793339 17.134532700174553 0 0 0 0 -187.41065778025222 424.61576380318365 0 424.61576380318365 -328.01610876432824 0 0 0 0 -81.846157698222669 446.33158959321736 0 446.33158959321736 -110.00272911245702 0 0 0 0 14.963426396541493 22.099022016149156 0 22.099022016149156 25.766789898335965 0 0 0 0 -224.6366543762706 313.30044503239333 0 313.30044503239333 -472.74760978515587 0 0 0 0 -180.12905194883933 298.04285019843519 0 298.04285019843519 -469.95628096081418 0 0 0 0 -174.7542348282077 288.47843736234427 0 288.47843736234427 -530.5718447619729 0 0 0 0 -197.91785022008116 330.61463708594965 0 330.61463708594965 -529.58047201505542 0 0 0 0 -202.82502804438627 357.44498202775867 0 357.44498202775867 -503.78355820350407 0 0 0 0 -197.59677327889949 343.70031504743383 0 343.70031504743383 -471.40325956944525 0 0 0 0 -195.82834315518267 361.25125400503748 0 361.25125400503748 -464.86006740706944 0 0 0 0 -197.62665148297674 373.09593819860311 0 373.09593819860311 -456.69199025079433 0 0 0 0 -219.37664449212025 362.93985719562625 0 362.93985719562625 -456.61386117832444 0 0 0 0 -238.43983850451332 336.44301652438662 0 336.44301652438662 -472.61855995225142 0 0 0 0 18.730679152046804 18.516926868203605 0 18.516926868203605 14.127367929338263 0 0 0 0 -242.45694559021285 386.83105164365406 0 386.83105164365406 -511.74598270914612 0 0 0 0 -178.25561159523386 339.23456499680742 0 339.23456499680742 -491.1116385521309 0 0 0 0 -242.15452243743857 281.91768671343016 0 281.91768671343016 -455.63571884686098 0 0 0 0 -222.51937103025921 320.35451261785784 0 320.35451261785784 -457.66582144642598 0 0 0 0 -294.34536298044259 345.30523127436209 0 345.30523127436209 -453.22559715326452 0 0 0 0 -180.92310140262634 305.53289524696083 0 305.53289524696083 -462.63246611566683 0 0 0 0 138.2316714879961 223.33629447468817 0 223.33629447468817 -493.81086200504069 0 0 0 0 -170.8384365386737 178.3313930737495 0 178.3313930737495 -185.93053455488916 0 0 0 0 -82.07734942479874 237.20712755094246 0 237.20712755094246 -490.67273322724941 0 0 0 0 15.656327156186308 263.61785281601806 0 263.61785281601806 -596.59965044817 0 0 0 0 -209.60033306649166 276.97936899642173 0 276.97936899642173 -429.61133693806187 0 0 0 0 -105.85115562498686 275.37634757730484 0 275.37634757730484 -551.92649809786963 0 0 0 0 -141.6740142989438 243.45491471254718 0 243.45491471254718 -470.23140994843925 0 0 0 0 -166.90893710136152 358.82041619715164 0 358.82041619715164 -516.72943054754251 0 0 0 0 -122.88772136431817 296.16063068864059 0 296.16063068864059 -564.2102467642253 0 0 0 0 -111.52261146191449 264.4839262584137 0 264.4839262584137 -558.27808872921378 0 0 0 0 -125.59815507641179 326.51875412496884 0 326.51875412496884 -745.37169436863041 0 0 0 0 1.1625753022376841 7.671279427009182 0 7.671279427009182 8.3528861171345028 0 0 0 0 17.747396485720103 15.359011664812876 0 15.359011664812876 5.290129832463407 0 0 0 0 -62.669842015400718 310.19984874911461 0 310.19984874911461 -616.29175463724096 0 0 0 0 11.255226437204385 20.403734028466488 0 20.403734028466488 7.9264373838136137 0 0 0 0 14.743167994412943 32.837663561320369 0 32.837663561320369 -7.6018556663038908 0 0 0 0 18.249496397735129 22.330245701487001 0 22.330245701487001 -20.381154897026136 0 0 0 0 35.562537646917917 30.460045144616743 0 30.460045144616743 -31.542095810998035 0 0 0 0 18.64189641898156 42.810675056125547 0 42.810675056125547 -28.014038196553884 0 0 0 0 30.603187549317227 52.894929578764277 0 52.894929578764277 -45.539914019849675 0 0 0 0 20.985492325006803 30.800834449844096 0 30.800834449844096 19.682030767264756 0 0 0 0 -139.81308276920754 319.84222845171462 0 319.84222845171462 -573.5123203422263 0 0 0 0 -149.86287830633592 328.21038959239286 0 328.21038959239286 -531.29177512249589 0 0 0 0 -154.02634160807065 317.20744250407733 0 317.20744250407733 -559.21160236014839 0 0 0 0 -145.61617612802365 300.02561751815665 0 300.02561751815665 -527.76103464338667 0 0 0 0 -150.07368261329793 341.24428285424347 0 341.24428285424347 -609.2307862473026 0 0 0 0 -158.11001227676752 397.20200184459463 0 397.20200184459463 -516.61331150542537 0 0 0 0 -163.76751115125808 379.28169973604236 0 379.28169973604236 -526.62410453853226 0 0 0 0 14.567792348424021 25.462324830138435 0 25.462324830138435 19.733221776419597 0 0 0 0 -100.94110399296915 378.26683849301844 0 378.26683849301844 -647.00451610490563 0 0 0 0 -4.2006243223077036 43.118429307122597 0 43.118429307122597 -26.314815444820852 0 0 0 0 -2.5135997183842846 48.910793865294181 0 48.910793865294181 -12.006435840965423 0 0 0 0 8.7465441671520239 63.021710831806558 0 63.021710831806558 -46.217106819658511 0 0 0 0 -1.5722046280479844 48.870930904982743 0 48.870930904982743 -26.396813864499563 0 0 0 0 35.452650960363826 50.563646858772699 0 50.563646858772699 -32.265563022236165 0 0 0 0 26.336975953090587 44.743684465553088 0 44.743684465553088 -23.993219232623233 0 0 0 0 -16.593858448639367 70.316867925792394 0 70.316867925792394 -32.752395342107775 0 0 0 0 -166.51990243066393 167.74488939988805 0 167.74488939988805 -53.769027501970868 0 0 0 0 -22.512351116571153 78.89605621728515 0 78.89605621728515 0.042400183465360897 0 0 0 0 112.61030455027139 65.786177329453494 0 65.786177329453494 -65.155837543562484 0 0 0 0 31.865216228959071 30.192275507665727 0 30.192275507665727 -0.57334219758195104 0 0 0 0 -521.77260377235507 388.31847945255504 0 388.31847945255504 -82.816563196116476 0 0 0 0 211.13495820640128 -29.243161710532149 0 -29.243161710532149 -30.347709120884247 0 0 0 0 -0.39781978871562984 -0.15716736394633912 0 -0.15716736394633912 -0.9564664495539148 0 0 0 0 64.548367922903708 5.411572962984792 0 5.411572962984792 6.832101275520472 0 0 0 0 78.30782478747642 41.960340577486932 0 41.960340577486932 -22.697873718239862 0 0 0 0 55.090053836196603 44.066734631633153 0 44.066734631633153 -33.473275587100943 0 0 0 0 26.506386865082277 37.144525605545823 0 37.144525605545823 -13.582683117325359 0 0 0 0 92.75946112276506 3.2879376758846774 0 3.2879376758846774 -18.001540863831906 0 0 0 0 41.494237410873211 6.5726270635068431 0 6.5726270635068431 -10.176103795856761 0 0 0 0 -0.02625276427886547 -0.31376721830744891 0 -0.31376721830744891 -4.1443230981327019 0 0 0 0 -275.31255512624921 236.31985917682687 0 236.31985917682687 -100.4477090191649 0 0 0 0 7.3337838668167024 179.14697572561545 0 179.14697572561545 -145.53491092113109 0 0 0 0 -133.91866265124554 138.26800078144879 0 138.26800078144879 -115.6933162066689 0 0 0 0 78.445006233723689 168.95596756305895 0 168.95596756305895 -134.16842524530512 0 0 0 0 -127.55977294978584 143.22279806691949 0 143.22279806691949 -79.84818417612405 0 0 0 0 -124.97745837734328 185.04814676774549 0 185.04814676774549 -168.60319549772248 0 0 0 0 148.78449099509089 151.22034242145673 0 151.22034242145673 0.27786556388673489 0 0 0 0 -343.5756130002228 136.8197063998341 0 136.8197063998341 -80.637980116880499 0 0 0 0 -50.463176708581159 253.19834594470012 0 253.19834594470012 -134.16333581507206 0 0 0 0 -16.629755993192248 100.52813208492898 0 100.52813208492898 -57.294981615013967 0 0 0 0 316.81206337373442 129.61566335662792 0 129.61566335662792 -102.3094082389398 0 0 0 0 -104.19560132412153 141.33317526291103 0 141.33317526291103 47.876276760671317 0 0 0 0 -147.68479639066936 195.01369366234576 0 195.01369366234576 -178.91641368123783 0 0 0 0 -171.30659394017493 75.36620981411761 0 75.36620981411761 -11.946147970968013 0 0 0 0 594.3940261530588 -404.80720735612704 0 -404.80720735612704 65.640320495829656 0 0 0 0 1.3400252417910536 0.91678408070192319 0 0.91678408070192319 1.8064348915408317 0 0 0 0 14.172509287975117 -53.184529069225391 0 -53.184529069225391 -9.8353867197874933 0 0 0 0 837.2675768387162 194.512379448719 0 194.512379448719 4.2379937008954585 0 0 0 0 -0.60617847485366738 -1.7104227295672541 0 -1.7104227295672541 0.44660391259114363 0 0 0 0 21.68695772582214 51.88283279991083 0 51.88283279991083 -0.085071412363721219 0 0 0 0 0.30365153796646638 0.13808141823738396 0 0.13808141823738396 1.4526956233970338 0 0 0 0 692.06195274146194 -176.58758973550903 0 -176.58758973550903 -7.0202468062489061 0 0 0 0 234.28123755180422 45.336266438625898 0 45.336266438625898 -51.091327998285124 0 0 0 0 181.20776896668394 -23.266631598893582 0 -23.266631598893582 61.125468850543257 0 0 0 0 365.39013402058663 -129.79744261081578 0 -129.79744261081578 -37.809463454046636 0 0 0 0 304.76624390315919 -137.73569059843976 0 -137.73569059843976 57.606512360704073 0 0 0 0 -0.15759927484705827 -2.4507847281371369 0 -2.4507847281371369 -1.4185472092063378 0 0 0 0 2.5107316252117755 1.9582283297532577 0 1.9582283297532577 1.7074196425643891 0 0 0 0 28.928941617792589 27.439362152992544 0 27.439362152992544 -9.8353867197896836 0 0 0 0 228.62939416573499 -156.06608828537719 0 -156.06608828537719 375.33602046621672 0 0 0 0 437.89790648610506 -245.04560412869614 0 -245.04560412869614 142.17092399114335 0 0 0 0 213.41678302625223 -50.026276992139174 0 -50.026276992139174 -54.245265399906202 0 0 0 0 1.2655703381128944 0.042895094465787764 0 0.042895094465787764 -1.2834424312007684 0 0 0 0 0.75901363668996424 0.033896914154215807 0 0.033896914154215807 -0.43330398622586586 0 0 0 0 143.57504139769298 8.7979977700015297 0 8.7979977700015297 -16.537412802266772 0 0 0 0 -3.9621853779945013 125.38151855563592 0 125.38151855563592 -84.567029204466962 0 0 0 0 138.69410823049839 14.817169860099966 0 14.817169860099966 -32.915307983428647 0 0 0 0 103.52129597363819 111.67069926935073 0 111.67069926935073 -111.1030640550307 0 0 0 0 175.69709330028491 3.0073256661053165 0 3.0073256661053165 -56.840860689859255 0 0 0 0 47.870654536636721 83.112592815276003 0 83.112592815276003 -85.095935035758885 0 0 0 0 51.455184576407191 159.7998154973684 0 159.7998154973684 -174.55842812600167 0 0 0 0 65.919028764401446 76.218571533619979 0 76.218571533619979 -109.57929449640505 0 0 0 0 -51.041509131347993 29.670502273984312 0 29.670502273984312 40.447949162264194 0 0 0 0 138.64557599859108 -60.313385660087079 0 -60.313385660087079 -12.605870328734454 0 0 0 0 -1.6722136218548371 0.4880041380437774 0 0.4880041380437774 -0.33616484878182717 0 0 0 0 136.57568868745875 98.23953813056869 0 98.23953813056869 -563.87622955557526 0 0 0 0 -10.995045201545054 241.12353941558604 0 241.12353941558604 -244.15588576193113 0 0 0 0 10.649841998572811 27.22332443484629 0 27.22332443484629 54.681146098500903 0 0 0 0 -27.444318756387247 107.1233597135822 0 107.1233597135822 164.06405717215239 0 0 0 0 26.249058764387883 46.410091372728857 0 46.410091372728857 15.240899044132675 0 0 0 0 -47.551336800712306 51.126936495675182 0 51.126936495675182 -235.24454282819897 0 0 0 0 -61.517322446616163 107.37193953204769 0 107.37193953204769 -111.96933594049142 0 0 0 0 -15.23788018293817 98.504472429784983 0 98.504472429784983 -177.63040326209011 0 0 0 0 32.324122123036432 7.9365342480123218 0 7.9365342480123218 -29.036971990033635 0 0 0 0 2.005245522443154 1.0667532217805871 0 1.0667532217805871 -9.804975129039434 0 0 0 0 21.709174857991457 26.502350439512156 0 26.502350439512156 -11.045652361419343 0 0 0 0 0.091825398114451673 19.540996911167895 0 19.540996911167895 23.976317725382614 0 0 0 0 15.588271134083996 18.950868281613083 0 18.950868281613083 -1.0420496786909155 0 0 0 0 -4.8052978560969137 4.5366591125387146 0 4.5366591125387146 -0.76905322616700822 0 0 0 0 15.840150954509596 20.414558114955149 0 20.414558114955149 10.457413647356475 0 0 0 0 9.8152797794209619 49.354210869680173 0 49.354210869680173 42.844756303257782 0 0 0 0 -188.15340281742829 344.88469024010919 0 344.88469024010919 -381.39917827562203 0 0 0 0 13.578847797291957 18.3998704245361 0 18.3998704245361 13.693911325375161 0 0 0 0 -140.19929826170301 395.17417266312077 0 395.17417266312077 -434.40381864200754 0 0 0 0 139.04437456644206 523.89389199323352 0 523.89389199323352 -376.31401080483192 0 0 0 0 -427.4744824952686 451.29777299589659 0 451.29777299589659 -286.99131847423632 0 0 0 0 8.1253246044804115 4.7478999944370983 0 4.7478999944370983 -6.0993645200746016 0 0 0 0 -32.4063108202281 270.02875254079845 0 270.02875254079845 -322.9155069769331 0 0 0 0 100.37674031993083 43.623435603176404 0 43.623435603176404 -81.757867343261751 0 0 0 0 -66.693884572185198 73.998792468706597 0 73.998792468706597 -80.868641194600059 0 0 0 0 15.179759831924457 87.897057831543862 0 87.897057831543862 -45.436354145094811 0 0 0 0 33.438171693150068 28.645497211242787 0 28.645497211242787 19.084286437801389 0 0 0 0 -1.3431578427832847 71.549853287867109 0 71.549853287867109 33.099062585519277 0 0 0 0 14.367268385602074 42.452380473951052 0 42.452380473951052 -17.121444203772626 0 0 0 0 17.533871089541208 62.744795717280795 0 62.744795717280795 6.7404811123378749 0 0 0 0 34.596409198867633 31.103405228123417 0 31.103405228123417 20.781404841357705 0 0 0 0 -316.52594860895624 340.98048674824895 0 340.98048674824895 -289.78922341168072 0 0 0 0 -141.00380784787922 262.1045005577962 0 262.1045005577962 -362.3366921008851 0 0 0 0 -203.6348797327737 221.51396282699534 0 221.51396282699534 -197.72874875510388 0 0 0 0 -248.8935479349675 238.5139144286295 0 238.5139144286295 -255.62178881743603 0 0 0 0 -302.93147887000669 342.47857114273211 0 342.47857114273211 -377.17197610798939 0 0 0 0 -250.7000874458185 319.9828838655252 0 319.9828838655252 -380.40666617505485 0 0 0 0 158.8957984483859 195.12015471824998 0 195.12015471824998 -618.45551145437275 0 0 0 0 3.4551119607022827 3.0475071746664817 0 3.0475071746664817 1.0134611269733824 0 0 0 0 -292.28195878689803 407.60474756431358 0 407.60474756431358 -205.45133745227213 0 0 0 0 120.57928824287774 293.16770838555385 0 293.16770838555385 -618.50504634365643 0 0 0 0 -304.95981229851304 413.0822328098252 0 413.0822328098252 -387.49264875898371 0 0 0 0 7.2495847051743709 7.2747371696102991 0 7.2747371696102991 4.2667170938967161 0 0 0 0 -259.00678358358346 735.78571839264441 0 735.78571839264441 -200.76371451974592 0 0 0 0 -437.15875504040014 220.14763516180392 0 220.14763516180392 -131.85828572800528 0 0 0 0 -172.97057173112989 -69.150000880785228 0 -69.150000880785228 88.927506507171529 0 0 0 0 322.11931359071605 63.993401269259266 0 63.993401269259266 -170.97266762881191 0 0 0 0 287.10953694163163 486.97089161460838 0 486.97089161460838 159.65222866144904 0 0 0 0 79.053507264536165 3.1138473740611516 0 3.1138473740611516 -364.2426490389953 0 0 0 0 2.4684188398750848 -50.895101036841879 0 -50.895101036841879 -182.79551842073852 0 0 0 0 113.09630807484791 -43.797084790523513 0 -43.797084790523513 -329.13937838222046 0 0 0 0 -51.413071255999967 15.411976666375267 0 15.411976666375267 -251.86362497739538 0 0 0 0 -56.551742817791819 33.020344211374322 0 33.020344211374322 -243.57871368683118 0 0 0 0 -201.6191315448159 26.89697484838689 0 26.89697484838689 -81.944754942899635 0 0 0 0 -266.70124605411547 184.80841076596153 0 184.80841076596153 -177.30472375679528 0 0 0 0 -213.61401875504453 199.50512076140149 0 199.50512076140149 -265.80298926287514 0 0 0 0 -369.66266540781271 385.51810977791229 0 385.51810977791229 -302.99505852470247 0 0 0 0 7.3551779864323947 7.747213818576391 0 7.747213818576391 5.3250208209483461 0 0 0 0 -211.84442030783248 250.09813608263175 0 250.09813608263175 -298.87912541923288 0 0 0 0 -286.90370956546394 412.14002713217633 0 412.14002713217633 -395.86006181649327 0 0 0 0 -239.38762286720157 270.17124011721171 0 270.17124011721171 -279.38902967510148 0 0 0 0 5.4535401766378442 5.574776388624187 0 5.574776388624187 3.4589279473621133 0 0 0 0 -174.4219394294123 191.02073038171875 0 191.02073038171875 -253.87282696130751 0 0 0 0 -195.69932251163846 152.15950364182208 0 152.15950364182208 -178.48668389485101 0 0 0 0 -159.91208287248446 208.45432076732686 0 208.45432076732686 -235.84713679194101 0 0 0 0 -127.89614419705686 158.97716573073012 0 158.97716573073012 -167.92447116252151 0 0 0 0 -149.16537909706676 129.19000544919254 0 129.19000544919254 -209.51904949336677 0 0 0 0 86.063956506011891 83.925255149266377 0 83.925255149266377 -181.9625168881139 0 0 0 0 9.6864819291934197 9.0165664446612777 0 9.0165664446612777 6.3229586419894446 0 0 0 0 -140.47516515077223 99.532985401494443 0 99.532985401494443 -158.27290796659145 0 0 0 0 -170.97323569575383 216.0335672540823 0 216.0335672540823 -241.50651089222811 0 0 0 0 -137.24378294541384 184.23665964350948 0 184.23665964350948 -226.28240425305557 0 0 0 0 -80.505149299569894 178.55496939069417 0 178.55496939069417 -263.81154494348812 0 0 0 0 -86.403456575302698 120.09941751895531 0 120.09941751895531 -224.1188058293701 0 0 0 0 -113.0384248309856 202.33513462918927 0 202.33513462918927 -270.25733041678541 0 0 0 0 382.70303778932794 137.04672000269238 0 137.04672000269238 -37.817407777556582 0 0 0 0 111.89580088626826 273.29324054383324 0 273.29324054383324 -32.523458195209969 0 0 0 0 0.71101749543610282 -0.96463215556372006 0 -0.96463215556372006 2.4642988829547932 0 0 0 0 -455.90141475247219 146.05872912765699 0 146.05872912765699 297.90395105352582 0 0 0 0 57.990298262855504 -94.736725283375563 0 -94.736725283375563 -126.34594066680711 0 0 0 0 43.570648058113875 -21.415155647282518 0 -21.415155647282518 0.21070473293366376 0 0 0 0 166.84940250671207 -39.650565069297045 0 -39.650565069297045 -3.4224094461969798 0 0 0 0 136.47190687035618 15.262666537028053 0 15.262666537028053 -47.884362307406263 0 0 0 0 5.021468681654369 -15.055231846879906 0 -15.055231846879906 -9.6887953835866938 0 0 0 0 120.05996879757731 12.349431412563717 0 12.349431412563717 -60.415484978344466 0 0 0 0 125.76204520415922 44.673914183014858 0 44.673914183014858 58.756398327974239 0 0 0 0 -175.6516966191266 91.230851145928682 0 91.230851145928682 -59.482699105690699 0 0 0 0 -139.80305437769857 145.92357018639814 0 145.92357018639814 -91.527829104808916 0 0 0 0 -87.829544054628059 86.848605481667619 0 86.848605481667619 -34.991056878048767 0 0 0 0 -185.81191978709103 140.45351277410373 0 140.45351277410373 -59.674175372900208 0 0 0 0 -180.73585868706868 23.829103984247922 0 23.829103984247922 -13.758148742415869 0 0 0 0 -6.2073243345294031 28.238732413119578 0 28.238732413119578 -39.735244588655405 0 0 0 0 -102.42338115218081 57.293188622619709 0 57.293188622619709 -32.457217819814105 0 0 0 0 37.813712168644997 0.72101703458611155 0 0.72101703458611155 -62.564358974188508 0 0 0 0 -41.011552071606275 27.745557594909769 0 27.745557594909769 -63.888436270968668 0 0 0 0 26.19742388677696 54.492096741107162 0 54.492096741107162 -169.25469348544357 0 0 0 0 -8.6186530313570984 9.6338268804774998 0 9.6338268804774998 -9.5779157543056499 0 0 0 0 31.094619395218615 2.2643217627137346 0 2.2643217627137346 -108.16318025471264 0 0 0 0 -25.961200701320195 16.273551764335934 0 16.273551764335934 -11.528085140431358 0 0 0 0 0.91006306491181022 6.4024696207598026 0 6.4024696207598026 -65.345237256295377 0 0 0 0 -74.352027471148176 -46.207277898130997 0 -46.207277898130997 34.798447713132191 0 0 0 0 0.30452569046002509 0.4217109462967219 0 0.4217109462967219 0.38783172646719066 0 0 0 0 -27.208374571837339 83.341164127838056 0 83.341164127838056 -241.99838386155898 0 0 0 0 45.383325069302373 27.664196885210913 0 27.664196885210913 -73.46724104340592 0 0 0 0 8.3551195172470756 8.3479942794496953 0 8.3479942794496953 6.0690512164705623 0 0 0 0 7.0182043457461987 90.163293822130981 0 90.163293822130981 -359.38797744179101 0 0 0 0 -11.645193694428599 17.527893021746422 0 17.527893021746422 -8.7889674541729619 0 0 0 0 1.9544335114422466 1.2363172441829331 0 1.2363172441829331 0.86226268270117856 0 0 0 0 3.2068957895476728 3.1923365170742457 0 3.1923365170742457 0.7669560078276163 0 0 0 0 20.585880923361401 8.2948181115807529 0 8.2948181115807529 -16.876551047576868 0 0 0 0 -0.88789945799726411 3.3316268300322918 0 3.3316268300322918 -23.785060814454482 0 0 0 0 0.51305673677899222 -0.54036959257327766 0 -0.54036959257327766 -3.8131912233705236 0 0 0 0 -153.65065560631047 118.98802153151155 0 118.98802153151155 -93.440453915791295 0 0 0 0 -153.76289021541015 124.3536849741522 0 124.3536849741522 -98.989662409971061 0 0 0 0 -136.53055098161349 112.240024158089 0 112.240024158089 -104.64548889724392 0 0 0 0 -131.12377909330826 122.96412260764191 0 122.96412260764191 -105.08496660723176 0 0 0 0 -129.72963698387321 127.09215134025771 0 127.09215134025771 -110.24135513004148 0 0 0 0 -125.45208940254815 147.25697425770886 0 147.25697425770886 -142.72075896759998 0 0 0 0 -166.90893737977603 118.01750755672265 0 118.01750755672265 -101.93201215937734 0 0 0 0 -161.07230443615845 135.84911328958333 0 135.84911328958333 -108.12485576941617 0 0 0 0 -0.36764843462783858 -0.26701737943302817 0 -0.26701737943302817 -1.066737540484425 0 0 0 0 -298.70105471290663 211.54110398708326 0 211.54110398708326 -112.62435043747246 0 0 0 0 41.583419689137372 -31.130433290923975 0 -31.130433290923975 -29.966878070283201 0 0 0 0 -11.585231303735782 9.5723641107915682 0 9.5723641107915682 15.418128581397468 0 0 0 0 -109.56515691026652 154.45335811539553 0 154.45335811539553 -223.82864755761875 0 0 0 0 -88.761048353873775 95.927656804668004 0 95.927656804668004 -153.82361962137293 0 0 0 0 -124.63459993899596 87.570394313989709 0 87.570394313989709 -86.729797538057028 0 0 0 0 -93.117270976945292 107.96298508983 0 107.96298508983 -77.937575227513662 0 0 0 0 -78.88102242101013 125.79979804215327 0 125.79979804215327 -81.091172173492851 0 0 0 0 -163.38883074065416 115.01768372381412 0 115.01768372381412 -81.607217436103383 0 0 0 0 -79.127645821568876 15.944238881452293 0 15.944238881452293 12.378385567039004 0 0 0 0 -17.098060517722317 1.416503402922654 0 1.416503402922654 12.517979421428279 0 0 0 0 -58.548384138481197 96.535640673927446 0 96.535640673927446 -118.78178062082225 0 0 0 0 -37.532359902237658 79.957709144271575 0 79.957709144271575 -97.003305288078991 0 0 0 0 -88.780172712373314 109.29616562283445 0 109.29616562283445 -93.799102009081253 0 0 0 0 -40.112884529885264 26.985506489915707 0 26.985506489915707 -42.933535112071695 0 0 0 0 -90.0580279006208 85.397576866515919 0 85.397576866515919 -44.945132920656761 0 0 0 0 -103.79894870333374 114.25847271866769 0 114.25847271866769 -85.093641170370574 0 0 0 0 -71.351940370579541 119.22902368889845 0 119.22902368889845 -121.13314628889202 0 0 0 0 -87.047537139478663 102.56103386377072 0 102.56103386377072 -92.121677604600336 0 0 0 0 -72.068142347430694 119.55480041171904 0 119.55480041171904 -120.51804918992525 0 0 0 0 -86.21950822439976 113.59873697103467 0 113.59873697103467 -119.16520541903083 0 0 0 0 -85.940561040930334 119.37729215002037 0 119.37729215002037 -126.99431943294985 0 0 0 0 -96.122517672221875 111.41027465043226 0 111.41027465043226 -106.30150174763548 0 0 0 0 -96.107957211672328 111.13502178473937 0 111.13502178473937 -107.36563828519866 0 0 0 0 -62.800422581640305 112.45921659187661 0 112.45921659187661 -123.69678266317715 0 0 0 0 -55.271209613303654 108.85720101880725 0 108.85720101880725 -110.75803004714908 0 0 0 0 -61.804222449725785 119.15499864133744 0 119.15499864133744 -89.869977413734887 0 0 0 0 -133.1457749488327 118.29331406882557 0 118.29331406882557 -94.361964104948129 0 0 0 0 -65.057384558252124 125.32544870936249 0 125.32544870936249 -117.28634974858869 0 0 0 0 -35.895313855340646 119.27709320673239 0 119.27709320673239 -118.4797036790078 0 0 0 0 -85.693247021208663 184.447207303494 0 184.447207303494 -48.401082286261953 0 0 0 0 -4.073682731424924 212.63713529657616 0 212.63713529657616 -63.101996179764683 0 0 0 0 93.141931423226197 154.10565094480171 0 154.10565094480171 -119.94348124491808 0 0 0 0 15.188360896179802 249.17815247741237 0 249.17815247741237 -1.2032746064433013 0 0 0 0 26.938143174425932 274.21534869531752 0 274.21534869531752 -25.740520742601802 0 0 0 0 85.464165114524803 384.24264412364755 0 384.24264412364755 81.706516729704163 0 0 0 0 231.05914290629516 187.70126029428411 0 187.70126029428411 355.85575989913377 0 0 0 0 227.34274641090451 409.10136297647841 0 409.10136297647841 52.52827031956258 0 0 0 0 1.3354304340573151 2.5762537304177062 0 2.5762537304177062 1.792591540843631 0 0 0 0 -42.605092173384037 77.382469504220353 0 77.382469504220353 -56.030980025578174 0 0 0 0 0.11546702667420305 1.3559419334142291 0 1.3559419334142291 1.7852987198519088 0 0 0 0 81.328189117528382 200.55193968616368 0 200.55193968616368 477.31185995353371 0 0 0 0 179.78616012373914 167.0252783525093 0 167.0252783525093 -97.623544179579767 0 0 0 0 -39.838586817262694 65.726003548439621 0 65.726003548439621 -115.18008213847315 0 0 0 0 -153.10760594032763 110.83193488674078 0 110.83193488674078 -74.636939469150093 0 0 0 0 -96.422863484825939 89.304764123960922 0 89.304764123960922 -89.559114909992786 0 0 0 0 5.8192904842887216 4.4285192330231951 0 4.4285192330231951 -4.0854053611446943 0 0 0 0 -138.01432284377552 137.58296910114495 0 137.58296910114495 -110.35248387826141 0 0 0 0 -2.6946455158613389 18.359126330338768 0 18.359126330338768 -18.760521680791499 0 0 0 0 -1.3484372852138335 0.81116565466982493 0 0.81116565466982493 -1.0378583734666122 0 0 0 0 39.600538222002797 230.12169839807029 0 230.12169839807029 -207.01307567315598 0 0 0 0 -15.99342820228776 -1.4944527874176856 0 -1.4944527874176856 -15.964876312762499 0 0 0 0 2.7228674303785141 7.4605795516843063 0 7.4605795516843063 6.4215529915922573 0 0 0 0 9.3106867017049808 377.37265604164349 0 377.37265604164349 -168.01358322149827 0 0 0 0 -201.47573395463405 223.11508158537981 0 223.11508158537981 -19.835314476302301 0 0 0 0 37.098815849981293 431.89995358697752 0 431.89995358697752 121.18381592714286 0 0 0 0 57.081785143571324 223.26570831659774 0 223.26570831659774 -24.17393560558412 0 0 0 0 -154.80219978692912 310.37109566919207 0 310.37109566919207 660.25914491491494 0 0 0 0 -118.03336866583413 40.384709759669931 0 40.384709759669931 258.81557122212507 0 0 0 0 -253.92354183681164 -81.529871232302867 0 -81.529871232302867 383.87158186918896 0 0 0 0 -113.12762221796584 -38.638455569369398 0 -38.638455569369398 -78.90560908268526 0 0 0 0 -219.87021452825866 31.930223554007171 0 31.930223554007171 448.05660356482349 0 0 0 0 -210.27846800383122 -102.55933737709529 0 -102.55933737709529 687.24028231772115 0 0 0 0 172.70897360755771 340.28742797520317 0 340.28742797520317 -694.71305465459955 0 0 0 0 5.606584375084239 5.6254440180647549 0 5.6254440180647549 4.3887301062916606 0 0 0 0 -261.81183618689465 252.29257488304393 0 252.29257488304393 -544.45196314466375 0 0 0 0 254.12627426138715 554.86015629816166 0 554.86015629816166 -378.05208221965586 0 0 0 0 -182.14092343104585 574.91316480002092 0 574.91316480002092 -580.01248552115067 0 0 0 0 14.389496634919254 14.504512675887657 0 14.504512675887657 10.809050918847539 0 0 0 0 163.54571001575823 -37.800084285450794 0 -37.800084285450794 -197.66958245725255 0 0 0 0 44.527047071009292 147.5195542286383 0 147.5195542286383 -222.42663460631593 0 0 0 0 100.70468706689644 -69.577595657041911 0 -69.577595657041911 57.668035814240284 0 0 0 0 -51.115098843307351 -34.249107600432581 0 -34.249107600432581 103.34034338151469 0 0 0 0 144.40051934950316 337.79117676421083 0 337.79117676421083 -45.524124032433974 0 0 0 0 244.21842022459896 278.14961298113849 0 278.14961298113849 387.79762270740139 0 0 0 0 107.88384005461921 8.9915935192675533 0 8.9915935192675533 -118.34113858262572 0 0 0 0 20.71604185338947 140.48997660729219 0 140.48997660729219 -160.55167330786026 0 0 0 0 -103.90645286910876 -31.679078873296021 0 -31.679078873296021 -56.34768352370611 0 0 0 0 41.619811565877171 -22.691731365759551 0 -22.691731365759551 47.711981117705818 0 0 0 0 0.30057366815481856 -0.035872370518028163 0 -0.035872370518028163 -4.0771678462518821 0 0 0 0 133.10712769444581 -70.71056677915476 0 -70.71056677915476 -59.810310201726679 0 0 0 0 0.79671291518752696 27.99134207532552 0 27.99134207532552 -77.143529014299929 0 0 0 0 -137.09974590501952 168.44379799579292 0 168.44379799579292 -74.662143514316995 0 0 0 0 -93.785641218066303 46.867102371346846 0 46.867102371346846 -53.160586402926128 0 0 0 0 19.685859733821417 8.6315952120312431 0 8.6315952120312431 -52.637250024555215 0 0 0 0 10.509803691109482 22.83243262350743 0 22.83243262350743 -46.034035507836961 0 0 0 0 6.2061242390871882 5.263324912037799 0 5.263324912037799 -3.832733770927284 0 0 0 0 23.427030088118045 11.098409041263949 0 11.098409041263949 -19.410798724180495 0 0 0 0 21.347849867823243 4.0972419992067444 0 4.0972419992067444 -40.614751367502322 0 0 0 0 11.836817231349414 18.002024161148256 0 18.002024161148256 -30.403512596159999 0 0 0 0 -85.121180988840933 81.293013172302381 0 81.293013172302381 183.26090355978704 0 0 0 0 -50.475512626439809 402.01687797038016 0 402.01687797038016 -186.33490113265725 0 0 0 0 -34.114658231948852 -308.94354114015368 0 -308.94354114015368 -196.19854942506936 0 0 0 0 108.98788989485183 102.0978647049451 0 102.0978647049451 -230.30744658168624 0 0 0 0 38.34039334190129 -47.886518169762894 0 -47.886518169762894 9.4496185212665296 0 0 0 0 1.8651467705182938 -0.2282678449450124 0 -0.2282678449450124 0.40797549605754568 0 0 0 0 -156.00602851239819 99.610832043834307 0 99.610832043834307 -59.063196348866768 0 0 0 0 33.314613938855473 45.243984276974516 0 45.243984276974516 -44.029947458142487 0 0 0 0 42.862610995525756 15.703350291493734 0 15.703350291493734 36.725494749087375 0 0 0 0 98.292984445335605 109.02758372663175 0 109.02758372663175 -54.258887384152331 0 0 0 0 -2.4431230491057221 2.5547710853246741 0 2.5547710853246741 -2.9642995713030231 0 0 0 0 -123.74235533773481 -64.521803736476159 0 -64.521803736476159 -42.340737879785593 0 0 0 0 94.209845966681314 -59.750760139851991 0 -59.750760139851991 -455.60579129538928 0 0 0 0 -32.137055671501003 -27.419067885177355 0 -27.419067885177355 -43.96195610794166 0 0 0 0 -8.0848063997036661 36.855660047449419 0 36.855660047449419 45.13222664942441 0 0 0 0 -88.818265527930635 -9.4487395722680958 0 -9.4487395722680958 45.071254793409025 0 0 0 0 -40.457622707850533 29.066393350061844 0 29.066393350061844 67.037489725240448 0 0 0 0 -15.305808623474149 12.945257288876746 0 12.945257288876746 70.193529876931279 0 0 0 0 17.171514422239852 25.136842342086311 0 25.136842342086311 46.075822214661457 0 0 0 0 -41.643577653320563 -6.4277168908687941 0 -6.4277168908687941 17.014747788845852 0 0 0 0 109.05837187219004 43.91863228803777 0 43.91863228803777 5.4436950282015459 0 0 0 0 103.76141110267781 46.034255319967087 0 46.034255319967087 141.9715402880538 0 0 0 0 12.466137724579312 38.552213019602277 0 38.552213019602277 125.27364721940103 0 0 0 0 268.33379053481622 64.338671464902291 0 64.338671464902291 -40.098652097349259 0 0 0 0 191.90073139871674 88.631360261673763 0 88.631360261673763 179.57908781386504 0 0 0 0 233.34687726089032 55.83117366829174 0 55.83117366829174 90.534670298777201 0 0 0 0 307.11206824255351 262.03302614043423 0 262.03302614043423 268.10242537452723 0 0 0 0 222.77255091188272 50.602835074954783 0 50.602835074954783 -26.869650700471539 0 0 0 0 171.96215045383406 113.67086205425051 0 113.67086205425051 -56.87888566374022 0 0 0 0 166.38409854774363 31.969529970474468 0 31.969529970474468 -148.5481281252687 0 0 0 0 -288.92435419232061 333.08771933005664 0 333.08771933005664 85.718617580248974 0 0 0 0 0.33523767415424288 0.44127664996092619 0 0.44127664996092619 -1.0018414149442663 0 0 0 0 97.94629654387245 377.5786031046373 0 377.5786031046373 77.783696611784762 0 0 0 0 215.68018909325474 451.7112959226597 0 451.7112959226597 44.12936767670908 0 0 0 0 -108.47419940865075 266.78889883423108 0 266.78889883423108 49.85550957810392 0 0 0 0 -5.9671380229119677 439.40000620963838 0 439.40000620963838 137.11492501609246 0 0 0 0 1.6719084833465416 2.4550292129303486 0 2.4550292129303486 2.7506000610464554 0 0 0 0 -169.99850652974419 99.542233105275045 0 99.542233105275045 -89.083632395948371 0 0 0 0 -400.23186073086981 293.84011107507649 0 293.84011107507649 83.420482730974982 0 0 0 0 1060.9299526599643 95.822087173312866 0 95.822087173312866 -154.47244836455866 0 0 0 0 382.31040884620597 125.06307214733715 0 125.06307214733715 31.150029009302671 0 0 0 0 721.69068540958688 362.09827930670872 0 362.09827930670872 104.77228397602812 0 0 0 0 702.09192781327874 69.929538861932087 0 69.929538861932087 -139.40245730635797 0 0 0 0 666.62448975325606 -32.308324247421751 0 -32.308324247421751 -109.81140782403236 0 0 0 0 466.45250597933773 192.01563064696165 0 192.01563064696165 45.111227485787822 0 0 0 0 242.65210976924573 49.427277579605288 0 49.427277579605288 -34.225445021651467 0 0 0 0 520.42844545039407 172.09798762304854 0 172.09798762304854 -82.777753740469052 0 0 0 0 654.53846384184726 -36.475284844742418 0 -36.475284844742418 -169.56097883217444 0 0 0 0 454.72727257751103 41.077517828862256 0 41.077517828862256 -98.041566776650143 0 0 0 0 -106.4385531840162 119.37017883099907 0 119.37017883099907 -90.409994639248907 0 0 0 0 -1.1243325068879528 7.4321729693163832 0 7.4321729693163832 6.9560688976424245 0 0 0 0 118.73969254815529 173.54836166904806 0 173.54836166904806 184.10558784828027 0 0 0 0 -92.716121305209526 112.04217639132548 0 112.04217639132548 -105.56548532019951 0 0 0 0 674.68341941688413 39.595751475146244 0 39.595751475146244 -113.86883230497915 0 0 0 0 616.11740258881764 127.48117302629907 0 127.48117302629907 -59.842300765794789 0 0 0 0 -3.6777786346617205 3.6341295948028076 0 3.6341295948028076 1.1809837242269055 0 0 0 0 652.45098140882646 387.60897024535711 0 387.60897024535711 101.51891455322402 0 0 0 0 610.26451836230262 124.68062131309671 0 124.68062131309671 141.1541053991059 0 0 0 0 316.88751198545651 165.24403034714487 0 165.24403034714487 82.625243979950142 0 0 0 0 -4.98446777409481 33.362568186394128 0 33.362568186394128 49.14243229246722 0 0 0 0 334.75230462397212 138.50178097953676 0 138.50178097953676 -15.5582834406232 0 0 0 0 8.4806170724532706 20.974141405376507 0 20.974141405376507 -5.2927140082497743 0 0 0 0 3.2110695267013512 1.6029949621905786 0 1.6029949621905786 -3.3849047783444206 0 0 0 0 14.837574770732317 8.2479591223382158 0 8.2479591223382158 -22.052156889504658 0 0 0 0 14.85441930606612 6.422360983672661 0 6.422360983672661 -46.649759886534866 0 0 0 0 386.59114740169252 200.93985045307704 0 200.93985045307704 20.654284703017765 0 0 0 0 405.00530372769072 67.513122730494842 0 67.513122730494842 4.6453478414514393 0 0 0 0 0.073493794925326483 0.46184807265065331 0 0.46184807265065331 -0.78147702691747156 0 0 0 0 29.965030503764865 28.738649066825019 0 28.738649066825019 -43.69510398782586 0 0 0 0 26.236164417619875 26.135684771501474 0 26.135684771501474 -44.556585202175484 0 0 0 0 15.679243501814199 34.100220921357504 0 34.100220921357504 -35.097192465236731 0 0 0 0 34.35406363178663 47.853529512640307 0 47.853529512640307 -29.321097620701039 0 0 0 0 30.345655610484755 34.759292395850025 0 34.759292395850025 -55.128169642564899 0 0 0 0 2.976811122498475 45.676485455922375 0 45.676485455922375 -8.0776502681565034 0 0 0 0 13.551944769540569 61.718937399975403 0 61.718937399975403 -0.48334918095133617 0 0 0 0 15.175675432263233 -131.96684320552777 0 -131.96684320552777 -174.73519201726594 0 0 0 0 317.60208181204507 31.20618703819855 0 31.20618703819855 -180.64100948738019 0 0 0 0 64.72290437688207 89.796911271665522 0 89.796911271665522 31.520566968240018 0 0 0 0 66.062755796679994 83.484324498458591 0 83.484324498458591 -31.374665499393814 0 0 0 0 121.30734930871404 14.659453120035323 0 14.659453120035323 -36.217733055324061 0 0 0 0 248.20012999314349 63.759011445632495 0 63.759011445632495 -17.906288321344618 0 0 0 0 165.35502379418176 127.37172590528644 0 127.37172590528644 44.890417088157847 0 0 0 0 48.808335819087006 75.388670672045464 0 75.388670672045464 102.69869102721714 0 0 0 0 151.88440600149625 123.27916746382834 0 123.27916746382834 170.03421281238116 0 0 0 0 129.10652917642437 66.130312044773746 0 66.130312044773746 70.894249622837378 0 0 0 0 -8.8894567604147596 52.759850149097474 0 52.759850149097474 37.867597501637647 0 0 0 0 15.467777408899565 72.257613558802404 0 72.257613558802404 47.701784250151832 0 0 0 0 43.499000651943788 55.436341816909589 0 55.436341816909589 41.501953995139047 0 0 0 0 -2.6580072428041603 63.294408396057406 0 63.294408396057406 75.756685986438242 0 0 0 0 -16.584426369434368 32.827500493684056 0 32.827500493684056 30.242449308898358 0 0 0 0 -30.96745387838746 26.82139608675061 0 26.82139608675061 51.230742328043561 0 0 0 0 -34.377937431432656 9.8571023720942321 0 9.8571023720942321 10.64462585365618 0 0 0 0 -28.642274035039009 17.895545924309772 0 17.895545924309772 -4.3344882687815698 0 0 0 0 -26.43981758296286 26.996951622713823 0 26.996951622713823 24.257924346629807 0 0 0 0 -14.766957297000772 35.43165438698361 0 35.43165438698361 -1.4284260536005604 0 0 0 0 -10.828899838640723 9.8337910732854681 0 9.8337910732854681 -6.4707608755384882 0 0 0 0 -24.350877622892313 23.895366982898508 0 23.895366982898508 -8.6930554772443429 0 0 0 0 -22.287628037855029 14.652333828140399 0 14.652333828140399 -9.4878713846760547 0 0 0 0 -21.939052148642077 11.296760538689341 0 11.296760538689341 1.716224227915518 0 0 0 0 -24.438908348155564 24.095821561550338 0 24.095821561550338 1.1160451962205116 0 0 0 0 8.5663360713492409 5.6712591941766348 0 5.6712591941766348 -6.0127990812460297 0 0 0 0 -9.9380440669046948 28.755729441529184 0 28.755729441529184 -21.42004876408464 0 0 0 0 2.6858157239912543 45.839322798914509 0 45.839322798914509 1.6823957325468655 0 0 0 0 -3.6110349873124505 39.822279878932022 0 39.822279878932022 -20.873603261496498 0 0 0 0 7.7785299035749631 27.262355360530819 0 27.262355360530819 -30.480698307910643 0 0 0 0 -39.876245896592991 53.39767385514665 0 53.39767385514665 -19.07287676759006 0 0 0 0 11.534978277972584 5.8176482933948535 0 5.8176482933948535 -3.5136184656706746 0 0 0 0 -48.47510521735876 105.55851764935278 0 105.55851764935278 -76.995831854044809 0 0 0 0 -91.034083841084794 117.06687620988487 0 117.06687620988487 -29.227811138636753 0 0 0 0 -110.6625971158719 100.50844602450525 0 100.50844602450525 -38.516354397304895 0 0 0 0 11.501746356317 8.7353678627200537 0 8.7353678627200537 -2.802261949330493 0 0 0 0 -44.308715204982946 7.3464812202460053 0 7.3464812202460053 -24.122964952013717 0 0 0 0 -48.447701726152445 169.46681666619043 0 169.46681666619043 -124.44566172747545 0 0 0 0 -64.302155643790684 187.47742740884996 0 187.47742740884996 -121.20627415250419 0 0 0 0 -106.82763458738191 136.95902108387236 0 136.95902108387236 -44.089149266044842 0 0 0 0 -43.347167678934056 117.91607765567642 0 117.91607765567642 -124.74310903385594 0 0 0 0 -38.550333706283709 84.161636590613853 0 84.161636590613853 -45.65622817024996 0 0 0 0 -31.349576873559272 140.37923134103403 0 140.37923134103403 -101.85873615518358 0 0 0 0 -0.09838580100404215 121.29493915291641 0 121.29493915291641 -133.50680861003639 0 0 0 0 -0.59081037061814357 0.63848243023073792 0 0.63848243023073792 -0.057351066796826444 0 0 0 0 -0.060322437806462403 67.54012803392834 0 67.54012803392834 -188.92955008371609 0 0 0 0 -68.242122956777166 69.922847200175966 0 69.922847200175966 -168.24081633336755 0 0 0 0 -37.107916122766255 128.07075321454658 0 128.07075321454658 -148.49926399557444 0 0 0 0 3.2287513700503041 20.633151935084243 0 20.633151935084243 -154.34973382937187 0 0 0 0 9.4023037299266434 -9.4826530482223461 0 -9.4826530482223461 -72.299766965154049 0 0 0 0 -3.4259066574159078 -5.7080287601711461 0 -5.7080287601711461 -1.6861760209085332 0 0 0 0 0.030195669639326184 2.0650904127598366 0 2.0650904127598366 -1.410409478413456 0 0 0 0 -35.931461056941771 21.1638787705906 0 21.1638787705906 -1.7939928045452689 0 0 0 0 -7.6810001459234627 17.434022920157076 0 17.434022920157076 -18.339448536593409 0 0 0 0 -27.831006544831325 8.7641410256837844 0 8.7641410256837844 -3.1199894692617818 0 0 0 0 -0.017896549983561272 3.1837465626649646 0 3.1837465626649646 -0.49437351708183996 0 0 0 0 1.489913420006701 0.32815852477824592 0 0.32815852477824592 -1.1494817899005056 0 0 0 0 111.77456071934648 -23.925470174761358 0 -23.925470174761358 -97.886636249477306 0 0 0 0 -5.2612933934069588 46.564139300633542 0 46.564139300633542 -55.040659544436494 0 0 0 0 3.1101648439507699 63.735084138788807 0 63.735084138788807 -98.730321688508411 0 0 0 0 41.424163834228239 -99.003673480125144 0 -99.003673480125144 -434.94620780844707 0 0 0 0 1.6746803236528649 -59.642728288526996 0 -59.642728288526996 40.232637286040699 0 0 0 0 40.136069435255195 -112.9665838743349 0 -112.9665838743349 38.732000861018605 0 0 0 0 -74.037301620599465 120.88419988412898 0 120.88419988412898 334.99275562590628 0 0 0 0 329.89342245695661 145.17164909533858 0 145.17164909533858 -878.57058654648426 0 0 0 0 -512.70039587080828 -390.33370840963835 0 -390.33370840963835 245.13275243357475 0 0 0 0 -46.465722364322573 -17.294164814898977 0 -17.294164814898977 1.4793101022478368 0 0 0 0 -45.051252509161714 -2.2117525762132573 0 -2.2117525762132573 12.528127211222454 0 0 0 0 -8.5541862257143464 7.3836669239361328 0 7.3836669239361328 -6.2314293284020508 0 0 0 0 -38.370477092787041 -23.080761338220327 0 -23.080761338220327 -11.408485449449927 0 0 0 0 143.89392195075925 266.04567716919337 0 266.04567716919337 -32.433207877678797 0 0 0 0 -29.228306018645526 -1.2294957436643017 0 -1.2294957436643017 -16.291377704779734 0 0 0 0 -34.813794105357374 6.0633074824800133 0 6.0633074824800133 16.776738018401375 0 0 0 0 37.007423482784361 -52.114922598182602 0 -52.114922598182602 -113.21186003916227 0 0 0 0 -60.936041272463626 -87.403413661431841 0 -87.403413661431841 -61.338250491825875 0 0 0 0 38.481004671964911 -43.299988066883088 0 -43.299988066883088 -62.53617530010888 0 0 0 0 -90.609037310925487 -191.71263195563006 0 -191.71263195563006 -106.31220699436381 0 0 0 0 -1.1617676254193086 2.1544363420472195 0 2.1544363420472195 -5.7635739681630866 0 0 0 0 -226.32193361594909 88.517146025643342 0 88.517146025643342 -45.225513004785171 0 0 0 0 -123.29367696952977 207.62415000816691 0 207.62415000816691 -262.3725828390925 0 0 0 0 -63.297047743086296 -11.292076841909875 0 -11.292076841909875 11.347640103087542 0 0 0 0 6.7941191102763696 14.714175373546823 0 14.714175373546823 -30.667442818099516 0 0 0 0 -0.87679531282435619 7.5115295382726401 0 7.5115295382726401 -16.300152321930724 0 0 0 0 68.999301081727026 18.556599827510581 0 18.556599827510581 -102.56883627332263 0 0 0 0 67.088356436383037 9.8563966435103794 0 9.8563966435103794 -141.90296934829257 0 0 0 0 33.486252489003164 21.637930271278492 0 21.637930271278492 -32.446431578689953 0 0 0 0 -3.7506737482872268 22.154584719195554 0 22.154584719195554 -7.1445674600254279 0 0 0 0 -0.48494893413138129 2.4184404374713679 0 2.4184404374713679 -6.0155372440691153 0 0 0 0 -22.893644687974302 11.067499586890335 0 11.067499586890335 -19.62159424246056 0 0 0 0 -21.055065765722247 33.767614730307969 0 33.767614730307969 -38.132172489058576 0 0 0 0 -15.903328937303741 48.135500043579668 0 48.135500043579668 -59.86530323117222 0 0 0 0 0.99275600419591115 -1.1199081845384811 0 -1.1199081845384811 -0.83640583702118931 0 0 0 0 -8.3875152151886141 65.903270816470013 0 65.903270816470013 -37.77520216639823 0 0 0 0 -0.064377525552117731 42.300847538235757 0 42.300847538235757 -6.5089779161116894 0 0 0 0 0.13925134790539764 57.81989095481827 0 57.81989095481827 -64.758896407023713 0 0 0 0 -32.454716869171534 63.484147329096231 0 63.484147329096231 -37.736354276698421 0 0 0 0 -29.811497103917645 48.096834879903327 0 48.096834879903327 -26.886009610205292 0 0 0 0 -105.39620909267978 96.3097977957068 0 96.3097977957068 -56.637313596169406 0 0 0 0 0.33270942090894096 5.0705079747731361 0 5.0705079747731361 -1.6799167643666806 0 0 0 0 -0.10857049896731041 5.5600096863988711 0 5.5600096863988711 1.055383727489243 0 0 0 0 -1.2329953750486311 4.6097844504722616 0 4.6097844504722616 0.98515080441575265 0 0 0 0 -2.9531797166802676 0.69338199261618261 0 0.69338199261618261 1.8495031710807561 0 0 0 0 -3.5701684078958351 -0.38746508225449361 0 -0.38746508225449361 1.2023341549902398 0 0 0 0 -0.44473620013453541 0.94385206648922804 0 0.94385206648922804 0.24796833551587127 0 0 0 0 144.97017959822551 146.78154228222229 0 146.78154228222229 120.53523163075988 0 0 0 0 1.2091484677512199e-05 3.0656203557691697 0 3.0656203557691697 -4.3981817604089883 0 0 0 0 0.83583161588467192 2.8002583436664281 0 2.8002583436664281 -6.4089740137633271 0 0 0 0 -20.054152007101948 -20.975118980747993 0 -20.975118980747993 -46.035233249935118 0 0 0 0 0.37960462065689171 -1.1276429250348521 0 -1.1276429250348521 -1.2093910503140712 0 0 0 0 0.18856559559208108 1.745574487003978 0 1.745574487003978 -4.5765553267629002 0 0 0 0 -0.91092566877183856 2.5018052946667098 0 2.5018052946667098 -2.4693289345397318 0 0 0 0 -0.00079940307477954775 3.1441089482568714 0 3.1441089482568714 -0.36282703478900658 0 0 0 0 0.34010231459978968 2.8039948464302142 0 2.8039948464302142 -1.8908558054524747 0 0 0 0 -0.51339190739236074 2.2427430885763897 0 2.2427430885763897 -1.9438081962416618 0 0 0 0 3.9876152003162133 4.2664899324290673 0 4.2664899324290673 -16.503348976999405 0 0 0 0 -0.2758552589075407 2.4355691804657909 0 2.4355691804657909 -0.46340333487569296 0 0 0 0 -0.64834798998585796 2.2666294924207051 0 2.2666294924207051 -1.1456425375614998 0 0 0 0 -0.17285519371216651 3.9625616683297267 0 3.9625616683297267 2.2138493882448529 0 0 0 0 4.2672130082355579 -1.3650092533625866 0 -1.3650092533625866 -13.353293450400088 0 0 0 0 -0.34480780526948251 -0.63152742848317445 0 -0.63152742848317445 -1.0513080047826548 0 0 0 0 2.3685949895643716 1.4570165533127692 0 1.4570165533127692 4.2754421842982993 0 0 0 0 -0.43358436253038235 3.2353299941532896 0 3.2353299941532896 1.3761802334752247 0 0 0 0 0.34832623058505874 2.3764406670076852 0 2.3764406670076852 -4.7790708204167061 0 0 0 0 0.9034220376124722 1.1719143953596358 0 1.1719143953596358 -9.6585578528120095 0 0 0 0 0.97322631545830518 2.6645521364089291 0 2.6645521364089291 -8.3481219548830268 0 0 0 0 1.9415080968401242 -0.25995643381225619 0 -0.25995643381225619 -8.1130532510427997 0 0 0 0 1.4370435971359257 4.114417964083259 0 4.114417964083259 -5.2943040830141399 0 0 0 0 0.10125665489249513 4.2636440292794759 0 4.2636440292794759 -0.066703325195703655 0 0 0 0 -0.39818134138727146 3.8323382437290974 0 3.8323382437290974 -1.5239915985318149 0 0 0 0 0.93609987930122429 1.5102231572465215 0 1.5102231572465215 -5.5564966931828685 0 0 0 0 -0.50822574726763037 5.3841346505988597 0 5.3841346505988597 -5.074015858046323 0 0 0 0 5.1905723696108907 3.4617131890317978 0 3.4617131890317978 -21.72090121552219 0 0 0 0 -1.7635462397055051 8.129743256095999 0 8.129743256095999 -2.4370058360106093 0 0 0 0 0.47658185542968567 5.9047727670263157 0 5.9047727670263157 -18.320192272956774 0 0 0 0 1.446245919195519 5.7465450501773248 0 5.7465450501773248 -10.017188910797126 0 0 0 0 -4.0767600337239855 8.8290763883842374 0 8.8290763883842374 -17.282628428500175 0 0 0 0 -0.91326343678520061 6.2683393787228852 0 6.2683393787228852 -6.9801235951199487 0 0 0 0 -4.3381547821481945 7.9823292578412293 0 7.9823292578412293 74.314172529841017 0 0 0 0 -1.7590843879052329 8.1121658296704986 0 8.1121658296704986 -2.2528004130722152 0 0 0 0 -11.157155229724594 16.938127970612186 0 16.938127970612186 113.27738225760913 0 0 0 0 -1.0276380054638139 6.335118905129093 0 6.335118905129093 -4.4905627624611952 0 0 0 0 -1.2741855612881636 7.7443784636991637 0 7.7443784636991637 0.26065061282991309 0 0 0 0 -0.34674134619302777 5.3343386288260746 0 5.3343386288260746 -1.4206797896256411 0 0 0 0 -2.2087576780177187 5.4909761305643769 0 5.4909761305643769 0.70578433657556161 0 0 0 0 -0.70610699123997733 3.9101793195138281 0 3.9101793195138281 3.6392046471705761 0 0 0 0 -1.3627521662729123 5.9229422670524627 0 5.9229422670524627 -0.64969111508253263 0 0 0 0 -1.4941903000068351 2.4330679125144883 0 2.4330679125144883 2.9619311980478855 0 0 0 0 2.6183249645400792 -70.946985827718891 0 -70.946985827718891 147.08889121976608 0 0 0 0 -7.7793630301457597 -35.480301484509255 0 -35.480301484509255 222.71934102015803 0 0 0 0 35.631874184837216 18.201153649239131 0 18.201153649239131 -9.6369101652881 0 0 0 0 86.628368965153641 -89.579947430773245 0 -89.579947430773245 199.30843957109391 0 0 0 0 -21.944079087323189 -86.880292317114254 0 -86.880292317114254 368.81389851727363 0 0 0 0 -20.755688755169103 -6.7584516211691152 0 -6.7584516211691152 245.70902406111418 0 0 0 0 -38.464310336334165 -36.398561144229461 0 -36.398561144229461 222.90324672910583 0 0 0 0 -65.272522859348101 56.109674825463117 0 56.109674825463117 283.35472069307434 0 0 0 0 -95.925927490156027 93.088384358676194 0 93.088384358676194 243.60999053714852 0 0 0 0 -87.905316625241539 58.868090548115106 0 58.868090548115106 394.0438390917916 0 0 0 0 -49.712066370408138 47.159819086958123 0 47.159819086958123 165.0276982496689 0 0 0 0 -38.854570237723237 60.525911084760082 0 60.525911084760082 117.793376050191 0 0 0 0 -53.629032783544972 42.871926181143863 0 42.871926181143863 174.38342727774761 0 0 0 0 -72.1373637522629 104.28580875625812 0 104.28580875625812 191.30759075268361 0 0 0 0 -73.198814282353851 115.36643214604555 0 115.36643214604555 165.99912103007739 0 0 0 0 -117.28054552168396 177.1454077175049 0 177.1454077175049 187.27460378519027 0 0 0 0 -63.126293680252274 213.57747734566419 0 213.57747734566419 70.198335908331501 0 0 0 0 -106.080508192048 85.071645260923106 0 85.071645260923106 349.84316381706594 0 0 0 0 -138.37071350263432 162.89798203476494 0 162.89798203476494 269.48891928238345 0 0 0 0 -94.658221384401259 164.08846552877367 0 164.08846552877367 181.33040031120981 0 0 0 0 30.364421452322858 234.10167971159353 0 234.10167971159353 397.4983457826911 0 0 0 0 39.694341406640888 171.60811907641801 0 171.60811907641801 200.35394564180569 0 0 0 0 -44.54883047270414 65.760461517298609 0 65.760461517298609 313.42677621198527 0 0 0 0 -59.761558032563698 58.531981645534643 0 58.531981645534643 632.31772637084941 0 0 0 0 2.068025813141702 3.0723541409333279 0 3.0723541409333279 1.6727637489013176 0 0 0 0 24.885707312154409 8.4678768051580846 0 8.4678768051580846 3.7827168042349513 0 0 0 0 55.889623718430812 -188.93992196411955 0 -188.93992196411955 482.68927927394907 0 0 0 0 -0.21726040066278074 44.664994163161282 0 44.664994163161282 357.34479705653393 0 0 0 0 89.136600279027334 146.46861740832628 0 146.46861740832628 145.05320922021929 0 0 0 0 -1.3842963975766907 127.77100240200343 0 127.77100240200343 756.90365111782376 0 0 0 0 207.63312943869823 -40.142311840641014 0 -40.142311840641014 344.08748846495291 0 0 0 0 0.16500836256454932 179.63594272910086 0 179.63594272910086 176.60315459647973 0 0 0 0 65.532071142923087 80.730646696859822 0 80.730646696859822 -59.599495063725044 0 0 0 0 -42.782286912701238 234.9076155452326 0 234.9076155452326 30.463848452844104 0 0 0 0 -33.34847662858374 182.67715047694765 0 182.67715047694765 -81.773450453331407 0 0 0 0 0.051841574942955049 196.54138915992098 0 196.54138915992098 -157.18902538218026 0 0 0 0 -16.782277548772981 188.47689908855773 0 188.47689908855773 -158.71182862516071 0 0 0 0 -24.831655992769811 152.06326130348498 0 152.06326130348498 -154.08519256136242 0 0 0 0 -13.647549090510438 214.82498433605906 0 214.82498433605906 -217.0308471354092 0 0 0 0 -106.34237772471351 217.22911871404904 0 217.22911871404904 -117.22592982646165 0 0 0 0 -0.028946842338006717 180.0893296674472 0 180.0893296674472 -160.79926978038566 0 0 0 0 -58.261667237577058 54.628500613270262 0 54.628500613270262 -18.433645732926379 0 0 0 0 -153.72327421358932 -2.4757633995932338 0 -2.4757633995932338 10.728413082528277 0 0 0 0 -283.3740239944309 199.21972067136267 0 199.21972067136267 -54.356329118937538 0 0 0 0 -107.17330425599084 224.76345373195193 0 224.76345373195193 -116.77703542926974 0 0 0 0 -378.42501717829873 370.9450611688917 0 370.9450611688917 -186.49370186489705 0 0 0 0 -2.8006034087371887 2.3516110706396347 0 2.3516110706396347 -1.6795427202821003 0 0 0 0 -591.30986619228497 86.638292708097651 0 86.638292708097651 23.543578092747794 0 0 0 0 59.617084813948168 96.611954199418506 0 96.611954199418506 -277.56757131660561 0 0 0 0 16.506326626058581 274.32165077186983 0 274.32165077186983 -40.110494490672863 0 0 0 0 -227.36954689314007 553.63368535367681 0 553.63368535367681 -268.15040161006078 0 0 0 0 -56.099902665955597 257.60190986017301 0 257.60190986017301 -375.13733564965514 0 0 0 0 -178.66781640185218 42.608469047469043 0 42.608469047469043 -171.68196324288874 0 0 0 0 -392.88470868590593 191.64284584091183 0 191.64284584091183 63.922600140871509 0 0 0 0 -123.2307340761181 112.04718719011362 0 112.04718719011362 182.08770449001895 0 0 0 0 -123.94908508241679 250.42745942953104 0 250.42745942953104 61.615544438573124 0 0 0 0 -164.7267116222356 217.8437057166775 0 217.8437057166775 180.48660660924446 0 0 0 0 -124.8526288375715 357.88746495783289 0 357.88746495783289 -14.295358653937001 0 0 0 0 12.722278763896611 243.57638345787018 0 243.57638345787018 71.511764173574193 0 0 0 0 19.864868684519024 251.98494242406196 0 251.98494242406196 -51.474835787068514 0 0 0 0 167.92995733326825 240.44411764887445 0 240.44411764887445 -65.14074353068554 0 0 0 0 159.37971169259981 117.76392841625784 0 117.76392841625784 -71.035280835476442 0 0 0 0 82.530546565758414 114.89338672825215 0 114.89338672825215 -69.296429581670054 0 0 0 0 151.66882341241217 215.52967314657781 0 215.52967314657781 -99.610356094934104 0 0 0 0 201.66238318273099 131.07376722781783 0 131.07376722781783 -99.494592548584478 0 0 0 0 490.73635749678215 105.70586087931588 0 105.70586087931588 -98.393612676581142 0 0 0 0 320.18719127277654 105.78626305019225 0 105.78626305019225 -122.63277006530552 0 0 0 0 250.97466284877009 195.89294583048741 0 195.89294583048741 -132.12179356480192 0 0 0 0 28.772283976901235 315.08268072150804 0 315.08268072150804 -31.994416591569461 0 0 0 0 78.85759713051084 196.25843130691305 0 196.25843130691305 185.56228810579705 0 0 0 0 342.5301347427303 361.00518159748754 0 361.00518159748754 -150.2986622627559 0 0 0 0 321.37888418867806 -23.304087175759378 0 -23.304087175759378 118.63092775034238 0 0 0 0 256.57484873713838 183.9339609668823 0 183.9339609668823 251.38412623630575 0 0 0 0 535.37786035320278 195.78818654789802 0 195.78818654789802 20.657286033463606 0 0 0 0 2.9264403930064873 3.0486710594141186 0 3.0486710594141186 157.36619894249316 0 0 0 0 -2.0749476375013955 7.9394072227775894 0 7.9394072227775894 -5.90029926995458 0 0 0 0 587.19807951076473 73.446236327838051 0 73.446236327838051 4.7611555235962442 0 0 0 0 2.2927087826471393 3.1780453801530868 0 3.1780453801530868 -0.096215335689940673 0 0 0 0 75.082173533923196 -26.292003748522802 0 -26.292003748522802 -9.2876322715910646 0 0 0 0 272.50877250994654 119.23452355078621 0 119.23452355078621 30.064551048486464 0 0 0 0 157.01801619110483 -42.49957585285847 0 -42.49957585285847 19.925712387842282 0 0 0 0 48.953519916885853 23.403759418081108 0 23.403759418081108 2.1368313428647525 0 0 0 0 32.378401434358238 -26.135371574640658 0 -26.135371574640658 -19.867367083494173 0 0 0 0 278.90026545259752 61.483543629130509 0 61.483543629130509 -38.071625459706411 0 0 0 0 121.04610830343154 -12.071405857430364 0 -12.071405857430364 -24.460730184109707 0 0 0 0 163.79736297158524 56.67063520368356 0 56.67063520368356 -64.619253574244794 0 0 0 0 200.65657062050013 22.757111186911061 0 22.757111186911061 -43.348764089384986 0 0 0 0 127.48897678634967 44.537545766763287 0 44.537545766763287 -63.971753126564067 0 0 0 0 108.74545045010746 57.39613920626789 0 57.39613920626789 -65.652416942415584 0 0 0 0 68.538838840817334 54.221885378570732 0 54.221885378570732 -63.23372601635856 0 0 0 0 18.270964437644579 16.418755903841429 0 16.418755903841429 -39.249827639541763 0 0 0 0 83.731203806662961 16.464911144852067 0 16.464911144852067 -49.994601448954199 0 0 0 0 19.723691766288539 24.072716220145594 0 24.072716220145594 -31.552765446789635 0 0 0 0 21.926845089517883 30.11311256780391 0 30.11311256780391 -51.403290691639995 0 0 0 0 85.919114003598224 37.163409359782236 0 37.163409359782236 -63.480473867370165 0 0 0 0 -12.768610931874719 41.587964356971497 0 41.587964356971497 -66.862037891372893 0 0 0 0 -17.732711234348244 4.1876497851062595 0 4.1876497851062595 -42.071511389720399 0 0 0 0 19.723916888397071 36.122820924400003 0 36.122820924400003 -67.606127395985823 0 0 0 0 27.702508217887953 13.832578829165868 0 13.832578829165868 -87.952732634319545 0 0 0 0 -0.13227054806338856 87.4380873987011 0 87.4380873987011 -5.2654169860182947 0 0 0 0 17.687506595888408 19.712848458597364 0 19.712848458597364 -49.355911218633992 0 0 0 0 -5.9302621553544697 18.91664179347439 0 18.91664179347439 -29.229369413162274 0 0 0 0 -50.04828959153383 -9.1251748423164827 0 -9.1251748423164827 -43.019480033319269 0 0 0 0 21.736356618319405 16.367765178117224 0 16.367765178117224 -53.486486892888934 0 0 0 0 1.7931580855432117 8.1566121485086995 0 8.1566121485086995 -8.0211930898488646 0 0 0 0 29.026368418471066 28.259260937501836 0 28.259260937501836 -48.211079813088872 0 0 0 0 33.694031978557177 -37.162117649671018 0 -37.162117649671018 -168.70829271899856 0 0 0 0 -4.3114999074095977 30.416222006822409 0 30.416222006822409 51.77727347677228 0 0 0 0 -2.0166043048700715 -0.23697241283836945 0 -0.23697241283836945 0.5809487285787549 0 0 0 0 -28.379951492475811 -63.934627391030972 0 -63.934627391030972 -45.365742701523232 0 0 0 0 17.347908033443673 44.614426726780948 0 44.614426726780948 -15.131513917721009 0 0 0 0 28.102380442824142 28.991404936095364 0 28.991404936095364 -74.17851768030323 0 0 0 0 -8.5511837008727554 18.558976261282041 0 18.558976261282041 -24.565137418450799 0 0 0 0 37.716558475869533 69.058045386952472 0 69.058045386952472 -37.010195409708103 0 0 0 0 41.113857481934247 60.026920468937533 0 60.026920468937533 -15.990583207469456 0 0 0 0 119.24884130444843 80.406645175433368 0 80.406645175433368 -54.462298187518172 0 0 0 0 96.072673735419812 142.88092627157857 0 142.88092627157857 -16.962830874668725 0 0 0 0 30.783619173918851 110.77342222826337 0 110.77342222826337 -17.356325013629188 0 0 0 0 71.664966077467398 192.07742982271247 0 192.07742982271247 5.4206901761208428 0 0 0 0 34.235158269228123 133.73486265057727 0 133.73486265057727 53.234993496445895 0 0 0 0 -5.8459964271605713 178.33567830865468 0 178.33567830865468 6.8856903028208762 0 0 0 0 -12.552686536088004 173.75721475622231 0 173.75721475622231 97.341927405708702 0 0 0 0 -10.890621677448507 124.45832309326761 0 124.45832309326761 70.572597955138917 0 0 0 0 -20.536196263783495 71.342019749065003 0 71.342019749065003 75.901273198644276 0 0 0 0 -47.098903908678039 134.60993009639787 0 134.60993009639787 92.126528687407699 0 0 0 0 46.055447814651416 90.735598443599429 0 90.735598443599429 8.9307202466443414 0 0 0 0 12.239618133819022 62.981050278149269 0 62.981050278149269 17.060421259275245 0 0 0 0 2.777084307410405 61.50885942009063 0 61.50885942009063 23.551647047883307 0 0 0 0 -1.2942129908697098 22.246889203245928 0 22.246889203245928 -27.009417016155339 0 0 0 0 -6.302541149554429 13.275271982016513 0 13.275271982016513 -15.671990326787068 0 0 0 0 -7.5863333795277867 9.7489058067458245 0 9.7489058067458245 -6.9389404097410079 0 0 0 0 -8.0876629439430587 11.277501272377066 0 11.277501272377066 -8.3070179389853127 0 0 0 0 -5.4578790061401321 12.056506898684006 0 12.056506898684006 -3.1991029596405767 0 0 0 0 -2.9489532837215791 6.5830208081845951 0 6.5830208081845951 -9.7064576288905631 0 0 0 0 -5.8832810135645559 11.214470943587003 0 11.214470943587003 -15.476997420306361 0 0 0 0 -15.519925811953726 36.149132533400916 0 36.149132533400916 54.779219394193206 0 0 0 0 1.9293741170931753 60.436789492739535 0 60.436789492739535 77.146539421355556 0 0 0 0 -1.0878388720448129 11.140705530639707 0 11.140705530639707 -21.109381699784535 0 0 0 0 -1.3229939397135411 12.148981911885585 0 12.148981911885585 -14.722131678561871 0 0 0 0 1.308254273943021 18.638455823174468 0 18.638455823174468 -45.88753634274849 0 0 0 0 -3.9241525757970521 9.1115066583695565 0 9.1115066583695565 -18.247296302175691 0 0 0 0 0.3580592705454535 1.1126987855460762 0 1.1126987855460762 -6.4801698230164835 0 0 0 0 -0.24718157688243991 6.7565140039537965 0 6.7565140039537965 -12.755938856960565 0 0 0 0 -2.4044316230574623 15.358335726818268 0 15.358335726818268 -32.277637190140851 0 0 0 0 -4.8360085021540726 6.8162588839377349 0 6.8162588839377349 -29.690528384751701 0 0 0 0 15.626569882811054 344.7820949963762 0 344.7820949963762 -108.4567784338542 0 0 0 0 -2.0887012744866524 7.7788230434722134 0 7.7788230434722134 -7.7098369483814455 0 0 0 0 -5.0785351211064835 15.12073477015354 0 15.12073477015354 -22.829377339815796 0 0 0 0 100.89811425997868 -260.59795214062979 0 -260.59795214062979 619.05348740579211 0 0 0 0 224.31248121928365 -24.086595988979752 0 -24.086595988979752 -346.75348102177486 0 0 0 0 40.365513595112134 -155.85562280771046 0 -155.85562280771046 99.868286082390114 0 0 0 0 234.43060401816911 -141.78331026506385 0 -141.78331026506385 -259.70992639293218 0 0 0 0 3.7219711107100011 -0.56859203792737389 0 -0.56859203792737389 -113.21408464587876 0 0 0 0 -22.078224734446849 1.1897044195884519 0 1.1897044195884519 -36.096738179045133 0 0 0 0 3.5730390649478068 80.578150037502382 0 80.578150037502382 120.52800440619393 0 0 0 0 65.387532171625935 76.897251844248785 0 76.897251844248785 0.32755017078420678 0 0 0 0 -0.37990127658395068 2.477066975547153 0 2.477066975547153 -7.040504579620988 0 0 0 0 -11.402501482321696 20.255992229560441 0 20.255992229560441 -29.444388688314223 0 0 0 0 -10.27948448760435 0.64449360293565405 0 0.64449360293565405 -14.461276922441357 0 0 0 0 15.900336122984299 6.4304588742209035 0 6.4304588742209035 -15.783252823234761 0 0 0 0 -15.412477726888028 24.406276194225939 0 24.406276194225939 -2.6644806063513897 0 0 0 0 -4.0415811136057016 1.7767678924833845 0 1.7767678924833845 -7.6769512530957105 0 0 0 0 1.0527964302309556 32.349322758854214 0 32.349322758854214 0.62062963747348476 0 0 0 0 -0.38774997017408452 5.4394538938516206 0 5.4394538938516206 -4.0994598631833199 0 0 0 0 72.121427140118612 2.1562181350434457 0 2.1562181350434457 -65.43128958372381 0 0 0 0 -25.571142965673062 41.378099106238096 0 41.378099106238096 16.759975482817026 0 0 0 0 -23.99795278977399 35.873645038627274 0 35.873645038627274 -0.12136798635128798 0 0 0 0 -9.880563646558187 20.180263287888579 0 20.180263287888579 -31.685034196988827 0 0 0 0 -11.465814301360297 26.97788501283253 0 26.97788501283253 -1.394081008302237 0 0 0 0 -40.279805273863531 11.903262473730365 0 11.903262473730365 -13.701301498187604 0 0 0 0 -28.204033701855224 35.50425097441348 0 35.50425097441348 -0.23890847900293011 0 0 0 0 -19.564621256147802 -5.4877217037801529 0 -5.4877217037801529 -26.547828606150688 0 0 0 0 0.91297881370701361 0.04827122645698978 0 0.04827122645698978 -0.038972639289966082 0 0 0 0 85.977511148048507 -43.636324441043143 0 -43.636324441043143 58.837644847191768 0 0 0 0 10.917516971512825 16.151210237479773 0 16.151210237479773 -33.759340217808976 0 0 0 0 -63.587796685700596 52.249820421352524 0 52.249820421352524 -50.877983632824908 0 0 0 0 133.68395354502718 -50.562540294298742 0 -50.562540294298742 -43.394825406976452 0 0 0 0 -62.149421377929684 28.009022346007441 0 28.009022346007441 -24.810896527607838 0 0 0 0 24.578237412002636 26.178006381605883 0 26.178006381605883 -43.298085186539538 0 0 0 0 6.5512314830702962 42.735987928268514 0 42.735987928268514 -34.071753431679099 0 0 0 0 70.341379315559607 86.233052933775753 0 86.233052933775753 -59.127604876826808 0 0 0 0 338.69834182423801 63.097351129401432 0 63.097351129401432 -105.15499544476552 0 0 0 0 82.91381753911628 46.681842640064133 0 46.681842640064133 -54.239276958431219 0 0 0 0 57.978132540876686 80.896177861191063 0 80.896177861191063 -60.83979555777114 0 0 0 0 39.367596825719374 90.10194384735405 0 90.10194384735405 -39.904458779557899 0 0 0 0 6.2159076093448675 57.611308327841471 0 57.611308327841471 -45.374312699977963 0 0 0 0 12.76487206031743 33.504828683415326 0 33.504828683415326 -54.329604212702179 0 0 0 0 -10.172944657784683 45.239752771830354 0 45.239752771830354 -52.696213996650158 0 0 0 0 -12.226346418128259 34.770980248039614 0 34.770980248039614 -8.279369465178652 0 0 0 0 -23.817411041713967 30.652623029569895 0 30.652623029569895 -69.518282933289811 0 0 0 0 -7.2121954474569065 55.22727829474502 0 55.22727829474502 -79.667082894449777 0 0 0 0 -0.17752086929169764 9.3515404931960155 0 9.3515404931960155 -5.4936500925648497 0 0 0 0 -44.699256177584175 72.319929001711898 0 72.319929001711898 56.331919374622885 0 0 0 0 -19.902290608497125 45.665255895674349 0 45.665255895674349 -50.027867411122948 0 0 0 0 7.015424952362082 72.694136950425218 0 72.694136950425218 -17.240215239465655 0 0 0 0 -0.090813874920335991 24.837973544311133 0 24.837973544311133 -2.2769967899376944 0 0 0 0 7.0061612193529896 23.051753621782197 0 23.051753621782197 -37.054576518930197 0 0 0 0 -33.480582135936857 52.729649928180152 0 52.729649928180152 -49.182509170776029 0 0 0 0 28.821688340422043 14.075785754012031 0 14.075785754012031 -11.497260082920548 0 0 0 0 23.083759037152049 70.216172104032466 0 70.216172104032466 -117.22654912689177 0 0 0 0 -104.24433264087565 -140.0351622309181 0 -140.0351622309181 -57.557471342257031 0 0 0 0 -189.44260008109268 147.8325942234269 0 147.8325942234269 135.24394493074215 0 0 0 0 2.7613543255210402 13.492434496108267 0 13.492434496108267 -23.456273766975041 0 0 0 0 3.8128922556880767 16.152117671631153 0 16.152117671631153 -18.544256797671622 0 0 0 0 -1.2857672976679169 28.665501600386506 0 28.665501600386506 -31.427128110674857 0 0 0 0 -2.7228109988864162 34.625452620387932 0 34.625452620387932 -24.673270918518028 0 0 0 0 -34.179496192075021 1.6995242215953112 0 1.6995242215953112 -22.386394881024898 0 0 0 0 -53.598465534494608 12.088365640048323 0 12.088365640048323 -41.877657934874151 0 0 0 0 -15.039143152662973 25.877942721667679 0 25.877942721667679 -20.557649677648463 0 0 0 0 -32.450214988981315 9.955648761680095 0 9.955648761680095 -86.908682987235807 0 0 0 0 -19.420135937049054 6.7385537720911088 0 6.7385537720911088 -37.568021682718609 0 0 0 0 -46.142756228295184 82.141560063851557 0 82.141560063851557 1.0192137250251108 0 0 0 0 26.649322496465174 88.17786593557139 0 88.17786593557139 25.901008654585894 0 0 0 0 -160.9161389482324 -93.366240258967991 0 -93.366240258967991 19.56894544377792 0 0 0 0 20.463249937729415 6.9973415125491556 0 6.9973415125491556 -117.51459250787411 0 0 0 0 -1.3085709335433791 2.7790911278435146 0 2.7790911278435146 -2.5273923759176711 0 0 0 0 -58.492655214889965 -6.4929519714960406 0 -6.4929519714960406 8.6778606962616323 0 0 0 0 5.72392704923206 17.847789961907473 0 17.847789961907473 -18.425915757684578 0 0 0 0 -69.529966032841912 34.294336924939671 0 34.294336924939671 -30.962538985315177 0 0 0 0 -73.999549214975559 91.666665286196803 0 91.666665286196803 28.093732159979936 0 0 0 0 -31.348367905691703 109.76419294386278 0 109.76419294386278 -76.775237735852897 0 0 0 0 -4.9389927121090693 6.6391164643406526 0 6.6391164643406526 17.861732085021529 0 0 0 0 -37.0398231954332 -20.174900636051234 0 -20.174900636051234 99.374635611418853 0 0 0 0 -11.11135831118645 49.532034650708283 0 49.532034650708283 -22.171675759884238 0 0 0 0 9.9324583538881654 18.063406471435854 0 18.063406471435854 -10.228526046585728 0 0 0 0 -60.7417678117381 71.521520141031033 0 71.521520141031033 31.830579098923408 0 0 0 0 -83.753468733480986 126.05451257014465 0 126.05451257014465 -67.350961733114673 0 0 0 0 -33.435710596040735 25.747903015086195 0 25.747903015086195 -47.341347382836375 0 0 0 0 25.649300520250108 -176.83216442039611 0 -176.83216442039611 -103.86610971463415 0 0 0 0 -116.1711158090402 143.0431226052624 0 143.0431226052624 117.13328827298812 0 0 0 0 -25.002375315496465 3.118793810466741 0 3.118793810466741 7.1782243112775177 0 0 0 0 0.91709522290247492 18.764245174959154 0 18.764245174959154 23.367943045209479 0 0 0 0 88.205275341751985 202.10202919514541 0 202.10202919514541 -20.456992428350532 0 0 0 0 -26.445212981658472 24.238021843911461 0 24.238021843911461 -0.69335860657500525 0 0 0 0 -31.428656796341784 52.370694912253782 0 52.370694912253782 13.360680115494688 0 0 0 0 -204.51051143947006 75.441522826060464 0 75.441522826060464 161.45226686239948 0 0 0 0 -58.278424964474198 170.51021331263365 0 170.51021331263365 170.20619664745936 0 0 0 0 -82.798378052670159 -4.035134729820129 0 -4.035134729820129 33.632276099189767 0 0 0 0 -30.684448971526663 19.743248674217824 0 19.743248674217824 0.050158046016592905 0 0 0 0 46.321614625950588 209.41011304161128 0 209.41011304161128 108.96830641383531 0 0 0 0 29.950750320509542 58.654485792603737 0 58.654485792603737 210.19227052868564 0 0 0 0 -9.0003262083009758 36.98325315808313 0 36.98325315808313 20.95359100238602 0 0 0 0 -18.680332153082418 28.117768451062375 0 28.117768451062375 12.835909879059678 0 0 0 0 -33.899824666932545 49.841138778772574 0 49.841138778772574 -13.587100573485259 0 0 0 0 -16.635092060481838 41.046035247025884 0 41.046035247025884 -13.524197322076205 0 0 0 0 7.9829670948602143 18.242222924764064 0 18.242222924764064 -37.411891117860705 0 0 0 0 -9.892856921734662 28.089228758529927 0 28.089228758529927 14.012313702751005 0 0 0 0 -84.053617499355823 246.11309097866706 0 246.11309097866706 -256.62783364802453 0 0 0 0 -128.83402815529553 146.26750598719082 0 146.26750598719082 -60.373427787308628 0 0 0 0 -69.382058084949676 91.182787208146692 0 91.182787208146692 -211.00997006868784 0 0 0 0 -154.41571196607401 134.75092408024284 0 134.75092408024284 -91.111149915183887 0 0 0 0 -6.8785370995901758 63.536239716217096 0 63.536239716217096 -107.19536647598215 0 0 0 0 -29.383416703742114 65.298961708211891 0 65.298961708211891 -12.99942708564231 0 0 0 0 -8.4601644609822415 19.860407293982163 0 19.860407293982163 30.713814501354239 0 0 0 0 -76.75792657371494 175.49974765378465 0 175.49974765378465 -162.78752810848164 0 0 0 0 -364.34172867194866 -207.75872013006301 0 -207.75872013006301 396.84001917616843 0 0 0 0 -6.386371274242066 8.7710082304767099 0 8.7710082304767099 4.7315989650356869 0 0 0 0 -4.6251720523951008 71.546746585169785 0 71.546746585169785 -117.58777108166396 0 0 0 0 -149.49491807672894 62.611290114740768 0 62.611290114740768 622.36421224099104 0 0 0 0 4.3134199476703117 1.9267349564680689 0 1.9267349564680689 1.2077804513033712 0 0 0 0 -54.525322089742986 162.97397625893063 0 162.97397625893063 -51.476634751335951 0 0 0 0 -514.20114993040625 898.38190402550026 0 898.38190402550026 -173.12645904534293 0 0 0 0 -502.96743254511966 671.56505735137034 0 671.56505735137034 317.19097963282911 0 0 0 0 -97.65843041781045 382.96393843232363 0 382.96393843232363 -943.74468183065619 0 0 0 0 -336.87178055616096 -172.19039892351793 0 -172.19039892351793 -479.48314787134041 0 0 0 0 38.874764222619319 95.549952694905102 0 95.549952694905102 -417.92325355515641 0 0 0 0 -228.24045925057726 50.183646095772929 0 50.183646095772929 -30.595020421555091 0 0 0 0 -19.767405889303291 0.87162500986380564 0 0.87162500986380564 -85.191616121643165 0 0 0 0 -183.0794889112658 133.66589184388249 0 133.66589184388249 -70.356471976872854 0 0 0 0 -172.88563125178916 190.65855860047304 0 190.65855860047304 -99.882560789363197 0 0 0 0 -425.57906565838312 185.94675604109079 0 185.94675604109079 -53.7762758959434 0 0 0 0 -49.565850348643835 24.598672271036548 0 24.598672271036548 14.63359429344564 0 0 0 0 165.03972587893804 105.29931337983362 0 105.29931337983362 2.052525700739352 0 0 0 0 -3.8073454455863658 3.0329290892727983 0 3.0329290892727983 9.1506195678546192 0 0 0 0 185.89010625827859 150.24060637860248 0 150.24060637860248 93.264808741078014 0 0 0 0 -19.816070442724822 2.8580970275249058 0 2.8580970275249058 -39.982128824936808 0 0 0 0 196.72773677367513 31.433421733838259 0 31.433421733838259 -130.49189322268467 0 0 0 0 128.87220738100041 -4.5423010271256317 0 -4.5423010271256317 -29.035546575214539 0 0 0 0 199.12207075065817 205.51901237319544 0 205.51901237319544 54.531189408078717 0 0 0 0 38.662048893393262 159.22301653387387 0 159.22301653387387 122.72983146202751 0 0 0 0 -29.20737092391937 100.2035373699 0 100.2035373699 6.4531064501134097 0 0 0 0 -2.7505560176806512 4.9604040143586676 0 4.9604040143586676 -1.3199205669165224 0 0 0 0 2.8977845174460022 18.327906686759412 0 18.327906686759412 -29.129571882245799 0 0 0 0 -9.5959342603769073 41.807511588527632 0 41.807511588527632 -41.490553392995935 0 0 0 0 1.0940520489275514 14.095336453290656 0 14.095336453290656 -9.6010047569070593 0 0 0 0 66.205418652825756 72.656272112796614 0 72.656272112796614 -28.071725972376953 0 0 0 0 -89.796764610393438 153.6594262691724 0 153.6594262691724 -175.99352033449395 0 0 0 0 7.3813771684185951 10.267242792955699 0 10.267242792955699 -0.48738378811334826 0 0 0 0 -126.03271408897854 175.81995903384086 0 175.81995903384086 -115.97922308550915 0 0 0 0 -133.79479831437493 174.48905181809005 0 174.48905181809005 -94.752023822256888 0 0 0 0 -224.90867822364089 29.026441663469086 0 29.026441663469086 108.35676502562637 0 0 0 0 -115.17670367995743 142.45466659013982 0 142.45466659013982 -96.854353919079131 0 0 0 0 -176.93760084448149 153.21323931316874 0 153.21323931316874 -116.5457891221248 0 0 0 0 -104.00611377259338 171.48581236795417 0 171.48581236795417 -125.9652726472923 0 0 0 0 -46.359310297928459 181.95315217091229 0 181.95315217091229 -75.660828792268148 0 0 0 0 15.755857460307794 7.6417539607208091 0 7.6417539607208091 -10.574140670417474 0 0 0 0 7.851277304784162 34.539590915970621 0 34.539590915970621 -39.522836372168968 0 0 0 0 -11.146817810097673 27.447851433082633 0 27.447851433082633 -43.411401911158464 0 0 0 0 11.612746669315811 8.17042511163406 0 8.17042511163406 -9.2842118951987231 0 0 0 0 -314.85961777172633 141.20243454938827 0 141.20243454938827 -57.715509045588988 0 0 0 0 4.9950194698437844 0.14938025273254141 0 0.14938025273254141 -2.5037837547617841 0 0 0 0 -28.092689225659342 -12.147364581304373 0 -12.147364581304373 -77.439676302863518 0 0 0 0 28.966641740192088 10.992229142374441 0 10.992229142374441 -11.28327400216093 0 0 0 0 -2.3348630837181474 2.525778770544596 0 2.525778770544596 0.18624103752024013 0 0 0 0 -107.86613681082963 48.781467395769141 0 48.781467395769141 -31.866538557242166 0 0 0 0 -197.71361842463375 -489.67152855301538 0 -489.67152855301538 -600.01430048649127 0 0 0 0 -221.88301205531752 203.13055128633277 0 203.13055128633277 -114.27042620595967 0 0 0 0 400.57067438571175 421.35315873794661 0 421.35315873794661 -548.8824146278821 0 0 0 0 10.35397804811555 -62.567612185912708 0 -62.567612185912708 -234.68580663247485 0 0 0 0 -49.106759981024879 38.674963580138865 0 38.674963580138865 -49.391458922898892 0 0 0 0 -51.648053022940985 -56.349405170447767 0 -56.349405170447767 412.03698465295383 0 0 0 0 4.3334784973582856 1.5628560463746481 0 1.5628560463746481 3.4373492913804355 0 0 0 0 105.19387737482975 132.54721037793934 0 132.54721037793934 -82.012613080259143 0 0 0 0 -56.315631021032459 70.969746339482299 0 70.969746339482299 36.33277258563453 0 0 0 0 -38.521478838350959 10.468785014482933 0 10.468785014482933 153.22160644366522 0 0 0 0 -35.383676127516082 60.472229279554085 0 60.472229279554085 37.373731235973537 0 0 0 0 3.851342980710271 16.973267066421798 0 16.973267066421798 -7.7372333678012204 0 0 0 0 -77.326254824210082 78.129680715623863 0 78.129680715623863 -62.489840552043461 0 0 0 0 -48.203458831734949 51.242520365186095 0 51.242520365186095 9.8533583016803412 0 0 0 0 -21.790664080919669 60.001694251959634 0 60.001694251959634 -34.067275834017721 0 0 0 0 -12.189485793637232 79.180328343716326 0 79.180328343716326 -7.2210367398129165 0 0 0 0 -22.205177656846246 32.776462099259213 0 32.776462099259213 7.3264428890377484 0 0 0 0 -26.116324788148631 107.7444463282518 0 107.7444463282518 -27.599975513827303 0 0 0 0 -39.587124814152048 104.49768365980617 0 104.49768365980617 89.092337632660929 0 0 0 0 -65.110089074056305 179.76970589193297 0 179.76970589193297 80.778148764300568 0 0 0 0 -91.010077195969643 168.88521796031455 0 168.88521796031455 79.608330810169718 0 0 0 0 80.596312261317507 159.07703669262537 0 159.07703669262537 -2.9379035429219584 0 0 0 0 241.2993517693285 315.18035863606201 0 315.18035863606201 -7.3710311522918346 0 0 0 0 -36.019919765712984 252.76272610523392 0 252.76272610523392 -21.151076647456648 0 0 0 0 -93.316033078026521 196.02697418048865 0 196.02697418048865 103.81533170962211 0 0 0 0 -210.29493232681853 218.03621313983786 0 218.03621313983786 101.15159538150692 0 0 0 0 -123.07523847650373 148.09291862594 0 148.09291862594 -25.053692756780947 0 0 0 0 -193.70428870618707 134.93387255993366 0 134.93387255993366 94.795556531243164 0 0 0 0 -21.958651923978323 -21.904058368987535 0 -21.904058368987535 -107.83558511171941 0 0 0 0 -22.892830598404544 231.91409512592145 0 231.91409512592145 335.6383388930808 0 0 0 0 -38.076921521445911 114.97409370999958 0 114.97409370999958 97.338848152343417 0 0 0 0 -154.42223146725883 140.57478212612295 0 140.57478212612295 221.4264000899675 0 0 0 0 -125.38180729845044 184.99187727810749 0 184.99187727810749 101.8349060857181 0 0 0 0 -296.44198658411187 180.72934821917443 0 180.72934821917443 -49.722712165366374 0 0 0 0 -338.55363932083219 194.47196143877682 0 194.47196143877682 -52.904128434507584 0 0 0 0 -349.76081636729941 236.22445855247315 0 236.22445855247315 102.95922790272743 0 0 0 0 -458.31832995632431 116.13648920375635 0 116.13648920375635 -61.691040494430126 0 0 0 0 -535.35330590205922 197.49013496421958 0 197.49013496421958 -44.961745445318229 0 0 0 0 -1.9784816556143738 2.0494531203091171 0 2.0494531203091171 -1.1568324675860993 0 0 0 0 -692.41663738310308 -56.468735668966474 0 -56.468735668966474 -2.076669131682138 0 0 0 0 -319.13037525824575 -79.416351542324719 0 -79.416351542324719 -45.68034596958023 0 0 0 0 -246.49843223142307 139.79807492549662 0 139.79807492549662 -24.787539880180702 0 0 0 0 -204.5992037039141 157.60485791710744 0 157.60485791710744 5.6241532111580455 0 0 0 0 -185.42052707272342 210.87431675464904 0 210.87431675464904 -181.1250162182514 0 0 0 0 479.08411154900386 211.70954396206071 0 211.70954396206071 -199.52313913983562 0 0 0 0 -145.05255020464347 361.77378180897904 0 361.77378180897904 90.403706187971693 0 0 0 0 354.17757349694693 169.03918373700299 0 169.03918373700299 46.998311640007159 0 0 0 0 278.32288929654169 16.525208575996658 0 16.525208575996658 -68.998917400826031 0 0 0 0 -1.2738509736829258 2.2691423286656089 0 2.2691423286656089 -2.5108135316351223 0 0 0 0 -214.96024819518698 321.89410353102198 0 321.89410353102198 145.41714304680136 0 0 0 0 -215.26345141250931 300.79226739173282 0 300.79226739173282 -105.10285657681561 0 0 0 0 -257.34096279954792 238.96781831260796 0 238.96781831260796 47.419269210957282 0 0 0 0 -218.81495672120673 118.67463518332943 0 118.67463518332943 311.88164581238743 0 0 0 0 -357.91469700868765 50.068643946648081 0 50.068643946648081 192.72543552269053 0 0 0 0 117.08337050834234 -2.8632613084992045 0 -2.8632613084992045 140.35583320156547 0 0 0 0 -1.2605570723085862 4.6542573365328046 0 4.6542573365328046 -7.2790597083742057 0 0 0 0 420.6396347179134 517.84361391492166 0 517.84361391492166 197.63660759668346 0 0 0 0 -159.81810080730429 199.85474590418744 0 199.85474590418744 139.60363965708893 0 0 0 0 -267.15194430758129 9.4603916167889111 0 9.4603916167889111 168.9357344247951 0 0 0 0 -417.83567926225805 149.29965113726939 0 149.29965113726939 71.968706681515869 0 0 0 0 -541.17714697376505 8.6496905131007225 0 8.6496905131007225 135.41878731228644 0 0 0 0 -611.83426628373491 149.93684333015517 0 149.93684333015517 -2.5750993840410956 0 0 0 0 -561.23420524648691 -31.180817392904146 0 -31.180817392904146 -30.130036855778599 0 0 0 0 -566.61578261809336 31.436831931163397 0 31.436831931163397 84.736942404269939 0 0 0 0 -518.17916712469014 144.33639445051813 0 144.33639445051813 92.647856853105623 0 0 0 0 -472.80465054636807 100.96430040604719 0 100.96430040604719 -2.4241897992033046 0 0 0 0 -54.815203974561882 139.06109774308788 0 139.06109774308788 -17.580221980650094 0 0 0 0 -423.6562560567836 85.356879351769749 0 85.356879351769749 -197.91477275617217 0 0 0 0 -142.5556215387478 5.6471389559810632 0 5.6471389559810632 115.96679248745932 0 0 0 0 -755.977092809444 81.574967332813685 0 81.574967332813685 123.23991224449856 0 0 0 0 -74.121273591183126 -9.3595839168474413 0 -9.3595839168474413 53.939364596313681 0 0 0 0 -847.54824290508805 100.46806053610544 0 100.46806053610544 151.53970812973057 0 0 0 0 -1.0354041679978536 -0.52153046013215487 0 -0.52153046013215487 0.63229870765444218 0 0 0 0 -551.66158867990089 18.754055698584125 0 18.754055698584125 -10.324154378202479 0 0 0 0 -504.69938683311557 57.439674720058974 0 57.439674720058974 1.7975996143613884 0 0 0 0 -590.82123588529066 -71.772779786495448 0 -71.772779786495448 -48.730504472471694 0 0 0 0 -493.75944218633958 57.20398038221947 0 57.20398038221947 -257.5369470861624 0 0 0 0 -541.43918191581724 13.240398164898579 0 13.240398164898579 -38.479171535418573 0 0 0 0 -1.656487471329207 -2.3791963224876582 0 -2.3791963224876582 1.0177472285042484 0 0 0 0 -538.14985557393811 88.120945743298762 0 88.120945743298762 74.562635906746436 0 0 0 0 -515.79760628709846 269.43516522639766 0 269.43516522639766 -214.10691191780279 0 0 0 0 -510.79755310333712 249.97623590386684 0 249.97623590386684 -144.44594072075415 0 0 0 0 -464.35009779904794 273.27386499524073 0 273.27386499524073 -277.91357972845435 0 0 0 0 -547.68074132986658 330.673309572172 0 330.673309572172 -270.11192874538119 0 0 0 0 -461.58568038589146 221.10268447498129 0 221.10268447498129 -145.68852787675132 0 0 0 0 -511.03475711681676 82.164740481672197 0 82.164740481672197 -181.83344594588561 0 0 0 0 -358.40065676553058 57.245856329529488 0 57.245856329529488 -270.29229895088611 0 0 0 0 -375.43084072662532 -62.453863560441278 0 -62.453863560441278 -757.81932735911687 0 0 0 0 -439.53751004952937 183.67475849875518 0 183.67475849875518 -447.35156774269853 0 0 0 0 -272.6411281110486 402.51034855277794 0 402.51034855277794 -411.64830482386242 0 0 0 0 -358.29236456448416 338.99484534555449 0 338.99484534555449 -440.54877019607852 0 0 0 0 -242.95182378068148 311.28275757875531 0 311.28275757875531 -677.78299647437962 0 0 0 0 -379.98193874565914 405.46837530298944 0 405.46837530298944 -341.09777370997836 0 0 0 0 -404.55072504531199 370.1623841148994 0 370.1623841148994 -369.23780583404732 0 0 0 0 -475.30194831770496 477.09502735211936 0 477.09502735211936 -518.37285379730383 0 0 0 0 -761.14183595523355 440.94080491374916 0 440.94080491374916 -513.4167261249313 0 0 0 0 -744.39590808976209 374.38193891172705 0 374.38193891172705 -197.86558340344345 0 0 0 0 -505.76110217680616 277.52909121092671 0 277.52909121092671 -211.17318325670203 0 0 0 0 -420.33701425608524 392.06415287316304 0 392.06415287316304 -374.5959395456739 0 0 0 0 -309.05135702412008 399.11533093920843 0 399.11533093920843 -291.91592071552077 0 0 0 0 -0.60261133127325728 -0.51630919798785868 0 -0.51630919798785868 -9.1842496046355535 0 0 0 0 -485.4493575914239 -366.841250520024 0 -366.841250520024 -138.73463804815674 0 0 0 0 -819.1497180561928 -162.94888839451414 0 -162.94888839451414 -119.32663813685576 0 0 0 0 -75.124087987791427 307.69156042938084 0 307.69156042938084 -859.92684987696884 0 0 0 0 71.000189622865946 -67.303042831115818 0 -67.303042831115818 100.1340976299507 0 0 0 0 296.69492526370777 687.20909616279732 0 687.20909616279732 -66.510056489674753 0 0 0 0 1.5581201560330697 0.94747856073828984 0 0.94747856073828984 -5.24558030568258 0 0 0 0 -527.21603346480924 167.14578868528656 0 167.14578868528656 50.854933630071173 0 0 0 0 -214.47697838133899 164.21502845251052 0 164.21502845251052 -23.291392875598831 0 0 0 0 -318.27729648715103 97.268581043128506 0 97.268581043128506 24.331431413065729 0 0 0 0 -494.01593362990934 36.675547994747831 0 36.675547994747831 41.901486809561902 0 0 0 0 -185.48190559810246 129.9562324890021 0 129.9562324890021 -58.418932278393186 0 0 0 0 -228.68404466337961 231.72195111122528 0 231.72195111122528 383.03695631694427 0 0 0 0 -44.786436861344555 104.61581759700857 0 104.61581759700857 -53.926552938257373 0 0 0 0 690.22917048917952 -2.1944085874119992 0 -2.1944085874119992 100.25979478104273 0 0 0 0 1.1215058081800251 3.5483000032509722 0 3.5483000032509722 -9.7542801397669976 0 0 0 0 742.92958664645994 -34.324875468490063 0 -34.324875468490063 -626.63092265876367 0 0 0 0 731.78929682955641 469.65186868375349 0 469.65186868375349 -238.03871029587754 0 0 0 0 540.83966460628289 373.3940787653064 0 373.3940787653064 61.558320242031186 0 0 0 0 391.05590678800218 227.43152265683329 0 227.43152265683329 91.997641583326185 0 0 0 0 82.591793892454007 105.4678143613728 0 105.4678143613728 104.51411351915158 0 0 0 0 204.79915656500089 363.62484945919641 0 363.62484945919641 253.15525522582175 0 0 0 0 369.15627120920544 304.53798929257755 0 304.53798929257755 160.80556192412223 0 0 0 0 491.07047097136092 345.92551900165199 0 345.92551900165199 126.42058960953364 0 0 0 0 10.527720241589122 -324.76799848293012 0 -324.76799848293012 -239.89203104407716 0 0 0 0 36.452187339324155 217.40524259292033 0 217.40524259292033 238.82360084828906 0 0 0 0 343.53012958270119 2.4389163422947604 0 2.4389163422947604 -36.706191825183851 0 0 0 0 472.97482090073936 340.76936629591182 0 340.76936629591182 -69.052509306071443 0 0 0 0 2.6016162626283545 2.9983576911867651 0 2.9983576911867651 -12.32888870696052 0 0 0 0 455.38834833005967 43.479377850249875 0 43.479377850249875 -117.18449734527894 0 0 0 0 322.19041373998698 -57.751719848884932 0 -57.751719848884932 -86.628410718782106 0 0 0 0 338.43359470939322 -104.10784872406703 0 -104.10784872406703 -136.23691407751903 0 0 0 0 540.43588977847685 380.17932643121094 0 380.17932643121094 46.843810920308897 0 0 0 0 1.9834096841420319 0.8779356549663504 0 0.8779356549663504 -5.6372419794851538 0 0 0 0 436.14214536805775 -70.660970803522105 0 -70.660970803522105 -223.98549561194886 0 0 0 0 467.62159683866776 -15.578227828575109 0 -15.578227828575109 -168.44550071985213 0 0 0 0 351.08144156391973 85.567231528543743 0 85.567231528543743 -135.2946200266997 0 0 0 0 417.15387838252354 520.35137398434381 0 520.35137398434381 31.627579274559139 0 0 0 0 2.2121133833922499 3.4474189693055095 0 3.4474189693055095 -12.608518587779173 0 0 0 0 117.73425748712907 -187.61964521529444 0 -187.61964521529444 -195.68265374698922 0 0 0 0 87.91168666484009 356.08594077999442 0 356.08594077999442 -235.58962215649808 0 0 0 0 179.10693494972656 163.33675436653357 0 163.33675436653357 24.378849158794765 0 0 0 0 74.977453521285497 148.81839482043142 0 148.81839482043142 39.348127665194625 0 0 0 0 189.94022673470317 121.79391678023603 0 121.79391678023603 44.580690227183368 0 0 0 0 168.06388462957693 233.06133921700803 0 233.06133921700803 44.209816864207824 0 0 0 0 132.19471956613052 208.39223454762578 0 208.39223454762578 93.358159230236197 0 0 0 0 335.71428361445578 99.200429823263221 0 99.200429823263221 28.910009132290725 0 0 0 0 287.86989507700901 209.70411740065742 0 209.70411740065742 -178.83785739824089 0 0 0 0 282.19076697462151 144.75110937704267 0 144.75110937704267 -23.361998924141517 0 0 0 0 705.52626374842657 213.67353316973913 0 213.67353316973913 -64.47153961652657 0 0 0 0 578.29380339573254 362.34788888635376 0 362.34788888635376 -185.64013922642175 0 0 0 0 0.16827511019643282 0.31565887305471563 0 0.31565887305471563 -0.73322737560813067 0 0 0 0 -509.97260028636811 468.356303639619 0 468.356303639619 51.123984421355999 0 0 0 0 -78.07619174059073 484.29190578535054 0 484.29190578535054 -233.98145706537616 0 0 0 0 160.37899393258704 187.19200006141727 0 187.19200006141727 -177.10726115926809 0 0 0 0 -146.03212125536447 263.82811523980672 0 263.82811523980672 -34.360504654505348 0 0 0 0 -33.641594444241491 246.27299199265326 0 246.27299199265326 -71.530005752294528 0 0 0 0 -28.372891926853299 163.43578706958067 0 163.43578706958067 -74.330744226208481 0 0 0 0 -259.01549071012414 38.61043187001269 0 38.61043187001269 81.190374495236028 0 0 0 0 -470.66121574805584 202.81417913041696 0 202.81417913041696 123.40551581322507 0 0 0 0 -288.57754087901412 137.96537968282973 0 137.96537968282973 -3.1796290600195789 0 0 0 0 398.87230447358161 64.833864726566389 0 64.833864726566389 -25.042501083446041 0 0 0 0 533.17816723478609 156.71128625598794 0 156.71128625598794 33.076357228012057 0 0 0 0 35.771384705119999 -17.303577544114887 0 -17.303577544114887 54.490291847267144 0 0 0 0 247.72042184001475 79.30650257144589 0 79.30650257144589 43.501033003187331 0 0 0 0 211.91093942042789 225.2430790037215 0 225.2430790037215 173.02228379180815 0 0 0 0 37.276724007562734 27.111544894498365 0 27.111544894498365 49.24936175056223 0 0 0 0 -28.137235454374604 53.678109451545424 0 53.678109451545424 55.89714810598889 0 0 0 0 -109.11004055934609 17.841443077701115 0 17.841443077701115 -765.43731773949548 0 0 0 0 0.8839713594949572 1.7479062457532706 0 1.7479062457532706 -4.8996775774267576 0 0 0 0 -6.8233059532004745 16.086215107302891 0 16.086215107302891 -18.584128481982816 0 0 0 0 -338.74219051230466 149.06515455509361 0 149.06515455509361 1777.9600230618234 0 0 0 0 39.038122746365843 21.510784293794131 0 21.510784293794131 -37.590421030177822 0 0 0 0 17.312033088979661 -41.555030552011885 0 -41.555030552011885 -47.797756581931026 0 0 0 0 1.7213199281226821 0.048165699493040393 0 0.048165699493040393 -0.23652557820157938 0 0 0 0 -52.406473721954171 -32.430984394192819 0 -32.430984394192819 50.21961686047689 0 0 0 0 -1.1236842674923082 1.063733803917458 0 1.063733803917458 1.8831359318702994 0 0 0 0 -3.7456514332807274 46.054667058301675 0 46.054667058301675 41.213604587166628 0 0 0 0 -10.505413873879888 24.288836077275004 0 24.288836077275004 -28.58937598513544 0 0 0 0 -1.7595898581130314 26.272015456253712 0 26.272015456253712 7.1055602662636375 0 0 0 0 151.1107840474142 64.813569687070412 0 64.813569687070412 5.0085660810145782 0 0 0 0 0.48428696012728167 0.23330907304974602 0 0.23330907304974602 4.1832473806114194 0 0 0 0 -225.12464361322782 141.86062689692335 0 141.86062689692335 145.86784357697434 0 0 0 0 54.233328375332349 35.198877170937521 0 35.198877170937521 -60.585105792015383 0 0 0 0 1308.6250847625015 561.50233939714963 0 561.50233939714963 -97.573939273343058 0 0 0 0 505.64654588825761 137.95211530812412 0 137.95211530812412 69.392148710536276 0 0 0 0 377.82407169542421 183.47215712323305 0 183.47215712323305 55.744197088346482 0 0 0 0 446.88514234488503 143.78266336722845 0 143.78266336722845 27.107458313803363 0 0 0 0 -0.43242916670610398 8.930104422855095 0 8.930104422855095 8.0460655792968936 0 0 0 0 -17.065004088668502 66.467534826313567 0 66.467534826313567 -50.1648090283079 0 0 0 0 11.606349269197821 -1.0871180822366728 0 -1.0871180822366728 -3.829526279225874 0 0 0 0 82.815338941596565 -10.646150250083338 0 -10.646150250083338 -73.508397305642575 0 0 0 0 345.23479042552208 135.01339927799927 0 135.01339927799927 27.88495540581971 0 0 0 0 367.3202551873037 183.53552294883957 0 183.53552294883957 21.471794925146241 0 0 0 0 37.462483900406369 -68.149811766230414 0 -68.149811766230414 -156.96243085952483 0 0 0 0 549.80914528391895 440.44347938380315 0 440.44347938380315 182.41430088940979 0 0 0 0 0.63089779450200467 -0.96108852158601366 0 -0.96108852158601366 1.8166119479500509 0 0 0 0 46.107376991734782 7.1256020397177053 0 7.1256020397177053 -62.974606832463905 0 0 0 0 9.6379931714343137 19.634056897422049 0 19.634056897422049 -35.755005321602638 0 0 0 0 45.251453818942991 20.566757795654951 0 20.566757795654951 -41.828217137310276 0 0 0 0 132.58027935752762 53.43946449359828 0 53.43946449359828 -68.607595718000084 0 0 0 0 -24.259660855765105 52.19106287741306 0 52.19106287741306 -76.289900766255073 0 0 0 0 15.788572317644139 43.909504914841818 0 43.909504914841818 -75.509823370888171 0 0 0 0 -27.543810377683258 30.381231018503968 0 30.381231018503968 -64.233683900463802 0 0 0 0 -29.054429958290712 24.557762012049807 0 24.557762012049807 -72.228842764834553 0 0 0 0 -26.62596114569169 13.255721020443161 0 13.255721020443161 -56.206460766137752 0 0 0 0 -28.530138245514536 45.182432917506048 0 45.182432917506048 -53.787276073790053 0 0 0 0 -23.289493654228863 14.339893671678055 0 14.339893671678055 -81.41155487724609 0 0 0 0 -30.987340072958432 65.731775354033743 0 65.731775354033743 -117.56832387413669 0 0 0 0 -27.149284127401188 33.504365071948996 0 33.504365071948996 -79.423974026947235 0 0 0 0 -22.979787564039725 50.362971184992603 0 50.362971184992603 -93.763749435089267 0 0 0 0 -53.560629759478616 61.998109765133449 0 61.998109765133449 -64.777651002563289 0 0 0 0 38.97959759646983 83.960061153366496 0 83.960061153366496 -204.73534003369787 0 0 0 0 20.476102264801739 92.414858612220087 0 92.414858612220087 -5.635613198588544 0 0 0 0 -6.7165123279555701 14.171329621547557 0 14.171329621547557 -51.672835252807999 0 0 0 0 -60.138705151819522 30.364993594785574 0 30.364993594785574 -10.026090633000422 0 0 0 0 -144.48462201835355 94.595084699230938 0 94.595084699230938 -12.122568892058553 0 0 0 0 -0.34150025472868251 -1.3437461756131341 0 -1.3437461756131341 -1.2752557718310236 0 0 0 0 -9.9571433068485931 27.324391902264097 0 27.324391902264097 32.423902847789577 0 0 0 0 12.850763444090262 57.280526167740391 0 57.280526167740391 -238.23663291749267 0 0 0 0 -4.4990624285892409 17.170435709362209 0 17.170435709362209 -53.315949870031545 0 0 0 0 57.226111149284407 85.682837844474307 0 85.682837844474307 -39.172118290984145 0 0 0 0 -75.208722531198873 62.525554163239576 0 62.525554163239576 -47.012029912182925 0 0 0 0 -0.40790642337065464 -1.155177814006322 0 -1.155177814006322 -3.396085753781847 0 0 0 0 -178.62210395022703 176.07642785431517 0 176.07642785431517 -130.71491339156273 0 0 0 0 -24.330622472363757 28.717655742510033 0 28.717655742510033 -82.798992137984897 0 0 0 0 20.047466248011915 154.77161171504122 0 154.77161171504122 -299.36927590494088 0 0 0 0 130.42864308677235 -88.326807409912817 0 -88.326807409912817 -34.109709827258484 0 0 0 0 -65.474638885141758 28.343022864520663 0 28.343022864520663 264.07048675498118 0 0 0 0 63.767203297626111 -140.23235116266915 0 -140.23235116266915 -71.880987061054839 0 0 0 0 74.902025087152651 -46.076471502729987 0 -46.076471502729987 -143.79202796317259 0 0 0 0 -277.40464641664585 -196.75439317897872 0 -196.75439317897872 251.79412460594722 0 0 0 0 -62.692656413742952 1.2996754917735416 0 1.2996754917735416 -75.77786943297906 0 0 0 0 -23.338145151516073 -122.76931046714162 0 -122.76931046714162 -199.8031956237769 0 0 0 0 515.12842868303778 100.08649842421937 0 100.08649842421937 -553.62537770352901 0 0 0 0 -2.7905722647119546 12.820595423541022 0 12.820595423541022 -23.446376261465787 0 0 0 0 -8.253150524400553 14.470855277901194 0 14.470855277901194 -20.326579681428314 0 0 0 0 -641.6868518354604 -915.53862150483474 0 -915.53862150483474 -394.80608301215398 0 0 0 0 7.2349336602865151 2.843785378855876 0 2.843785378855876 -21.666409745633814 0 0 0 0 2.9506026860759391 1.8955758159465361 0 1.8955758159465361 -12.057589025461954 0 0 0 0 5.6024054086592514 9.7476610972933031 0 9.7476610972933031 -23.098539951428052 0 0 0 0 -2.1535502694896422 4.6386546052835911 0 4.6386546052835911 -11.82661798951267 0 0 0 0 3.4192299747389541 -0.52836448351444432 0 -0.52836448351444432 -10.893182144312126 0 0 0 0 0.28438698581885546 4.1563901614265362 0 4.1563901614265362 -19.301495592034314 0 0 0 0 3.4178975086251739 8.058798029944171 0 8.058798029944171 -21.891220534104605 0 0 0 0 10.095817909575999 4.6703820303923749 0 4.6703820303923749 -17.91848748209577 0 0 0 0 1.4997948253585491 21.222237641618449 0 21.222237641618449 -27.258299412083943 0 0 0 0 7.1205671100109242 10.185550060422273 0 10.185550060422273 -27.017499239347845 0 0 0 0 -3.2001983002555789 15.78763426979458 0 15.78763426979458 -23.619027785371145 0 0 0 0 31.48960759185502 45.5664048367737 0 45.5664048367737 -136.17972968718095 0 0 0 0 2.3493659682505665 11.055053757411009 0 11.055053757411009 -29.385205329556022 0 0 0 0 3.4764334824170788 -0.39427917666012036 0 -0.39427917666012036 -9.3839460722911205 0 0 0 0 -8.1385250005332637 -28.57972040274808 0 -28.57972040274808 -17.188148438856388 0 0 0 0 30.181089172041538 -5.4725974906823467 0 -5.4725974906823467 -8.9179321157880622 0 0 0 0 27.268932013001177 5.755896455531456 0 5.755896455531456 -10.324710329776281 0 0 0 0 -0.85905304640358793 4.2002182725731103 0 4.2002182725731103 -12.312691235724946 0 0 0 0 2.3793526145982469 -25.309229931884033 0 -25.309229931884033 -43.680449543637906 0 0 0 0 2.611275990491734 2.6974475148285748 0 2.6974475148285748 -31.673603394813185 0 0 0 0 4.2217757071760218 0.9790075241346301 0 0.9790075241346301 -19.906472278286344 0 0 0 0 46.164838562970544 0.41930636190295445 0 0.41930636190295445 -58.701942443815369 0 0 0 0 12.999939610126603 0.51975928481880374 0 0.51975928481880374 -17.084162779261533 0 0 0 0 8.2032593447371056 1.8579220160469987 0 1.8579220160469987 -16.918056410609136 0 0 0 0 25.782069812012196 0.017207457546646765 0 0.017207457546646765 -19.803517265037954 0 0 0 0 18.388933753859845 -5.9180954476809049 0 -5.9180954476809049 -31.593984373238111 0 0 0 0 2.0954801655816482 32.635411807428397 0 32.635411807428397 -16.857609267268344 0 0 0 0 2.9258151236048313 3.4907437161604093 0 3.4907437161604093 -4.9675043485294879 0 0 0 0 -53.375079823563283 9.426320442184533 0 9.426320442184533 -4.2344050082065223 0 0 0 0 104.94874816746233 10.998825524283802 0 10.998825524283802 -50.39093821815004 0 0 0 0 1.1154660538109908 0.44682120471213693 0 0.44682120471213693 -11.782627133371911 0 0 0 0 14.523042103061016 16.916952665579629 0 16.916952665579629 -4.2221955885470379 0 0 0 0 11.447342517444127 15.228383730868945 0 15.228383730868945 -26.123207062144921 0 0 0 0 23.948370682941459 129.87253532891009 0 129.87253532891009 56.748126723321548 0 0 0 0 -0.60208607188944541 13.112880522379768 0 13.112880522379768 21.762256474742266 0 0 0 0 -71.199316994017863 241.51138228313175 0 241.51138228313175 -23.070783644201583 0 0 0 0 -19.743309847825003 41.914934826951594 0 41.914934826951594 600.58913857981679 0 0 0 0 -15.68195903065498 13.386017348118912 0 13.386017348118912 17.001332273706794 0 0 0 0 -301.72505229761009 949.50275934676029 0 949.50275934676029 -411.02679689911747 0 0 0 0 156.80169900089095 377.66068202653332 0 377.66068202653332 -1188.7312158107452 0 0 0 0 0.26440832824347638 0.28840032851022102 0 0.28840032851022102 -10.200027994847353 0 0 0 0 62.362056317950191 -229.42017534907063 0 -229.42017534907063 -334.98243136096971 0 0 0 0 189.63401244426495 173.65486901324039 0 173.65486901324039 -20.157367232431625 0 0 0 0 214.65865984826087 134.33960370284331 0 134.33960370284331 -229.26765354178497 0 0 0 0 180.70614908712741 -212.53833911541733 0 -212.53833911541733 -332.8036178577122 0 0 0 0 27.46121370299079 0.68975670126565092 0 0.68975670126565092 -24.132782721223521 0 0 0 0 311.08999113532627 59.367127991185043 0 59.367127991185043 -129.48530736815883 0 0 0 0 19.840810157329543 -105.85621982673025 0 -105.85621982673025 173.01354302624702 0 0 0 0 8.7243249089730117 -4.5518339392089473 0 -4.5518339392089473 -34.005130302666686 0 0 0 0 11.046516424665413 3.9521333995216423 0 3.9521333995216423 -37.388143860174161 0 0 0 0 263.4968090235634 44.614342915967427 0 44.614342915967427 -71.819957185600288 0 0 0 0 195.91682701835816 -94.817435962777381 0 -94.817435962777381 82.471868368686046 0 0 0 0 -448.35337475280903 439.0725519865357 0 439.0725519865357 -768.21905101435868 0 0 0 0 2.1908194715286911 -0.84906789014692663 0 -0.84906789014692663 -46.141021272024943 0 0 0 0 263.74366317180102 -226.80645267292039 0 -226.80645267292039 -29.153965778334168 0 0 0 0 -2.1529355517092483 2.7241416903088975 0 2.7241416903088975 -3.6807802028966066 0 0 0 0 37.18890373990871 82.070866613245926 0 82.070866613245926 -178.85050043356023 0 0 0 0 -381.5458278757651 190.0766607934633 0 190.0766607934633 19.545106790088482 0 0 0 0 70.033768558314478 -179.38810821331936 0 -179.38810821331936 -9.7752450257066812 0 0 0 0 271.05554084562027 26.069183326933853 0 26.069183326933853 116.07653859746642 0 0 0 0 375.84442714995384 -62.063624090224039 0 -62.063624090224039 -131.51340800777393 0 0 0 0 398.2184314897313 141.60227384267591 0 141.60227384267591 -200.02414699967812 0 0 0 0 187.50884685543133 21.989297795262246 0 21.989297795262246 -71.943383102505322 0 0 0 0 0.25015664980054453 4.0117055623847904 0 4.0117055623847904 -26.597738437530943 0 0 0 0 244.792942427257 141.58603626068179 0 141.58603626068179 -111.4873791728387 0 0 0 0 177.01303973986978 134.70317984331905 0 134.70317984331905 34.347392007734015 0 0 0 0 177.4906887315301 124.34817073995509 0 124.34817073995509 -117.62150477642717 0 0 0 0 333.90755823939617 -91.928874994836008 0 -91.928874994836008 -195.14746899193324 0 0 0 0 -933.08028570222086 -89.629996130079007 0 -89.629996130079007 208.12067085562467 0 0 0 0 -0.16230985547185739 2.3340296880354003 0 2.3340296880354003 -3.4186992158973268 0 0 0 0 268.19742185710493 85.999818418611994 0 85.999818418611994 -12.215146294440274 0 0 0 0 728.57923725873843 279.91323602701846 0 279.91323602701846 -590.00601905208305 0 0 0 0 -935.13549827347742 66.746383485860406 0 66.746383485860406 -637.36822870459764 0 0 0 0 77.403057990587513 -84.481163137295141 0 -84.481163137295141 357.33353854692359 0 0 0 0 -1015.356520992842 148.5094553061578 0 148.5094553061578 306.41688986087865 0 0 0 0 0.34895436103302835 4.6582024441850507 0 4.6582024441850507 -7.5797909974135251 0 0 0 0 -0.69361467942417931 2.2036894961013473 0 2.2036894961013473 -23.469292392467896 0 0 0 0 338.02330734771385 46.452740261875078 0 46.452740261875078 24.964174476242988 0 0 0 0 179.63733553777428 56.213593148053356 0 56.213593148053356 82.17048265383346 0 0 0 0 21.646320677195035 -20.099240623957883 0 -20.099240623957883 -111.20728878994896 0 0 0 0 79.356841628170514 28.820647665342321 0 28.820647665342321 -145.03816231503504 0 0 0 0 80.003156641578244 14.397359410923087 0 14.397359410923087 -49.422982705845698 0 0 0 0 241.99962873532786 34.69804234005187 0 34.69804234005187 -49.33435775069438 0 0 0 0 145.82834322701092 25.433547341013082 0 25.433547341013082 21.810639352070439 0 0 0 0 192.13855252793292 79.116514338543539 0 79.116514338543539 61.182952012447799 0 0 0 0 141.53357944116578 44.789108994636024 0 44.789108994636024 -65.015073125089998 0 0 0 0 177.49035801712307 -32.017786749226076 0 -32.017786749226076 -150.24990728494959 0 0 0 0 115.30466783040902 -57.694954549462693 0 -57.694954549462693 -66.834220508179982 0 0 0 0 187.33161149320949 -77.494605715207172 0 -77.494605715207172 51.729542239535263 0 0 0 0 146.71979533896956 -62.813477801924599 0 -62.813477801924599 -147.65900356932366 0 0 0 0 68.986011373403016 -64.260276306345617 0 -64.260276306345617 -150.66622070734462 0 0 0 0 85.114772739354521 -8.9857466909606671 0 -8.9857466909606671 -144.59344121462249 0 0 0 0 68.473799043720646 -44.731598609275601 0 -44.731598609275601 -166.93698202450014 0 0 0 0 7.1378512024675729 -45.676734857653457 0 -45.676734857653457 -153.9975206496984 0 0 0 0 67.685655078283162 -55.857847824521052 0 -55.857847824521052 -204.93756095118334 0 0 0 0 -12.3125792308565 -37.473121553765026 0 -37.473121553765026 -191.28146416775124 0 0 0 0 64.864709452565876 -25.573679534877982 0 -25.573679534877982 -203.27839745587536 0 0 0 0 54.949692642920127 -22.17159426022036 0 -22.17159426022036 -138.02680541575313 0 0 0 0 -22.776966822450049 -118.8716515541754 0 -118.8716515541754 -243.37854397764971 0 0 0 0 93.903502472450782 35.878091932703597 0 35.878091932703597 -73.922431046965642 0 0 0 0 261.14714918580285 17.943320666840222 0 17.943320666840222 -360.19391498867395 0 0 0 0 137.22610379826801 -39.82230407159355 0 -39.82230407159355 -201.23094645739849 0 0 0 0 -11.810296495066723 218.0430253711076 0 218.0430253711076 -387.42896661437885 0 0 0 0 7.6718619215971557 -1.8725509435431036 0 -1.8725509435431036 -17.339906637259503 0 0 0 0 12.313123352990672 -4.1258077245445151 0 -4.1258077245445151 -6.2870600411987265 0 0 0 0 -27.816593765790458 65.387387138586462 0 65.387387138586462 -12.800376683177319 0 0 0 0 3.9681037163391011 -2.055999346259398 0 -2.055999346259398 -6.9817544624754646 0 0 0 0 2.1603057712965494 -0.55637480647118309 0 -0.55637480647118309 -1.4605022411746469 0 0 0 0 1.6609338490451009 0.77370242355706864 0 0.77370242355706864 -7.7136529611216087 0 0 0 0 60.765818154934095 44.425521344690196 0 44.425521344690196 -47.682940237830735 0 0 0 0 26.214258428291942 36.259341108627837 0 36.259341108627837 -42.92020317775598 0 0 0 0 -7.3448054195368968 -78.106215764506146 0 -78.106215764506146 -111.78231869031242 0 0 0 0 -18.680164951438201 -125.29388967086351 0 -125.29388967086351 -270.48643793080356 0 0 0 0 2.4936042312538405 1.5147982128461521 0 1.5147982128461521 -4.2157194956901218 0 0 0 0 -56.902483426907565 -122.5527920967985 0 -122.5527920967985 -264.28987544149572 0 0 0 0 13.260478595937457 30.813030280787871 0 30.813030280787871 44.297875735682283 0 0 0 0 -0.091045974587515843 1.203198575086617 0 1.203198575086617 0.95605335871464225 0 0 0 0 -55.145356695902592 -103.0065252821414 0 -103.0065252821414 -186.61989563396406 0 0 0 0 17.304098975611851 -63.815063622670976 0 -63.815063622670976 -210.82633017374957 0 0 0 0 -23.55618879297981 -68.854357668107298 0 -68.854357668107298 -175.48886672084637 0 0 0 0 29.56249025897705 -33.294591613417367 0 -33.294591613417367 -189.09214722511476 0 0 0 0 -15.019347742927494 -63.08364274040639 0 -63.08364274040639 -247.56741823568495 0 0 0 0 -43.643764821568197 -143.69496594934677 0 -143.69496594934677 -370.82987661880912 0 0 0 0 -40.351476549702056 -52.448957692345004 0 -52.448957692345004 -193.53086084531395 0 0 0 0 47.762822365912143 19.690482907111118 0 19.690482907111118 -221.86173898721415 0 0 0 0 -20.608622831859975 -66.793213438706346 0 -66.793213438706346 -191.10740978200181 0 0 0 0 43.009745448529429 49.851277423240163 0 49.851277423240163 -81.809156902070981 0 0 0 0 -0.5878635923802733 0.33034615915209997 0 0.33034615915209997 -0.70335975159079966 0 0 0 0 -43.172234889876563 -188.74832052807039 0 -188.74832052807039 -676.41257501721032 0 0 0 0 -32.213413633846358 -19.814907619891017 0 -19.814907619891017 -244.7793240705625 0 0 0 0 22.563317045231088 92.891585633232125 0 92.891585633232125 62.929233913785993 0 0 0 0 0.90220151243030955 1.6008105190106505 0 1.6008105190106505 -2.7028157325292392 0 0 0 0 -26.591924894320982 -180.65972761386502 0 -180.65972761386502 -153.49510281555615 0 0 0 0 -0.49094782863539876 228.14931611524275 0 228.14931611524275 117.6225057375807 0 0 0 0 -25.985605265654158 43.074969817850615 0 43.074969817850615 109.63984440305023 0 0 0 0 -1.4709539137072483 0.81124563056275889 0 0.81124563056275889 -0.33337324633218124 0 0 0 0 0.25199352443585527 96.075914635882569 0 96.075914635882569 108.50702683305599 0 0 0 0 -1.5646967417705042 2.5404569377508395 0 2.5404569377508395 -3.5290583917998246 0 0 0 0 89.779873404237151 142.06502177027596 0 142.06502177027596 31.821246747434998 0 0 0 0 92.756665939231084 11.358281249125497 0 11.358281249125497 -26.941160185212539 0 0 0 0 -0.33488368330290541 80.172364703154471 0 80.172364703154471 -18.374565172895927 0 0 0 0 15.052549272280885 47.373654065318078 0 47.373654065318078 -40.411996081727011 0 0 0 0 51.545367583254119 18.749224459887046 0 18.749224459887046 -244.22246114991322 0 0 0 0 4.0409044824988269 187.05560489209299 0 187.05560489209299 -533.132691284467 0 0 0 0 -0.94324344304806118 -0.28593091271791593 0 -0.28593091271791593 0.68566743633023286 0 0 0 0 -30.568034494535823 -144.48082787412386 0 -144.48082787412386 -185.51398604965925 0 0 0 0 -1.142387231019768 0.29436429070030812 0 0.29436429070030812 0.25652659458529747 0 0 0 0 -37.591476385558053 184.88752304666343 0 184.88752304666343 -162.51192224651913 0 0 0 0 0.10241987483459525 96.893341585941926 0 96.893341585941926 -194.97822269476819 0 0 0 0 -14.989238727110205 -179.97906732403317 0 -179.97906732403317 22.269936503227655 0 0 0 0 -65.756919946801645 62.721481004491579 0 62.721481004491579 -9.4898953279498528 0 0 0 0 -98.033603048781515 -90.293612385738015 0 -90.293612385738015 -58.713223369595653 0 0 0 0 3.9133459142030915 -54.096854014856945 0 -54.096854014856945 -139.77860574884107 0 0 0 0 -0.80843876897610301 0.736905030171215 0 0.736905030171215 0.71282293893955639 0 0 0 0 -17.433699652538053 -3.490608756820393 0 -3.490608756820393 7.8196068409670261 0 0 0 0 -7.6569105870185012 9.0828539531080423 0 9.0828539531080423 -8.2047199162661855 0 0 0 0 -38.360911360992759 -88.651473431314116 0 -88.651473431314116 80.839332995573386 0 0 0 0 0.12278289342066273 3.1303678050253438 0 3.1303678050253438 -0.69212728295315173 0 0 0 0 -0.45598198520731614 1.2664623930042609 0 1.2664623930042609 0.18923184772978274 0 0 0 0 -0.87037920602080021 0.86653422410621772 0 0.86653422410621772 -0.41508291123282604 0 0 0 0 -1.1180528458529011 0.9323228730398796 0 0.9323228730398796 -0.73861085250219105 0 0 0 0 -20.554163058084669 -123.09227613591429 0 -123.09227613591429 -55.298106302396263 0 0 0 0 -0.52722824723223027 -0.24975423676462327 0 -0.24975423676462327 0.43439059207766562 0 0 0 0 -1.6769038563288632 -62.632834698119495 0 -62.632834698119495 -76.695317691346588 0 0 0 0 -155.11401666875463 26.745049567758542 0 26.745049567758542 -196.55339948345681 0 0 0 0 -4.1617500258871587 28.211882158374465 0 28.211882158374465 62.21315471640014 0 0 0 0 8.922875727788778 9.365820059599173 0 9.365820059599173 -74.522119674678294 0 0 0 0 -92.726154908837088 -26.719643294669822 0 -26.719643294669822 -32.55050832985944 0 0 0 0 37.924352396988979 35.17279156609834 0 35.17279156609834 -61.726816536922342 0 0 0 0 44.032024275853473 -35.346369388006224 0 -35.346369388006224 -17.59361725227609 0 0 0 0 -2.8206590489912031 4.1553558626575295 0 4.1553558626575295 -5.0248072441843128 0 0 0 0 64.697820652771043 64.100286924985539 0 64.100286924985539 6.5369160201998966 0 0 0 0 89.421554858992749 11.176166932581054 0 11.176166932581054 -50.689613818556609 0 0 0 0 -14.676860410938389 -72.760596070244674 0 -72.760596070244674 -87.048880746174973 0 0 0 0 -22.662186937726801 1.0052201662872449 0 1.0052201662872449 1.2734147360587258 0 0 0 0 17.63631750454806 20.674533783861989 0 20.674533783861989 -24.214742610609392 0 0 0 0 28.966059326623508 -2.06646634291792 0 -2.06646634291792 -27.397661096202683 0 0 0 0 21.224673815355345 1.5401941217569401 0 1.5401941217569401 5.2569543834097203 0 0 0 0 -19.844455924583599 -15.128690192904287 0 -15.128690192904287 -11.330644280807974 0 0 0 0 24.717284388971166 10.901384868110654 0 10.901384868110654 -34.474246880127794 0 0 0 0 25.893341809634876 -4.5305308979532128 0 -4.5305308979532128 -33.736143442476759 0 0 0 0 -129.12632149792626 -28.144359387346412 0 -28.144359387346412 -68.03563594483785 0 0 0 0 -0.50067754015996968 -0.13321421865664007 0 -0.13321421865664007 0.45518202554415055 0 0 0 0 28.720100292135612 -49.715179076747518 0 -49.715179076747518 -96.620099613715865 0 0 0 0 -18.549198791341041 6.0581851380366061 0 6.0581851380366061 -35.816291514759541 0 0 0 0 23.203761863172986 6.2140902213341178 0 6.2140902213341178 -34.440552856066461 0 0 0 0 2.4392912220209837 -9.6289183238004625 0 -9.6289183238004625 -46.056636367844476 0 0 0 0 0.037049519258218311 0.75178705949005575 0 0.75178705949005575 -3.6035657019949809 0 0 0 0 4.875026255947887 6.7263834309687809 0 6.7263834309687809 -9.9171445934716758 0 0 0 0 -28.867494505262584 -23.357952161019057 0 -23.357952161019057 -47.818896531685709 0 0 0 0 4.0375952839654872 -2.6036529864044908 0 -2.6036529864044908 -12.08281176090841 0 0 0 0 7.0857304452074459 3.9215212961626094 0 3.9215212961626094 -21.61211189905589 0 0 0 0 -1.1204720691021066 3.6335830911175435 0 3.6335830911175435 -20.356376108389668 0 0 0 0 9.1104210038016049 -3.4595289329983459 0 -3.4595289329983459 -20.098438454228052 0 0 0 0 10.51061804422352 -3.9099703171186775 0 -3.9099703171186775 -15.984775760167395 0 0 0 0 0.74744197569393123 1.4261411516437903 0 1.4261411516437903 -1.9038312603741652 0 0 0 0 14.660861833126546 -1.1895514736959285 0 -1.1895514736959285 -21.476795588158893 0 0 0 0 1.3457579881390416 -0.80548884852186831 0 -0.80548884852186831 -3.0851151946829347 0 0 0 0 0.41585003821819555 1.6478108856499603 0 1.6478108856499603 -2.279545598000368 0 0 0 0 -0.81307307256852823 1.127129474040288 0 1.127129474040288 -0.9875319107436269 0 0 0 0 0.5298592574474128 -0.047536572468764859 0 -0.047536572468764859 -1.9773735272613449 0 0 0 0 -3.3377692581125302 9.0714846242790372 0 9.0714846242790372 -0.25442234339607239 0 0 0 0 2.2930918937636307 1.8485547393765955 0 1.8485547393765955 -3.6863665860990977 0 0 0 0 -0.25918449519454612 1.7599266356220795 0 1.7599266356220795 -1.7428473929925694 0 0 0 0 -0.52403031934227329 2.8974290109135836 0 2.8974290109135836 1.3800537550159788 0 0 0 0 -0.31656503462326668 -1.1863878457018693 0 -1.1863878457018693 -0.51307360785281109 0 0 0 0 -0.40902355807702406 -0.13242522180962624 0 -0.13242522180962624 0.23677956738538342 0 0 0 0 -0.067891730187733798 0.035675069681989878 0 0.035675069681989878 2.1296877505701559 0 0 0 0 -8.885080431427923 -22.85488849186163 0 -22.85488849186163 -13.902375054271943 0 0 0 0 16.886133203384816 46.853537514165964 0 46.853537514165964 -12.51989058370782 0 0 0 0 -69.55818351787093 144.00244743944222 0 144.00244743944222 -90.560081540702413 0 0 0 0 -73.262528444305644 126.69311876205256 0 126.69311876205256 -113.87813382668446 0 0 0 0 -53.200411430105305 167.69733331471775 0 167.69733331471775 -343.06088892070693 0 0 0 0 -70.534565176595009 52.414208133779482 0 52.414208133779482 -29.484498080433735 0 0 0 0 -136.07144071625407 56.851339249448756 0 56.851339249448756 91.041356159390489 0 0 0 0 -57.622220232184191 148.24177179192793 0 148.24177179192793 -230.68384919640994 0 0 0 0 -86.744170830777875 169.81843652253565 0 169.81843652253565 -121.7683947105179 0 0 0 0 -116.09157533726102 114.90727058887387 0 114.90727058887387 -38.213842047357502 0 0 0 0 -137.78782307864458 146.31472572484154 0 146.31472572484154 -54.055626658442634 0 0 0 0 -133.85831230325948 54.42152752054642 0 54.42152752054642 66.624686881417801 0 0 0 0 -145.26351628649445 111.03090417412386 0 111.03090417412386 -18.56039758519546 0 0 0 0 -109.18601484884857 61.071914133533483 0 61.071914133533483 24.264017434235939 0 0 0 0 -57.494714170403313 94.678764089287142 0 94.678764089287142 -57.928269234344043 0 0 0 0 -64.142226165466155 45.029492228895634 0 45.029492228895634 -11.518462809407053 0 0 0 0 -31.455062895517585 49.140094471779321 0 49.140094471779321 -28.105532308731199 0 0 0 0 -51.54804222229177 76.829649051813249 0 76.829649051813249 -22.847755560606856 0 0 0 0 -5.7350178399321265 7.1574214590164082 0 7.1574214590164082 -8.5916827702961669 0 0 0 0 -80.097407769411802 62.189492860766677 0 62.189492860766677 18.899291256391734 0 0 0 0 -34.218332870354928 53.561728577095074 0 53.561728577095074 -109.17044895330764 0 0 0 0 -34.058415516760604 18.028124097770146 0 18.028124097770146 3.1364973587442364 0 0 0 0 -65.117108851542071 60.376997436485908 0 60.376997436485908 6.7717414714570623 0 0 0 0 -64.419278371320615 63.83589041858977 0 63.83589041858977 -3.7503824895866273 0 0 0 0 -15.465137051924103 84.580841375671298 0 84.580841375671298 -12.213082707468857 0 0 0 0 -40.726189271194016 54.534798006814526 0 54.534798006814526 -20.856448428628028 0 0 0 0 -46.964099600196278 62.3670797973964 0 62.3670797973964 7.7923173492017668 0 0 0 0 16.877809535311826 76.110498737807575 0 76.110498737807575 -13.73290026434006 0 0 0 0 -68.347465858082046 47.920336853009644 0 47.920336853009644 -22.939297180218261 0 0 0 0 1.4007116155326003 86.34657177227291 0 86.34657177227291 -8.7170326391860726 0 0 0 0 -78.417836904207434 141.9072709152988 0 141.9072709152988 43.822646006970899 0 0 0 0 0.45746581711727785 -0.12233267822338423 0 -0.12233267822338423 -0.45394857550981982 0 0 0 0 -389.79891274571128 10.8110724640228 0 10.8110724640228 47.332216346931091 0 0 0 0 -80.134163356374259 14.367756127598319 0 14.367756127598319 14.384940025214746 0 0 0 0 -134.69650004838695 152.29170329100634 0 152.29170329100634 -4.1658515106519189 0 0 0 0 113.41117418018439 166.31201465308004 0 166.31201465308004 -4.4958409029321444 0 0 0 0 631.98208094115762 387.03535169565475 0 387.03535169565475 31.925841791035054 0 0 0 0 191.57288979117766 264.11713951935417 0 264.11713951935417 49.843786947141325 0 0 0 0 -15.272687467029755 264.17199082745356 0 264.17199082745356 127.22577145556534 0 0 0 0 92.5586824856764 204.10159983561061 0 204.10159983561061 -25.22575572392816 0 0 0 0 -120.34591870409349 255.8067552905577 0 255.8067552905577 136.88102631647507 0 0 0 0 -185.56927426447692 228.16962945155137 0 228.16962945155137 168.0834375121085 0 0 0 0 -235.6229444685905 297.88090074171578 0 297.88090074171578 112.39442736134879 0 0 0 0 29.897977566326517 41.771027522854638 0 41.771027522854638 -42.356950730940298 0 0 0 0 132.08976862808049 271.02067434381752 0 271.02067434381752 177.5394127634936 0 0 0 0 180.54985068545011 129.68709763715833 0 129.68709763715833 121.12694652221762 0 0 0 0 -60.34273402834333 332.02579223977318 0 332.02579223977318 7.2248629727455409 0 0 0 0 -174.52653326576183 289.21852151852181 0 289.21852151852181 173.08148548076315 0 0 0 0 -124.26718328248535 334.23039339054048 0 334.23039339054048 146.69794748991444 0 0 0 0 -122.53922556696944 324.45823956274626 0 324.45823956274626 15.171725831751246 0 0 0 0 -120.76033642368384 259.3791104687316 0 259.3791104687316 113.67660937680012 0 0 0 0 -165.1821554022863 270.70888150242536 0 270.70888150242536 157.97183104832948 0 0 0 0 -123.6384381471471 315.34402030668571 0 315.34402030668571 6.8165130717661668 0 0 0 0 -226.90017048976006 302.88974966686692 0 302.88974966686692 143.59072468551312 0 0 0 0 -83.852035069927297 255.73104104223785 0 255.73104104223785 95.514651224406407 0 0 0 0 -96.365637840282943 214.55976596858272 0 214.55976596858272 238.04094625597281 0 0 0 0 56.395130757355219 38.105248413530717 0 38.105248413530717 -55.582996157829115 0 0 0 0 61.740011922225676 36.149670878217876 0 36.149670878217876 90.17224512401117 0 0 0 0 27.228593699331213 126.17738779245246 0 126.17738779245246 -144.53417599130262 0 0 0 0 117.45472501506447 31.002853694670193 0 31.002853694670193 -129.8574407133342 0 0 0 0 12.244572119187069 205.797600981492 0 205.797600981492 38.269975127632279 0 0 0 0 162.29484773923468 138.96977364660597 0 138.96977364660597 -228.31500010697346 0 0 0 0 136.81891132591272 15.813001255166 0 15.813001255166 -124.86005975240914 0 0 0 0 -231.02151795033751 525.37214052540185 0 525.37214052540185 -342.6401516659862 0 0 0 0 354.11086433127639 167.7264414460642 0 167.7264414460642 -348.03739301341921 0 0 0 0 420.85353947032854 132.68534855928328 0 132.68534855928328 -336.74911307574803 0 0 0 0 335.62887233468427 -13.13048103703477 0 -13.13048103703477 -120.5552530419809 0 0 0 0 323.87394206095178 -94.588955187541615 0 -94.588955187541615 31.133689153852174 0 0 0 0 241.33668832718649 43.046478289488732 0 43.046478289488732 -112.86311307577125 0 0 0 0 199.24585221527559 -9.9630458305791763 0 -9.9630458305791763 -63.89577505683701 0 0 0 0 128.33653680709176 49.090450431374848 0 49.090450431374848 -101.02704072995766 0 0 0 0 78.193827389859507 10.47315436468125 0 10.47315436468125 -115.51108548450429 0 0 0 0 122.35182517336489 26.061636479878871 0 26.061636479878871 -136.51509849509966 0 0 0 0 70.467810427329823 55.146676623482563 0 55.146676623482563 -87.794498972916699 0 0 0 0 67.357889456910925 36.070695582181543 0 36.070695582181543 -182.81332446264423 0 0 0 0 492.45998787440021 319.60294566002676 0 319.60294566002676 10.735978595792403 0 0 0 0 -16.80997861776217 8.9044609420242189 0 8.9044609420242189 9.5429623757287843 0 0 0 0 10.001299401507815 9.24944625922139 0 9.24944625922139 -15.337139769058748 0 0 0 0 -601.47916640779295 251.43205908668642 0 251.43205908668642 124.03907067045839 0 0 0 0 -400.53036805632655 -42.886457169739515 0 -42.886457169739515 -36.557814926703941 0 0 0 0 -148.16419828364451 1107.5840237420707 0 1107.5840237420707 -33.707204103426193 0 0 0 0 334.86634472502192 578.23444817341078 0 578.23444817341078 -1019.7445991431377 0 0 0 0 144.06801329803056 602.05190893597683 0 602.05190893597683 569.02902190433633 0 0 0 0 -214.68491848809936 403.52240223194894 0 403.52240223194894 -723.91225357114035 0 0 0 0 -892.28564274466771 428.71616195149363 0 428.71616195149363 -16.280190692466931 0 0 0 0 1.0893686176178656 2.199944372235425 0 2.199944372235425 -9.6726477219012423 0 0 0 0 -10.945402803310571 242.59313823143202 0 242.59313823143202 -602.30469588552478 0 0 0 0 523.26220028399894 -13.210765845244168 0 -13.210765845244168 -231.66453518321578 0 0 0 0 -328.51711330412036 -34.076159428648225 0 -34.076159428648225 -89.11894057795871 0 0 0 0 -40.214506164148084 60.594756255026077 0 60.594756255026077 -62.288273139604819 0 0 0 0 -141.74331210814671 88.99089630028493 0 88.99089630028493 -245.59428676324023 0 0 0 0 -20.138790083808999 173.68895008439085 0 173.68895008439085 -267.9348877467462 0 0 0 0 7.8979484422688984 114.44700875654326 0 114.44700875654326 -144.45767556488681 0 0 0 0 -90.903881691856441 83.322950008323687 0 83.322950008323687 -80.945077220863382 0 0 0 0 -22.524749184977335 49.027861458972538 0 49.027861458972538 -62.856030264941708 0 0 0 0 -128.30108133156682 106.33501486684372 0 106.33501486684372 -101.68805663307649 0 0 0 0 249.43981311169637 116.96681488422041 0 116.96681488422041 -65.054391357956774 0 0 0 0 -9.5676153025108661 10.557146581902707 0 10.557146581902707 -28.689397040483179 0 0 0 0 -5.6174420093047956 82.551015557735809 0 82.551015557735809 -102.03515783600596 0 0 0 0 -5.3520173151905297 185.86669785484642 0 185.86669785484642 -65.986484535042109 0 0 0 0 -2.6122817994710203 201.06517229561587 0 201.06517229561587 -165.33415281573616 0 0 0 0 95.938905513663485 138.23312483265727 0 138.23312483265727 -248.66119991487722 0 0 0 0 93.08649789039373 126.80943757737361 0 126.80943757737361 -96.564079769035743 0 0 0 0 134.36295211605102 74.02004490998479 0 74.02004490998479 -137.66542672816286 0 0 0 0 131.85607888386949 151.35116181641024 0 151.35116181641024 -132.81430259842637 0 0 0 0 124.64331083174329 128.72918346420192 0 128.72918346420192 -40.713475631579968 0 0 0 0 139.30357105859366 101.01896342623877 0 101.01896342623877 -28.93317196343969 0 0 0 0 196.12892308893424 85.192914750135969 0 85.192914750135969 89.442500103097245 0 0 0 0 202.87489562556402 80.312315886616489 0 80.312315886616489 -78.104434506014513 0 0 0 0 -81.74383118741207 178.61440961997323 0 178.61440961997323 -60.94239135738917 0 0 0 0 94.004801091145055 118.10993427140784 0 118.10993427140784 -40.147898414028532 0 0 0 0 225.56267680459496 93.246620487591827 0 93.246620487591827 -79.74235120542653 0 0 0 0 88.103499102783758 217.7481699387485 0 217.7481699387485 -115.47192751863622 0 0 0 0 85.714809103534208 195.51921151054557 0 195.51921151054557 -92.077549197410008 0 0 0 0 86.674208524193091 248.92237415463751 0 248.92237415463751 -86.997117668881401 0 0 0 0 100.21602048370551 192.73914687633442 0 192.73914687633442 -125.0577104229651 0 0 0 0 85.791386574546777 182.0299694002133 0 182.0299694002133 -174.23719661179166 0 0 0 0 -36.210048053684659 115.94795447790966 0 115.94795447790966 346.29634162614275 0 0 0 0 72.480176121796831 186.13116851508494 0 186.13116851508494 -19.004605260364769 0 0 0 0 107.37977794240942 76.398549045519758 0 76.398549045519758 -69.789947236816715 0 0 0 0 105.34400048764655 94.483236876805677 0 94.483236876805677 -191.90327459943387 0 0 0 0 69.897577674896638 207.22588648212559 0 207.22588648212559 -167.42247615016822 0 0 0 0 0.17447246073425049 95.362435785855723 0 95.362435785855723 -193.14411153588753 0 0 0 0 -118.28697054327495 -22.40409277188428 0 -22.40409277188428 56.295671694442717 0 0 0 0 3.899243892768844 14.968328315161569 0 14.968328315161569 -23.534635972158487 0 0 0 0 -228.17088655283794 66.471979108644462 0 66.471979108644462 -268.4272611678598 0 0 0 0 3.4342843984445395 -2.7990709637826541 0 -2.7990709637826541 1.462365389610663 0 0 0 0 -28.375243940407927 136.61339717567444 0 136.61339717567444 -306.6242233982739 0 0 0 0 43.27769577984327 50.482825284976798 0 50.482825284976798 -226.46849948024101 0 0 0 0 0.30476237420589314 76.856209356337786 0 76.856209356337786 -114.12987211769541 0 0 0 0 90.562110190790918 60.661327412338778 0 60.661327412338778 -258.78771134306407 0 0 0 0 15.347277307603804 -9.0870624442895949 0 -9.0870624442895949 -11.21765927229616 0 0 0 0 0.49218005343293791 45.117662230995222 0 45.117662230995222 -99.660918826485045 0 0 0 0 4.0489016906769706 16.6350516118607 0 16.6350516118607 -29.825746847067904 0 0 0 0 -17.425858969570982 74.52042621066812 0 74.52042621066812 79.632110592097888 0 0 0 0 -12.757956243542139 79.044810837340265 0 79.044810837340265 -82.588721554209769 0 0 0 0 48.634973271251511 76.698264914185529 0 76.698264914185529 -174.32129631980933 0 0 0 0 352.99346053301997 22.018367395357018 0 22.018367395357018 -392.40808947110963 0 0 0 0 250.48806230014452 -87.279608428334541 0 -87.279608428334541 -181.66964237349657 0 0 0 0 4.4040510670771909 -3.2557554709508878 0 -3.2557554709508878 -1.1398190163797715 0 0 0 0 -47.045924040063255 66.817175267052335 0 66.817175267052335 10.343423544268262 0 0 0 0 3.9918589960768003 1.0201979704672901 0 1.0201979704672901 -1.9643040439659103 0 0 0 0 278.49352805948365 155.25169594187537 0 155.25169594187537 -416.49628452946808 0 0 0 0 273.18590797217985 164.59443231944988 0 164.59443231944988 -169.90983397065884 0 0 0 0 -256.44469069336992 351.26834876271732 0 351.26834876271732 -148.27609102613951 0 0 0 0 -163.92904000519411 239.00742190811525 0 239.00742190811525 -131.16784202233771 0 0 0 0 -36.621430696806783 344.13153535613219 0 344.13153535613219 -169.71200101410795 0 0 0 0 72.549322961458529 244.73599501661465 0 244.73599501661465 -227.59552771501868 0 0 0 0 -258.18189607597014 105.91659794287807 0 105.91659794287807 -31.626100871151721 0 0 0 0 -215.33172259131243 164.96283276360919 0 164.96283276360919 -83.100413092416602 0 0 0 0 -196.23153250614632 78.299228498551201 0 78.299228498551201 -19.920693291569478 0 0 0 0 -152.68067037397304 136.81185445506253 0 136.81185445506253 -70.995027716857294 0 0 0 0 -197.7851619841822 179.81605658767148 0 179.81605658767148 -61.642641910291786 0 0 0 0 -145.01734184083944 204.28841144208036 0 204.28841144208036 -96.563254565589887 0 0 0 0 -268.04183854233634 260.35032154352029 0 260.35032154352029 -122.10271878079675 0 0 0 0 -224.53132129695541 218.69750012188592 0 218.69750012188592 -223.64035897377471 0 0 0 0 -324.02072761728414 246.54529354089391 0 246.54529354089391 -194.70026519848034 0 0 0 0 -262.13346789640741 149.89377465296903 0 149.89377465296903 -86.724854228395998 0 0 0 0 -336.93188969639959 260.54305211383598 0 260.54305211383598 -184.06272221519066 0 0 0 0 -312.16702398487905 385.86612229079856 0 385.86612229079856 -397.00110333240718 0 0 0 0 -10.043718355800138 325.69312297934857 0 325.69312297934857 -565.17887973481629 0 0 0 0 5.3839500096136561 2.3980263001147666 0 2.3980263001147666 -1.9476480152641855 0 0 0 0 -666.9354281523083 434.67509186385905 0 434.67509186385905 -466.93503846893509 0 0 0 0 -552.8413068871705 517.64419450856985 0 517.64419450856985 -474.35833386354352 0 0 0 0 -1.5992600158324439 5.0559958410065065 0 5.0559958410065065 -15.037058191455046 0 0 0 0 -1360.6718767501734 504.53042450581779 0 504.53042450581779 -260.87552834931921 0 0 0 0 509.9297028612018 147.22000646950255 0 147.22000646950255 -778.16372250116183 0 0 0 0 -729.47494812913556 24.789189061224533 0 24.789189061224533 51.711738275065727 0 0 0 0 -224.61766583492863 42.743794786510989 0 42.743794786510989 -95.326356813402526 0 0 0 0 352.7912023284407 154.89843371755524 0 154.89843371755524 -43.509693149935629 0 0 0 0 -84.386945489801292 94.828301431327418 0 94.828301431327418 126.86227079678793 0 0 0 0 166.36172229344447 -141.28971187823845 0 -141.28971187823845 -110.40868810878965 0 0 0 0 38.650600710585422 254.44733554947197 0 254.44733554947197 -524.07998015261728 0 0 0 0 -52.554368370052543 36.761288487556158 0 36.761288487556158 -46.883329095914178 0 0 0 0 -176.43959511858338 272.682414261335 0 272.682414261335 -76.217086763212137 0 0 0 0 -11.541325840379614 78.592503721365119 0 78.592503721365119 -10.63259949471103 0 0 0 0 -37.087793112244981 82.615307185216807 0 82.615307185216807 -11.259767415117494 0 0 0 0 -100.49693156301146 53.1298394140249 0 53.1298394140249 45.146160129050259 0 0 0 0 -75.037271491884894 135.48639115307014 0 135.48639115307014 90.815767031634095 0 0 0 0 -71.055734084715368 222.23942929564873 0 222.23942929564873 -58.333497613912186 0 0 0 0 -62.244895100764552 120.51030091603752 0 120.51030091603752 -49.516946019379247 0 0 0 0 19.838630281745282 111.93053860050713 0 111.93053860050713 -48.753629434964751 0 0 0 0 13.815401000095335 144.69262977982044 0 144.69262977982044 -224.83649946156947 0 0 0 0 -5.2738700947775214 89.684039861989731 0 89.684039861989731 -64.058493199801887 0 0 0 0 -22.536794897903746 78.585178914963763 0 78.585178914963763 -51.403731054429954 0 0 0 0 -6.3837954662158154 82.549415568599215 0 82.549415568599215 -50.639001357048983 0 0 0 0 1.4659864129062044 62.353780313846073 0 62.353780313846073 -75.066562816115038 0 0 0 0 -9.8189007689256016 21.03809982422975 0 21.03809982422975 22.14243991128307 0 0 0 0 -10.659306754190766 30.014890828304488 0 30.014890828304488 9.8922056468800292 0 0 0 0 -13.714541247565649 13.253741491666005 0 13.253741491666005 42.270399389002932 0 0 0 0 -392.11345529146638 -60.776682099764002 0 -60.776682099764002 61.95349183687722 0 0 0 0 20.614715752442862 7.7616505336645787 0 7.7616505336645787 -154.32143935158092 0 0 0 0 -0.21296844185228991 6.8728151780819857 0 6.8728151780819857 2.3448830286086775 0 0 0 0 -2.6151655615153402 37.370669630587159 0 37.370669630587159 26.380726422733421 0 0 0 0 -18.781686278745084 14.516382261444306 0 14.516382261444306 60.854183365142497 0 0 0 0 -70.436751278379234 46.589906995857746 0 46.589906995857746 73.011201281973626 0 0 0 0 -114.15944761349238 -27.227483874346945 0 -27.227483874346945 -24.816917953772645 0 0 0 0 -59.05402166848944 45.534595659693878 0 45.534595659693878 29.408685020956909 0 0 0 0 -69.792487473459914 15.066875812757644 0 15.066875812757644 42.928248629017617 0 0 0 0 -98.567682247143239 30.657057303993497 0 30.657057303993497 86.395183257351164 0 0 0 0 253.08434493462482 209.0839085513926 0 209.0839085513926 -85.500840228574816 0 0 0 0 -3.2336568664191034 18.317268299205317 0 18.317268299205317 -56.828423595796806 0 0 0 0 -26.133436548901955 71.589442090247758 0 71.589442090247758 46.594633690234332 0 0 0 0 -22.952572429785505 66.301136604604835 0 66.301136604604835 53.130193305725697 0 0 0 0 41.173422630221467 123.57844252798532 0 123.57844252798532 -6.6319952419144101 0 0 0 0 98.084305186930578 142.55679446249269 0 142.55679446249269 -9.2658435513258155 0 0 0 0 101.93665197107475 84.965625135664595 0 84.965625135664595 11.614494371402543 0 0 0 0 58.227377915740362 119.40606606970687 0 119.40606606970687 -9.3298789673244755 0 0 0 0 45.217765532943304 141.45928318565348 0 141.45928318565348 -8.3525956928788219 0 0 0 0 -14.262480870813306 139.4781582261312 0 139.4781582261312 5.5045804067049176 0 0 0 0 -151.66707835069974 77.738485701156606 0 77.738485701156606 52.102342693833634 0 0 0 0 -260.42909543092537 116.47592888571671 0 116.47592888571671 7.7416663814819913 0 0 0 0 -432.34353918964916 197.71546986794419 0 197.71546986794419 140.61178729668609 0 0 0 0 49.795896682728198 376.48758951535274 0 376.48758951535274 -10.829051348919165 0 0 0 0 167.69972824090473 321.59344385068835 0 321.59344385068835 -93.256763591227354 0 0 0 0 -71.760693871896365 41.238896924371147 0 41.238896924371147 -68.534764100691973 0 0 0 0 -148.25229963291531 -0.47954918354480469 0 -0.47954918354480469 -32.360181554324299 0 0 0 0 -334.34803931007605 67.92627589773744 0 67.92627589773744 -38.150731946774613 0 0 0 0 -2.5948190359117369 11.858209288717333 0 11.858209288717333 -40.628117203138586 0 0 0 0 -152.29624472444357 -144.24155421608793 0 -144.24155421608793 -75.545558459612948 0 0 0 0 -237.7003573240072 380.05164114514264 0 380.05164114514264 46.093962830185774 0 0 0 0 -23.483411012673969 39.685503934175358 0 39.685503934175358 8.7062120759583195 0 0 0 0 -37.352600312231516 11.012089911277144 0 11.012089911277144 24.535893427679184 0 0 0 0 -17.785196452826582 18.186473097917379 0 18.186473097917379 16.415816188750483 0 0 0 0 -42.465047888901609 26.356737377343961 0 26.356737377343961 7.0372280272677017 0 0 0 0 -65.649039147821895 37.961578256219582 0 37.961578256219582 14.2210821102708 0 0 0 0 -49.237005004537423 64.122942373364822 0 64.122942373364822 17.93788757546281 0 0 0 0 -19.813546157471137 54.466119956876355 0 54.466119956876355 -26.044049315816665 0 0 0 0 -26.991330693606869 46.60167168865155 0 46.60167168865155 1.6857049882182764 0 0 0 0 -24.069295611276175 77.71504968004956 0 77.71504968004956 2.3797398415463249 0 0 0 0 -23.706975843502732 62.788385527415812 0 62.788385527415812 2.7264465073894826 0 0 0 0 -32.99469436372965 49.21103409929492 0 49.21103409929492 -5.3651831706201847 0 0 0 0 0.032163418877587446 1.9989028541333056 0 1.9989028541333056 1.8653586287387682 0 0 0 0 -25.750923715520912 -2.3219587129224237 0 -2.3219587129224237 121.30198386276061 0 0 0 0 -18.253454889944805 103.1578832362602 0 103.1578832362602 5.3713431053911336 0 0 0 0 -64.613479912091861 91.962120682903333 0 91.962120682903333 82.735514489313573 0 0 0 0 -34.194543349178275 79.208030388999759 0 79.208030388999759 5.6173356660056584 0 0 0 0 -79.266721680229239 103.25842054301756 0 103.25842054301756 -27.384471724079049 0 0 0 0 -9.3228464301373606 74.916166982649884 0 74.916166982649884 -68.02846528920054 0 0 0 0 -56.138365977793001 42.447628963112948 0 42.447628963112948 -42.908033237501513 0 0 0 0 -61.412499116165691 102.98782389870291 0 102.98782389870291 -26.196375370956957 0 0 0 0 -4.4379024755594543 9.3422057836736627 0 9.3422057836736627 9.6119635390083715 0 0 0 0 -12.656198552889691 22.095454763008092 0 22.095454763008092 10.001630550812479 0 0 0 0 -20.290654140073215 32.020981728959597 0 32.020981728959597 7.4148119928067997 0 0 0 0 -24.075697911512179 50.77350657131683 0 50.77350657131683 -6.8959928373769799 0 0 0 0 290.72096052407869 135.25471764828808 0 135.25471764828808 -33.220294719063077 0 0 0 0 -9.7066646296677561 27.223913276311649 0 27.223913276311649 11.363458746638919 0 0 0 0 5.4755016372473619 22.807372362001843 0 22.807372362001843 41.67920124950615 0 0 0 0 -16.777750254362715 22.430975347940958 0 22.430975347940958 21.428024999830072 0 0 0 0 -6.1537877137889154 53.405905865773093 0 53.405905865773093 -30.053356412048743 0 0 0 0 -13.706236202182481 42.603996192452541 0 42.603996192452541 37.923884588517467 0 0 0 0 -0.53346680599611318 25.693509348451371 0 25.693509348451371 22.47506198662688 0 0 0 0 6.99715098352317 51.672533549422951 0 51.672533549422951 -93.228622713126242 0 0 0 0 -16.944502164031292 57.353285746424262 0 57.353285746424262 -22.830075123347342 0 0 0 0 -7.7181996254589507 20.397120234450639 0 20.397120234450639 19.5040934583837 0 0 0 0 -17.857456812627788 26.703312350688066 0 26.703312350688066 11.498097716537814 0 0 0 0 -0.82621715895322723 4.3853709050920351 0 4.3853709050920351 -6.4088078070042345 0 0 0 0 -43.103532757239009 44.971162879106487 0 44.971162879106487 92.514817085868344 0 0 0 0 25.998453761334531 90.002456480555338 0 90.002456480555338 -246.3417944446137 0 0 0 0 -38.994489259450347 81.501070173348126 0 81.501070173348126 57.338857923463365 0 0 0 0 21.419009234698024 164.63120633519429 0 164.63120633519429 -207.82379291107645 0 0 0 0 99.803225383468089 127.76149971464838 0 127.76149971464838 -267.038237232744 0 0 0 0 11.554795819210682 14.394588453413883 0 14.394588453413883 -7.9006404395247021 0 0 0 0 -33.877115131337632 90.979202511061885 0 90.979202511061885 -13.243021611433505 0 0 0 0 -11.114234991218837 104.89478971936842 0 104.89478971936842 -96.03632462302312 0 0 0 0 -157.5581820190564 80.520768651134858 0 80.520768651134858 -99.931326753639041 0 0 0 0 -19.239848072669702 61.978392127261031 0 61.978392127261031 -111.71323049005878 0 0 0 0 -24.474380106228637 141.34439336397372 0 141.34439336397372 -23.452352272957796 0 0 0 0 22.975277440211912 0.91055870579704568 0 0.91055870579704568 -38.208297559558289 0 0 0 0 16.351495326485747 64.300367408402053 0 64.300367408402053 -36.2290936618665 0 0 0 0 -9.8408842977733002 41.096821314220506 0 41.096821314220506 -43.30358806235563 0 0 0 0 -29.694374226513901 53.12171268525799 0 53.12171268525799 -4.8782412536238553 0 0 0 0 -29.046698940357601 48.506421039712222 0 48.506421039712222 -38.306142659490433 0 0 0 0 101.89183656191017 251.53249070794482 0 251.53249070794482 51.591465352563318 0 0 0 0 -76.684263252752316 288.77669887204775 0 288.77669887204775 326.57047036149015 0 0 0 0 -102.78048776156356 158.05469006049134 0 158.05469006049134 78.619858850568562 0 0 0 0 -13.705203781086311 160.90960031579016 0 160.90960031579016 -16.799439338799857 0 0 0 0 -40.800363643366552 53.029555299026683 0 53.029555299026683 2.0404417919870665 0 0 0 0 4.5667476592861931 82.836056480818115 0 82.836056480818115 -16.672089647552639 0 0 0 0 -51.242243369037169 94.446321960289424 0 94.446321960289424 23.408608497207751 0 0 0 0 -66.608131850836799 134.32776015133641 0 134.32776015133641 41.043178034205994 0 0 0 0 -54.360972702939762 108.51031031212733 0 108.51031031212733 -18.179582646130143 0 0 0 0 14.661589830080629 134.36026634362861 0 134.36026634362861 40.317006831854542 0 0 0 0 0.82357016049441256 55.587735376173939 0 55.587735376173939 20.676612717663701 0 0 0 0 -1.7236413889477262 127.35760719428163 0 127.35760719428163 61.780821640881186 0 0 0 0 -56.730872993550292 116.82293061803944 0 116.82293061803944 137.30065516412287 0 0 0 0 -0.13313343732933447 4.52171408732017 0 4.52171408732017 12.897032399926653 0 0 0 0 -14.001461501647896 47.42577006758944 0 47.42577006758944 22.51082760179759 0 0 0 0 -19.202866481326055 53.564497834719077 0 53.564497834719077 -234.84423078914551 0 0 0 0 3.1497155049257941 8.1317720286371227 0 8.1317720286371227 -32.50145625015967 0 0 0 0 -29.086307388733985 79.966983939527836 0 79.966983939527836 38.91660815583964 0 0 0 0 -35.693551810867575 76.971520020709249 0 76.971520020709249 39.750933388353587 0 0 0 0 -50.818343563900271 73.363600067296829 0 73.363600067296829 48.017922905593878 0 0 0 0 -25.264421391017095 166.70509569681599 0 166.70509569681599 66.333174083079939 0 0 0 0 -170.3269311421609 168.30468240677146 0 168.30468240677146 99.150151615511277 0 0 0 0 -82.095933803342632 59.879618553122782 0 59.879618553122782 48.51528155086271 0 0 0 0 -155.31731337811289 184.2730805204028 0 184.2730805204028 98.301232773344964 0 0 0 0 -276.9054358619469 26.041258110824856 0 26.041258110824856 63.240016361552989 0 0 0 0 -367.50240053646849 13.286584989658877 0 13.286584989658877 122.51000760634633 0 0 0 0 -23.958952536282041 26.723744098227819 0 26.723744098227819 27.479167364657318 0 0 0 0 -43.928365975225461 32.441969706077089 0 32.441969706077089 161.57184579360637 0 0 0 0 -15.971970740152756 72.178593720693243 0 72.178593720693243 64.778532214057662 0 0 0 0 -43.623640366196923 8.0995685021903228 0 8.0995685021903228 63.787717998839724 0 0 0 0 -29.696632833185376 28.650764462572749 0 28.650764462572749 35.025859831860799 0 0 0 0 -129.33137201783393 -3.2383421593171988 0 -3.2383421593171988 -75.379095983707884 0 0 0 0 -20.496440602008079 31.003885906828145 0 31.003885906828145 -154.60046889696696 0 0 0 0 -16.269419114054472 35.685231313012991 0 35.685231313012991 -176.92305253136146 0 0 0 0 -21.626074470346708 48.443773708718403 0 48.443773708718403 -39.412642086009249 0 0 0 0 98.371627369415364 155.92770012115989 0 155.92770012115989 -19.454301626338292 0 0 0 0 156.93843929393915 340.58822103857074 0 340.58822103857074 3.8992585328671794 0 0 0 0 -4.7226940547039931 5.0501846346809174 0 5.0501846346809174 -2.358166768746166 0 0 0 0 -1.6310406135380617 120.64899813386728 0 120.64899813386728 114.96800637778597 0 0 0 0 46.710979464749471 81.316052099713488 0 81.316052099713488 24.291455951350144 0 0 0 0 -9.378792066105234 77.813387198235432 0 77.813387198235432 66.383301090676468 0 0 0 0 -3.3582462585327448 43.705354895237406 0 43.705354895237406 5.8975979320348415 0 0 0 0 25.356679262711623 96.28883918979318 0 96.28883918979318 19.68675129064286 0 0 0 0 -4.4864866283605807 69.34022140232355 0 69.34022140232355 6.5811744934235321 0 0 0 0 -22.934899492764089 90.900214820971541 0 90.900214820971541 -18.081069033712993 0 0 0 0 12.480562098528026 67.666924679992007 0 67.666924679992007 -60.24926124956437 0 0 0 0 11.206642491357343 52.097009778060965 0 52.097009778060965 -12.031045723807438 0 0 0 0 8.0600539294919145 53.892469060051326 0 53.892469060051326 14.462895784032298 0 0 0 0 15.366489043162801 55.085284737179791 0 55.085284737179791 -13.681744822682958 0 0 0 0 -4.0182718438791198 67.637752442513147 0 67.637752442513147 28.518576914329969 0 0 0 0 8.2241079309824272 82.884499255751507 0 82.884499255751507 -3.9747268074411295 0 0 0 0 -8.227560711172373 77.922050786668251 0 77.922050786668251 36.784846050395572 0 0 0 0 -0.63753391207865207 74.035840556512994 0 74.035840556512994 33.608986686424032 0 0 0 0 -193.27477607197943 -78.443111469860014 0 -78.443111469860014 -36.810343316145008 0 0 0 0 -24.224696149251031 56.918342576272153 0 56.918342576272153 37.519883878680048 0 0 0 0 -326.16193734945591 173.27799329726304 0 173.27799329726304 142.54027286299242 0 0 0 0 -504.59419287640048 41.764742930319699 0 41.764742930319699 -90.383839628244459 0 0 0 0 -7.1151708742943356 -1.4381499056657816 0 -1.4381499056657816 4.2965393512574366 0 0 0 0 -0.078939271498335017 12.177185730961391 0 12.177185730961391 -5.0221913029505032 0 0 0 0 18.287785220556543 57.484807517376794 0 57.484807517376794 8.4913113155344035 0 0 0 0 19.072224502844392 29.234944896865336 0 29.234944896865336 22.804659390936493 0 0 0 0 -202.78540984229039 30.133572023018132 0 30.133572023018132 50.548636137484209 0 0 0 0 -252.55370097931518 -269.35698046897778 0 -269.35698046897778 77.783439254366385 0 0 0 0 354.03334067973628 -62.842945497442997 0 -62.842945497442997 38.52611150573648 0 0 0 0 -137.85728351265425 -73.369057949988928 0 -73.369057949988928 -65.870675113306788 0 0 0 0 -142.17192820016317 -99.358924685066086 0 -99.358924685066086 399.30083371722139 0 0 0 0 -65.059445482602314 78.042178441146461 0 78.042178441146461 0.84717024369547289 0 0 0 0 -106.75617773841805 -56.577920844021264 0 -56.577920844021264 228.27746799121815 0 0 0 0 -46.082579644193565 23.456852149596845 0 23.456852149596845 44.850340653762387 0 0 0 0 -6.8976566425335477 39.587799761302449 0 39.587799761302449 4.1760550512869941 0 0 0 0 -81.505067995821719 52.021947594685912 0 52.021947594685912 3.1051285034318425 0 0 0 0 -106.75617773841805 -56.577920844023538 0 -56.577920844023538 228.2774679912327 0 0 0 0 -99.795442060883715 48.046149750666643 0 48.046149750666643 -61.988237156434479 0 0 0 0 -95.355884208700445 103.88133258696962 0 103.88133258696962 -18.903278388719627 0 0 0 0 -0.92437305228986588 5.2590502181944281 0 5.2590502181944281 -14.593474940293579 0 0 0 0 -106.75617773841077 -56.577920844021719 0 -56.577920844021719 228.27746799123543 0 0 0 0 -24.168691001728234 23.020757328982615 0 23.020757328982615 33.365470249860081 0 0 0 0 -33.292303562957386 58.218874034173496 0 58.218874034173496 86.373506497391645 0 0 0 0 -27.285041826085944 51.379359386986835 0 51.379359386986835 65.880288879689033 0 0 0 0 201.93221343876212 54.142579201790795 0 54.142579201790795 18.419169379107188 0 0 0 0 -34.64580137275334 63.465291299645287 0 63.465291299645287 108.06566498328903 0 0 0 0 10.811677069170401 9.27878416821477 0 9.27878416821477 113.37767465336947 0 0 0 0 -46.016847435312229 14.172462073414863 0 14.172462073414863 112.03461446587539 0 0 0 0 106.06198345826124 18.505893451932934 0 18.505893451932934 87.236699853034224 0 0 0 0 162.33172821323387 29.600346159830224 0 29.600346159830224 65.560841918340884 0 0 0 0 177.49098031510948 34.826807750534499 0 34.826807750534499 55.717643978132401 0 0 0 0 112.91919828322716 29.924889627960511 0 29.924889627960511 73.215583928278647 0 0 0 0 185.16198107096716 100.38816403843521 0 100.38816403843521 -6.6238891033572145 0 0 0 0 160.36400841467548 59.191889550202177 0 59.191889550202177 38.514119115250651 0 0 0 0 112.08935326751089 62.7250273868558 0 62.7250273868558 40.136591389742534 0 0 0 0 110.75165040949651 67.19902504005222 0 67.19902504005222 44.209149377478752 0 0 0 0 48.256730079854606 89.164105931544327 0 89.164105931544327 37.841434378671693 0 0 0 0 -13.62799280390027 20.87346491698554 0 20.87346491698554 97.612624691188103 0 0 0 0 60.982689521770226 53.755585792401689 0 53.755585792401689 64.598465835122624 0 0 0 0 60.90897392314946 54.78754670606213 0 54.78754670606213 57.696151671611005 0 0 0 0 47.531955675891822 48.373841450469854 0 48.373841450469854 54.944866278616246 0 0 0 0 -84.928553674333671 13.425346269410511 0 13.425346269410511 117.07439748251636 0 0 0 0 -40.895916229434079 9.517667356198217 0 9.517667356198217 104.18335046859283 0 0 0 0 -33.625306472211378 39.663086861532065 0 39.663086861532065 87.495536993556016 0 0 0 0 -37.141630267753499 -7.6133404690126554 0 -7.6133404690126554 59.832145901898912 0 0 0 0 -80.891578753835347 32.77090131438672 0 32.77090131438672 106.20806257033837 0 0 0 0 -39.518912589668489 28.575689171523145 0 28.575689171523145 72.808958709127367 0 0 0 0 19.349001318536466 44.507122524456918 0 44.507122524456918 95.85656454870923 0 0 0 0 -8.7140069904394437 8.2119738524916599 0 8.2119738524916599 1.7664914179454438 0 0 0 0 0.19531889097561361 149.33956858311012 0 149.33956858311012 -23.538324778265633 0 0 0 0 -274.94638341049722 -104.90556520974724 0 -104.90556520974724 241.63304097425157 0 0 0 0 37.746252005308634 199.70362602984528 0 199.70362602984528 35.665347304035095 0 0 0 0 -59.312457458549034 64.062981872094952 0 64.062981872094952 65.486597878209182 0 0 0 0 -66.762238217284903 20.142432285266295 0 20.142432285266295 -26.693258669932732 0 0 0 0 -83.824531535985443 -19.424534940471858 0 -19.424534940471858 -19.646166304457438 0 0 0 0 -28.931843040400565 47.179259715136716 0 47.179259715136716 -17.849509701138714 0 0 0 0 -8.0783826394928155 9.1453996430366971 0 9.1453996430366971 -4.3934056327447166 0 0 0 0 -64.34434213406621 74.527621238506981 0 74.527621238506981 -20.162074200761708 0 0 0 0 -40.607037358237903 55.683690953673249 0 55.683690953673249 -27.499451088753631 0 0 0 0 -41.277765934455601 44.240395648633921 0 44.240395648633921 9.6925317697241553 0 0 0 0 2.8482647454974774 22.870097032565219 0 22.870097032565219 10.084006578944049 0 0 0 0 -24.002198254771429 62.235348183458882 0 62.235348183458882 -20.696902813666384 0 0 0 0 -20.378132325511615 85.798210407259148 0 85.798210407259148 -167.90924642861683 0 0 0 0 -32.303342905865065 35.271427307145132 0 35.271427307145132 -8.0298511412856897 0 0 0 0 -17.703969855657999 30.13381341053524 0 30.13381341053524 -20.355184291866358 0 0 0 0 -88.151321810433728 26.617262544074947 0 26.617262544074947 -82.705139342057919 0 0 0 0 -64.340153763420403 68.602800609622136 0 68.602800609622136 -11.686984842343008 0 0 0 0 -64.969690198573517 95.950450796384757 0 95.950450796384757 -36.12908225252977 0 0 0 0 -48.864217956090322 22.979304339346506 0 22.979304339346506 31.67144601387043 0 0 0 0 -136.94972823159333 -4.2706107101894304 0 -4.2706107101894304 52.973724692354153 0 0 0 0 -5.2373673180927653 -5.2312120908164204 0 -5.2312120908164204 10.057242103292442 0 0 0 0 -154.02224965391042 68.21569509553683 0 68.21569509553683 8.2103428777845693 0 0 0 0 -111.80156573012937 107.21691661565637 0 107.21691661565637 -43.348678041564199 0 0 0 0 -110.7870771769185 67.766745330919548 0 67.766745330919548 7.3761043373542634 0 0 0 0 -110.90268003271922 67.067080451055517 0 67.067080451055517 9.2993166197520623 0 0 0 0 -103.13962767972043 71.19082867211182 0 71.19082867211182 8.8825843260929105 0 0 0 0 -107.45805619076236 76.043307177373208 0 76.043307177373208 12.39714298853778 0 0 0 0 -109.14509746706653 70.971924882393068 0 70.971924882393068 -0.51863118749315618 0 0 0 0 -109.44040883211346 71.494860912596323 0 71.494860912596323 5.2130823382831295 0 0 0 0 -100.9210656108844 75.518089529634381 0 75.518089529634381 -35.337520100481925 0 0 0 0 -103.03127698368917 71.031887399172774 0 71.031887399172774 -7.9908652101730695 0 0 0 0 -104.79376788719492 83.948570568743889 0 83.948570568743889 0.85843069391557947 0 0 0 0 -99.297387525632075 79.619532137268834 0 79.619532137268834 -14.512660681746638 0 0 0 0 -125.69357963810035 91.284621396498551 0 91.284621396498551 130.49957156030905 0 0 0 0 14.612882840615251 16.40702727001689 0 16.40702727001689 13.448079276608922 0 0 0 0 -103.79291607277082 66.311260893702638 0 66.311260893702638 2.0970967141765868 0 0 0 0 -48.730056527285342 43.86944571640106 0 43.86944571640106 -33.690043694252381 0 0 0 0 -110.70190462609935 68.130226064231465 0 68.130226064231465 8.260652336266503 0 0 0 0 -111.27705165661428 65.366601351153804 0 65.366601351153804 2.469186412055933 0 0 0 0 17.037752856258734 16.396214508171692 0 16.396214508171692 13.073670692877364 0 0 0 0 -64.748150953799268 106.18015439939336 0 106.18015439939336 -45.309459497275384 0 0 0 0 39.254611511161784 44.62527030795718 0 44.62527030795718 -72.925120145847359 0 0 0 0 11.772898137571246 29.45577616925948 0 29.45577616925948 -31.729318639258054 0 0 0 0 -5.8958173578394053 45.277786204571385 0 45.277786204571385 -9.5810141677866341 0 0 0 0 -10.058593154706614 50.205451518893824 0 50.205451518893824 39.149062063323072 0 0 0 0 -12.858261996836518 16.314947710563501 0 16.314947710563501 16.181162206623412 0 0 0 0 -46.539228600509887 106.4723658899934 0 106.4723658899934 -22.310617530725722 0 0 0 0 36.503006205790371 37.128835127567072 0 37.128835127567072 -85.257331548498769 0 0 0 0 -14.584345752047739 72.131366865298332 0 72.131366865298332 -92.06942811360932 0 0 0 0 20.432733139581615 36.935015823863068 0 36.935015823863068 -13.714896817560657 0 0 0 0 22.318819981961497 39.171806593345536 0 39.171806593345536 -18.556557865418654 0 0 0 0 54.39348375532245 -18.600223612529589 0 -18.600223612529589 -34.130220473814916 0 0 0 0 -11.153024265811837 23.43041290947076 0 23.43041290947076 -9.1021281623579853 0 0 0 0 14.370023993474884 9.750049563660717 0 9.750049563660717 -3.4129874586965769 0 0 0 0 30.952600045324289 -42.9122285358726 0 -42.9122285358726 25.797653193480073 0 0 0 0 35.881126405760369 6.8085746037959325 0 6.8085746037959325 -32.231956539759267 0 0 0 0 66.538717535528122 5.6490159839504486 0 5.6490159839504486 -93.633794345114438 0 0 0 0 122.58350030156362 18.897231216920773 0 18.897231216920773 -95.326622492773708 0 0 0 0 -24.823906820256525 79.072740413255815 0 79.072740413255815 -96.011683457416325 0 0 0 0 -81.515064876273755 176.58174089985914 0 176.58174089985914 -148.55125027487884 0 0 0 0 -84.83095979855716 95.873705349989905 0 95.873705349989905 -109.71104266340626 0 0 0 0 18.093112441169069 30.769146883103531 0 30.769146883103531 -189.26130836398443 0 0 0 0 -215.82830088808441 219.12546308464334 0 219.12546308464334 -201.10373355183765 0 0 0 0 5.7274630950793721 1.3889109522261123 0 1.3889109522261123 -4.6214423598495102 0 0 0 0 -114.4083802396608 113.03583221646136 0 113.03583221646136 -26.169561212042026 0 0 0 0 -95.151207341503323 22.307422040978054 0 22.307422040978054 60.218485472592874 0 0 0 0 -1.3701884773633921 2.4443200691674036 0 2.4443200691674036 3.2495102344812352 0 0 0 0 17.299855693902998 15.776271336748042 0 15.776271336748042 10.28678064352016 0 0 0 0 -117.07851771053038 98.312210011429443 0 98.312210011429443 -22.166112169710686 0 0 0 0 -106.30450627897972 98.789130058613409 0 98.789130058613409 -8.3858590410818579 0 0 0 0 -99.154912465080088 103.78786463677352 0 103.78786463677352 -42.750931627808313 0 0 0 0 58.765066674364789 -65.073967332282336 0 -65.073967332282336 -4.3110849376244005 0 0 0 0 -36.048381071744188 155.11760666311102 0 155.11760666311102 -158.92833148959471 0 0 0 0 1.5108585082867094 0.35117655376473067 0 0.35117655376473067 -0.60051547223321222 0 0 0 0 -83.757543133464907 50.067852175898423 0 50.067852175898423 -95.020873577610473 0 0 0 0 -3.1907523583176953 53.759203607311065 0 53.759203607311065 -165.00607174992069 0 0 0 0 30.301856196172594 37.691715339098664 0 37.691715339098664 50.314836882203963 0 0 0 0 116.27769847106902 108.76432898567873 0 108.76432898567873 -15.754567838193907 0 0 0 0 72.152237198060902 17.178729062039565 0 17.178729062039565 18.818998324171844 0 0 0 0 31.660753600264684 40.957440497433936 0 40.957440497433936 7.1673580118294922 0 0 0 0 -248.3663114203373 -56.886399665265344 0 -56.886399665265344 -51.932889233206879 0 0 0 0 -4.395663788170971 4.4748151451232658 0 4.4748151451232658 -4.6378559027470487 0 0 0 0 77.197691940746154 67.48677840547316 0 67.48677840547316 21.323918688940466 0 0 0 0 -12.862296253595559 34.507631522639713 0 34.507631522639713 27.976188267872203 0 0 0 0 39.592117277155921 26.798476583440788 0 26.798476583440788 5.7247156195642219 0 0 0 0 7.3296563707190217 21.028032556781909 0 21.028032556781909 23.567581327894004 0 0 0 0 34.899143735298821 29.974062501730714 0 29.974062501730714 10.232854908212175 0 0 0 0 0.25667888715543086 30.959906479163692 0 30.959906479163692 11.235389454523101 0 0 0 0 30.937086015823297 16.471232507828972 0 16.471232507828972 5.0877753285276412 0 0 0 0 -9.8927353207902584 19.985194298661398 0 19.985194298661398 -3.6251214078436078 0 0 0 0 -8.9542211121861328 23.235730880756364 0 23.235730880756364 -9.5909273845682037 0 0 0 0 -2.1651849969493924 23.677783931900194 0 23.677783931900194 -1.2149943815384177 0 0 0 0 -20.725614838622278 22.517863181297798 0 22.517863181297798 6.1484009685700585 0 0 0 0 -7.8650162201629428 20.454087591675489 0 20.454087591675489 0.74416146455769194 0 0 0 0 -17.372823480014631 50.854147527031955 0 50.854147527031955 7.2231908765388653 0 0 0 0 13.314624437447492 12.284558702964205 0 12.284558702964205 2.6946701849988131 0 0 0 0 16.003832554367257 20.89991609265757 0 20.89991609265757 9.308030983224441 0 0 0 0 -1.8092652669023153 4.4362844263756394 0 4.4362844263756394 2.4351337673384279 0 0 0 0 14.623497688371572 18.000959913061706 0 18.000959913061706 -29.737911592752425 0 0 0 0 -15.119101253506482 23.568486641867032 0 23.568486641867032 -7.5849257340285234 0 0 0 0 -73.831076601060886 -27.412090033927143 0 -27.412090033927143 91.161659697307186 0 0 0 0 15.113253229637849 38.615189655610266 0 38.615189655610266 -7.1357000986208732 0 0 0 0 -58.485430265056493 -6.1802744505766896 0 -6.1802744505766896 -19.952848591885413 0 0 0 0 9.2881370327322657 30.634595333252037 0 30.634595333252037 -3.4502027802482189 0 0 0 0 23.806615320069568 23.849839569341384 0 23.849839569341384 -12.024761576682067 0 0 0 0 -17.503398241839022 26.291840025063721 0 26.291840025063721 -8.1512118760729209 0 0 0 0 -28.286445638203418 7.2767125643201638 0 7.2767125643201638 4.8796342966277422 0 0 0 0 -18.712892367111635 1.2487426157968002 0 1.2487426157968002 10.987604307942092 0 0 0 0 -0.13047077882984581 1.5181408932959535 0 1.5181408932959535 1.2666005440798074 0 0 0 0 -15.768807277023825 27.38036452675442 0 27.38036452675442 -6.4583605655716383 0 0 0 0 10.331785861877584 14.451341193005661 0 14.451341193005661 -0.31157207275145993 0 0 0 0 -15.362264674258768 29.006041073087545 0 29.006041073087545 -4.7115348667211947 0 0 0 0 -10.626766214825693 23.175749932634972 0 23.175749932634972 -10.216669855363762 0 0 0 0 -10.516788645269116 19.909810628751984 0 19.909810628751984 -2.6944730609129692 0 0 0 0 -17.605430737333336 17.863662849412322 0 17.863662849412322 -0.53167147331259912 0 0 0 0 -5.5530528153554215 11.311374344844051 0 11.311374344844051 -5.1083822839091937 0 0 0 0 22.06719347642138 20.037666515473575 0 20.037666515473575 -4.7449922466694261 0 0 0 0 1.3275266029869925 8.8599330260504914 0 8.8599330260504914 1.3673840428776174 0 0 0 0 -20.484115067922403 37.550680514089493 0 37.550680514089493 7.9106576473859604 0 0 0 0 -8.8983836353429169 2.0081170166480575 0 2.0081170166480575 0.0075997996352441533 0 0 0 0 24.022005891114532 18.796422801169683 0 18.796422801169683 -4.652752399288147 0 0 0 0 15.016255435621133 19.612511739836918 0 19.612511739836918 3.4048578628826363 0 0 0 0 16.018033745982393 23.147711318051734 0 23.147711318051734 2.218794412790885 0 0 0 0 17.532707074497011 20.567120329214958 0 20.567120329214958 -2.2623486894299276 0 0 0 0 3.3852346166531788 28.5753038465391 0 28.5753038465391 -4.8714703886798816 0 0 0 0 -19.994652502449753 23.91377917331738 0 23.91377917331738 4.1747232320485637 0 0 0 0 -1.9067300896858796 12.555908687254487 0 12.555908687254487 -0.39247693135257578 0 0 0 0 19.643288683117134 14.788819738674647 0 14.788819738674647 -8.9846567022323143 0 0 0 0 -17.800539695443149 36.105193743514974 0 36.105193743514974 16.150474304364252 0 0 0 0 -73.598580381465581 1.6929930832229729 0 1.6929930832229729 2.3032622454993543 0 0 0 0 41.019871666780091 66.909425228313921 0 66.909425228313921 -16.894466443653073 0 0 0 0 -112.424796651816 76.58257854783551 0 76.58257854783551 1.9221092064253753 0 0 0 0 2.3089902481115132 35.960998987748098 0 35.960998987748098 6.3195711706503062 0 0 0 0 -87.948258663327579 18.522165659000166 0 18.522165659000166 14.711361372512329 0 0 0 0 -21.243263067543012 8.045322886217491 0 8.045322886217491 -30.26225097731367 0 0 0 0 -23.841512584665907 12.348511500458699 0 12.348511500458699 14.757451894431142 0 0 0 0 -34.258070782747382 31.87364088004324 0 31.87364088004324 -14.738548662480753 0 0 0 0 -7.4587026748688174 9.7684236894156129 0 9.7684236894156129 -3.4988668829351326 0 0 0 0 -27.245894522716299 5.9809519780401388 0 5.9809519780401388 13.864507911326655 0 0 0 0 10.577243732321222 30.273886404842415 0 30.273886404842415 -5.8802529788576976 0 0 0 0 -3.7957112903168309 31.486194474313379 0 31.486194474313379 -10.351782436477151 0 0 0 0 2.9579946132362238 16.191937460537702 0 16.191937460537702 1.6871406238242344 0 0 0 0 -8.7022971709510557 10.229313597040036 0 10.229313597040036 0.012376416547610347 0 0 0 0 -7.4119779272186861 9.695160159646548 0 9.695160159646548 -0.18148288706538551 0 0 0 0 -0.96743080827764061 19.300449889358788 0 19.300449889358788 0.81499082791560795 0 0 0 0 -5.4490305895251367 12.538595104139858 0 12.538595104139858 -6.606104894879536 0 0 0 0 -7.786077983959558 15.851469928733934 0 15.851469928733934 -5.8423427658490255 0 0 0 0 -19.136278562278676 16.906571580616401 0 16.906571580616401 0.075940284054013318 0 0 0 0 5.9388324983420304 7.6923795095496246 0 7.6923795095496246 -0.64139653436131994 0 0 0 0 -22.672530036199532 2.0340334718766826 0 2.0340334718766826 63.657398358933278 0 0 0 0 -9.8287662213386824 11.70421548048283 0 11.70421548048283 0.76498288023082228 0 0 0 0 -17.975555058272221 2.449096683465541 0 2.449096683465541 16.535217820288381 0 0 0 0 -58.220038984021812 40.202501643554569 0 40.202501643554569 -25.756988493497374 0 0 0 0 -8.7492218558509194 3.6951812425359094 0 3.6951812425359094 -30.992550729562936 0 0 0 0 -45.483376582546043 20.236381875827647 0 20.236381875827647 2.3868669385992689 0 0 0 0 -67.31688508514344 64.863714827060903 0 64.863714827060903 -67.349373789555102 0 0 0 0 -17.701567572043132 22.723622484350926 0 22.723622484350926 -72.861411387581029 0 0 0 0 -64.250500824629853 93.30762865989891 0 93.30762865989891 -126.08289850545998 0 0 0 0 -59.458702431977144 34.980323198975384 0 34.980323198975384 -16.123659339187725 0 0 0 0 7.7710877649524264 34.723679227387493 0 34.723679227387493 -16.282056746233138 0 0 0 0 -10.47497900639064 -21.954747521707759 0 -21.954747521707759 11.347429585475766 0 0 0 0 -3.4199128367279172 12.55873470884282 0 12.55873470884282 -3.8428035965211844 0 0 0 0 -40.488142769772821 24.588308303984377 0 24.588308303984377 87.687761081979716 0 0 0 0 53.06949602435634 18.085585113716661 0 18.085585113716661 -29.762851214283728 0 0 0 0 -13.882113992342056 21.853199637094804 0 21.853199637094804 -119.31718152316898 0 0 0 0 -49.680616930909309 74.294182021660163 0 74.294182021660163 -84.110488867634558 0 0 0 0 8.1432887291157385 41.331245148772723 0 41.331245148772723 -164.57760276302906 0 0 0 0 -88.817566528930911 116.12643729370029 0 116.12643729370029 -118.31036273925565 0 0 0 0 -43.990244411914318 119.8706252087195 0 119.8706252087195 -286.03161310736323 0 0 0 0 -68.637565548910061 51.284117451250495 0 51.284117451250495 -165.82517766937599 0 0 0 0 -19.245229870866751 45.862722103789565 0 45.862722103789565 -394.2977569619834 0 0 0 0 28.685856491410959 87.584203699214413 0 87.584203699214413 -125.56144191742351 0 0 0 0 -52.035739156228374 39.501706352064502 0 39.501706352064502 -33.131582343430637 0 0 0 0 -4.8319134123544742 10.941936755132861 0 10.941936755132861 -12.928757698634499 0 0 0 0 64.39422498255135 106.58979708046695 0 106.58979708046695 -63.141523257851077 0 0 0 0 -526.32499057996029 105.09597908161049 0 105.09597908161049 -158.04175945010502 0 0 0 0 -29.283262587552599 98.375321151354001 0 98.375321151354001 29.091554813625407 0 0 0 0 20.033827746970928 -63.231514786399202 0 -63.231514786399202 -43.416630038933363 0 0 0 0 225.24267766030971 -174.68286806551623 0 -174.68286806551623 17.046905482420698 0 0 0 0 692.74197264577379 -211.39599782602454 0 -211.39599782602454 -241.49891441033105 0 0 0 0 346.67489722599566 34.018913337866252 0 34.018913337866252 -415.32474841189105 0 0 0 0 -4.7621885577173089 39.649492708766047 0 39.649492708766047 -370.76679391204379 0 0 0 0 -70.107193945397739 -22.432362510233361 0 -22.432362510233361 -127.55588001909427 0 0 0 0 -1153.2235785007651 637.46289092232473 0 637.46289092232473 -225.16091917994345 0 0 0 0 -1085.2683143027243 551.05282466432254 0 551.05282466432254 -280.03764010997838 0 0 0 0 -1716.3537999499822 967.54684893492959 0 967.54684893492959 -311.84950636583562 0 0 0 0 -1574.0697457033966 258.06774981007766 0 258.06774981007766 375.43941342912149 0 0 0 0 -1846.4268624117249 602.77930409619876 0 602.77930409619876 58.00258325660252 0 0 0 0 -288.49752917427395 -294.21559906258517 0 -294.21559906258517 -349.64816379880358 0 0 0 0 -3.1292239751700777 1.9530608972264503 0 1.9530608972264503 -3.203279144144588 0 0 0 0 -1.4591470896784777 1.4837717812250233 0 1.4837717812250233 0.13659334083882868 0 0 0 0 -998.15592009280226 -31.536470872466452 0 -31.536470872466452 187.46224428313144 0 0 0 0 -793.69931138820539 402.24041495682468 0 402.24041495682468 -195.50459334008428 0 0 0 0 -3.2119841010331456 -2.3574236343555768 0 -2.3574236343555768 0.63132513764666953 0 0 0 0 -33.463045278433128 18.755478680208398 0 18.755478680208398 -11.769881761880242 0 0 0 0 -35.434014585783189 31.878541553896639 0 31.878541553896639 -1.9786415071212105 0 0 0 0 1.0759197211922356 7.0032619427978773 0 7.0032619427978773 -3.3443313920760156 0 0 0 0 10.602141955126207 1.0142553461371406 0 1.0142553461371406 -1.4396027600942087 0 0 0 0 3.6991178963635321 -51.292998079468816 0 -51.292998079468816 12.177219067907572 0 0 0 0 42.852333011393057 -26.351214047550457 0 -26.351214047550457 20.862547543194523 0 0 0 0 -50.306910114959464 -49.342262196725642 0 -49.342262196725642 142.98750020879288 0 0 0 0 -2.6948735640828545 14.794716399188587 0 14.794716399188587 -35.667794359935215 0 0 0 0 3.4895986428697512 -0.21362594932195833 0 -0.21362594932195833 0.40952998928079065 0 0 0 0 18.864437670115876 -45.582981328336245 0 -45.582981328336245 -86.797435797994694 0 0 0 0 -28.044169970374242 123.24496817717136 0 123.24496817717136 -245.0239981290033 0 0 0 0 83.454667128384244 -57.093703320666464 0 -57.093703320666464 -34.202805434222682 0 0 0 0 124.95254149533503 -6.056863030005843 0 -6.056863030005843 -11.272110638165032 0 0 0 0 -24.430400188275598 38.228673026424076 0 38.228673026424076 25.643026040084806 0 0 0 0 -7.7275214620699444 20.308764957865606 0 20.308764957865606 -8.6685563525206817 0 0 0 0 10.38059479901284 8.2971272621241852 0 8.2971272621241852 -7.0117963218739732 0 0 0 0 3.042611007439362 -0.33763921433479283 0 -0.33763921433479283 0.46299313803851305 0 0 0 0 19.520621238885724 -12.851859323847748 0 -12.851859323847748 36.106583403424338 0 0 0 0 -5.7098690857128531 13.710913118036842 0 13.710913118036842 -5.5489450046261481 0 0 0 0 -0.20035852205182891 13.914044878714776 0 13.914044878714776 -7.3542253568011802 0 0 0 0 -0.94219800691361399 6.5810587545873389 0 6.5810587545873389 -0.81006770168097031 0 0 0 0 -5.5361606135757029 14.964416563425402 0 14.964416563425402 -1.354625159088755 0 0 0 0 -1.8233306647962308 11.095415825377131 0 11.095415825377131 -11.175191237840409 0 0 0 0 32.709803501245915 -7.8662331834057113 0 -7.8662331834057113 -3.1990895840281155 0 0 0 0 1.0550265665688414 11.485355589949121 0 11.485355589949121 -8.2392246697711329 0 0 0 0 -2.5043948902603006 10.96216505877419 0 10.96216505877419 35.980921839825896 0 0 0 0 0.98557986294633082 2.7874706520564381 0 2.7874706520564381 0.077991220156420127 0 0 0 0 -7.6493119472725084 6.7276592455637001 0 6.7276592455637001 3.5063938624152797 0 0 0 0 2.2564533554259469 8.1280291450002551 0 8.1280291450002551 -0.13605835693670087 0 0 0 0 11.363145283708945 -17.981328734316776 0 -17.981328734316776 18.346767213894054 0 0 0 0 -2.359290326681716 5.4720453176040635 0 5.4720453176040635 7.0077702136224218 0 0 0 0 30.625767498479036 -21.595060203821049 0 -21.595060203821049 -3.0733429977080959 0 0 0 0 -4.2428510211429966 7.1308946310018655 0 7.1308946310018655 3.4296556570043322 0 0 0 0 -1.5741011424456914 0.21909509962331697 0 0.21909509962331697 6.4269767940650411 0 0 0 0 77.812073115721432 59.119538805132834 0 59.119538805132834 15.850104881796142 0 0 0 0 134.97751715187405 132.46854981834986 0 132.46854981834986 87.794647096146946 0 0 0 0 50.046811686726869 7.7863095231659827 0 7.7863095231659827 8.8438983058549638 0 0 0 0 -0.6269751366234928 1.7232605710443529 0 1.7232605710443529 1.1829331385275879 0 0 0 0 99.468389287949776 130.69163741603916 0 130.69163741603916 123.65234030444844 0 0 0 0 43.014949805441574 41.474599377221239 0 41.474599377221239 54.622398372837779 0 0 0 0 60.804444161305582 41.614733086789784 0 41.614733086789784 32.567698575081067 0 0 0 0 50.816465583878653 103.52406076191335 0 103.52406076191335 163.77216146075443 0 0 0 0 111.68311145658663 174.67571889619649 0 174.67571889619649 155.01181104086049 0 0 0 0 82.434038285884526 133.45556079533344 0 133.45556079533344 131.50306450658172 0 0 0 0 16.96158705250491 138.24031481521524 0 138.24031481521524 193.27480959606328 0 0 0 0 110.37902223940182 182.89488967332181 0 182.89488967332181 214.29964618709982 0 0 0 0 121.76011510155877 77.072782006707712 0 77.072782006707712 223.79649865451938 0 0 0 0 97.656882064557067 143.92910405608927 0 143.92910405608927 198.43866641071509 0 0 0 0 191.9007553741485 141.3753835120624 0 141.3753835120624 108.28226927968717 0 0 0 0 558.49381834760425 271.49273965675275 0 271.49273965675275 154.40322394837858 0 0 0 0 -17.071251374770327 234.23664377043133 0 234.23664377043133 297.39719731868536 0 0 0 0 199.58589489289807 313.56208308284295 0 313.56208308284295 238.19411892713833 0 0 0 0 -238.29930946519926 208.64594794502591 0 208.64594794502591 474.74934355278265 0 0 0 0 201.85644031521406 402.93511509181371 0 402.93511509181371 422.3648829815229 0 0 0 0 629.70455835387293 554.9314633602321 0 554.9314633602321 160.82168467499287 0 0 0 0 764.42592366249312 -31.842963859365454 0 -31.842963859365454 -143.79214249984216 0 0 0 0 179.54087436762529 5.2218368667745381 0 5.2218368667745381 -145.62783622201414 0 0 0 0 6.2348720886663926 4.4997714096552528 0 4.4997714096552528 3.2798951459256145 0 0 0 0 -11.335880785923109 128.63425851344437 0 128.63425851344437 -61.116342923189222 0 0 0 0 179.76616143321007 124.63438021163711 0 124.63438021163711 -107.74241964869361 0 0 0 0 436.88673859398477 101.49545839502571 0 101.49545839502571 -160.22186508342202 0 0 0 0 192.41533864097619 64.474319512859438 0 64.474319512859438 -128.82543550372066 0 0 0 0 355.81236667141638 177.09469398327747 0 177.09469398327747 -170.35459208131215 0 0 0 0 457.90968358050759 192.30694354908019 0 192.30694354908019 -168.29170516990416 0 0 0 0 -58.389250188772621 -54.631201256444911 0 -54.631201256444911 127.74083025382424 0 0 0 0 -61.560226349356526 405.49748824005292 0 405.49748824005292 -92.981084601132352 0 0 0 0 15.828541841649603 11.574347998655377 0 11.574347998655377 7.4785596893557482 0 0 0 0 16.587235748300827 183.19982147927112 0 183.19982147927112 -168.59732864893158 0 0 0 0 -31.412050710259791 61.567249907107907 0 61.567249907107907 -124.35188410893261 0 0 0 0 135.70185785803005 -47.048335448751004 0 -47.048335448751004 -137.31495881371666 0 0 0 0 -54.620606696924369 167.62742186060495 0 167.62742186060495 -322.57010301815899 0 0 0 0 -97.75591990848261 161.63947115841802 0 161.63947115841802 -87.065491160345118 0 0 0 0 -87.546520526910172 92.543582808462816 0 92.543582808462816 -56.452747379145876 0 0 0 0 -21.753297045062936 169.39575255461386 0 169.39575255461386 -325.96120883440017 0 0 0 0 18.554347719926156 15.715736738037499 0 15.715736738037499 10.697883289812317 0 0 0 0 -74.574739995732671 117.00923022837742 0 117.00923022837742 -30.651372319181974 0 0 0 0 -70.053705480035205 98.124270217458616 0 98.124270217458616 -1.3118826784993871 0 0 0 0 -94.50542784605932 102.64905372509384 0 102.64905372509384 -21.969695045929257 0 0 0 0 -97.202651274821619 90.021500335231394 0 90.021500335231394 -0.31201466936181532 0 0 0 0 10.709699314911632 123.24743756273529 0 123.24743756273529 28.724226589409227 0 0 0 0 -11.122489919232066 87.462645195425466 0 87.462645195425466 -29.914425095244951 0 0 0 0 -55.149284909924972 71.330360461957753 0 71.330360461957753 14.082311671533034 0 0 0 0 -77.716471697959605 110.82326347998287 0 110.82326347998287 8.392284895744524 0 0 0 0 -116.6281748332658 88.681591418142943 0 88.681591418142943 -33.029892590435338 0 0 0 0 -69.399379787639191 122.02224197704709 0 122.02224197704709 -15.383583538290623 0 0 0 0 48.87762869293374 114.0357932693089 0 114.0357932693089 -92.260177903037402 0 0 0 0 164.91536265783634 139.9151803658051 0 139.9151803658051 30.969146799448936 0 0 0 0 138.83885363554145 84.489368435075448 0 84.489368435075448 -53.897944836122406 0 0 0 0 46.802064726020035 97.734098077878002 0 97.734098077878002 -28.315184236307687 0 0 0 0 295.03387680757805 87.82007947902639 0 87.82007947902639 -62.189120822281836 0 0 0 0 332.79899359732553 171.95944912565938 0 171.95944912565938 -59.589191140286857 0 0 0 0 353.61012029366611 163.95192844857411 0 163.95192844857411 7.0982897556641547 0 0 0 0 492.32542594298866 106.16706116474415 0 106.16706116474415 -7.6540587785020762 0 0 0 0 231.84854538462423 91.491603553806272 0 91.491603553806272 -0.63554104424838442 0 0 0 0 290.07315253393972 145.4561317970165 0 145.4561317970165 6.2510079558342113 0 0 0 0 292.07500213152616 133.90981047024525 0 133.90981047024525 68.510153984054341 0 0 0 0 48.920019713656075 73.022816648952357 0 73.022816648952357 11.754681415137384 0 0 0 0 100.82830374337846 119.62137099380743 0 119.62137099380743 27.059423066304589 0 0 0 0 141.59727682029552 70.592728946610805 0 70.592728946610805 39.550301873705394 0 0 0 0 87.548558493908786 65.878782278532526 0 65.878782278532526 41.48004922151631 0 0 0 0 33.208471347594241 105.88810248484333 0 105.88810248484333 35.391460368951812 0 0 0 0 191.14888973282996 135.95505590284938 0 135.95505590284938 57.466589075273077 0 0 0 0 242.36687801605694 92.181102271290001 0 92.181102271290001 20.254241461218044 0 0 0 0 153.869096733265 140.32522824209082 0 140.32522824209082 31.693599848287704 0 0 0 0 274.6990503654406 177.79263332838082 0 177.79263332838082 49.71507348146406 0 0 0 0 327.43370770480215 122.95889213237388 0 122.95889213237388 -11.030720067043148 0 0 0 0 224.51988346961662 182.96813451267008 0 182.96813451267008 -10.466015945534309 0 0 0 0 126.17582298899106 90.849671929694523 0 90.849671929694523 31.102438278966645 0 0 0 0 128.20745845410784 160.27742645197213 0 160.27742645197213 -12.35180775234403 0 0 0 0 -0.52281566916190059 98.329320920753162 0 98.329320920753162 25.302848868715955 0 0 0 0 12.51207194118615 65.122698344746823 0 65.122698344746823 34.56313587229306 0 0 0 0 100.21793079591407 116.62706705718665 0 116.62706705718665 14.065335763243638 0 0 0 0 -11.605911098164142 52.747090086001663 0 52.747090086001663 6.8980842607234081 0 0 0 0 -8.1712059603523812 82.042630349851606 0 82.042630349851606 24.5104469379894 0 0 0 0 -37.824283076803113 54.011574584209484 0 54.011574584209484 21.849563537918584 0 0 0 0 -45.967596182400484 70.737763139890376 0 70.737763139890376 4.9004733483343443 0 0 0 0 -79.574323478605947 81.163192982658074 0 81.163192982658074 -3.3884179751935903 0 0 0 0 -109.87800436091254 76.3801547540819 0 76.3801547540819 16.796756866868236 0 0 0 0 -68.426666946816113 60.144585401885706 0 60.144585401885706 13.071395827828383 0 0 0 0 -78.245697655407639 66.319473296846354 0 66.319473296846354 15.059924818295258 0 0 0 0 -56.88661937073266 82.04894939834594 0 82.04894939834594 15.037102836381791 0 0 0 0 -86.443479979421681 81.97711701490698 0 81.97711701490698 10.126389756189383 0 0 0 0 -93.353478145957297 82.584652818070708 0 82.584652818070708 23.956772521953098 0 0 0 0 -94.809030337202785 89.774474532574459 0 89.774474532574459 2.0826332942233421 0 0 0 0 -34.931004776108239 96.331959772953269 0 96.331959772953269 36.306862328001444 0 0 0 0 1.1555691519497486 63.326298911812046 0 63.326298911812046 22.883268416549072 0 0 0 0 -56.021898332032833 77.265470298476657 0 77.265470298476657 37.130149895634531 0 0 0 0 -69.038561138662772 313.62059891194622 0 313.62059891194622 -126.80562402387659 0 0 0 0 -60.501227494617524 300.64519387279961 0 300.64519387279961 -149.03706495731603 0 0 0 0 -126.32904099812731 250.95156650429453 0 250.95156650429453 -145.50830556357323 0 0 0 0 -103.26599998040547 283.98639322959752 0 283.98639322959752 -126.45941333255541 0 0 0 0 -49.623652900503657 301.21469175788661 0 301.21469175788661 -154.41784217054374 0 0 0 0 -49.579573078568501 299.31503897650327 0 299.31503897650327 -155.42248369588924 0 0 0 0 -87.486219063952376 296.73016184776498 0 296.73016184776498 -143.8905852764874 0 0 0 0 -39.373203670424118 290.49039809503665 0 290.49039809503665 -152.20676572323646 0 0 0 0 -47.327980360725633 324.51827900119315 0 324.51827900119315 -120.83929164765868 0 0 0 0 -69.614777701808634 292.76116705697677 0 292.76116705697677 -73.916648254204119 0 0 0 0 -20.175156575854544 353.02037931389725 0 353.02037931389725 -97.202571698944666 0 0 0 0 -59.834838083583122 348.90329029853876 0 348.90329029853876 -16.97246299804101 0 0 0 0 -67.834581632323989 290.96531680457747 0 290.96531680457747 -134.64601690471318 0 0 0 0 -144.48043694777698 279.86906015844761 0 279.86906015844761 -12.71732446268652 0 0 0 0 -81.565705735554729 375.31074278920687 0 375.31074278920687 -153.35276095640074 0 0 0 0 133.48493812868855 326.21808600859595 0 326.21808600859595 -15.671402367221162 0 0 0 0 365.40654952436853 324.32312998839006 0 324.32312998839006 -20.542662847959946 0 0 0 0 612.48097767075342 224.29922306411663 0 224.29922306411663 -71.564173511043919 0 0 0 0 419.46356597333261 163.93268295826908 0 163.93268295826908 98.952882285848318 0 0 0 0 422.46906992851473 118.13096071494692 0 118.13096071494692 -7.6016697389350156 0 0 0 0 0.49981399394518933 2.8673929815605135 0 2.8673929815605135 -1.4228436690302573 0 0 0 0 -295.96666908651787 404.35195833204853 0 404.35195833204853 -85.540367064075326 0 0 0 0 671.2961346461525 95.38144214611998 0 95.38144214611998 -172.30321253720467 0 0 0 0 -516.6600315892565 256.33278298880577 0 256.33278298880577 14.560049653777241 0 0 0 0 -191.03327534616756 73.266876950097867 0 73.266876950097867 -41.013932114361523 0 0 0 0 152.45805143192774 57.179057925113739 0 57.179057925113739 -94.415749129700998 0 0 0 0 76.298740791349701 48.610276961171621 0 48.610276961171621 -49.030125131668683 0 0 0 0 -14.390727167126897 117.41401661004784 0 117.41401661004784 -45.014549169922248 0 0 0 0 0.49794947053736216 2.5477100242052835 0 2.5477100242052835 -0.37910280711662381 0 0 0 0 -187.9784384209961 95.028300913289058 0 95.028300913289058 152.74000677178992 0 0 0 0 734.55318909854213 116.35556749634361 0 116.35556749634361 -96.57335529619013 0 0 0 0 527.79561570114674 254.83315238139039 0 254.83315238139039 17.009759307409695 0 0 0 0 524.99199946575573 -1.9427884347405779 0 -1.9427884347405779 -2.762992277093872 0 0 0 0 285.60840573450332 117.02819768700101 0 117.02819768700101 12.284690450392873 0 0 0 0 -142.3380682950683 45.024366476480282 0 45.024366476480282 43.66772856240641 0 0 0 0 188.17219467563609 104.03420018772704 0 104.03420018772704 -78.842336511348549 0 0 0 0 0.74885362721464821 4.4472024381744291 0 4.4472024381744291 -2.1174403779577204 0 0 0 0 124.16008273709303 115.83132949971332 0 115.83132949971332 -47.778292870985752 0 0 0 0 122.77353396561011 143.9578184402335 0 143.9578184402335 -82.824741229014762 0 0 0 0 155.03555314924233 149.79403296075907 0 149.79403296075907 -13.878889898991474 0 0 0 0 63.382906695780548 220.61542627439303 0 220.61542627439303 -48.84094766202179 0 0 0 0 61.659603069652803 208.5745579458162 0 208.5745579458162 -81.623367823218359 0 0 0 0 42.436135351330677 269.86233738402825 0 269.86233738402825 -113.70205922939931 0 0 0 0 149.35565253455934 210.01306303041201 0 210.01306303041201 -96.375070154335845 0 0 0 0 34.461892888004513 196.12169616571191 0 196.12169616571191 -68.822653588264075 0 0 0 0 27.25629992407903 226.80276532299968 0 226.80276532299968 -110.01143539250916 0 0 0 0 -7.7598832047369797 251.85284368101929 0 251.85284368101929 -103.17498815385807 0 0 0 0 -34.677480018613551 299.1069094821305 0 299.1069094821305 -134.18370025156764 0 0 0 0 -24.019011952914298 231.54480441181659 0 231.54480441181659 -93.634893510174152 0 0 0 0 -96.375076909630707 305.9522317368112 0 305.9522317368112 -148.1017558380554 0 0 0 0 -30.316596711036254 292.1982939307527 0 292.1982939307527 -157.5980266413826 0 0 0 0 -49.094171150092734 313.87685914211033 0 313.87685914211033 -153.35381387641246 0 0 0 0 -8.7620474685463705 306.03219757327133 0 306.03219757327133 -145.16812009398564 0 0 0 0 -57.762103188266337 288.75672845317968 0 288.75672845317968 -135.80972968308015 0 0 0 0 -96.06594898399635 333.59634919018572 0 333.59634919018572 -144.59707291171799 0 0 0 0 -63.724281008682738 291.82144233781219 0 291.82144233781219 -89.078828905468981 0 0 0 0 -65.384194630547427 280.57805627111884 0 280.57805627111884 -136.96532456975046 0 0 0 0 32.2332766192485 291.490706311135 0 291.490706311135 -115.89246021017971 0 0 0 0 -33.897277716156623 224.28893245513905 0 224.28893245513905 -44.749550182186795 0 0 0 0 93.24702959302158 222.68538215395347 0 222.68538215395347 -92.331621007795547 0 0 0 0 93.908327723942421 159.11628742307948 0 159.11628742307948 52.493683024415077 0 0 0 0 227.25748190989179 204.3315814770649 0 204.3315814770649 -70.190212445422731 0 0 0 0 272.51057946963465 226.19540906333532 0 226.19540906333532 37.484622111951467 0 0 0 0 362.91164656573437 315.93127332333552 0 315.93127332333552 220.17192118821913 0 0 0 0 144.26133460931123 86.355134955834728 0 86.355134955834728 102.72918699175443 0 0 0 0 113.35666788556955 154.8916652599346 0 154.8916652599346 7.9896591061369691 0 0 0 0 -18.650487968564448 166.18355366558626 0 166.18355366558626 64.470464268724754 0 0 0 0 -28.362949576052415 -7.6363671606977732 0 -7.6363671606977732 -179.30364282665323 0 0 0 0 158.23308576082127 225.54140270999505 0 225.54140270999505 -60.64223080044394 0 0 0 0 327.94427225276741 289.0412957087683 0 289.0412957087683 -191.890256974355 0 0 0 0 0.36179834133656619 4.1200774916768346 0 4.1200774916768346 0.39055865140687729 0 0 0 0 166.21000524275587 70.368384612657337 0 70.368384612657337 77.870693373984977 0 0 0 0 437.15300278550512 -14.709912387308577 0 -14.709912387308577 30.724287117627682 0 0 0 0 0.66487182978599524 2.2552184323313504 0 2.2552184323313504 -0.79654078679070039 0 0 0 0 -214.30157764068554 58.102053099587465 0 58.102053099587465 237.54536462110627 0 0 0 0 686.78401092694185 124.78162524543313 0 124.78162524543313 -72.160458950267639 0 0 0 0 167.38715793412848 105.56589504565272 0 105.56589504565272 -226.79865924157912 0 0 0 0 0.095411896814055375 2.1012286833389844 0 2.1012286833389844 0.74377823263918685 0 0 0 0 -554.27903127870559 92.925968087887668 0 92.925968087887668 541.90978889217149 0 0 0 0 -300.35720857346678 332.54163947044617 0 332.54163947044617 689.33200071243118 0 0 0 0 558.87367084720165 423.83618175627618 0 423.83618175627618 -104.33611638595175 0 0 0 0 141.73898813896494 153.20593551400225 0 153.20593551400225 188.03000457504822 0 0 0 0 237.14841635507582 401.48972139380203 0 401.48972139380203 364.46818965831699 0 0 0 0 160.84136548496144 71.595990120537863 0 71.595990120537863 289.22155661944271 0 0 0 0 182.07007365655772 158.99088877699796 0 158.99088877699796 -45.686843134837545 0 0 0 0 393.9825349084349 -29.942396068443941 0 -29.942396068443941 234.01655098838819 0 0 0 0 187.02183065105237 113.15471065796009 0 113.15471065796009 136.32761268161994 0 0 0 0 -14.223891074467247 0.46685596531278861 0 0.46685596531278861 145.19478377349333 0 0 0 0 25.35084838344028 18.540497404444523 0 18.540497404444523 149.59192530779183 0 0 0 0 -57.023389808407956 165.73197541246009 0 165.73197541246009 276.91957913080478 0 0 0 0 -2.3489643487764553 1.0573790183491738 0 1.0573790183491738 -0.25602219051549113 0 0 0 0 49.95635067384319 56.005663618379913 0 56.005663618379913 -41.613033890454062 0 0 0 0 -32.256033709168605 22.861790762491637 0 22.861790762491637 146.76545888982582 0 0 0 0 -7.3181614307577547 89.534205743888378 0 89.534205743888378 76.076617800554232 0 0 0 0 4.6796091407986751 41.324243656129511 0 41.324243656129511 182.56297440714479 0 0 0 0 10.826652776742776 17.679207057979511 0 17.679207057979511 162.07295713506755 0 0 0 0 201.6336632885359 46.158588552067158 0 46.158588552067158 106.79696381207668 0 0 0 0 166.05189367819003 70.837837403987578 0 70.837837403987578 113.75611294363262 0 0 0 0 84.836136263977096 -39.140747649371406 0 -39.140747649371406 40.358575101432507 0 0 0 0 81.821203531620995 58.44377065423032 0 58.44377065423032 150.30801116568909 0 0 0 0 90.212351803656929 32.722751251625596 0 32.722751251625596 126.80191017741618 0 0 0 0 226.78970688510162 144.6749256491903 0 144.6749256491903 189.56156640196787 0 0 0 0 84.282731950486777 84.42041082308242 0 84.42041082308242 184.24328025507202 0 0 0 0 39.407929673069702 63.763065211488765 0 63.763065211488765 241.95940528681604 0 0 0 0 28.208788234645453 112.89615512625278 0 112.89615512625278 182.01953431768561 0 0 0 0 12.227702415138992 19.892599115974008 0 19.892599115974008 199.05350903921135 0 0 0 0 7.3770485675950113 32.815109649940496 0 32.815109649940496 212.07826713238683 0 0 0 0 5.7777321157163897 40.859634596394244 0 40.859634596394244 216.45229022065905 0 0 0 0 1.1860353338070126 75.981160308750987 0 75.981160308750987 275.73853059100236 0 0 0 0 -5.231393961035792 17.672507811854302 0 17.672507811854302 280.34128318109651 0 0 0 0 12.668194479358135 56.526712622584455 0 56.526712622584455 308.69987334441976 0 0 0 0 45.615812436642955 142.71236098248664 0 142.71236098248664 311.79410639208817 0 0 0 0 36.47718001361045 101.49041328235694 0 101.49041328235694 218.6768483814194 0 0 0 0 41.310152300304253 139.46954075969006 0 139.46954075969006 356.00559214166788 0 0 0 0 -74.298000977842094 73.780809707069238 0 73.780809707069238 234.61929911060906 0 0 0 0 -26.678603115495207 72.179152789219188 0 72.179152789219188 312.53426551990196 0 0 0 0 -26.559675389623784 101.6589234120618 0 101.6589234120618 235.54111129905141 0 0 0 0 -22.09053957542892 102.19197242219889 0 102.19197242219889 226.56426953337996 0 0 0 0 61.073599236882728 137.59054869515421 0 137.59054869515421 194.61905564838435 0 0 0 0 1.9913459767658424 168.30790038704208 0 168.30790038704208 186.98371559813677 0 0 0 0 -21.232773821102455 183.2566997279846 0 183.2566997279846 190.48694248026754 0 0 0 0 -64.550969956193967 234.22068392057645 0 234.22068392057645 130.58825921823154 0 0 0 0 -133.63772110428908 154.01138540592001 0 154.01138540592001 260.01854683599686 0 0 0 0 -140.87995462044819 87.024145911531377 0 87.024145911531377 70.438082663489695 0 0 0 0 -75.499550357773842 193.54614314580431 0 193.54614314580431 243.96347908593816 0 0 0 0 -198.60917243574841 9.948876077539353 0 9.948876077539353 272.20997752192488 0 0 0 0 -195.05046561694326 124.42765233277441 0 124.42765233277441 198.55174508696473 0 0 0 0 -31.647610507170612 -13.544764498774384 0 -13.544764498774384 125.47168903427701 0 0 0 0 -5.5646787524310639 34.998976353621401 0 34.998976353621401 4.318921232894354 0 0 0 0 -0.091671843174026435 52.911294220351465 0 52.911294220351465 55.816897385913762 0 0 0 0 18.684013884701926 46.991636512420882 0 46.991636512420882 -109.44170160707472 0 0 0 0 -1.1803214095796264 1.6697780626125613 0 1.6697780626125613 -1.7056591746979279 0 0 0 0 74.010190807171966 326.30136786949697 0 326.30136786949697 165.04097013240244 0 0 0 0 75.531973625581259 319.10194524041913 0 319.10194524041913 64.401719643570686 0 0 0 0 38.953672683064724 322.18267690234461 0 322.18267690234461 302.44085077713135 0 0 0 0 97.292988903500373 371.67790787410013 0 371.67790787410013 226.79269306454808 0 0 0 0 96.845353058903129 314.8384572052546 0 314.8384572052546 169.22835934972773 0 0 0 0 -92.70712276643826 244.84115032328191 0 244.84115032328191 246.63664686003176 0 0 0 0 -98.036626658935347 246.52054903927092 0 246.52054903927092 249.56603633827763 0 0 0 0 28.056064892996801 273.47519019365518 0 273.47519019365518 150.91945633537034 0 0 0 0 38.700520156271523 303.05679999846052 0 303.05679999846052 174.12845032242603 0 0 0 0 -4.6650333225156828 253.49613603254579 0 253.49613603254579 139.68580811043648 0 0 0 0 80.933450629579966 228.36175295339854 0 228.36175295339854 145.39428832442536 0 0 0 0 78.815550750132388 250.46412095821324 0 250.46412095821324 66.806023028702839 0 0 0 0 75.631347929564072 272.81288827804747 0 272.81288827804747 98.263387815728493 0 0 0 0 84.991183510296651 295.31292729528286 0 295.31292729528286 94.450746385091406 0 0 0 0 72.890833448279409 208.0245359287037 0 208.0245359287037 0.84145542107216897 0 0 0 0 103.93153148520923 266.07000678570421 0 266.07000678570421 18.45262095115686 0 0 0 0 143.11043224313835 232.77887551087588 0 232.77887551087588 -59.802605471035349 0 0 0 0 83.925091297509653 244.02335911523846 0 244.02335911523846 73.239813903903269 0 0 0 0 62.181470167209227 113.3538359697618 0 113.3538359697618 53.00005310607412 0 0 0 0 1.1154967509839508 1.2207164521522031 0 1.2207164521522031 -0.73164985958905859 0 0 0 0 110.31821451979613 101.62773978069072 0 101.62773978069072 -172.58606913258336 0 0 0 0 147.44647026449456 286.61866326385461 0 286.61866326385461 336.55047646210369 0 0 0 0 137.63813360730092 174.26536171259067 0 174.26536171259067 135.95860214394088 0 0 0 0 45.468027222065302 206.81228609537902 0 206.81228609537902 133.60452439910296 0 0 0 0 1.9329017518655291 1.7458131218712118 0 1.7458131218712118 -1.1215543120351832 0 0 0 0 78.964440688362629 168.4805022389537 0 168.4805022389537 145.3438870320042 0 0 0 0 84.543038652565883 143.74669765878207 0 143.74669765878207 232.61122341049668 0 0 0 0 1.2257182795137851 1.0016282953562055 0 1.0016282953562055 -0.59794385927831684 0 0 0 0 131.79769264680817 248.25064801656936 0 248.25064801656936 334.54224681830965 0 0 0 0 111.60047020396269 -0.32857875814079307 0 -0.32857875814079307 -89.759701328786832 0 0 0 0 117.51605784321941 203.43361479902472 0 203.43361479902472 151.01632063725265 0 0 0 0 286.59857234265473 169.54059796506681 0 169.54059796506681 38.059122535483766 0 0 0 0 119.42019350587429 167.11754182780305 0 167.11754182780305 211.70444550643515 0 0 0 0 119.35964575428625 162.84530988855659 0 162.84530988855659 106.20097587115106 0 0 0 0 96.201234636922891 213.91984168136787 0 213.91984168136787 146.56844677248773 0 0 0 0 112.06436468219181 173.77576801360465 0 173.77576801360465 156.91532134323279 0 0 0 0 140.47078660763873 195.93603370961682 0 195.93603370961682 169.73734630135732 0 0 0 0 123.48445107760836 152.92201340424117 0 152.92201340424117 159.15545677500631 0 0 0 0 106.37313519787858 166.61442371665362 0 166.61442371665362 181.59636216804756 0 0 0 0 106.38373989684624 165.82243873034167 0 165.82243873034167 151.93871208723976 0 0 0 0 85.935800229483903 119.77227720470091 0 119.77227720470091 127.09642378537683 0 0 0 0 142.14825841426864 155.98993447806242 0 155.98993447806242 150.42349146274501 0 0 0 0 106.66653071996916 162.89965534560542 0 162.89965534560542 153.40910994143087 0 0 0 0 141.3971180711942 160.89729574480589 0 160.89729574480589 248.04874774113705 0 0 0 0 269.82530858197424 126.58894064654669 0 126.58894064654669 70.019273300509667 0 0 0 0 -1.0225628659078509 -0.25331776372136972 0 -0.25331776372136972 1.8838558767806148 0 0 0 0 13.166316479710076 52.813654202191174 0 52.813654202191174 184.19669478825745 0 0 0 0 0.32252516306582635 -0.12853458346071989 0 -0.12853458346071989 2.1437750085443525 0 0 0 0 31.457919482729267 19.098168625910148 0 19.098168625910148 -36.226728136141901 0 0 0 0 -30.61898872740494 14.87488022369871 0 14.87488022369871 6.7488611248327288 0 0 0 0 -260.23440358765765 92.877139792687558 0 92.877139792687558 -9.8146471782165463 0 0 0 0 322.27533219094039 249.87869550513005 0 249.87869550513005 38.711496263451409 0 0 0 0 0.43335204130453775 -0.4831434780221926 0 -0.4831434780221926 0.33658358691108958 0 0 0 0 -97.365168425465527 7.2274132865113643 0 7.2274132865113643 33.952503919106675 0 0 0 0 241.82860363119835 143.61322176132671 0 143.61322176132671 107.15109777114048 0 0 0 0 225.27658580478237 207.72009055909439 0 207.72009055909439 76.763389439681305 0 0 0 0 139.1320121749668 201.17319814784423 0 201.17319814784423 74.975381036041654 0 0 0 0 127.43656606777586 165.88987445516523 0 165.88987445516523 15.684852020573089 0 0 0 0 99.729559984014486 302.10534696703144 0 302.10534696703144 30.544281108244832 0 0 0 0 5.3741383594315266 174.01066624187297 0 174.01066624187297 -143.35119331830356 0 0 0 0 25.19290335014739 335.15203787851351 0 335.15203787851351 -132.82256408523676 0 0 0 0 138.89335238143553 249.35878658643014 0 249.35878658643014 -141.64079434328596 0 0 0 0 163.5687330335877 241.61533664459148 0 241.61533664459148 -81.913618556338406 0 0 0 0 143.7549654519712 197.83480551801642 0 197.83480551801642 -5.6477093655958015 0 0 0 0 133.55531865410376 245.90464194693413 0 245.90464194693413 9.6968438991971198 0 0 0 0 146.66616042623718 182.02292461903926 0 182.02292461903926 47.958423794177179 0 0 0 0 167.48389322112007 225.37407008659738 0 225.37407008659738 109.00617801513363 0 0 0 0 142.51084771937531 215.98419391118114 0 215.98419391118114 21.223033284684789 0 0 0 0 135.58369062353199 144.06896922582052 0 144.06896922582052 104.83122236930649 0 0 0 0 -412.6068627933364 423.97310168261629 0 423.97310168261629 -122.91908019399125 0 0 0 0 -314.2702214163437 345.74550889551756 0 345.74550889551756 -82.168298358112224 0 0 0 0 -274.99200364486751 447.48823529129368 0 447.48823529129368 -313.21412699484381 0 0 0 0 -357.81267023488908 365.69477147827456 0 365.69477147827456 -230.74626792812342 0 0 0 0 -769.61884599582118 423.72872230128269 0 423.72872230128269 -226.49958562539314 0 0 0 0 -459.94569327653153 473.48161055650053 0 473.48161055650053 -462.56677156385558 0 0 0 0 -762.19070761399053 335.22898371149131 0 335.22898371149131 -955.75792273732077 0 0 0 0 -1166.8933131560771 559.28816912417824 0 559.28816912417824 -471.16359593004745 0 0 0 0 -1248.1620855635229 1142.4409733849434 0 1142.4409733849434 -1204.0040513431013 0 0 0 0 492.27463782473933 244.89578524995886 0 244.89578524995886 -1974.413143059428 0 0 0 0 -951.11256362120912 886.43803488643607 0 886.43803488643607 -1524.5630087186437 0 0 0 0 -1583.9305868756946 -72.037820508440745 0 -72.037820508440745 -1157.0111579477089 0 0 0 0 -2.3751291055814363 346.34638425022422 0 346.34638425022422 -969.18629940685059 0 0 0 0 156.55278372080647 -134.34808312602399 0 -134.34808312602399 -603.38618015951943 0 0 0 0 48.537288276143954 -36.487049097595445 0 -36.487049097595445 -431.05653792465091 0 0 0 0 -226.81530241543078 690.19152752476657 0 690.19152752476657 -1004.4477017758909 0 0 0 0 -225.96847946515481 435.58115674980218 0 435.58115674980218 -633.99867022856779 0 0 0 0 24.728812221839689 146.34758042025032 0 146.34758042025032 -476.9499578102841 0 0 0 0 -172.60080099649713 390.55207056744621 0 390.55207056744621 -493.8409638373123 0 0 0 0 -302.48490476257575 427.98888646567138 0 427.98888646567138 -309.69244164935662 0 0 0 0 -148.04643997559106 455.93932793477052 0 455.93932793477052 -666.08898144851264 0 0 0 0 -442.5058969767997 577.19068489719939 0 577.19068489719939 -464.07177146384493 0 0 0 0 -136.03721287411645 313.76052615680055 0 313.76052615680055 -322.27962863696303 0 0 0 0 -118.16058955897461 378.92099780502031 0 378.92099780502031 -495.10111915729794 0 0 0 0 -20.365499032239313 264.20469040534226 0 264.20469040534226 -601.77645553361072 0 0 0 0 -33.295023706799839 197.16496448119869 0 197.16496448119869 -390.22127034449659 0 0 0 0 -62.64383517677561 206.85401662663753 0 206.85401662663753 -375.31040913821198 0 0 0 0 -8.1014756106014829 90.747063589173194 0 90.747063589173194 -355.18624404842012 0 0 0 0 -47.507472919911379 153.58185161420261 0 153.58185161420261 -427.76589483801217 0 0 0 0 -20.176356267893425 67.880802534772556 0 67.880802534772556 -245.82526675426197 0 0 0 0 -87.320969657805108 191.10492193276332 0 191.10492193276332 -250.45074103710795 0 0 0 0 -140.92905099231575 316.56641675152059 0 316.56641675152059 -323.88449605686765 0 0 0 0 -109.86988717627719 251.27027281181017 0 251.27027281181017 -234.74201523156808 0 0 0 0 -191.58644739767351 330.14145780401122 0 330.14145780401122 -202.58528225319606 0 0 0 0 -199.76498050610826 384.96109157878527 0 384.96109157878527 -282.73200799203187 0 0 0 0 -249.23661137619274 384.7863421216789 0 384.7863421216789 -186.61368846314872 0 0 0 0 -261.70380140393536 381.50610655756464 0 381.50610655756464 -184.21761107130806 0 0 0 0 -256.26242981360701 336.33446086399999 0 336.33446086399999 -117.50094368744976 0 0 0 0 -207.02426236891915 260.69691418689217 0 260.69691418689217 -124.01744014756696 0 0 0 0 -189.23605601378949 313.00464048323556 0 313.00464048323556 -184.3912242794795 0 0 0 0 -173.503942934527 223.12853145720146 0 223.12853145720146 -83.270270549270208 0 0 0 0 -130.90656067254895 218.91121931725502 0 218.91121931725502 -172.49199396545737 0 0 0 0 -125.6540681263491 166.75279992871288 0 166.75279992871288 -84.60906318101479 0 0 0 0 -122.60602710677631 241.19230283386423 0 241.19230283386423 -240.75929674286454 0 0 0 0 -104.47535946942298 183.42497797802116 0 183.42497797802116 -142.7266288558385 0 0 0 0 -53.298762859667477 154.42284859453503 0 154.42284859453503 -223.38446191035564 0 0 0 0 -33.093533439270686 69.111561408566558 0 69.111561408566558 -158.93525921938271 0 0 0 0 -85.732659363278799 141.84660195373363 0 141.84660195373363 -151.31866581178474 0 0 0 0 -40.097715119267377 64.417634602217731 0 64.417634602217731 -108.50553014972684 0 0 0 0 -91.62811445778425 113.27039526864246 0 113.27039526864246 -78.52745373336802 0 0 0 0 -74.574024756759172 150.11677596252048 0 150.11677596252048 -183.7310505626665 0 0 0 0 -103.11345318303211 78.800008510988846 0 78.800008510988846 -24.830942214317474 0 0 0 0 -97.568044725448999 137.27125313701617 0 137.27125313701617 -120.81340134277707 0 0 0 0 -23.970319182990352 38.263860938857761 0 38.263860938857761 -57.369158966041141 0 0 0 0 -138.46549989989398 123.44770741748744 0 123.44770741748744 -71.855220812401967 0 0 0 0 -153.12545001663966 146.94689574516815 0 146.94689574516815 -44.467649371941661 0 0 0 0 -172.8283278798117 209.47723857271922 0 209.47723857271922 -116.04222045508141 0 0 0 0 -197.33094796295882 167.69743934966937 0 167.69743934966937 -51.28534427249906 0 0 0 0 -230.91574322389351 226.68471233155651 0 226.68471233155651 0.6420147435983381 0 0 0 0 -29.553447341535048 321.68434845336219 0 321.68434845336219 -126.82663835290077 0 0 0 0 -276.22924698925272 234.45053794338128 0 234.45053794338128 -151.2627413165319 0 0 0 0 -46.352484874671063 338.97327629722713 0 338.97327629722713 -308.86203717556782 0 0 0 0 -244.28689944307916 269.31791039971358 0 269.31791039971358 -241.62698861988429 0 0 0 0 -536.44307718463824 160.95751459240819 0 160.95751459240819 -278.50284806244053 0 0 0 0 -395.63367299679521 330.48491073718287 0 330.48491073718287 -95.343126854946604 0 0 0 0 -256.60885364110072 295.01092069637161 0 295.01092069637161 -99.043935535846686 0 0 0 0 -261.03491101899999 292.08406562344317 0 292.08406562344317 -96.73451614708074 0 0 0 0 -295.58517687383574 351.38985942021827 0 351.38985942021827 -122.50901707346566 0 0 0 0 -274.32618926081341 348.2508018115077 0 348.2508018115077 -106.89905492330581 0 0 0 0 -325.9370780618774 382.901689776696 0 382.901689776696 -115.35807638444385 0 0 0 0 -283.96455441769285 360.91106158258117 0 360.91106158258117 -122.98977173553794 0 0 0 0 -308.90604822385285 410.33059134998985 0 410.33059134998985 -218.27993829884508 0 0 0 0 -262.46174531021825 342.7672824207948 0 342.7672824207948 -123.42793565257494 0 0 0 0 -212.71001851453912 323.04225177714943 0 323.04225177714943 -251.36446006822371 0 0 0 0 -141.89080738466146 281.03009200208544 0 281.03009200208544 -202.98347124550492 0 0 0 0 -212.51655386082712 325.49367091330714 0 325.49367091330714 -230.41425362042719 0 0 0 0 -243.97302102544927 341.50860167124483 0 341.50860167124483 -174.87037241426151 0 0 0 0 -208.70614613420548 269.71315919881454 0 269.71315919881454 -90.18059313899721 0 0 0 0 -130.58232208133995 225.86640071685542 0 225.86640071685542 -164.90937138555091 0 0 0 0 -147.97974882551534 240.3395319394624 0 240.3395319394624 -176.29217118784436 0 0 0 0 -40.815307116892654 183.95724131169482 0 183.95724131169482 -248.18247658452674 0 0 0 0 -34.380111087892146 105.9230388231299 0 105.9230388231299 -148.77108448246145 0 0 0 0 -63.70404209089611 120.26944537484815 0 120.26944537484815 -154.18190438912279 0 0 0 0 -139.49889396886056 156.47461746970203 0 156.47461746970203 -97.982257855466742 0 0 0 0 -88.467383941853768 130.70247929659672 0 130.70247929659672 -85.391355207120796 0 0 0 0 -241.18407969089321 163.00626036022004 0 163.00626036022004 21.098482227731438 0 0 0 0 -299.14914191926073 317.55558745971939 0 317.55558745971939 -63.562601426343463 0 0 0 0 -253.59902329606848 289.72142402132158 0 289.72142402132158 -99.075975163515977 0 0 0 0 -318.34460167386169 341.58135234377824 0 341.58135234377824 -85.606546342372894 0 0 0 0 -376.25351401971784 245.82780574889239 0 245.82780574889239 -4.425877581583336 0 0 0 0 19.182629721323792 41.587142746979453 0 41.587142746979453 3.3966372042341391 0 0 0 0 19.368702293184469 47.572152749567977 0 47.572152749567977 26.00106514808067 0 0 0 0 -33.144113109214231 86.130043382239819 0 86.130043382239819 -78.885496128493742 0 0 0 0 -1.3526606711675413 81.880891099126529 0 81.880891099126529 -186.1821112682519 0 0 0 0 34.237748941639438 140.36909775628737 0 140.36909775628737 -224.5671379018313 0 0 0 0 1.0825399846356589 5.9188593856335245 0 5.9188593856335245 3.2602073152926021 0 0 0 0 -12.048937520456093 104.23607329088372 0 104.23607329088372 -232.84294632980163 0 0 0 0 -4.1799481422895042 -0.46572443143122655 0 -0.46572443143122655 -224.92977299014547 0 0 0 0 17.154313148612019 19.963752601928576 0 19.963752601928576 10.207866288206507 0 0 0 0 -42.237313922880276 272.59358973210146 0 272.59358973210146 -353.34859194756427 0 0 0 0 15.091384507624753 139.81441244631333 0 139.81441244631333 -706.12900477834046 0 0 0 0 -17.923866694493768 7.1472042476898938 0 7.1472042476898938 8.3113740508354894 0 0 0 0 -20.733926134588728 37.616811916833285 0 37.616811916833285 225.17597277245659 0 0 0 0 -82.295626344148332 168.33131186507308 0 168.33131186507308 461.44925196929398 0 0 0 0 -383.11290053380071 64.791304212736577 0 64.791304212736577 -22.148495751967857 0 0 0 0 -0.36581358295791233 6.1230873519154798 0 6.1230873519154798 6.1575369561120752 0 0 0 0 571.04504689994792 132.67829176098894 0 132.67829176098894 7.1075261798832798 0 0 0 0 -343.74973553496602 -61.719159295696954 0 -61.719159295696954 261.34942713115015 0 0 0 0 -154.18267948439825 306.7700559166442 0 306.7700559166442 -382.01596311831236 0 0 0 0 -185.02008314187697 355.05649932491178 0 355.05649932491178 -456.54935587358341 0 0 0 0 -242.73622540483484 377.21882045044185 0 377.21882045044185 -286.22543637418858 0 0 0 0 1.2510383670609642 5.9437569193176838 0 5.9437569193176838 2.5797556236249051 0 0 0 0 -636.15292015758314 268.05800112044017 0 268.05800112044017 -35.974663204131957 0 0 0 0 -495.16521350630501 550.63139133781624 0 550.63139133781624 -430.78542487238519 0 0 0 0 -183.75408273407811 232.39258653130673 0 232.39258653130673 -605.49621643983846 0 0 0 0 -469.28189226071481 548.7874309416311 0 548.7874309416311 -385.2563041605099 0 0 0 0 -221.30699646239373 498.98857243698512 0 498.98857243698512 -607.15952381007082 0 0 0 0 -156.34169010315964 377.56947394908639 0 377.56947394908639 -406.57228508191474 0 0 0 0 -176.22234436141389 278.25281789628161 0 278.25281789628161 -326.82940781628713 0 0 0 0 -73.507811246301571 448.75710568049908 0 448.75710568049908 -365.84231875796013 0 0 0 0 -60.071501013761008 566.83400795398848 0 566.83400795398848 -617.37936972281568 0 0 0 0 0.77902819117990418 1.9983944925162547 0 1.9983944925162547 1.3943343150868444 0 0 0 0 -67.247596543948021 452.07277641303699 0 452.07277641303699 -437.65559016723273 0 0 0 0 -160.4318341974722 489.66501407303076 0 489.66501407303076 -390.66150517528922 0 0 0 0 -251.12010001609815 423.5263651783207 0 423.5263651783207 -409.34475819329236 0 0 0 0 -36.611667529985425 685.02076534747903 0 685.02076534747903 -310.74763670286666 0 0 0 0 -314.65282358988043 55.809995745385095 0 55.809995745385095 735.26038096132652 0 0 0 0 431.24563058992157 280.7789153207334 0 280.7789153207334 269.31745282318298 0 0 0 0 424.04014544681422 394.69628576919808 0 394.69628576919808 105.84334629518708 0 0 0 0 92.538961598431342 334.51624001643722 0 334.51624001643722 104.23403346877421 0 0 0 0 69.349073657496774 -129.08757584872001 0 -129.08757584872001 -87.942082585071148 0 0 0 0 -0.26159354817041525 0.25798011060896187 0 0.25798011060896187 4.0351533483470519 0 0 0 0 302.82897259521178 329.93827640246627 0 329.93827640246627 222.70022796583362 0 0 0 0 -492.22172587125351 -77.013546342456266 0 -77.013546342456266 579.85517386614811 0 0 0 0 163.7526867714223 165.83880081774441 0 165.83880081774441 91.846380061968375 0 0 0 0 106.94825871793 104.87149435527317 0 104.87149435527317 53.153814356119256 0 0 0 0 41.877765862434899 178.75393117547719 0 178.75393117547719 158.21887191883798 0 0 0 0 79.269251058129157 174.2555268257729 0 174.2555268257729 100.6680578279811 0 0 0 0 106.96259786205701 189.07578168602777 0 189.07578168602777 149.18679522315324 0 0 0 0 88.012111378568079 193.81336774610099 0 193.81336774610099 196.31893987429794 0 0 0 0 82.2540844480136 347.42197052861775 0 347.42197052861775 -16.537245223216814 0 0 0 0 79.399307693722221 336.01605948727411 0 336.01605948727411 -60.042770223484695 0 0 0 0 91.12281658869324 332.41753151932971 0 332.41753151932971 40.320200871259658 0 0 0 0 116.4456009240057 274.36908379521446 0 274.36908379521446 19.190552452853353 0 0 0 0 88.14385191078145 325.39181773780183 0 325.39181773780183 23.91882790145246 0 0 0 0 109.93831242532951 282.67022446870033 0 282.67022446870033 -57.439900267698249 0 0 0 0 114.28154761490805 289.83869538625549 0 289.83869538625549 -67.040423809643471 0 0 0 0 88.217448488758237 290.07260796942319 0 290.07260796942319 -84.595108174737106 0 0 0 0 125.16730465133605 296.96416041436987 0 296.96416041436987 -151.24269318701408 0 0 0 0 100.62744835266676 302.19599098584968 0 302.19599098584968 -233.43260956200538 0 0 0 0 -34.161040769338797 267.54516869182066 0 267.54516869182066 -208.43921130537638 0 0 0 0 26.110721053686575 363.3410464742683 0 363.3410464742683 -125.79098941577649 0 0 0 0 15.754397264056024 415.33131736200994 0 415.33131736200994 -299.73457723265892 0 0 0 0 -26.10640269644864 385.98068942620193 0 385.98068942620193 -304.28333366069637 0 0 0 0 -125.23872776012649 546.4474672506949 0 546.4474672506949 -126.44912680913694 0 0 0 0 -111.60250741411437 419.91318486132877 0 419.91318486132877 -56.428135182970436 0 0 0 0 -4.1459524664533092 569.70767154637088 0 569.70767154637088 -223.96258751139976 0 0 0 0 -113.91528463686518 703.65942864361568 0 703.65942864361568 266.19706362271972 0 0 0 0 39.072184610169643 363.68244031847462 0 363.68244031847462 -74.912483907130081 0 0 0 0 48.416951842671551 396.24242915872128 0 396.24242915872128 -174.82774310189598 0 0 0 0 -81.518501480521081 429.22750328019811 0 429.22750328019811 68.98256818574373 0 0 0 0 1.6920755078044749 377.71385600000394 0 377.71385600000394 1.5041123064947897 0 0 0 0 40.482753865080667 417.12136410088078 0 417.12136410088078 -16.832935014143004 0 0 0 0 -105.74802780060418 472.31529299893737 0 472.31529299893737 5.229434106615372 0 0 0 0 -0.5716828902610338 1.6707292826042188 0 1.6707292826042188 -1.485872883230698 0 0 0 0 -26.990878660866656 427.31456770241948 0 427.31456770241948 -73.622025024713366 0 0 0 0 197.60117214091952 167.07301629437097 0 167.07301629437097 108.55972049159573 0 0 0 0 -284.23727630171379 236.22634469124023 0 236.22634469124023 120.59386959459516 0 0 0 0 64.33812731927901 410.43252611989737 0 410.43252611989737 67.997251772238087 0 0 0 0 40.43068533591395 452.39695420634143 0 452.39695420634143 106.73619818688167 0 0 0 0 49.617112008603726 377.65802886983965 0 377.65802886983965 82.201477684589918 0 0 0 0 61.507783549062879 377.72514125839552 0 377.72514125839552 41.694172822799374 0 0 0 0 58.697188604204712 356.07908647180011 0 356.07908647180011 143.76560985514516 0 0 0 0 11.566010789538268 391.05920129296828 0 391.05920129296828 135.24302989148782 0 0 0 0 -55.423682656010897 489.62185689545936 0 489.62185689545936 214.53797554270204 0 0 0 0 17.846863594599199 438.69884476188236 0 438.69884476188236 242.54122103403097 0 0 0 0 113.35295739045978 388.32515464020435 0 388.32515464020435 244.11242622381178 0 0 0 0 103.85230438427607 492.79952448816312 0 492.79952448816312 171.4885293207517 0 0 0 0 23.6363837742947 424.58165715246514 0 424.58165715246514 172.60505174938226 0 0 0 0 108.23036557643718 438.48590968235294 0 438.48590968235294 173.04378724944399 0 0 0 0 86.355444600656483 380.75111743465277 0 380.75111743465277 245.92837112396592 0 0 0 0 -4.5765157237092353 362.65551844628135 0 362.65551844628135 192.45700099807436 0 0 0 0 204.94436436798424 306.28175505268518 0 306.28175505268518 206.89025444321669 0 0 0 0 257.50718738411888 352.33516740927007 0 352.33516740927007 224.90717002325619 0 0 0 0 251.14045232000717 355.64342959824353 0 355.64342959824353 236.3508258383149 0 0 0 0 251.81330269380183 298.20890625504489 0 298.20890625504489 268.22042208080529 0 0 0 0 131.85224363763336 405.96653135138877 0 405.96653135138877 260.18490150395701 0 0 0 0 273.70511255060137 338.67319886680434 0 338.67319886680434 246.9008140707374 0 0 0 0 242.91127830646474 309.89295314015635 0 309.89295314015635 340.70867434963293 0 0 0 0 341.75631726797292 353.69439593899187 0 353.69439593899187 296.56194872942433 0 0 0 0 310.52592741706758 279.82599693772136 0 279.82599693772136 320.00518388601267 0 0 0 0 276.92985322345339 255.80942777478595 0 255.80942777478595 390.49551934211195 0 0 0 0 300.03252802641146 289.73369438331247 0 289.73369438331247 329.10831206398143 0 0 0 0 296.06535983960202 329.88156252040608 0 329.88156252040608 325.47678055365213 0 0 0 0 199.02173459230107 307.40489739278746 0 307.40489739278746 325.1886369874419 0 0 0 0 221.65017033203367 424.82300529365784 0 424.82300529365784 138.26788254338862 0 0 0 0 0.29072595378784172 301.53285288363895 0 301.53285288363895 359.90365035158356 0 0 0 0 29.729213607087161 470.26468365035919 0 470.26468365035919 221.72929290180036 0 0 0 0 -34.030074894370046 63.599709812267974 0 63.599709812267974 30.850631710021389 0 0 0 0 -19.248017693276779 140.2666155615716 0 140.2666155615716 24.858969360037008 0 0 0 0 33.883273877741885 94.774459406446113 0 94.774459406446113 22.132515160956245 0 0 0 0 94.257044141086226 131.83097962888132 0 131.83097962888132 -15.064800864614881 0 0 0 0 62.047522019976896 143.07096815648038 0 143.07096815648038 111.34121014815901 0 0 0 0 39.852835721132578 182.0084595124863 0 182.0084595124863 44.47871575535828 0 0 0 0 -22.655367916820978 72.168778115765235 0 72.168778115765235 79.072543130225313 0 0 0 0 -77.984855415979837 127.98800558088806 0 127.98800558088806 23.352353859718278 0 0 0 0 -308.56514077460452 -47.827345370089461 0 -47.827345370089461 65.004123607770453 0 0 0 0 -63.610342267689703 -19.661913231848303 0 -19.661913231848303 -85.74965459685518 0 0 0 0 169.33962051570597 168.31181080967872 0 168.31181080967872 107.08522755515583 0 0 0 0 -231.00394470651645 153.70675747222231 0 153.70675747222231 194.58328888953838 0 0 0 0 208.67523251174134 -15.784315243883611 0 -15.784315243883611 70.915377368716236 0 0 0 0 -0.83551393942888019 1.6140015379021619 0 1.6140015379021619 7.7880955659960733 0 0 0 0 332.73061328914991 354.574224537193 0 354.574224537193 4.7899532216251828 0 0 0 0 347.23471738834451 299.84797559427989 0 299.84797559427989 152.87272393040075 0 0 0 0 -1.5097957100290955 3.5723456684117902 0 3.5723456684117902 -2.3700499485966162 0 0 0 0 321.13354215382424 245.66477866176137 0 245.66477866176137 218.23138220690089 0 0 0 0 465.97641047132856 248.92162453369201 0 248.92162453369201 207.50344565853084 0 0 0 0 604.24479541939945 391.08624233210139 0 391.08624233210139 255.81382680971001 0 0 0 0 351.52414478770879 310.83867288628062 0 310.83867288628062 325.10195733613727 0 0 0 0 338.22878681720613 335.70012311184564 0 335.70012311184564 352.352720593095 0 0 0 0 301.57468088035421 299.22924369344946 0 299.22924369344946 368.10266508455607 0 0 0 0 264.61421171987604 309.33562170419282 0 309.33562170419282 375.79914126608946 0 0 0 0 369.37605485268432 373.24430623458466 0 373.24430623458466 348.61606752592888 0 0 0 0 246.07208598146099 366.04338195956734 0 366.04338195956734 363.41254717918491 0 0 0 0 256.0515435423622 358.66045797692095 0 358.66045797692095 368.01626804178886 0 0 0 0 225.80473653137597 351.00069781683851 0 351.00069781683851 382.93467115846943 0 0 0 0 68.299139244751132 393.74996837032813 0 393.74996837032813 429.80176952842157 0 0 0 0 102.87866558232918 202.23597392909369 0 202.23597392909369 457.56082905196672 0 0 0 0 246.43851340408344 376.8477855325491 0 376.8477855325491 410.29459363955539 0 0 0 0 -0.52172267149676088 2.0322777102621039 0 2.0322777102621039 -0.85447892280700444 0 0 0 0 596.11065376870465 564.38940718936828 0 564.38940718936828 345.82839225654607 0 0 0 0 247.54629619213665 479.2714119517459 0 479.2714119517459 406.44247925855234 0 0 0 0 -521.773874693994 61.504026090326079 0 61.504026090326079 265.27021662022162 0 0 0 0 -0.37368005782343516 1.0248124299340304 0 1.0248124299340304 3.6498173409237609 0 0 0 0 351.99730711182292 652.22691486298118 0 652.22691486298118 272.32946189208451 0 0 0 0 -146.96197200290408 147.57687772619647 0 147.57687772619647 134.96234680266207 0 0 0 0 151.32075926317339 422.32067026017467 0 422.32067026017467 345.43942272112326 0 0 0 0 -267.20313061928391 317.11401202681918 0 317.11401202681918 340.30768684856594 0 0 0 0 320.93326982259168 264.65977278138416 0 264.65977278138416 367.21014057698994 0 0 0 0 224.97070643777261 336.87727273338169 0 336.87727273338169 320.99266297318536 0 0 0 0 168.63555535727937 375.50125329624279 0 375.50125329624279 328.17015450927829 0 0 0 0 16.410600936214905 354.21367469732286 0 354.21367469732286 369.10158745935041 0 0 0 0 181.50653030292233 321.98229461318624 0 321.98229461318624 305.93441479527974 0 0 0 0 293.38362703492385 393.50726451712944 0 393.50726451712944 275.87826630371273 0 0 0 0 30.387067370436853 211.46983629718306 0 211.46983629718306 245.73454481373119 0 0 0 0 142.65232770624061 301.06334126680304 0 301.06334126680304 281.71223067887331 0 0 0 0 118.82680507062105 227.39345512746706 0 227.39345512746706 206.23063718336925 0 0 0 0 114.69818976272654 300.64685414104679 0 300.64685414104679 302.47159031113733 0 0 0 0 60.205903512274062 147.81678221898471 0 147.81678221898471 157.77465947572637 0 0 0 0 -50.247509130982507 110.19149959588685 0 110.19149959588685 156.93778310553171 0 0 0 0 57.950884233311967 210.42954397406822 0 210.42954397406822 234.32117593041767 0 0 0 0 -39.554208666151681 127.82147721293222 0 127.82147721293222 138.58527076897735 0 0 0 0 57.311537308342849 99.490371289363338 0 99.490371289363338 70.229757546665496 0 0 0 0 49.205749626096804 142.78570340761416 0 142.78570340761416 95.975994837484905 0 0 0 0 229.21445255407889 439.62362371646668 0 439.62362371646668 382.67162483596985 0 0 0 0 213.30242237191851 394.18700998437271 0 394.18700998437271 337.24686217455928 0 0 0 0 192.14573666099022 389.84599201418678 0 389.84599201418678 341.96082983209999 0 0 0 0 164.7302810334586 295.70782652339562 0 295.70782652339562 244.92410214702977 0 0 0 0 175.80182130744424 360.11430225507615 0 360.11430225507615 313.37583446680219 0 0 0 0 202.01478871022118 369.63918628292049 0 369.63918628292049 290.52611819747835 0 0 0 0 217.32590620598785 393.61320980052187 0 393.61320980052187 323.14951193759327 0 0 0 0 190.33193634378767 383.39113589231874 0 383.39113589231874 362.49902981727064 0 0 0 0 215.09755087177473 348.62965057752444 0 348.62965057752444 324.07192949246382 0 0 0 0 225.44336145039415 376.27526301308171 0 376.27526301308171 343.27046517774579 0 0 0 0 217.43403790264802 358.4843433943438 0 358.4843433943438 355.77667382470827 0 0 0 0 216.3663510843835 389.37766168422968 0 389.37766168422968 373.98812611052563 0 0 0 0 216.88807588253439 416.91231159957351 0 416.91231159957351 398.50719979181667 0 0 0 0 226.58142301409316 433.77719157012871 0 433.77719157012871 406.20276408349855 0 0 0 0 229.09097144857515 418.70934591921832 0 418.70934591921832 335.11800982080422 0 0 0 0 206.64523138267032 435.99061285828611 0 435.99061285828611 465.76163653788353 0 0 0 0 225.33419377338578 392.38334891630075 0 392.38334891630075 369.23982458182581 0 0 0 0 228.8037869089967 399.78520475715504 0 399.78520475715504 384.92452453542137 0 0 0 0 225.80583029778109 371.78531874061991 0 371.78531874061991 396.9665837418288 0 0 0 0 251.73446772512398 351.43542723884275 0 351.43542723884275 362.98592343012569 0 0 0 0 270.09339648718833 328.33015215071191 0 328.33015215071191 423.58082646498224 0 0 0 0 215.37495494961331 371.5605386960724 0 371.5605386960724 420.37319661180607 0 0 0 0 226.28778946482635 387.48408600587481 0 387.48408600587481 443.60699627797658 0 0 0 0 191.83208757167176 456.99173302684312 0 456.99173302684312 444.33262706833193 0 0 0 0 201.3135527628292 422.21353391527009 0 422.21353391527009 412.79164789014976 0 0 0 0 195.8718204353454 446.95658865091491 0 446.95658865091491 419.02572865285038 0 0 0 0 144.83805503120675 323.87293181505993 0 323.87293181505993 381.82142946893691 0 0 0 0 164.62203897976178 435.64032459481768 0 435.64032459481768 427.73151043840517 0 0 0 0 205.48164735462751 441.31651571510724 0 441.31651571510724 479.35977621073107 0 0 0 0 261.34500286182083 453.96110730128567 0 453.96110730128567 482.17011819283289 0 0 0 0 234.68070571767748 456.54583419958362 0 456.54583419958362 433.13349014154664 0 0 0 0 209.68354564294532 435.69124969584391 0 435.69124969584391 423.59695012852899 0 0 0 0 239.99809027997844 421.01436597341581 0 421.01436597341581 450.87563469416637 0 0 0 0 221.02627013125311 453.18162400867732 0 453.18162400867732 415.06662146768849 0 0 0 0 223.3096465640956 411.00924650885281 0 411.00924650885281 595.59810679286602 0 0 0 0 236.65814945969032 437.81258124350279 0 437.81258124350279 503.57331661293756 0 0 0 0 200.79464973523864 450.61182478009505 0 450.61182478009505 500.00233904292509 0 0 0 0 215.83176949976041 431.58979984486723 0 431.58979984486723 478.88084515715309 0 0 0 0 198.02928652374612 394.73298706382957 0 394.73298706382957 593.84121794631938 0 0 0 0 154.31675450000421 477.51659678993383 0 477.51659678993383 573.08939551182993 0 0 0 0 150.34949899157073 455.78354740053692 0 455.78354740053692 521.95620686980692 0 0 0 0 205.84461532519344 462.17231981655277 0 462.17231981655277 452.85902737963988 0 0 0 0 224.82037050365352 420.55701700466193 0 420.55701700466193 398.51978168264759 0 0 0 0 -114.89633728266017 -69.760574036050457 0 -69.760574036050457 195.92840876161063 0 0 0 0 -5.4874392950085209 1.2769120465033268 0 1.2769120465033268 5.2357407960884927 0 0 0 0 -178.35422102762186 -7.531902459900266 0 -7.531902459900266 716.42345079352344 0 0 0 0 -81.218979508830671 104.41017039318558 0 104.41017039318558 243.44606757917609 0 0 0 0 285.20755260855242 451.31120267802982 0 451.31120267802982 427.98524390015154 0 0 0 0 265.53596863405653 189.08382312951915 0 189.08382312951915 481.11821784751373 0 0 0 0 265.5545532652468 341.5446158099403 0 341.5446158099403 462.39742693206745 0 0 0 0 260.78532340110178 293.92532323138312 0 293.92532323138312 465.98493649751617 0 0 0 0 279.63750561153756 319.74648225021065 0 319.74648225021065 492.74913522343559 0 0 0 0 224.52600068536231 336.54192896775021 0 336.54192896775021 514.55943499129353 0 0 0 0 245.38153908844833 310.33535430727716 0 310.33535430727716 540.84543992068575 0 0 0 0 268.53127921046143 414.68931505519049 0 414.68931505519049 719.03606322384894 0 0 0 0 294.96633248155558 458.02500485565906 0 458.02500485565906 646.13036192765321 0 0 0 0 301.26496449324168 185.57117845912262 0 185.57117845912262 -104.70795171029749 0 0 0 0 -2.6900493635881872 5.8130350133274504 0 5.8130350133274504 0.17885408171040496 0 0 0 0 -220.96013687279628 52.136410448500101 0 52.136410448500101 25.031247651153535 0 0 0 0 132.22051105838545 469.93595813403226 0 469.93595813403226 639.52710574318644 0 0 0 0 418.37461771101789 480.67823406362459 0 480.67823406362459 204.21073684683506 0 0 0 0 88.516507822438143 384.00187136821842 0 384.00187136821842 404.95664441091503 0 0 0 0 42.738226590216073 142.66378926552534 0 142.66378926552534 151.51504997051461 0 0 0 0 -57.724714210543922 42.085751145777976 0 42.085751145777976 -22.161251946815391 0 0 0 0 -13.48225059773327 1.0964237176990643 0 1.0964237176990643 19.948748246930478 0 0 0 0 -99.089813266439705 -14.321917620913155 0 -14.321917620913155 225.30980536899369 0 0 0 0 199.28647510650626 97.907371379473261 0 97.907371379473261 12.325414714359795 0 0 0 0 66.840585764527532 148.77935134125801 0 148.77935134125801 124.15986875576345 0 0 0 0 -39.753401631568295 56.042518537737124 0 56.042518537737124 53.040832466860593 0 0 0 0 -29.836581185038487 22.33556741044417 0 22.33556741044417 5.2085748481125975 0 0 0 0 -27.745900216436894 29.097022899663898 0 29.097022899663898 14.676784228970064 0 0 0 0 -44.011881694965602 25.341335293953293 0 25.341335293953293 1.1604838508315112 0 0 0 0 -39.158144724025931 30.028322537546199 0 30.028322537546199 -6.2577074914290307 0 0 0 0 -76.876276081373362 64.514560745854396 0 64.514560745854396 -89.698323833985341 0 0 0 0 -68.282595331661895 26.314918912461586 0 26.314918912461586 -5.2323773749695448 0 0 0 0 -33.846529311431823 -66.646652860566292 0 -66.646652860566292 156.63866394580327 0 0 0 0 39.182907589645936 140.89735594290505 0 140.89735594290505 -9.2105919223395176 0 0 0 0 8.8088483402804734 14.231869659516526 0 14.231869659516526 -1.7992871226185088 0 0 0 0 -49.376045715468535 17.282566389858403 0 17.282566389858403 151.24741661367807 0 0 0 0 7.0665579045245508 -0.10311397226990948 0 -0.10311397226990948 -0.19846865672936076 0 0 0 0 -333.79198580243929 3.3342466533067636 0 3.3342466533067636 -86.06629252188759 0 0 0 0 -285.73284341304088 571.66139649028992 0 571.66139649028992 -513.0061226181133 0 0 0 0 -1822.858989746529 38.271766886980913 0 38.271766886980913 126.56605579894222 0 0 0 0 -243.07893338641873 -195.52114084209506 0 -195.52114084209506 42.012053953127179 0 0 0 0 -309.35134441347464 254.404494731054 0 254.404494731054 207.40696623020085 0 0 0 0 -1197.300522614647 150.46041749987126 0 150.46041749987126 139.17040489381179 0 0 0 0 43.304511112036607 33.314625607967173 0 33.314625607967173 -170.19453204187266 0 0 0 0 -46.666714914919162 16.560141465035066 0 16.560141465035066 -5.5935445198350422 0 0 0 0 -80.925121537761243 107.56631145982533 0 107.56631145982533 265.48557727450861 0 0 0 0 -62.209532681877135 374.96009199371929 0 374.96009199371929 -58.782954561538645 0 0 0 0 -154.17016779074402 185.95457211168286 0 185.95457211168286 362.52186891885594 0 0 0 0 -41.028609082474759 55.099152355733622 0 55.099152355733622 24.5306860555811 0 0 0 0 -441.45276072989509 -939.26599670033465 0 -939.26599670033465 -1274.6343163258243 0 0 0 0 -5.3850440790019682 5.1933060609503698 0 5.1933060609503698 11.997550967790829 0 0 0 0 -993.52386194503742 785.63992380235686 0 785.63992380235686 207.74899610235661 0 0 0 0 -1848.4390335676258 -398.01947762805207 0 -398.01947762805207 651.79512524425809 0 0 0 0 -324.91911518373217 726.79520799301827 0 726.79520799301827 -432.45259544668806 0 0 0 0 -1210.4607743728411 -772.83511639250719 0 -772.83511639250719 -202.86257419075082 0 0 0 0 -18.633455061104794 4.9280001437513903 0 4.9280001437513903 -1.2578184749860277 0 0 0 0 -1643.8864680652835 594.90045608901687 0 594.90045608901687 853.78818816312923 0 0 0 0 463.96737177871728 276.63692998677652 0 276.63692998677652 335.909985596365 0 0 0 0 627.86850524351394 544.92266815414041 0 544.92266815414041 114.37452702957671 0 0 0 0 -1.4286735108651385 3.5580429277583256 0 3.5580429277583256 -2.7527975587560718 0 0 0 0 402.68397402344067 529.13876495467321 0 529.13876495467321 331.80825612331682 0 0 0 0 -17.232324168674729 17.245946835851043 0 17.245946835851043 -6.1767877962684281 0 0 0 0 458.84238312093203 300.32394753786957 0 300.32394753786957 226.44781383780355 0 0 0 0 243.5055001670371 440.69915981985832 0 440.69915981985832 464.2719461186316 0 0 0 0 -497.93006342082117 773.83709716894737 0 773.83709716894737 476.71449862691406 0 0 0 0 -605.03087621248119 -290.91736200761682 0 -290.91736200761682 196.55376591904496 0 0 0 0 -1208.8220981211944 -584.57751574079884 0 -584.57751574079884 55.336371806723037 0 0 0 0 -1862.7727575622393 -543.50604734768785 0 -543.50604734768785 127.5357429257092 0 0 0 0 -8.1643967256701835 6.6185694463470917 0 6.6185694463470917 -1.9845667797592057 0 0 0 0 72.759729932894516 189.28868970354597 0 189.28868970354597 328.94681314319496 0 0 0 0 614.73348006908782 682.4760285770999 0 682.4760285770999 57.39935391553081 0 0 0 0 0.30396440443837491 284.39346295889118 0 284.39346295889118 211.30415596124658 0 0 0 0 133.52154687726579 170.58856763333279 0 170.58856763333279 93.697224799527248 0 0 0 0 -160.10272805113982 169.47307058320257 0 169.47307058320257 127.77712922840146 0 0 0 0 -25.984822220862043 309.19969960071467 0 309.19969960071467 178.22873010873764 0 0 0 0 -70.606889780314305 321.01611040985699 0 321.01611040985699 264.47749248405307 0 0 0 0 -130.19850883304298 140.76240817599501 0 140.76240817599501 149.29489245532022 0 0 0 0 -4.5760161397238335 256.43559959836784 0 256.43559959836784 299.51973902132158 0 0 0 0 166.73948853575712 394.02645811455295 0 394.02645811455295 307.01084318380708 0 0 0 0 84.762816272316741 231.00662025661222 0 231.00662025661222 244.68759031158697 0 0 0 0 2.8501738563977135 9.9126634064960903 0 9.9126634064960903 28.786387739431561 0 0 0 0 -378.81039074381806 143.97480444123266 0 143.97480444123266 53.757094734832208 0 0 0 0 -274.82167418508197 31.109274443499089 0 31.109274443499089 44.946542013168255 0 0 0 0 -71.805165716787087 217.81424268614683 0 217.81424268614683 -64.507274962619704 0 0 0 0 -82.626002541897378 -96.748708780449761 0 -96.748708780449761 152.36907026521658 0 0 0 0 -400.78512851179039 669.63573590420128 0 669.63573590420128 307.67259438010115 0 0 0 0 32.756699890765958 -307.65183321563609 0 -307.65183321563609 190.06981640171944 0 0 0 0 1.4830405081175204 3.8219781661325456 0 3.8219781661325456 9.1927618081381866 0 0 0 0 -57.617606498081386 437.32411531146681 0 437.32411531146681 145.32971633522538 0 0 0 0 2.8110862193425419 119.52820955785864 0 119.52820955785864 127.41596719166591 0 0 0 0 -63.215099601084148 295.3767831961668 0 295.3767831961668 230.95288301137043 0 0 0 0 321.14029116916208 280.68275398615515 0 280.68275398615515 5.5838376237661578 0 0 0 0 90.351088305445955 245.01578843043171 0 245.01578843043171 261.02580487838713 0 0 0 0 125.86505039429539 305.86096668183018 0 305.86096668183018 362.37915443507154 0 0 0 0 98.753742145274259 367.51592709738475 0 367.51592709738475 262.47128310551489 0 0 0 0 -150.1896703266957 391.9585706087455 0 391.9585706087455 488.37995259928721 0 0 0 0 -67.004066493686878 295.63703985812117 0 295.63703985812117 313.61315433339041 0 0 0 0 -123.80861533080679 377.41356167911363 0 377.41356167911363 250.76015766787441 0 0 0 0 -170.53403606280881 -82.816598541362509 0 -82.816598541362509 566.95215324375272 0 0 0 0 -172.93284865242003 -136.57967146028659 0 -136.57967146028659 15.54808947919264 0 0 0 0 -12.878599573856706 20.033854959008764 0 20.033854959008764 -23.843236147286063 0 0 0 0 -93.609416543309635 238.76818666048712 0 238.76818666048712 308.95720357056416 0 0 0 0 -99.44804267568361 241.30709442957777 0 241.30709442957777 381.06003688223063 0 0 0 0 -9.3607351718988863 11.877631289719217 0 11.877631289719217 -15.202776399744025 0 0 0 0 61.217582155535638 119.52369069404267 0 119.52369069404267 62.261931461500353 0 0 0 0 -157.73384747409727 9.1979532571731397 0 9.1979532571731397 119.6102927925549 0 0 0 0 -3.446737314921009 4.1471444694225337 0 4.1471444694225337 -5.6312421833472612 0 0 0 0 201.59178793004776 61.453894145501181 0 61.453894145501181 -423.71571919476446 0 0 0 0 -441.20822884974768 651.56056177762366 0 651.56056177762366 -753.27590887923543 0 0 0 0 -31.012496143122917 -13.689144086932174 0 -13.689144086932174 -58.199544061113556 0 0 0 0 -38.108299293915479 64.491994451185747 0 64.491994451185747 -86.563253515958422 0 0 0 0 -100.9831320320784 406.70003060113618 0 406.70003060113618 -111.99218941461368 0 0 0 0 -100.25551029113558 395.64873276106664 0 395.64873276106664 -331.21132531316107 0 0 0 0 128.91579811103566 536.44555646968183 0 536.44555646968183 -245.41159624818829 0 0 0 0 155.45506906080755 -95.091889835948678 0 -95.091889835948678 -105.48091307307186 0 0 0 0 -961.72138445947166 154.72321906771504 0 154.72321906771504 -151.93705840803796 0 0 0 0 -385.37691495312538 907.53837331255818 0 907.53837331255818 -793.41058004404476 0 0 0 0 591.85689196020394 305.45454465744115 0 305.45454465744115 -1350.5379370734317 0 0 0 0 368.24121236025894 -153.15695042586594 0 -153.15695042586594 -351.72579230856354 0 0 0 0 -120.0322012513243 461.99028553485368 0 461.99028553485368 -396.13081652472465 0 0 0 0 -190.02672196092863 270.02826792771793 0 270.02826792771793 -250.03128570725676 0 0 0 0 -21.344421528522162 120.09289849595461 0 120.09289849595461 -194.07853818894364 0 0 0 0 88.124251390741847 272.84838592899541 0 272.84838592899541 -731.82765774483414 0 0 0 0 -1.8804128141343881 6.0375610306883232 0 6.0375610306883232 -5.09087575761603 0 0 0 0 -33.903917487026774 126.17368549683306 0 126.17368549683306 905.76126554016355 0 0 0 0 -28.864919200575969 -52.089236461029941 0 -52.089236461029941 -5.4847513363347389 0 0 0 0 29.926025007385306 190.7737288734013 0 190.7737288734013 877.96067912080616 0 0 0 0 102.38789357111455 -21.519416960778472 0 -21.519416960778472 649.78184371087264 0 0 0 0 165.79118039993409 68.641952903451966 0 68.641952903451966 631.16314462559967 0 0 0 0 1.0160913265353066 7.4263101714479305 0 7.4263101714479305 -2.425577229868999 0 0 0 0 -981.89514180179867 494.2179012545439 0 494.2179012545439 -792.98738803372544 0 0 0 0 121.06645398987985 135.92584399093857 0 135.92584399093857 633.71268039574716 0 0 0 0 47.902360775695342 -71.712095854522886 0 -71.712095854522886 657.06097528507962 0 0 0 0 -226.06190427445472 20.829769072581257 0 20.829769072581257 629.8987600073433 0 0 0 0 -16.284061967767229 42.619056793000709 0 42.619056793000709 385.30460223172122 0 0 0 0 -50.642232845724266 -39.71347001384197 0 -39.71347001384197 366.45337724655838 0 0 0 0 -64.011237892464123 46.850626116343847 0 46.850626116343847 636.49756404159416 0 0 0 0 -88.186674961889366 128.87037789035639 0 128.87037789035639 369.11217174058402 0 0 0 0 85.130295334819493 52.743933116787957 0 52.743933116787957 384.13921661420682 0 0 0 0 -15.740070865370399 90.645713042154512 0 90.645713042154512 628.64548182208819 0 0 0 0 6.0939680336050515 -12.28280102237477 0 -12.28280102237477 648.9049947779713 0 0 0 0 56.583666046512008 78.251774881982783 0 78.251774881982783 -180.69533978192703 0 0 0 0 -373.15168492984594 462.72494058794291 0 462.72494058794291 -49.513603360081561 0 0 0 0 -570.05045561636689 265.43715415009865 0 265.43715415009865 698.6756544880227 0 0 0 0 -360.55295128232683 4.612293530277384 0 4.612293530277384 1018.9722630672782 0 0 0 0 -2.9806900155492428 2.5517702730929699 0 2.5517702730929699 0.39847315096810965 0 0 0 0 -307.0362154332031 61.201272903231398 0 61.201272903231398 407.28875896789759 0 0 0 0 -226.40012892366394 29.287046351502795 0 29.287046351502795 419.42518629770711 0 0 0 0 -303.57302177181737 156.24801536005725 0 156.24801536005725 281.5677981275021 0 0 0 0 -182.01002532114092 190.67079829254408 0 190.67079829254408 266.00170107687882 0 0 0 0 -179.44882058705571 212.54929899147339 0 212.54929899147339 376.32147705697571 0 0 0 0 -55.116261341732752 24.451891415250429 0 24.451891415250429 49.186912894013403 0 0 0 0 -65.741339516504013 -37.903048515613591 0 -37.903048515613591 487.34957741162259 0 0 0 0 -72.668208685565787 356.24974181294272 0 356.24974181294272 507.60428017749655 0 0 0 0 -45.811046412341625 422.78247872015766 0 422.78247872015766 381.15006258084213 0 0 0 0 -221.01874252783091 578.03207254401059 0 578.03207254401059 284.02202526695964 0 0 0 0 -1.0386226967137446 0.95380544320333627 0 0.95380544320333627 4.9683237574956109 0 0 0 0 -230.92333813580444 671.32589934579801 0 671.32589934579801 -86.657891270311666 0 0 0 0 -257.33292412877722 239.78216900179427 0 239.78216900179427 -142.37435954498869 0 0 0 0 -757.23438199513203 356.18868905911404 0 356.18868905911404 211.77330897271895 0 0 0 0 -214.13193983199199 418.8051618591162 0 418.8051618591162 189.16606187197431 0 0 0 0 29.636035639647503 464.76225563606556 0 464.76225563606556 17.327495958004874 0 0 0 0 -0.20978055688109976 325.32485461570167 0 325.32485461570167 39.829451479919953 0 0 0 0 -779.72297740700651 480.62351875985587 0 480.62351875985587 443.22696565954902 0 0 0 0 -2.2386943676557394 0.17367209690547014 0 0.17367209690547014 10.872306078355933 0 0 0 0 -61.342963054876236 15.637957306871613 0 15.637957306871613 0.055171280093418318 0 0 0 0 -47.962999084535113 -5.5693405293804972 0 -5.5693405293804972 29.569421951466211 0 0 0 0 -30.184007208486037 19.663721663133401 0 19.663721663133401 2.8052187613193382 0 0 0 0 -38.690795035089195 51.751670127077659 0 51.751670127077659 18.082802097102103 0 0 0 0 -203.70558889425592 324.16754416286403 0 324.16754416286403 -207.4503850271426 0 0 0 0 -113.13354170149978 265.31917449636603 0 265.31917449636603 -247.10861319892501 0 0 0 0 0.22579817928781054 2.2165231897373729 0 2.2165231897373729 -1.7196796063922406 0 0 0 0 -500.63781790033681 401.31423583677451 0 401.31423583677451 -142.29043575411833 0 0 0 0 2.0833336748182774e-05 3.3436939985076606 0 3.3436939985076606 -3.5527804648843357 0 0 0 0 -262.72378323699377 205.95685289937501 0 205.95685289937501 -119.54733901432701 0 0 0 0 -99.079610928507464 97.172034899715982 0 97.172034899715982 -70.22877365597833 0 0 0 0 -147.74111080936564 233.08575983086121 0 233.08575983086121 -235.54404861651346 0 0 0 0 -165.91136960637959 286.18399221568234 0 286.18399221568234 -177.91073772444361 0 0 0 0 -142.40253086274606 261.37441248306641 0 261.37441248306641 -171.70224622592832 0 0 0 0 -242.6117958666 209.73479817288171 0 209.73479817288171 -192.26576792432024 0 0 0 0 -250.07407017942751 348.98114206087848 0 348.98114206087848 -235.84256061041015 0 0 0 0 -179.21904524244746 245.15382315262832 0 245.15382315262832 -173.68136961422351 0 0 0 0 -186.3112248099751 227.82135193178283 0 227.82135193178283 -100.84458858043763 0 0 0 0 -411.12410240682948 381.53980229193166 0 381.53980229193166 -201.93714378103323 0 0 0 0 -160.49305932447896 244.24947491861349 0 244.24947491861349 -230.82090598252944 0 0 0 0 -148.17956769953889 208.38484238081764 0 208.38484238081764 -259.24596729272344 0 0 0 0 -190.97082481528196 195.52189501992871 0 195.52189501992871 -124.00987906964292 0 0 0 0 -160.99287633958374 208.83423193609656 0 208.83423193609656 -130.98648017861524 0 0 0 0 -144.3847140314756 148.47550094737244 0 148.47550094737244 -80.679385985835324 0 0 0 0 -95.947768024336256 123.07048146461739 0 123.07048146461739 -102.68047197595661 0 0 0 0 -175.9296555088149 272.04564166754517 0 272.04564166754517 -197.11330028967495 0 0 0 0 -142.65369250403455 208.72865021471716 0 208.72865021471716 -155.72970745190742 0 0 0 0 -118.98249880743242 203.80735180482861 0 203.80735180482861 -141.30425901012222 0 0 0 0 -81.512547092046589 167.94180395973035 0 167.94180395973035 -89.147409890162635 0 0 0 0 -8.7294126903798315 110.52094128976842 0 110.52094128976842 -93.312745381843342 0 0 0 0 -90.705812178362066 215.19256024019188 0 215.19256024019188 -140.51873084908584 0 0 0 0 -79.045066967679304 146.55764819157321 0 146.55764819157321 -119.97211874133598 0 0 0 0 -110.97913316471386 140.36412921131296 0 140.36412921131296 -73.508222776397815 0 0 0 0 -72.628336866408063 80.805149060775307 0 80.805149060775307 -55.202991772441237 0 0 0 0 -21.946109673266164 207.48726992493107 0 207.48726992493107 -63.338285817590076 0 0 0 0 -58.959845859477355 167.98186655495647 0 167.98186655495647 -30.066016844376236 0 0 0 0 -23.926218016524217 193.88566608838073 0 193.88566608838073 -77.859041455484203 0 0 0 0 -77.730220900035874 248.00432911500735 0 248.00432911500735 -120.0882055258644 0 0 0 0 -128.35137354158724 217.9304326723809 0 217.9304326723809 -137.60454294581268 0 0 0 0 -85.973295063715341 339.5068675514475 0 339.5068675514475 -282.07952268679946 0 0 0 0 -1.5734525924854097 227.5702211342018 0 227.5702211342018 -141.72503430949382 0 0 0 0 -63.079355444242537 252.62813186882977 0 252.62813186882977 -58.200503545557694 0 0 0 0 0.30042098672129214 183.87713087630459 0 183.87713087630459 -1.0485704003506271 0 0 0 0 -47.943819365957097 129.10411378237191 0 129.10411378237191 134.52556162249584 0 0 0 0 -49.293294454494571 144.17270661302922 0 144.17270661302922 -31.580367805817332 0 0 0 0 -0.09806236988879391 155.57704377963182 0 155.57704377963182 -56.142598664943648 0 0 0 0 -29.548831221625733 26.60941422038195 0 26.60941422038195 -191.03565916988208 0 0 0 0 -15.835694544420221 140.72477219800851 0 140.72477219800851 -136.19152308097614 0 0 0 0 -0.36654685768895146 137.52044670155382 0 137.52044670155382 -337.47321217919944 0 0 0 0 37.619453844425152 70.783537745494868 0 70.783537745494868 -109.1572116700338 0 0 0 0 35.293123164803546 82.294685264339705 0 82.294685264339705 -127.68231032430549 0 0 0 0 23.825115879564692 -5.4301628878147312 0 -5.4301628878147312 -289.90352337649517 0 0 0 0 16.338116751001508 150.51815295234746 0 150.51815295234746 -26.027659507293265 0 0 0 0 63.292743816084112 59.747598098399294 0 59.747598098399294 -59.444718725371331 0 0 0 0 63.281342891408713 142.68307884439128 0 142.68307884439128 -101.40419491141787 0 0 0 0 17.60077828755675 183.04869989422173 0 183.04869989422173 125.47745174988131 0 0 0 0 115.83904338053981 84.7028157748382 0 84.7028157748382 -58.373643323630247 0 0 0 0 149.73679681371141 181.85571976496635 0 181.85571976496635 -26.0990208995246 0 0 0 0 84.460828069808485 253.33787116698682 0 253.33787116698682 18.104458523031099 0 0 0 0 -63.191510171185655 58.762171319364143 0 58.762171319364143 125.55712327788569 0 0 0 0 2.3083854924758072 1.3265053598200183 0 1.3265053598200183 0.035251956076132629 0 0 0 0 94.474211864035169 63.414989764985194 0 63.414989764985194 -53.412229617083767 0 0 0 0 -6.114674810472934 57.237242270929073 0 57.237242270929073 14.659634395126147 0 0 0 0 -9.6854718948270602 34.494452317586024 0 34.494452317586024 -47.612855710282929 0 0 0 0 9.4162079421694216 27.96003641248376 0 27.96003641248376 -34.426343340816857 0 0 0 0 20.748901957107591 37.891837162504089 0 37.891837162504089 -29.427729887234818 0 0 0 0 45.270338465466921 50.442397817980918 0 50.442397817980918 -31.650634919766162 0 0 0 0 54.019758385067689 64.551638341200942 0 64.551638341200942 -21.070137739931283 0 0 0 0 27.98319303545577 85.164893227305811 0 85.164893227305811 -16.169364100057464 0 0 0 0 75.171950945623394 84.790122723219611 0 84.790122723219611 -16.498067408477198 0 0 0 0 70.079232365416829 64.505591083331637 0 64.505591083331637 -24.494154725755834 0 0 0 0 27.681402818765491 92.985243533928497 0 92.985243533928497 6.7507247918273379 0 0 0 0 -17.292282467467885 119.26608136723337 0 119.26608136723337 9.1727175809523942 0 0 0 0 41.887877487373771 125.86044296367322 0 125.86044296367322 8.3482626101085771 0 0 0 0 51.219349060662353 144.96852236895393 0 144.96852236895393 -12.597478937417691 0 0 0 0 69.112114922703768 114.89023501696295 0 114.89023501696295 -67.065208951085879 0 0 0 0 71.172650304695708 98.025168293318643 0 98.025168293318643 -12.232009659718415 0 0 0 0 38.45253887707986 115.53607508220557 0 115.53607508220557 -18.243929798675708 0 0 0 0 72.528693929783913 80.109398946319402 0 80.109398946319402 -19.496672325147301 0 0 0 0 109.38137055233528 43.568452417126309 0 43.568452417126309 -13.536119948930718 0 0 0 0 133.26354837541294 71.703402158576864 0 71.703402158576864 -23.036373946801632 0 0 0 0 117.22618006190169 63.703520579918575 0 63.703520579918575 0.56936708953708148 0 0 0 0 102.33168986689634 105.226238361691 0 105.226238361691 -36.289193982281631 0 0 0 0 170.65240783082845 59.552044050207542 0 59.552044050207542 -28.205552835748676 0 0 0 0 138.17617953879562 57.15591203750995 0 57.15591203750995 -5.1181612963569023 0 0 0 0 140.92044838706352 62.235169099800856 0 62.235169099800856 -36.903749247906944 0 0 0 0 85.803920752776321 90.415748863471435 0 90.415748863471435 -38.765147631702774 0 0 0 0 71.65781418584811 58.845997402400826 0 58.845997402400826 -98.362449124148156 0 0 0 0 55.591098266588233 109.01801084092716 0 109.01801084092716 -52.277620400030173 0 0 0 0 -0.89240822620346449 7.8390870503680787 0 7.8390870503680787 -35.539269798846263 0 0 0 0 396.67231671159243 112.94326858373279 0 112.94326858373279 -51.519732888809813 0 0 0 0 432.65056034128065 192.37393216342025 0 192.37393216342025 -110.33849388489125 0 0 0 0 346.21234730558547 166.45739774983082 0 166.45739774983082 -108.16418941308075 0 0 0 0 375.81586619005247 239.38586012936685 0 239.38586012936685 -56.933437303792743 0 0 0 0 346.27254607435901 171.44906702656425 0 171.44906702656425 16.99978420359912 0 0 0 0 231.53107528410692 148.64301475368848 0 148.64301475368848 12.471659333976277 0 0 0 0 319.92555880505461 9.9578063304814464 0 9.9578063304814464 -50.008434664845026 0 0 0 0 -931.85693871737021 -91.742804605715492 0 -91.742804605715492 1381.3880421112644 0 0 0 0 281.99258961075247 -198.139409350184 0 -198.139409350184 1301.8263926836335 0 0 0 0 -0.39225525387124449 0.45066634930455507 0 0.45066634930455507 -5.8161863131932545 0 0 0 0 185.66951210244952 -7.8354114442132925 0 -7.8354114442132925 39.43075974152589 0 0 0 0 140.13446052623476 441.31858832286116 0 441.31858832286116 -1553.5002652829844 0 0 0 0 137.12233868425756 29.243047547251763 0 29.243047547251763 -25.293256085131361 0 0 0 0 97.403034006798407 599.40252991510033 0 599.40252991510033 -1426.4675222070655 0 0 0 0 297.71812336544644 -190.00227534407691 0 -190.00227534407691 106.9505701957969 0 0 0 0 123.72828225736157 56.809351120452902 0 56.809351120452902 -22.274025821563555 0 0 0 0 -0.72646321831268779 8.9851365616399903 0 8.9851365616399903 -5.4266017862683835 0 0 0 0 2.1762230115998946 7.2863327046703432 0 7.2863327046703432 -38.122932792085855 0 0 0 0 126.54959262619377 47.028904713328302 0 47.028904713328302 2.8001479908421061 0 0 0 0 884.36120587546611 -187.28250497842419 0 -187.28250497842419 -23.203239820129966 0 0 0 0 470.65026499830128 195.28956478150758 0 195.28956478150758 -121.40788873339625 0 0 0 0 349.98118712079668 67.084497708917752 0 67.084497708917752 -98.014230637651053 0 0 0 0 384.53685599070013 235.34870054949079 0 235.34870054949079 -97.806169737221353 0 0 0 0 440.80647434417187 238.02395282343059 0 238.02395282343059 -104.44702889150358 0 0 0 0 921.22428794867301 320.21789899992109 0 320.21789899992109 -127.39991498394375 0 0 0 0 440.90765049180482 226.99762198214194 0 226.99762198214194 -94.843111744379712 0 0 0 0 608.33540368056492 -418.09159354830263 0 -418.09159354830263 148.82750748378021 0 0 0 0 908.35248190434504 -3.1873788111406611 0 -3.1873788111406611 -285.68614056426668 0 0 0 0 654.68616492963338 487.73864024588511 0 487.73864024588511 35.31879969406441 0 0 0 0 81.756098504250986 12.421527205375696 0 12.421527205375696 -6.5869213569276326 0 0 0 0 7.2426105953221338 -5.6143187296181623 0 -5.6143187296181623 -2.921206905458348 0 0 0 0 58.712008700531442 40.353183536059987 0 40.353183536059987 -68.275904183230068 0 0 0 0 19.801675636612345 47.248915899160465 0 47.248915899160465 -23.845880929420673 0 0 0 0 27.508533359788998 19.594958956002301 0 19.594958956002301 -41.507592167703933 0 0 0 0 -0.055530236595318527 14.99977829518204 0 14.99977829518204 -37.61755594627499 0 0 0 0 5.8188670994434446 -2.6658134238971485 0 -2.6658134238971485 -3.0985490963503395 0 0 0 0 25.269553346610337 35.556225715357868 0 35.556225715357868 -123.82747383177593 0 0 0 0 29.320193570540141 23.080180545815665 0 23.080180545815665 -55.531180942607534 0 0 0 0 29.972145007179279 21.549646838291551 0 21.549646838291551 -40.197391884857097 0 0 0 0 792.93646308909592 130.72033747636851 0 130.72033747636851 -89.732974683531211 0 0 0 0 665.33909598048194 -50.811479008323658 0 -50.811479008323658 -292.04186537898386 0 0 0 0 539.55483205855126 35.746030649982458 0 35.746030649982458 -88.494383684068453 0 0 0 0 591.09136864515312 43.29675585620771 0 43.29675585620771 4.6319259728843463 0 0 0 0 538.12881716879929 -29.781400985785695 0 -29.781400985785695 -69.522484301141958 0 0 0 0 611.70597763916885 11.764010863122166 0 11.764010863122166 -25.638718309997785 0 0 0 0 658.98578047651972 22.656072349305759 0 22.656072349305759 9.9141511774487299 0 0 0 0 1013.2261022167222 146.90108350688479 0 146.90108350688479 -46.151052443048684 0 0 0 0 642.00102248462645 49.836349484799939 0 49.836349484799939 99.699369283502165 0 0 0 0 643.95438307373661 -27.776057666041424 0 -27.776057666041424 36.37742890966183 0 0 0 0 734.95088480200161 -12.284473364187647 0 -12.284473364187647 37.687970171602501 0 0 0 0 546.24838161605294 94.436649564146137 0 94.436649564146137 83.925753345991325 0 0 0 0 732.12582010556991 155.77766828126605 0 155.77766828126605 70.559786428748339 0 0 0 0 -5.0477002078982736 15.137051770388865 0 15.137051770388865 -30.02321082624799 0 0 0 0 0.70797396080917352 1.121363304423312 0 1.121363304423312 -0.062418701145553257 0 0 0 0 85.511110341207313 49.405465532506696 0 49.405465532506696 -92.428497207649343 0 0 0 0 10.515261730106431 58.88316722795571 0 58.88316722795571 -29.324727437924594 0 0 0 0 -83.744557787154918 -49.793625598387734 0 -49.793625598387734 -54.207877304092108 0 0 0 0 51.672711444640299 -66.727713941785623 0 -66.727713941785623 -106.90781298304137 0 0 0 0 -23.572254424470884 78.107637520807657 0 78.107637520807657 -1.5261726099015505 0 0 0 0 -0.45201056695059627 6.7722927740464911 0 6.7722927740464911 -1.5812490112698114 0 0 0 0 574.23556583136815 16.42462792324568 0 16.42462792324568 37.522172662016601 0 0 0 0 28.928631020753528 23.209469054113242 0 23.209469054113242 -42.701615649131782 0 0 0 0 -1.8536377865565896 12.473596134895466 0 12.473596134895466 -33.684789048622207 0 0 0 0 18.010955055433442 21.965837877182821 0 21.965837877182821 -39.129321066126977 0 0 0 0 20.043202418118199 29.753728893140419 0 29.753728893140419 -40.582067348709643 0 0 0 0 -3.4313269037811551 33.061531124068097 0 33.061531124068097 -38.158307364985831 0 0 0 0 -21.654624508186316 22.620796022296645 0 22.620796022296645 -35.397025121696061 0 0 0 0 17.193078766504186 15.474906370576264 0 15.474906370576264 -37.415449841888403 0 0 0 0 4.5956869739677728 3.135813474114741 0 3.135813474114741 2.6161387722622464 0 0 0 0 -38.110517691246059 71.115254819158054 0 71.115254819158054 -41.147196974343956 0 0 0 0 -64.712625630158072 51.176034355012064 0 51.176034355012064 -20.159998182770323 0 0 0 0 -124.13213043247379 107.33454794077807 0 107.33454794077807 -41.425843877049829 0 0 0 0 -1.7737737217030372 41.914445042415991 0 41.914445042415991 -48.524720488815092 0 0 0 0 3.759098654741706 9.2120826278368071 0 9.2120826278368071 -1.2880695517132921 0 0 0 0 -4.1022261586986133 39.352245956549723 0 39.352245956549723 -26.870876517822126 0 0 0 0 -85.68143451087235 72.622426910166723 0 72.622426910166723 -65.87248970282144 0 0 0 0 -72.657290517046931 0.87382967396661115 0 0.87382967396661115 4.8454303500284368 0 0 0 0 111.04084997741302 182.53933427358061 0 182.53933427358061 195.83449542143717 0 0 0 0 -61.722654366119968 64.87491607153288 0 64.87491607153288 -68.398045561929393 0 0 0 0 -231.4946763145781 87.113986792487594 0 87.113986792487594 -37.910143727460309 0 0 0 0 -98.587359323231794 45.167004067404378 0 45.167004067404378 -77.943055433746849 0 0 0 0 -434.86415517522255 46.449918064444319 0 46.449918064444319 -24.339986159600812 0 0 0 0 210.96825699137116 185.66623111347144 0 185.66623111347144 93.203259439535941 0 0 0 0 -5.379953059763892 12.951002570700091 0 12.951002570700091 -18.616034352007084 0 0 0 0 287.3152611420519 199.77608207076264 0 199.77608207076264 83.620872334441628 0 0 0 0 242.60321891236526 44.358590339077637 0 44.358590339077637 -0.46588877742578916 0 0 0 0 334.39813516792492 61.113758309118566 0 61.113758309118566 100.61873224461851 0 0 0 0 292.39275030580757 122.46719690497412 0 122.46719690497412 54.973620006552665 0 0 0 0 361.91176279261708 53.748450025614147 0 53.748450025614147 -35.164955397463928 0 0 0 0 273.06754769581312 18.077446758288716 0 18.077446758288716 -41.797183353266519 0 0 0 0 300.08227000909392 2.8295259204269314 0 2.8295259204269314 10.585076670493436 0 0 0 0 315.45916441042209 35.971144666440523 0 35.971144666440523 -46.044815144494351 0 0 0 0 287.99070161483542 -32.653194402926601 0 -32.653194402926601 -57.181146806051402 0 0 0 0 320.04153810386197 25.758312016356285 0 25.758312016356285 29.540321958476852 0 0 0 0 346.37569885452831 -20.362629968532929 0 -20.362629968532929 -23.146816887594468 0 0 0 0 391.46266199946695 94.334371286640817 0 94.334371286640817 52.293064599212812 0 0 0 0 330.59901150566293 89.061992233137062 0 89.061992233137062 93.640023443589598 0 0 0 0 398.59652061765519 179.68314216578256 0 179.68314216578256 185.0496128835839 0 0 0 0 390.80031856744608 -14.370103782399383 0 -14.370103782399383 -1.8480866355675971 0 0 0 0 493.99805479450151 104.19918619812961 0 104.19918619812961 24.661828888034506 0 0 0 0 427.9859297425719 120.34937047258791 0 120.34937047258791 73.573189793085476 0 0 0 0 493.52700582669058 69.736260903900984 0 69.736260903900984 75.249142219074997 0 0 0 0 767.08657694413705 310.10252229315029 0 310.10252229315029 114.20547520185937 0 0 0 0 52.565011612988201 434.31980741637221 0 434.31980741637221 53.035849443171173 0 0 0 0 -320.9342893112771 170.56618434304073 0 170.56618434304073 98.046608603959612 0 0 0 0 69.460938895877916 -6.9829262169150752 0 -6.9829262169150752 9.2229622096656385 0 0 0 0 -1.6794924532901234 5.9863560755783425 0 5.9863560755783425 -6.3047267505544795 0 0 0 0 460.46315825320198 5.7390651773494028 0 5.7390651773494028 -15.153334169948721 0 0 0 0 352.54867047227162 210.59910190037772 0 210.59910190037772 297.22343682513383 0 0 0 0 351.56997614980901 452.4222406266158 0 452.4222406266158 16.000820955479867 0 0 0 0 -26.493038660068123 7.737817872186497 0 7.737817872186497 20.707880158523039 0 0 0 0 5.2520043671902386 40.533959240144213 0 40.533959240144213 -76.423836035992281 0 0 0 0 79.14240414363303 -97.657453517111207 0 -97.657453517111207 18.443894349085895 0 0 0 0 1.157874004450349 0.23719417525899189 0 0.23719417525899189 0.038848604291374045 0 0 0 0 297.2954415189015 -51.424659664484352 0 -51.424659664484352 -74.201674365434883 0 0 0 0 264.77328946741181 -11.704020605877304 0 -11.704020605877304 30.604808840307669 0 0 0 0 209.94140899267222 -76.271440337270178 0 -76.271440337270178 -20.655098889587975 0 0 0 0 272.03471538519079 -29.092115176566949 0 -29.092115176566949 -23.382196974569524 0 0 0 0 253.36436616622086 -5.4494798705509311 0 -5.4494798705509311 -18.324898233127897 0 0 0 0 122.32001948311517 -13.817621444359247 0 -13.817621444359247 -26.198534760053008 0 0 0 0 100.39455447101318 -48.630198030437896 0 -48.630198030437896 7.4686135981828556 0 0 0 0 18.749505628140469 -3.7170478051120881 0 -3.7170478051120881 2.2462335273921781 0 0 0 0 20.338351147482172 8.4872771344598732 0 8.4872771344598732 -16.912693539710745 0 0 0 0 -6.5543090068567835 6.10944226693573 0 6.10944226693573 -9.7582227419097762 0 0 0 0 -10.467896907321119 14.713044753526447 0 14.713044753526447 -14.496764354904002 0 0 0 0 6.8892809156022849 29.784176134871814 0 29.784176134871814 -58.124231712092296 0 0 0 0 0.11907094595552792 12.169827587910962 0 12.169827587910962 -23.534652139537144 0 0 0 0 54.76983720131102 6.0648695470263192 0 6.0648695470263192 -47.265133332153709 0 0 0 0 0.44286384440783877 14.100303113104019 0 14.100303113104019 -1.5999978952822858 0 0 0 0 -1.4328290147368534 20.341949613036832 0 20.341949613036832 -37.175248835446837 0 0 0 0 4.3791414893716194 3.0091979861575595 0 3.0091979861575595 -5.3112562953669666 0 0 0 0 -83.581204949747189 -4.8147069622882555 0 -4.8147069622882555 92.946913816721462 0 0 0 0 2.9107435261419141 1.0466503751879372 0 1.0466503751879372 0.742005612078108 0 0 0 0 13.369535977588384 53.684165925967136 0 53.684165925967136 -161.58062258444261 0 0 0 0 28.77913327488568 -12.316487971352217 0 -12.316487971352217 -75.65003594929658 0 0 0 0 -9.9702745184458763 34.720223759316468 0 34.720223759316468 -22.146876137820072 0 0 0 0 -3.3177239911947254 68.339547969508658 0 68.339547969508658 -2.3835229791620804 0 0 0 0 32.743304588955652 4.6885832264297278 0 4.6885832264297278 -25.603792061874628 0 0 0 0 -68.78749385224728 37.861015612153096 0 37.861015612153096 137.34766753562872 0 0 0 0 1.8010441654335523 1.8204280608798626 0 1.8204280608798626 0.048310586434132219 0 0 0 0 -11.478082817804534 54.38334509328979 0 54.38334509328979 35.103295255097692 0 0 0 0 -20.480032735424174 17.519501686426338 0 17.519501686426338 224.76285660996655 0 0 0 0 -62.570807627192153 -121.29781889491392 0 -121.29781889491392 -16.324319578980067 0 0 0 0 -111.41809217183618 75.601412641670322 0 75.601412641670322 6.6132778121864249 0 0 0 0 317.35499803119455 -34.359134283564345 0 -34.359134283564345 -276.66256161855836 0 0 0 0 1.3371857554429027 0.92010614744102881 0 0.92010614744102881 -0.15519263102228997 0 0 0 0 121.62839848459407 29.810297471613012 0 29.810297471613012 107.61680739184794 0 0 0 0 608.21066784633877 155.54056598719035 0 155.54056598719035 -165.61762587439443 0 0 0 0 600.09724618732434 150.69050510660145 0 150.69050510660145 91.628981739922892 0 0 0 0 218.6618225051061 172.86146614473546 0 172.86146614473546 325.45728191267426 0 0 0 0 275.90462123878388 58.189434685109518 0 58.189434685109518 4.5793174644895771 0 0 0 0 287.95295249160699 93.642274304464081 0 93.642274304464081 93.362699882821062 0 0 0 0 -65.219163721470977 117.98548605617907 0 117.98548605617907 27.286544353882846 0 0 0 0 211.00990373986861 -211.45440507828516 0 -211.45440507828516 -139.19680836770203 0 0 0 0 57.158444907992816 157.16114395414297 0 157.16114395414297 -299.96316686852151 0 0 0 0 30.916018500378414 82.068539680593858 0 82.068539680593858 -218.11385075254839 0 0 0 0 -212.37061262112547 118.03804037634291 0 118.03804037634291 -192.41852793180624 0 0 0 0 19.09367200655737 6.2140725119894995 0 6.2140725119894995 1.3036566960940501 0 0 0 0 7.5082093282418612 2.4533521758904158 0 2.4533521758904158 0.59371731083997403 0 0 0 0 -75.555944426181668 -63.59610214079521 0 -63.59610214079521 -157.97817985227084 0 0 0 0 606.66186618924621 -186.80659493549865 0 -186.80659493549865 -248.83427976688108 0 0 0 0 289.00681800241 312.96789637406437 0 312.96789637406437 118.49095514347664 0 0 0 0 32.723644366356893 158.88663219347291 0 158.88663219347291 53.646099535799294 0 0 0 0 259.24587078230252 362.52594298170879 0 362.52594298170879 -67.367425154188822 0 0 0 0 462.951781599887 349.75201499872242 0 349.75201499872242 -130.40256482944096 0 0 0 0 260.00830875083921 329.42588695471932 0 329.42588695471932 -58.63670458924571 0 0 0 0 305.38622484961525 299.94207585513504 0 299.94207585513504 -44.005231087081484 0 0 0 0 293.11732509712419 275.12080516243896 0 275.12080516243896 -283.67296368600728 0 0 0 0 119.4562072670451 -330.71331062547506 0 -330.71331062547506 -361.98748942650309 0 0 0 0 197.80455794261798 170.90165652874748 0 170.90165652874748 -539.01610405629617 0 0 0 0 1.6447974194098549 1.0955783479466348 0 1.0955783479466348 -6.1155220767133969 0 0 0 0 270.96412056690406 437.24964461974548 0 437.24964461974548 226.29577415464883 0 0 0 0 198.35332845859375 206.75540838222696 0 206.75540838222696 65.583108267357602 0 0 0 0 197.96713205535343 180.51014299091366 0 180.51014299091366 298.16056797832061 0 0 0 0 160.44065086798219 183.77374423491983 0 183.77374423491983 113.00628761595362 0 0 0 0 246.8132165631032 302.41323050622668 0 302.41323050622668 -34.021177509908739 0 0 0 0 277.48764904236305 244.63425611201455 0 244.63425611201455 -53.400510958927043 0 0 0 0 207.08530255345249 307.96621587916616 0 307.96621587916616 170.48628950671628 0 0 0 0 18.250995306474579 -108.91311987334939 0 -108.91311987334939 -155.94763303744548 0 0 0 0 72.885758780110336 -156.47836585675941 0 -156.47836585675941 -349.59326810977109 0 0 0 0 1.2187684284181159 -70.677337018871185 0 -70.677337018871185 -135.87590448880474 0 0 0 0 138.25447897111371 -41.94201920206433 0 -41.94201920206433 -511.92803820727113 0 0 0 0 19.469081144372467 -136.28193851970536 0 -136.28193851970536 132.1660461515994 0 0 0 0 2.5733030279394171 1.4134429913081732 0 1.4134429913081732 1.0246217883235484 0 0 0 0 299.30780007656267 -163.44572126834328 0 -163.44572126834328 -157.89262526077073 0 0 0 0 53.647787534777308 18.776114537503418 0 18.776114537503418 -343.40082804149824 0 0 0 0 23.536067634229312 -15.829390969082169 0 -15.829390969082169 -49.456165580686502 0 0 0 0 28.945507187963813 20.995687495332277 0 20.995687495332277 -34.755258284185402 0 0 0 0 88.917107910967388 -10.115424161139345 0 -10.115424161139345 -181.48343661691433 0 0 0 0 -1.7479815399492509 75.063072603323235 0 75.063072603323235 -144.71031273430202 0 0 0 0 -18.205917672387841 121.40266536346303 0 121.40266536346303 -131.01698155510712 0 0 0 0 -53.181667043463676 38.47011138464768 0 38.47011138464768 30.703684461569537 0 0 0 0 26.279005028045404 7.6398406212548835 0 7.6398406212548835 2.537993706456005 0 0 0 0 31.876269914282602 0.011472933461845969 0 0.011472933461845969 -82.092447618365441 0 0 0 0 20.377591565484181 62.014082094670812 0 62.014082094670812 -66.818421974208832 0 0 0 0 30.070292367823228 12.479621802648431 0 12.479621802648431 -3.9601196037512274 0 0 0 0 19.872635936029837 40.296265163040516 0 40.296265163040516 -12.687814538418024 0 0 0 0 93.375977725350822 20.087113362515083 0 20.087113362515083 -41.745312259392449 0 0 0 0 37.026238540915074 1.5535767571345787 0 1.5535767571345787 -2.0615351413234748 0 0 0 0 66.767275979465921 70.245646641968051 0 70.245646641968051 7.7043658308430167 0 0 0 0 -3.2016414147607861 7.3017266285728937 0 7.3017266285728937 -4.6570064359417316 0 0 0 0 5.3268733293002928 2.7638127678623121 0 2.7638127678623121 -33.830623445624056 0 0 0 0 32.295782426865117 29.116400415762882 0 29.116400415762882 -34.579526951281878 0 0 0 0 13.237203318778484 -8.7043512622321941 0 -8.7043512622321941 -20.465146524567899 0 0 0 0 22.742900694454875 2.7785242966128862 0 2.7785242966128862 -52.426624969268232 0 0 0 0 -24.769938384502893 -78.271284789450874 0 -78.271284789450874 -172.61550121961955 0 0 0 0 8.1552564470441098 2.0078905921119272 0 2.0078905921119272 -6.5440386484341797 0 0 0 0 1.8033821406830368 -0.85106030187431259 0 -0.85106030187431259 -24.527992805401396 0 0 0 0 -77.605591582583202 -95.677906468897959 0 -95.677906468897959 -133.66772354536079 0 0 0 0 161.05728855829693 -32.446407827299595 0 -32.446407827299595 -154.66843634920588 0 0 0 0 -24.217246817453997 -119.18959012523646 0 -119.18959012523646 -155.61805383350656 0 0 0 0 -25.877999106047355 -130.8733950447122 0 -130.8733950447122 -111.03545494863101 0 0 0 0 -262.69688545392273 116.5274491689961 0 116.5274491689961 -470.24014295460347 0 0 0 0 -548.54673528244166 181.07553873129473 0 181.07553873129473 -537.6299005531182 0 0 0 0 -568.43847322706279 257.73286456274036 0 257.73286456274036 -237.24037786311237 0 0 0 0 -562.29944341602823 531.06672530360447 0 531.06672530360447 -950.50671789538319 0 0 0 0 -937.13593786515776 260.89808956240449 0 260.89808956240449 -441.7336828405605 0 0 0 0 -514.09449509937258 356.92985775671332 0 356.92985775671332 -425.24704348403611 0 0 0 0 -360.92487382695253 378.4491611409394 0 378.4491611409394 -538.70155751190032 0 0 0 0 -249.57132460230059 217.67590683361414 0 217.67590683361414 -362.58459362767462 0 0 0 0 -215.10347426492444 236.71420931272223 0 236.71420931272223 -360.57585231666962 0 0 0 0 -243.38740157451684 10.297516836772047 0 10.297516836772047 66.822418826430294 0 0 0 0 -316.43390767185338 162.57298135184828 0 162.57298135184828 -134.35356095794486 0 0 0 0 -118.11545010130067 -42.588841559276261 0 -42.588841559276261 81.2691751848688 0 0 0 0 -74.893307551206817 -69.057765106086663 0 -69.057765106086663 -159.15809595991391 0 0 0 0 -136.96750991914814 199.96131292588143 0 199.96131292588143 -237.85626227541036 0 0 0 0 -449.6652283357198 284.26148101341278 0 284.26148101341278 31.736867491112207 0 0 0 0 -215.94129687637906 91.696635047857853 0 91.696635047857853 114.43531707505463 0 0 0 0 -2.1496537755301688 39.572481103818063 0 39.572481103818063 -41.918637087466777 0 0 0 0 1.5067711937372223 58.77365683134849 0 58.77365683134849 -45.054455620116642 0 0 0 0 2.7202870023498207 1.6226201244383276 0 1.6226201244383276 -6.9173054078060794 0 0 0 0 19.678630019032425 29.680224675063073 0 29.680224675063073 -2.3287719567792919 0 0 0 0 16.151021100758953 17.199725890392074 0 17.199725890392074 -46.390056456519233 0 0 0 0 24.51643506475375 28.260414616830531 0 28.260414616830531 -31.862624569504987 0 0 0 0 10.940247010839812 8.400701507278427 0 8.400701507278427 -36.8904892956607 0 0 0 0 -96.145739698286889 101.69501074242908 0 101.69501074242908 -68.237042950233445 0 0 0 0 20.838037331079249 9.9962579686598474 0 9.9962579686598474 -36.431608926948684 0 0 0 0 38.994536397331103 53.83750111054178 0 53.83750111054178 -101.04994482962684 0 0 0 0 -43.822344888627413 103.51165242832758 0 103.51165242832758 -122.24487301946283 0 0 0 0 21.769743558641977 15.812595788260026 0 15.812595788260026 0.84892407733547515 0 0 0 0 -30.666005418719578 67.623264965365706 0 67.623264965365706 -119.97728964113412 0 0 0 0 1.9874373977556132 -0.60200113836671676 0 -0.60200113836671676 -3.6180654254405198 0 0 0 0 41.393495859178074 38.934479895517143 0 38.934479895517143 -27.842584807089679 0 0 0 0 60.473565508887987 -25.660842633134962 0 -25.660842633134962 -53.954266407932664 0 0 0 0 23.806610080035171 34.61874076935419 0 34.61874076935419 -15.377297463986906 0 0 0 0 43.443095635058853 39.013443213449136 0 39.013443213449136 -18.326827633161884 0 0 0 0 54.06105343670788 51.204373954748007 0 51.204373954748007 -15.665589329300246 0 0 0 0 34.427183351126587 74.077430459521565 0 74.077430459521565 59.874707810969994 0 0 0 0 28.036136102557066 9.6433235207114194 0 9.6433235207114194 -22.810316464383504 0 0 0 0 45.589289964460477 -1.0989786421150711 0 -1.0989786421150711 -34.325297669107385 0 0 0 0 23.286317168164942 5.4854258502721223 0 5.4854258502721223 -41.490679481932602 0 0 0 0 62.469530274065619 32.193879618545907 0 32.193879618545907 -28.65783780568745 0 0 0 0 18.446549175234395 14.242657967297419 0 14.242657967297419 -41.785266843748104 0 0 0 0 22.143889276288974 32.963647519020014 0 32.963647519020014 -57.514341916534249 0 0 0 0 16.855943382663099 24.221647100367591 0 24.221647100367591 -62.366421840681141 0 0 0 0 23.193271619680061 14.084340922832411 0 14.084340922832411 -6.3441263930917628 0 0 0 0 41.322524855269876 6.8894537948726793 0 6.8894537948726793 -60.56966942732106 0 0 0 0 10.729470803918957 27.953432315654936 0 27.953432315654936 -29.288540870535144 0 0 0 0 40.908384049238521 -28.686523272212071 0 -28.686523272212071 -105.57092881996687 0 0 0 0 6.9316721859140671 39.812142399359345 0 39.812142399359345 -50.397541961763636 0 0 0 0 38.374626759701641 4.7774946762001491 0 4.7774946762001491 -59.145764693625097 0 0 0 0 94.531142260289926 27.587135815188958 0 27.587135815188958 -80.226501321973046 0 0 0 0 7.7430689721734485 20.550275262750603 0 20.550275262750603 -22.386782674527495 0 0 0 0 41.219555421597761 32.121904069377706 0 32.121904069377706 -40.085828759758442 0 0 0 0 51.354194500549056 22.64765308197093 0 22.64765308197093 -35.037591522537696 0 0 0 0 25.034548340521539 10.826864925038471 0 10.826864925038471 -19.440777076670592 0 0 0 0 5.8208500381629378 3.1551188585877803 0 3.1551188585877803 1.1498487654399199 0 0 0 0 1.0522914975348954 5.4678017859363663 0 5.4678017859363663 -3.506041685847288 0 0 0 0 -17.359583779616514 45.432332589771249 0 45.432332589771249 37.449879081213112 0 0 0 0 18.278293027621203 15.333168550962114 0 15.333168550962114 -20.100154982941604 0 0 0 0 15.250441127063823 25.854361254207106 0 25.854361254207106 -62.523130251549901 0 0 0 0 7.5504056855497765 10.544368900471454 0 10.544368900471454 -29.528414803320629 0 0 0 0 4.6794164601815282 30.991562143230112 0 30.991562143230112 -33.992946283650326 0 0 0 0 11.603263028839137 0.20783411796946893 0 0.20783411796946893 -36.179785814179922 0 0 0 0 17.299242638058786 21.274375002529268 0 21.274375002529268 -9.0838579848200425 0 0 0 0 0.21805955379269371 13.338100681043635 0 13.338100681043635 -14.190752353458933 0 0 0 0 11.042404102638642 11.151187024518006 0 11.151187024518006 -23.230385849326851 0 0 0 0 5.7033520034165122 15.399755875769188 0 15.399755875769188 -34.108667857641194 0 0 0 0 -1.2841120232660614 15.704935806259527 0 15.704935806259527 -21.015443019510712 0 0 0 0 20.102865894346905 -1.5715685153681989 0 -1.5715685153681989 -16.508545107331884 0 0 0 0 -6.6817535034133471 19.098216324415262 0 19.098216324415262 -13.818746314900636 0 0 0 0 0.74911673160386272 20.418658477956342 0 20.418658477956342 -32.607912962695991 0 0 0 0 6.2867814422314723 5.2454721314846822 0 5.2454721314846822 -1.641385627892209 0 0 0 0 8.5801992116739711 10.508167160068069 0 10.508167160068069 -13.209034316987527 0 0 0 0 0.64553886567502516 8.4425220048407894 0 8.4425220048407894 -16.823880406177722 0 0 0 0 0.30508121377528141 9.1883318813404671 0 9.1883318813404671 -18.88483593908677 0 0 0 0 2.1090946940635433 13.053211935280387 0 13.053211935280387 -13.471123292764716 0 0 0 0 0.6748814146121731 13.938051809978788 0 13.938051809978788 -6.3845058652823354 0 0 0 0 -63.594737977757177 59.500979967358944 0 59.500979967358944 -34.343321954016574 0 0 0 0 1.3306097399566212 -0.40930404491382433 0 -0.40930404491382433 -1.1098025152664661 0 0 0 0 18.593599065454328 67.17266983171794 0 67.17266983171794 -82.471684757700132 0 0 0 0 40.608899089672377 36.223755226724279 0 36.223755226724279 21.981852668672218 0 0 0 0 30.16817679219821 38.130251476082776 0 38.130251476082776 28.948323730386619 0 0 0 0 16.767144162113254 34.412876855043578 0 34.412876855043578 28.934223533491604 0 0 0 0 32.972409625886939 31.852152024192037 0 31.852152024192037 22.936871124751633 0 0 0 0 458.71062873245683 261.88572293432662 0 261.88572293432662 -112.90090814118594 0 0 0 0 -29.452716840416635 16.391155126437301 0 16.391155126437301 -4.7484511832890917 0 0 0 0 130.39907123335433 106.07006319259017 0 106.07006319259017 20.167848580742429 0 0 0 0 143.02086097632673 175.36852088716046 0 175.36852088716046 102.09071972946549 0 0 0 0 46.994648730498739 143.11055333025388 0 143.11055333025388 279.76664202928441 0 0 0 0 2.0646389494648787 2.3694250820589033 0 2.3694250820589033 0.69149095831641816 0 0 0 0 140.39345972004958 122.02573378789748 0 122.02573378789748 144.00170174229788 0 0 0 0 74.814762533678731 174.66562015828458 0 174.66562015828458 177.56927283268305 0 0 0 0 131.29796275241461 151.68743669204196 0 151.68743669204196 87.05814772767917 0 0 0 0 76.992954558969359 153.08452455750012 0 153.08452455750012 216.59527077387611 0 0 0 0 69.041358000773471 408.59670048269254 0 408.59670048269254 623.14915487694816 0 0 0 0 -42.473038081861887 69.791310862478895 0 69.791310862478895 155.25345675017888 0 0 0 0 -24.285807222474965 10.060593324392446 0 10.060593324392446 1.5072104188710256 0 0 0 0 -17.954270838781667 37.48080529498111 0 37.48080529498111 64.941969752151635 0 0 0 0 80.255701331276214 218.97799285181736 0 218.97799285181736 189.60317320428294 0 0 0 0 158.97194415567355 108.25241129167807 0 108.25241129167807 20.948981817462482 0 0 0 0 74.513917753407441 19.871958732121129 0 19.871958732121129 -42.080710630216345 0 0 0 0 82.06423979596002 -3.3680723502257024 0 -3.3680723502257024 -28.260905033370364 0 0 0 0 7.1734613138760324 -12.630270349379316 0 -12.630270349379316 -4.0423414904362289 0 0 0 0 108.17443413892761 -32.68947365042186 0 -32.68947365042186 -27.012734333246044 0 0 0 0 244.58354628502821 57.518377414268798 0 57.518377414268798 -36.059198306880717 0 0 0 0 123.85787898450872 121.94731046896231 0 121.94731046896231 44.374617467590724 0 0 0 0 126.73638560738982 124.27174039006422 0 124.27174039006422 41.599633016143343 0 0 0 0 108.47942872166459 128.30643996478466 0 128.30643996478466 63.845628608332845 0 0 0 0 123.20591116119613 122.85390729262508 0 122.85390729262508 44.566944246310413 0 0 0 0 130.06257225212175 121.66704825359193 0 121.66704825359193 38.882140654403429 0 0 0 0 123.38849317003769 127.58071774554264 0 127.58071774554264 38.703663539728495 0 0 0 0 98.87594564538449 108.82863837567857 0 108.82863837567857 25.473071011608226 0 0 0 0 88.429089589881187 135.82766249053748 0 135.82766249053748 29.354376259327637 0 0 0 0 113.6649785976042 117.170911877658 0 117.170911877658 29.394436603353824 0 0 0 0 119.04040896803781 132.21423770769252 0 132.21423770769252 56.327284149323532 0 0 0 0 115.93250190277467 143.07494082516132 0 143.07494082516132 27.94813040908025 0 0 0 0 87.651294882103684 128.23389613026666 0 128.23389613026666 52.218209577789821 0 0 0 0 105.18835258892432 146.69793412141917 0 146.69793412141917 90.995215860806638 0 0 0 0 105.91679335241497 157.82532966895815 0 157.82532966895815 39.097253736748826 0 0 0 0 139.33450638693103 150.16480443563523 0 150.16480443563523 52.673572364612482 0 0 0 0 97.378403343045647 134.74883330433659 0 134.74883330433659 98.850732768936723 0 0 0 0 111.37488515824407 167.03013701536293 0 167.03013701536293 109.66665164916776 0 0 0 0 129.04645631770836 136.44510801262368 0 136.44510801262368 44.405381693896743 0 0 0 0 78.74933295770461 110.10284221690381 0 110.10284221690381 68.955132261378822 0 0 0 0 127.56048575582827 114.94101408979986 0 114.94101408979986 3.3362968491865104 0 0 0 0 151.40083665912971 252.86711101838046 0 252.86711101838046 120.51395914858949 0 0 0 0 27.613112051360076 216.43695521621157 0 216.43695521621157 150.75473590298679 0 0 0 0 105.04707838971808 37.516622591003397 0 37.516622591003397 -73.988971253036652 0 0 0 0 15.783147702470615 56.303113430199119 0 56.303113430199119 27.743293146028009 0 0 0 0 211.3741656907514 164.09171355587023 0 164.09171355587023 62.453325013486392 0 0 0 0 176.94256416422149 18.531836610638209 0 18.531836610638209 -15.790217460824351 0 0 0 0 200.45273516765155 88.874749486676592 0 88.874749486676592 214.54619400933734 0 0 0 0 169.92157052254242 144.03848124019714 0 144.03848124019714 132.61283044685842 0 0 0 0 225.14200912698288 125.51569544881568 0 125.51569544881568 120.12511485009964 0 0 0 0 -8.7410666505384143 103.82868284553479 0 103.82868284553479 52.148752803383104 0 0 0 0 54.766679311615007 174.02568791998783 0 174.02568791998783 371.64750026209003 0 0 0 0 -37.342032731423849 23.210796605776018 0 23.210796605776018 -10.618370806471788 0 0 0 0 75.226984852241003 95.122187497538107 0 95.122187497538107 44.800229849839525 0 0 0 0 72.408391004068108 96.672999093664657 0 96.672999093664657 62.958571488095913 0 0 0 0 96.799023067596863 107.12493075693419 0 107.12493075693419 43.04098579697893 0 0 0 0 65.780943294594181 114.8845831724102 0 114.8845831724102 38.122127187294609 0 0 0 0 92.374137899409106 99.994893114911974 0 99.994893114911974 30.057731963468541 0 0 0 0 100.05594291946909 117.50997386407835 0 117.50997386407835 49.410463529417029 0 0 0 0 62.058147206931608 111.45320959441233 0 111.45320959441233 50.714681127148651 0 0 0 0 84.321422629356675 127.34453553436106 0 127.34453553436106 58.369140125680133 0 0 0 0 129.82967013025336 124.08145817800323 0 124.08145817800323 50.946576409434783 0 0 0 0 104.32697534425097 112.1132428127712 0 112.1132428127712 39.451706923191523 0 0 0 0 98.511651666733087 116.27411185336314 0 116.27411185336314 59.675031077502354 0 0 0 0 46.618080290448233 69.535143152058936 0 69.535143152058936 3.5496397698880173 0 0 0 0 5.7603952198110164 39.904532595392311 0 39.904532595392311 22.589847976210876 0 0 0 0 -45.079121703210376 29.067784067634932 0 29.067784067634932 -14.366838049770941 0 0 0 0 69.843272790112678 88.22110848222701 0 88.22110848222701 34.904771189423627 0 0 0 0 33.481237456762756 102.23848676780472 0 102.23848676780472 49.537920309679976 0 0 0 0 42.04702241996165 73.082259469334986 0 73.082259469334986 56.762413531327184 0 0 0 0 80.590570694977941 91.706620305729302 0 91.706620305729302 35.020126070005063 0 0 0 0 76.576077020537923 125.57019366401528 0 125.57019366401528 55.080342483815912 0 0 0 0 97.954178148273058 115.79641265636747 0 115.79641265636747 66.01776359428186 0 0 0 0 95.124777674111101 109.31492363543657 0 109.31492363543657 66.418417924058303 0 0 0 0 145.14227126380138 142.01143857707575 0 142.01143857707575 57.904002271603531 0 0 0 0 123.01092028539642 150.54555110071487 0 150.54555110071487 107.48320710689586 0 0 0 0 144.64416550306123 186.28511911282749 0 186.28511911282749 138.10897672516876 0 0 0 0 154.36610838580964 142.98168074477871 0 142.98168074477871 75.690927725518122 0 0 0 0 123.72654723902724 144.08367110868767 0 144.08367110868767 81.802314442989882 0 0 0 0 122.90122994731792 118.02920331649511 0 118.02920331649511 68.276318305541281 0 0 0 0 125.27201545210846 117.86633949049792 0 117.86633949049792 54.370988914124609 0 0 0 0 137.97395391447208 125.48083422383388 0 125.48083422383388 53.56323022502329 0 0 0 0 112.15612443733698 109.54399630388252 0 109.54399630388252 46.608231908619928 0 0 0 0 123.17253002930738 127.46569202897808 0 127.46569202897808 45.043033982663474 0 0 0 0 70.911823480579187 119.29535453301651 0 119.29535453301651 98.584505983437339 0 0 0 0 114.2593721563826 129.72600063159109 0 129.72600063159109 52.688493977417238 0 0 0 0 129.3059559782705 139.23456803131558 0 139.23456803131558 75.637189515851787 0 0 0 0 114.75111378747681 116.64546034280795 0 116.64546034280795 61.229514429665869 0 0 0 0 107.17829764072667 127.25311671955205 0 127.25311671955205 100.70299678532683 0 0 0 0 117.57442617139895 152.74751545100662 0 152.74751545100662 108.35086642472379 0 0 0 0 129.55012760649697 171.00243673268415 0 171.00243673268415 141.00010000425755 0 0 0 0 118.6463976744817 221.08085507086616 0 221.08085507086616 216.48007692185638 0 0 0 0 144.6641081151829 178.47475452803337 0 178.47475452803337 117.88180392444701 0 0 0 0 130.14887840742449 179.93170990373619 0 179.93170990373619 162.32586666374846 0 0 0 0 160.06169888979275 293.25467728511649 0 293.25467728511649 251.3698027344999 0 0 0 0 190.57653245309484 242.28213826773026 0 242.28213826773026 159.06966130339242 0 0 0 0 221.84019079343125 357.55776174487619 0 357.55776174487619 248.87686100291103 0 0 0 0 222.68482387077529 195.14481730794978 0 195.14481730794978 88.389929935176042 0 0 0 0 166.05538555310704 231.01554684901021 0 231.01554684901021 174.02102724736687 0 0 0 0 236.06324889669304 290.13842842547365 0 290.13842842547365 173.28752751660795 0 0 0 0 327.05512081042616 441.85119006430614 0 441.85119006430614 267.92709348206154 0 0 0 0 264.57635761501297 309.39323921807591 0 309.39323921807591 158.11819167312251 0 0 0 0 229.44010786575382 319.37805921939798 0 319.37805921939798 180.79335576816084 0 0 0 0 230.24842235267715 387.05111113619205 0 387.05111113619205 301.31709392503035 0 0 0 0 218.90271800249593 393.67368635523235 0 393.67368635523235 297.45569048139441 0 0 0 0 327.60122599790338 548.78869876247154 0 548.78869876247154 376.79082557280526 0 0 0 0 253.66980964487448 473.97153364228689 0 473.97153364228689 376.81740628362968 0 0 0 0 205.53902762388975 452.79084311813097 0 452.79084311813097 430.53239532589214 0 0 0 0 248.98374059481512 449.31040032683086 0 449.31040032683086 325.42880591843277 0 0 0 0 490.11298527366307 543.04380555528223 0 543.04380555528223 259.6287636189154 0 0 0 0 328.61278221716293 349.87410422263997 0 349.87410422263997 66.524663916723512 0 0 0 0 328.40982806710417 554.89233242251294 0 554.89233242251294 419.33903207640105 0 0 0 0 574.47078082345615 504.93242424267555 0 504.93242424267555 421.36072167606756 0 0 0 0 183.68736057321803 587.72795706606485 0 587.72795706606485 526.09491048631935 0 0 0 0 47.87866735492571 512.40263246140239 0 512.40263246140239 594.66010470655237 0 0 0 0 182.03336885296449 508.27099007817378 0 508.27099007817378 482.90647069619808 0 0 0 0 199.1723866119064 564.89153493700724 0 564.89153493700724 518.85539799142862 0 0 0 0 64.038322436364979 -128.57455136155022 0 -128.57455136155022 -359.76996906736804 0 0 0 0 545.0600791050415 348.14086597859227 0 348.14086597859227 -13.531165809450613 0 0 0 0 366.55427990319367 136.0607267911837 0 136.0607267911837 -188.49517720486983 0 0 0 0 71.61576097651232 140.55339291789733 0 140.55339291789733 88.248839293864876 0 0 0 0 175.06903636468655 137.2660278888589 0 137.2660278888589 27.658844955018139 0 0 0 0 174.00458519639869 150.99342726076247 0 150.99342726076247 68.051154181940547 0 0 0 0 286.48311272134288 219.95024043168451 0 219.95024043168451 75.801715585010243 0 0 0 0 138.77011829685944 144.88891839163625 0 144.88891839163625 88.507602990445321 0 0 0 0 133.72860035229132 153.86317021640025 0 153.86317021640025 73.095336964368471 0 0 0 0 100.38581961894943 99.511133879834688 0 99.511133879834688 41.862166304676066 0 0 0 0 54.246365326383966 118.5999242757207 0 118.5999242757207 73.003477444211967 0 0 0 0 37.364619582331215 82.830957090658558 0 82.830957090658558 25.838372764959786 0 0 0 0 -7.9344136090294342 91.156625326717403 0 91.156625326717403 41.474727029624773 0 0 0 0 -40.102728235517134 62.965748336493562 0 62.965748336493562 30.351453976739776 0 0 0 0 10.963831009135902 95.05422128895043 0 95.05422128895043 4.6428928969180561 0 0 0 0 -4.6830158634656982 94.456944910423772 0 94.456944910423772 27.351897502201609 0 0 0 0 12.410536190098355 97.454234518043449 0 97.454234518043449 7.1421425894222921 0 0 0 0 13.424993438687807 84.20880078888672 0 84.20880078888672 -1.6464387506057392 0 0 0 0 16.157423610380647 112.70699761090509 0 112.70699761090509 60.405602427632402 0 0 0 0 60.502711642981012 103.32969955984481 0 103.32969955984481 -66.525637734901466 0 0 0 0 75.725012899763897 144.891212982875 0 144.891212982875 -10.787325334349589 0 0 0 0 59.216954896764946 105.44801402304984 0 105.44801402304984 -8.145807319549931 0 0 0 0 40.203026827071881 85.30321162636119 0 85.30321162636119 -26.741178877273342 0 0 0 0 91.276358510722275 91.768855989901567 0 91.768855989901567 -62.182713852467714 0 0 0 0 -80.063715485986904 101.11006107299727 0 101.11006107299727 -6.9328211431948148 0 0 0 0 8.3173593468310649 35.802438812049601 0 35.802438812049601 -3.1033600176326246 0 0 0 0 53.967038906041125 69.907848916862349 0 69.907848916862349 -12.788160938028568 0 0 0 0 -15.340654297142464 62.380128318029165 0 62.380128318029165 -10.877593166310362 0 0 0 0 -78.330033055477543 100.94408531010049 0 100.94408531010049 -7.3511359702715708 0 0 0 0 31.345979743634416 37.947691161772127 0 37.947691161772127 -91.470557013664802 0 0 0 0 4.7059481591701058 4.0036898035342716 0 4.0036898035342716 -2.5271289225888367 0 0 0 0 -1.2262219006666015 36.357321436190929 0 36.357321436190929 -6.6351028132300627 0 0 0 0 63.189830796945898 95.588361984453513 0 95.588361984453513 110.48923236137443 0 0 0 0 -37.4036891834985 72.063386369118234 0 72.063386369118234 8.1753359575814102 0 0 0 0 -23.851766237263291 72.539381987560773 0 72.539381987560773 -2.0460006575522129 0 0 0 0 -23.984615727873461 70.988008554370026 0 70.988008554370026 6.3938251042873162 0 0 0 0 -32.789051304720488 47.367925136559279 0 47.367925136559279 1.4266157379202014 0 0 0 0 91.352630563709681 129.66871556092838 0 129.66871556092838 783.91862902848516 0 0 0 0 -99.852509298223595 370.1417130472264 0 370.1417130472264 625.47436135166936 0 0 0 0 -49.1377397043412 34.820593382111319 0 34.820593382111319 -11.096946825425427 0 0 0 0 -10.681384933034174 5.8188157473870348 0 5.8188157473870348 0.89999083449340844 0 0 0 0 470.50233874592232 377.54584589776823 0 377.54584589776823 190.61755047995575 0 0 0 0 115.28286453314649 402.62143455801379 0 402.62143455801379 542.27717295046386 0 0 0 0 134.8588168655333 456.243029231131 0 456.243029231131 -107.34397937846438 0 0 0 0 243.24186968840149 -45.652609376492364 0 -45.652609376492364 433.25732430784774 0 0 0 0 -200.40396468561812 131.85742292554551 0 131.85742292554551 -70.966041836260047 0 0 0 0 -2.2081249261292157 0.95088435884006728 0 0.95088435884006728 0.62846239097117262 0 0 0 0 32.213119170883147 89.547660621654359 0 89.547660621654359 -841.56349721101287 0 0 0 0 -84.914444168269256 228.37215737937458 0 228.37215737937458 -253.57729662065685 0 0 0 0 5.1372546241284169 2.4623738605613479 0 2.4623738605613479 -4.1554121801883213 0 0 0 0 -8.2654554361361079 -91.376178270482342 0 -91.376178270482342 -798.65064966995124 0 0 0 0 -181.35123974383168 151.8322055497847 0 151.8322055497847 -298.024182875728 0 0 0 0 -50.132796315345331 67.264481816127955 0 67.264481816127955 -272.71718542637245 0 0 0 0 53.216552537327516 183.37948386135031 0 183.37948386135031 -284.78457985122805 0 0 0 0 -40.469952996252687 159.05110810916813 0 159.05110810916813 -589.40372940358066 0 0 0 0 -336.32242890045745 -382.89198161358945 0 -382.89198161358945 -884.41639181220671 0 0 0 0 -0.33276333327096097 0.41910724488987938 0 0.41910724488987938 0.40036158017121437 0 0 0 0 50.262014695224934 86.326072767864389 0 86.326072767864389 -365.44187215361671 0 0 0 0 -154.1107404029608 -98.719189151015598 0 -98.719189151015598 -308.72042737653828 0 0 0 0 -109.14047910842055 60.251348996684101 0 60.251348996684101 -183.47757009237102 0 0 0 0 179.36032445293677 200.09929277515766 0 200.09929277515766 -185.95491792173323 0 0 0 0 -5.2110310790740186 122.48562166257943 0 122.48562166257943 -21.384497953142272 0 0 0 0 -140.70980880384741 570.81509865560292 0 570.81509865560292 -170.94455472321079 0 0 0 0 -209.58620253884874 342.79046179194302 0 342.79046179194302 637.96291060679505 0 0 0 0 56.038295082551485 162.39407544499045 0 162.39407544499045 647.81718293580707 0 0 0 0 392.25889810117587 363.63600703223619 0 363.63600703223619 -159.78818999585928 0 0 0 0 249.30461280680174 673.36885544719735 0 673.36885544719735 399.30597709773065 0 0 0 0 -52.750264247704081 31.849913885477868 0 31.849913885477868 -14.127624507816925 0 0 0 0 -14.330417625445989 47.039293313666349 0 47.039293313666349 19.475206724832788 0 0 0 0 1.5623630606005463 104.60793949833442 0 104.60793949833442 42.722119879126694 0 0 0 0 305.25132200869848 432.92137654350518 0 432.92137654350518 185.8460121516182 0 0 0 0 410.25103383182432 362.04949139067685 0 362.04949139067685 -16.627195010813011 0 0 0 0 59.377942276143585 118.88917854968895 0 118.88917854968895 279.5129084019436 0 0 0 0 -8.6309358584985603 -151.20640362744598 0 -151.20640362744598 -59.471262224484235 0 0 0 0 122.41666792318392 411.37461801393692 0 411.37461801393692 7.190407403941208 0 0 0 0 -26.069613620231394 177.54575527736597 0 177.54575527736597 54.7987101355302 0 0 0 0 32.631960424536373 37.872345398311154 0 37.872345398311154 -416.37685304648949 0 0 0 0 134.20654684214969 121.66915323316061 0 121.66915323316061 -440.25030627204069 0 0 0 0 113.08864482572972 -0.79143827947791578 0 -0.79143827947791578 -269.99937271698582 0 0 0 0 -2.2557232841525092 0.77932859815533462 0 0.77932859815533462 -2.3572760998787476 0 0 0 0 -24.853942658912274 -4.5242618134452641 0 -4.5242618134452641 -8.9418489925192262 0 0 0 0 248.85718680819991 -56.283315847047561 0 -56.283315847047561 -461.49686134977674 0 0 0 0 6.6866458923497589 1.2392878952648871 0 1.2392878952648871 -12.112825824338849 0 0 0 0 -1.1150536209897837 13.601264726514273 0 13.601264726514273 -18.080550551094348 0 0 0 0 359.98246146795282 226.86152453976683 0 226.86152453976683 -86.265507451031226 0 0 0 0 36.434613008590532 -22.64795991277424 0 -22.64795991277424 1.1064922411105726 0 0 0 0 0.86670572798303169 2.0390104535131215 0 2.0390104535131215 -0.86669757654787105 0 0 0 0 -1.51391128432806 -42.706841839821209 0 -42.706841839821209 -12.465238797609345 0 0 0 0 15.121865656277805 12.413549821469132 0 12.413549821469132 -35.633051598817474 0 0 0 0 52.990328184510872 -27.377503620631614 0 -27.377503620631614 4.8463711628392048 0 0 0 0 -10.965690450830152 -2.3506737900825101 0 -2.3506737900825101 -14.115067767829345 0 0 0 0 3.177462114804996 5.1803382742265427 0 5.1803382742265427 -19.560984206609135 0 0 0 0 -9.9242014484757419 9.8862970404478574 0 9.8862970404478574 -0.83468985623403569 0 0 0 0 33.418177593412111 7.2026561654784018 0 7.2026561654784018 -32.482653407474572 0 0 0 0 20.225301229889737 -14.450565073708276 0 -14.450565073708276 -32.061243258823936 0 0 0 0 32.042242937135597 12.38923232533034 0 12.38923232533034 -13.740240085659025 0 0 0 0 63.854467609678977 -1.0780470429745037 0 -1.0780470429745037 -16.749960454716529 0 0 0 0 104.63248307845788 -15.706266913506624 0 -15.706266913506624 -19.645818192588195 0 0 0 0 204.37803717878705 -29.075862814450375 0 -29.075862814450375 -37.018368162471234 0 0 0 0 112.03869131002284 7.6440749330686231 0 7.6440749330686231 -39.438547382713296 0 0 0 0 273.74926531780511 -3.8716091392525414 0 -3.8716091392525414 -97.825211077834865 0 0 0 0 206.03985724948143 -6.6793776669221643 0 -6.6793776669221643 -65.411104148224695 0 0 0 0 251.81951801564719 26.456713284709622 0 26.456713284709622 -102.45135346293682 0 0 0 0 198.49499357742752 44.717651196876432 0 44.717651196876432 -66.712019253274775 0 0 0 0 167.87976320523012 14.746714520966634 0 14.746714520966634 -42.609294513889836 0 0 0 0 97.941969097359106 24.410423482186161 0 24.410423482186161 -31.473191357592441 0 0 0 0 153.22881126201537 65.025378665019161 0 65.025378665019161 -6.7978319054673193 0 0 0 0 87.118120368162636 55.516184394866286 0 55.516184394866286 -4.6814260856172041 0 0 0 0 143.99338560877004 36.981927822979742 0 36.981927822979742 -30.329572252849175 0 0 0 0 188.56308597962925 66.575659338283003 0 66.575659338283003 -65.119629606844683 0 0 0 0 149.45246410656546 34.333287278695479 0 34.333287278695479 -4.5530339988617925 0 0 0 0 154.21358589819101 51.531388496011459 0 51.531388496011459 33.399730762685067 0 0 0 0 138.86614421984996 45.533090538279794 0 45.533090538279794 -10.56024241407431 0 0 0 0 -18.629586508468492 28.605976519063915 0 28.605976519063915 18.159222071335535 0 0 0 0 83.14887561868818 53.484835106981336 0 53.484835106981336 10.10668286555665 0 0 0 0 -13.382558626224636 -28.621756299817207 0 -28.621756299817207 -5.7879293542937376 0 0 0 0 13.640978865580109 20.65002443728963 0 20.65002443728963 -0.61164726680726744 0 0 0 0 63.760599915869534 20.298791594774229 0 20.298791594774229 -2.9336576917776256 0 0 0 0 92.090642469709564 30.441335926940155 0 30.441335926940155 -15.236612189633888 0 0 0 0 66.194017997506307 21.630209627406657 0 21.630209627406657 -14.057363657295355 0 0 0 0 228.69206306085107 191.29296635367064 0 191.29296635367064 -382.84324136565556 0 0 0 0 223.2067966501927 149.63971000518359 0 149.63971000518359 -296.5576287449876 0 0 0 0 211.49684464294114 107.10359444467394 0 107.10359444467394 -220.64300102611014 0 0 0 0 178.26280229794793 187.93436127542373 0 187.93436127542373 -294.91242663862067 0 0 0 0 236.88851599904592 123.71831365655817 0 123.71831365655817 -339.39721349951651 0 0 0 0 205.33742433755833 110.4849952291861 0 110.4849952291861 -356.07088226318592 0 0 0 0 221.69955191355257 248.24349612545848 0 248.24349612545848 -552.43580770602057 0 0 0 0 179.52726430553594 340.97615924402271 0 340.97615924402271 -489.49791090464896 0 0 0 0 167.38535088847857 409.24050781711776 0 409.24050781711776 -585.47484664771764 0 0 0 0 185.61859847650339 329.83632297989789 0 329.83632297989789 -478.78546495799674 0 0 0 0 140.56413031776901 323.28679856929375 0 323.28679856929375 -435.33972291900864 0 0 0 0 188.04085644122097 255.39969377111265 0 255.39969377111265 -365.00415317516308 0 0 0 0 146.7122750323615 246.15843024270725 0 246.15843024270725 -282.23491257475689 0 0 0 0 102.23870982357766 371.03758094069053 0 371.03758094069053 -398.45361574849449 0 0 0 0 140.85674677992938 315.29232734614561 0 315.29232734614561 -339.24629619845655 0 0 0 0 80.069738851918373 456.67633627691976 0 456.67633627691976 -417.4542292770966 0 0 0 0 95.317269429309817 356.35823990856625 0 356.35823990856625 -166.68803248622862 0 0 0 0 97.864780086834799 310.18597459009106 0 310.18597459009106 -226.69568624960084 0 0 0 0 183.67570050238282 290.70999218215002 0 290.70999218215002 -153.20460419412484 0 0 0 0 170.37278493502527 224.77811364777881 0 224.77811364777881 -99.246948802116094 0 0 0 0 165.39956198207801 336.06096907814208 0 336.06096907814208 -255.57374836605231 0 0 0 0 169.92061128219939 302.47762317686283 0 302.47762317686283 -74.871104202815332 0 0 0 0 196.2545754169405 239.29558093921878 0 239.29558093921878 -300.47465049934908 0 0 0 0 124.20394051582844 235.0133363552377 0 235.0133363552377 359.40795233604149 0 0 0 0 229.84381958929589 125.80795380513155 0 125.80795380513155 19.073732509497404 0 0 0 0 272.88523455862014 123.14369481207723 0 123.14369481207723 -159.26471414615662 0 0 0 0 252.94670179011882 104.46885014312284 0 104.46885014312284 -173.45026741604306 0 0 0 0 196.83462661151134 164.71469713270562 0 164.71469713270562 -231.73893148236675 0 0 0 0 245.75446971188649 80.115701943068416 0 80.115701943068416 -220.2340075464881 0 0 0 0 246.88527189976594 46.77680216581939 0 46.77680216581939 -165.42212261972236 0 0 0 0 251.03517584493966 89.337183634626854 0 89.337183634626854 -207.59301937085547 0 0 0 0 282.3443036115641 43.282776796793769 0 43.282776796793769 -175.43894474425542 0 0 0 0 268.5736647854792 41.721627968239773 0 41.721627968239773 -152.25434975739336 0 0 0 0 258.83272608966217 58.035075574072835 0 58.035075574072835 -132.09081506086841 0 0 0 0 269.69087387764012 16.540495540040865 0 16.540495540040865 -120.60299372215013 0 0 0 0 271.92158589790506 21.478387533282671 0 21.478387533282671 -116.35319046099175 0 0 0 0 302.85504727985244 43.219052568634652 0 43.219052568634652 -109.62421139452636 0 0 0 0 241.94223380835319 21.653714716299874 0 21.653714716299874 -116.46363006646425 0 0 0 0 279.88020096212858 -10.966487499666982 0 -10.966487499666982 -78.720083615608019 0 0 0 0 273.13959153624023 90.233896235079058 0 90.233896235079058 -67.018270479427883 0 0 0 0 222.78067243449914 48.217403029490015 0 48.217403029490015 -85.366881578553148 0 0 0 0 282.26348955602589 32.540684614843485 0 32.540684614843485 -203.79954252191237 0 0 0 0 226.49190168608038 70.224181929371298 0 70.224181929371298 -247.84579280445178 0 0 0 0 217.07663557774504 82.946504505303892 0 82.946504505303892 -201.6839604620111 0 0 0 0 261.18215020267962 65.640589345437547 0 65.640589345437547 -238.29069745469315 0 0 0 0 214.85391427326522 154.31935310691324 0 154.31935310691324 -291.98498093269154 0 0 0 0 261.07975168726989 33.11616076395967 0 33.11616076395967 -261.51903852547184 0 0 0 0 140.03420779827866 75.176179570966269 0 75.176179570966269 47.607793065917576 0 0 0 0 275.79959400144435 108.0733921303663 0 108.0733921303663 -597.98557703890037 0 0 0 0 211.87164144944109 -26.334775554878433 0 -26.334775554878433 -237.35728595437831 0 0 0 0 -3.3491519427939167 4.5011426987987448 0 4.5011426987987448 -6.9379264779138339 0 0 0 0 -1286.3896985833271 197.43041006229669 0 197.43041006229669 94.781208883536237 0 0 0 0 -621.50949110202055 1163.6913337265787 0 1163.6913337265787 -374.49639699368345 0 0 0 0 -1277.3651425635617 36.830392544987262 0 36.830392544987262 -793.47654772728129 0 0 0 0 -121.57989405166882 266.93688413192103 0 266.93688413192103 -473.37115478024953 0 0 0 0 -5.789683277929015 0.61191518882862539 0 0.61191518882862539 -0.38231738723212416 0 0 0 0 255.3627639232127 234.90310316566547 0 234.90310316566547 -583.15752020006403 0 0 0 0 152.57682363507047 188.22376857335803 0 188.22376857335803 -604.05787324934136 0 0 0 0 156.22089717310882 419.21057235219087 0 419.21057235219087 -823.82972215040627 0 0 0 0 268.00344543772371 340.39438139703088 0 340.39438139703088 -865.50337336340817 0 0 0 0 -4.5212389071548955 4.0635310185062963 0 4.0635310185062963 1.5184544058970246 0 0 0 0 -28.294688219823001 256.81857899041188 0 256.81857899041188 -488.32214269405267 0 0 0 0 -64.560353397464496 -24.126181694857223 0 -24.126181694857223 -44.574817143356995 0 0 0 0 2.5989757859989027 5.2033138904461964 0 5.2033138904461964 0.029657349944770317 0 0 0 0 -8.0275613401809096 48.339022704300987 0 48.339022704300987 27.520116239957133 0 0 0 0 26.336068315795274 8.8276997555149137 0 8.8276997555149137 34.277267509964986 0 0 0 0 -24.792860565934461 6.5027123839677188 0 6.5027123839677188 47.098697034973156 0 0 0 0 -18.88631380294828 6.741579971043393 0 6.741579971043393 164.49864256720321 0 0 0 0 -16.401714556432125 34.637443124746824 0 34.637443124746824 53.296077059130766 0 0 0 0 2.056325029982446 1.036143949983412 0 1.036143949983412 1.2377908956642756 0 0 0 0 97.696501758517115 213.99244351433117 0 213.99244351433117 71.800572179182382 0 0 0 0 69.245625347721216 102.77521697300563 0 102.77521697300563 243.49806845281273 0 0 0 0 157.28464256352163 344.50252956814984 0 344.50252956814984 316.23224160712289 0 0 0 0 -16.526190271557425 -53.36197551807345 0 -53.36197551807345 -28.247921353390666 0 0 0 0 -383.43218188297396 28.898649775930608 0 28.898649775930608 -435.36730189275295 0 0 0 0 206.14329359133262 613.58391493549789 0 613.58391493549789 -833.86582033980312 0 0 0 0 -2.0270374825009014 0.49740805561066281 0 0.49740805561066281 -0.7184588831826666 0 0 0 0 -11.905768213080592 676.46068599596038 0 676.46068599596038 -534.13356240003895 0 0 0 0 -196.94342877392774 520.0573170066491 0 520.0573170066491 -227.56272342025477 0 0 0 0 -43.087061057973187 586.82002425573592 0 586.82002425573592 -292.4072714129361 0 0 0 0 372.46995751919167 494.31443542662237 0 494.31443542662237 -996.22765507015265 0 0 0 0 2.182259765243856 1.3173491972324278 0 1.3173491972324278 -1.0751036169383692 0 0 0 0 109.62716526925942 162.96164041106204 0 162.96164041106204 -1435.2109981769891 0 0 0 0 77.375196829496417 588.33921733825628 0 588.33921733825628 413.33153528667935 0 0 0 0 103.89719447219977 473.36668645135069 0 473.36668645135069 74.142807372256357 0 0 0 0 42.8471062281169 508.59251523575222 0 508.59251523575222 -178.18464203769781 0 0 0 0 118.5000602878863 487.49034662895792 0 487.49034662895792 -203.68564657351817 0 0 0 0 -53.079414651496336 474.41262840448326 0 474.41262840448326 -139.88500264575123 0 0 0 0 29.435403343173675 427.41169200128206 0 427.41169200128206 -163.026916125149 0 0 0 0 60.022500583087094 542.07858139803284 0 542.07858139803284 -190.01486592840592 0 0 0 0 407.52035761170555 445.24593571815058 0 445.24593571815058 -660.79823593338369 0 0 0 0 -140.04142652335577 260.15889281524142 0 260.15889281524142 -527.22045014373725 0 0 0 0 198.76079212166951 141.86557516521862 0 141.86557516521862 -1029.4149598589865 0 0 0 0 315.08069659065222 722.63374974806356 0 722.63374974806356 -156.20561991861177 0 0 0 0 1.6104084374965169 290.48202258632045 0 290.48202258632045 -1079.5078589968657 0 0 0 0 155.6244196009502 190.5190552561653 0 190.5190552561653 327.95619723169693 0 0 0 0 0.011378882579720084 1.0961074313870185 0 1.0961074313870185 -0.25544508617547024 0 0 0 0 139.72157998236071 146.86031923534938 0 146.86031923534938 369.29309959893544 0 0 0 0 -4.6795994564679972 2.6066529890698682 0 2.6066529890698682 0.42314848854803699 0 0 0 0 201.50110300752567 145.8834908973331 0 145.8834908973331 577.01913050683743 0 0 0 0 -7.2246539039042545 406.38064247913644 0 406.38064247913644 539.84814406818987 0 0 0 0 121.12432748937135 292.53307692144881 0 292.53307692144881 533.873495994927 0 0 0 0 93.416476691701973 333.14434049490228 0 333.14434049490228 321.97680163606856 0 0 0 0 0.78920109602768207 114.80533413673948 0 114.80533413673948 696.67724199578151 0 0 0 0 166.37246704878635 361.78214622682208 0 361.78214622682208 406.73755607235216 0 0 0 0 212.11093211904517 109.80253885363891 0 109.80253885363891 120.89450361585114 0 0 0 0 143.39496560367479 276.91329200311338 0 276.91329200311338 299.36208083876954 0 0 0 0 183.74653697552594 361.24120030348899 0 361.24120030348899 285.91296890636659 0 0 0 0 229.76256704791012 167.62131503493401 0 167.62131503493401 -63.631361426578223 0 0 0 0 -97.015869119444687 265.28468259449437 0 265.28468259449437 384.79915866939336 0 0 0 0 43.962658468779409 165.43867702808348 0 165.43867702808348 513.68520508617758 0 0 0 0 -20.640497795597184 358.45769783039032 0 358.45769783039032 144.09574857231564 0 0 0 0 -82.220230145821006 90.674486317073388 0 90.674486317073388 27.552660942907096 0 0 0 0 121.98781316324312 217.68257824879538 0 217.68257824879538 -161.70188620542467 0 0 0 0 -134.14020568145861 172.03975289614573 0 172.03975289614573 -59.455681969609941 0 0 0 0 39.673485613289813 81.924610397698416 0 81.924610397698416 -13.914757885706422 0 0 0 0 -5.080169603927061 357.55081670124127 0 357.55081670124127 -157.34320609507267 0 0 0 0 98.129572471239953 89.490358528377328 0 89.490358528377328 100.1316977301849 0 0 0 0 170.64931204400546 315.77439841605656 0 315.77439841605656 -210.93666201475935 0 0 0 0 -2.2569557763455066 1.5143103789241241 0 1.5143103789241241 -0.29039942496554261 0 0 0 0 -84.722216245067102 166.14409288004663 0 166.14409288004663 354.49165827410616 0 0 0 0 116.355038081354 171.74279853803455 0 171.74279853803455 223.37177555422386 0 0 0 0 86.351780343677092 287.93674525667666 0 287.93674525667666 410.74929926909681 0 0 0 0 -4.4866602345273634 3.2561135002311907 0 3.2561135002311907 -0.78918201405102195 0 0 0 0 -5.809178721952776 31.152073877994553 0 31.152073877994553 378.02176275676175 0 0 0 0 -2.0738127316467398 -29.777307914234711 0 -29.777307914234711 151.02358142384037 0 0 0 0 -57.574010982425534 69.017492546867288 0 69.017492546867288 345.38739928987525 0 0 0 0 -23.815008401717932 82.064972791275068 0 82.064972791275068 169.14024441997026 0 0 0 0 -28.203509373360248 64.764593597054727 0 64.764593597054727 120.49063906604715 0 0 0 0 47.794920517037099 115.38321171376083 0 115.38321171376083 70.349102893099371 0 0 0 0 -0.67605742253363132 59.751852614748714 0 59.751852614748714 60.334457832990665 0 0 0 0 -33.189891262663878 175.29547085833838 0 175.29547085833838 29.774659451682965 0 0 0 0 -32.756213185060915 155.27027343242298 0 155.27027343242298 230.26369652018002 0 0 0 0 -129.70644611899479 301.02235341446976 0 301.02235341446976 82.099596428568475 0 0 0 0 91.376149409876234 311.38915501041356 0 311.38915501041356 -182.46892873217985 0 0 0 0 194.26490662374999 181.10968063530709 0 181.10968063530709 -25.662552251671514 0 0 0 0 271.3026768464988 137.43184171802568 0 137.43184171802568 -176.45911366791915 0 0 0 0 206.32470997684868 82.280518030573148 0 82.280518030573148 -130.0435424626744 0 0 0 0 -5.5118405399407493 338.19884681619169 0 338.19884681619169 -329.56005037355862 0 0 0 0 -132.60702572800437 194.37481742846921 0 194.37481742846921 -257.86458029946016 0 0 0 0 329.81150833996071 -25.324236092608771 0 -25.324236092608771 94.88986504479908 0 0 0 0 1.5676404138586904 4.4477766281879667 0 4.4477766281879667 -12.075357190292536 0 0 0 0 431.28179260333127 68.909062428768266 0 68.909062428768266 -97.292708394765214 0 0 0 0 158.75077543567113 71.046129760196436 0 71.046129760196436 3.1836692566357669 0 0 0 0 -1.4994542167187319 38.124387592371932 0 38.124387592371932 -71.667954650940374 0 0 0 0 0.35884311174231698 12.064797431349689 0 12.064797431349689 -28.681147227816837 0 0 0 0 -30.330030953151436 48.116204903737525 0 48.116204903737525 -67.600898812392643 0 0 0 0 1.7620628415586452 5.0105060662154131 0 5.0105060662154131 -15.674098875214675 0 0 0 0 171.41738257488396 79.638917061149186 0 79.638917061149186 -20.23967876288043 0 0 0 0 9.3010547643498285 29.603565192712267 0 29.603565192712267 20.309035782806859 0 0 0 0 50.529610370283649 62.650416894252487 0 62.650416894252487 -1.4835690151339804 0 0 0 0 -5.4467043418662797 13.30284532695714 0 13.30284532695714 -28.059528855064627 0 0 0 0 1.6433707760522651 4.5923907794864505 0 4.5923907794864505 -18.352464031028376 0 0 0 0 -0.10667421955076861 6.3249273341843946 0 6.3249273341843946 -21.507265900690982 0 0 0 0 0.35258069491464994 6.853584158439844 0 6.853584158439844 -21.315968280696097 0 0 0 0 1.5116686245786433 5.6366656611821071 0 5.6366656611821071 -21.540691741523865 0 0 0 0 -6.7596217566278938 10.534860137543546 0 10.534860137543546 -28.757550482279839 0 0 0 0 -2.8574683703918708 6.4152843407791806 0 6.4152843407791806 -42.60870035588232 0 0 0 0 -13.773946870169311 23.904150949871109 0 23.904150949871109 -27.803017887887563 0 0 0 0 24.091285932418032 24.292192832718683 0 24.292192832718683 -2.3861032079803408 0 0 0 0 4.3488855834592641 26.942002655346897 0 26.942002655346897 1.4985449112828064 0 0 0 0 3.5512180949299363 1.878404165558095 0 1.878404165558095 -22.594496394785892 0 0 0 0 17.514474186369625 24.911057455534319 0 24.911057455534319 1.595209639701352 0 0 0 0 -5.8943807029609161 47.034405701587275 0 47.034405701587275 36.177653358259704 0 0 0 0 -32.054154466713953 52.36858064819171 0 52.36858064819171 128.68063482869184 0 0 0 0 -27.962424780373112 19.515124363326322 0 19.515124363326322 36.616141328312892 0 0 0 0 -10.797149526446759 7.8297302637561259 0 7.8297302637561259 4.5048879080333499 0 0 0 0 2.1839239669061499 11.310095471164459 0 11.310095471164459 -24.078781861873722 0 0 0 0 -8.6065747494285461 37.106324574797327 0 37.106324574797327 -38.453706350777793 0 0 0 0 -26.339945416038972 45.339357471579206 0 45.339357471579206 -25.385904985370871 0 0 0 0 5.2656510456872638 23.47418017743621 0 23.47418017743621 -60.819417124133906 0 0 0 0 0.55260970391827868 9.9706250198614725 0 9.9706250198614725 -24.01862484749654 0 0 0 0 4.5259823053929722 35.031202586440486 0 35.031202586440486 -10.229523904152302 0 0 0 0 -20.574996420791649 2.2317988303666425 0 2.2317988303666425 -26.118833440374146 0 0 0 0 -28.059076348265762 -6.7975691980769426 0 -6.7975691980769426 8.0083053091457259 0 0 0 0 -72.969700882604229 609.07206918230077 0 609.07206918230077 -811.2463965739621 0 0 0 0 -17.373424432007596 48.643870296391469 0 48.643870296391469 -37.113275976083969 0 0 0 0 -8.5009031320324198 6.8922745896833462 0 6.8922745896833462 3.8494109712560842 0 0 0 0 -0.64179754944052547 56.006325237058263 0 56.006325237058263 -34.588357109700155 0 0 0 0 -240.69784439509385 109.51572332558135 0 109.51572332558135 -501.27595378799924 0 0 0 0 3.9598324816293626 2.8591913912926685 0 2.8591913912926685 -5.0077812136566138 0 0 0 0 169.84101337863831 369.84711188212532 0 369.84711188212532 -386.33487000086734 0 0 0 0 42.464736520516453 133.73038114058045 0 133.73038114058045 -231.67275664068802 0 0 0 0 2.4163282834610271 -0.097232429911741747 0 -0.097232429911741747 -2.1510414036366186 0 0 0 0 -704.40412326715887 375.48691584265907 0 375.48691584265907 -575.97544232948712 0 0 0 0 -123.69672168089892 99.710283758173318 0 99.710283758173318 -117.55541296387855 0 0 0 0 -2.9605874794906697 -0.57221422572580138 0 -0.57221422572580138 -1.2250341912308684 0 0 0 0 -158.60153234655627 187.79385025379656 0 187.79385025379656 -190.12308676292378 0 0 0 0 -428.59068877092568 609.23958942478794 0 609.23958942478794 -475.46705356102757 0 0 0 0 -407.3649810871284 196.11106867280432 0 196.11106867280432 -148.36184576355481 0 0 0 0 -26.406435198310646 303.4436027899701 0 303.4436027899701 -254.44821565179609 0 0 0 0 -52.451961577731709 189.22201686013454 0 189.22201686013454 -226.19421882468305 0 0 0 0 -39.700760308511235 10.792982548875443 0 10.792982548875443 -48.9063346988587 0 0 0 0 -11.43587455310626 50.447980978557098 0 50.447980978557098 -264.38810041115812 0 0 0 0 -0.9243067995957972 6.9491177405207054 0 6.9491177405207054 -9.7670741426591121 0 0 0 0 -0.0090421397180762142 3.347296259220002 0 3.347296259220002 -3.5505694060923361 0 0 0 0 -44.346410598438524 47.893307182022909 0 47.893307182022909 -17.564419520145748 0 0 0 0 -0.35045707896414413 3.95183234036908 0 3.95183234036908 -3.7791264756770104 0 0 0 0 -30.3023665816836 68.477668861445636 0 68.477668861445636 -144.71958913021626 0 0 0 0 0.036275246790887415 6.7941920596462539 0 6.7941920596462539 -18.276273727555235 0 0 0 0 -0.63337767753984053 2.3876550124517379 0 2.3876550124517379 -8.8463410521488139 0 0 0 0 -6.8152476794812742 8.1989371724299502 0 8.1989371724299502 0.57076633949663957 0 0 0 0 -54.641456353288959 -21.279106802641763 0 -21.279106802641763 60.274608643512693 0 0 0 0 19.976873618012178 26.29659478214171 0 26.29659478214171 -44.97357758292128 0 0 0 0 -89.90318905528693 425.28332912429687 0 425.28332912429687 230.74325522509616 0 0 0 0 41.661347600365843 426.6983990939143 0 426.6983990939143 229.23560319346143 0 0 0 0 -79.636173222424986 312.35801084659215 0 312.35801084659215 229.80252836000807 0 0 0 0 15.146915101373452 319.60322677769182 0 319.60322677769182 229.62428606820396 0 0 0 0 -0.058929078659275547 442.86428067861743 0 442.86428067861743 448.07821697150939 0 0 0 0 30.000826293588034 327.0822269199507 0 327.0822269199507 475.49031182093313 0 0 0 0 -45.712606297580351 416.1637055733845 0 416.1637055733845 437.84913733161375 0 0 0 0 13.011681442272675 405.75212772128361 0 405.75212772128361 634.00016378101463 0 0 0 0 96.614208641503865 350.10786732721954 0 350.10786732721954 332.52564620986959 0 0 0 0 119.10775031520461 325.6858361481427 0 325.6858361481427 184.21006635358935 0 0 0 0 12.053669028155127 415.25270243633486 0 415.25270243633486 138.13326827831406 0 0 0 0 251.52561650481584 297.45812735427216 0 297.45812735427216 -11.786532558064209 0 0 0 0 244.22501172877674 348.04833085744394 0 348.04833085744394 -179.45021203705619 0 0 0 0 261.88775908727257 325.40518554783193 0 325.40518554783193 -163.98825244970249 0 0 0 0 326.66201091309449 206.50842959119609 0 206.50842959119609 -113.72051431800355 0 0 0 0 340.2474404625973 223.24711912418206 0 223.24711912418206 -346.8583193061495 0 0 0 0 197.47019085458305 481.66543268584155 0 481.66543268584155 -535.62534808575947 0 0 0 0 -4.8828320106294996 356.31492156396689 0 356.31492156396689 -295.71121839731495 0 0 0 0 -220.9606194867556 473.43052069732039 0 473.43052069732039 -55.105645871761226 0 0 0 0 52.214723239683735 370.08034389117392 0 370.08034389117392 -21.700092826784385 0 0 0 0 0.043641264826874249 415.51413165254962 0 415.51413165254962 -6.5701078033071099 0 0 0 0 -51.70003376861132 307.64112145663785 0 307.64112145663785 -106.86785603342651 0 0 0 0 -63.014382151712198 358.89908422275221 0 358.89908422275221 -189.36051424293692 0 0 0 0 -0.10415989129251102 384.70148747754502 0 384.70148747754502 -232.13201948305505 0 0 0 0 44.727945430284308 756.51524429042547 0 756.51524429042547 49.266433691082057 0 0 0 0 -488.59188892888415 489.54354819181981 0 489.54354819181981 -35.923555703684542 0 0 0 0 -170.83956023968494 494.7306719617045 0 494.7306719617045 -247.4958870383316 0 0 0 0 1.4156417333876732 1.5389296717951311 0 1.5389296717951311 -1.2723213698873082 0 0 0 0 -283.79606431818684 189.54478635427495 0 189.54478635427495 -233.05859162600245 0 0 0 0 -165.10693792418169 198.444445943951 0 198.444445943951 -284.41051127043829 0 0 0 0 -0.099938928426126949 221.72642326126061 0 221.72642326126061 -301.21707925352894 0 0 0 0 -203.18720794373075 267.44924543078014 0 267.44924543078014 -228.80189287426947 0 0 0 0 -103.82079133091611 292.00191536474085 0 292.00191536474085 -267.2326024417016 0 0 0 0 -183.07731622992287 176.99061291925682 0 176.99061291925682 -169.52865474436112 0 0 0 0 -205.80668326035811 270.64558795545963 0 270.64558795545963 -247.0146081108096 0 0 0 0 -214.0697486067188 118.71765740814408 0 118.71765740814408 -736.33418607690692 0 0 0 0 2.130636759514104 2.0270024620120495 0 2.0270024620120495 -2.8731444801075696 0 0 0 0 -201.40891713592691 448.67013175766203 0 448.67013175766203 -411.70273820697912 0 0 0 0 -886.83231332675678 584.38153946799775 0 584.38153946799775 7.2961183159641223 0 0 0 0 0.53999143051136045 2.3983840696061804 0 2.3983840696061804 -5.0409598405596654 0 0 0 0 665.35345559063353 -98.892898771163345 0 -98.892898771163345 -258.5943669208209 0 0 0 0 487.68860658080666 71.402930582189583 0 71.402930582189583 -329.66576293752587 0 0 0 0 -678.39917646931281 416.86355956040643 0 416.86355956040643 -175.33473738272824 0 0 0 0 -0.24495895568061757 73.284051174005739 0 73.284051174005739 -111.6116316128464 0 0 0 0 1.4187602847521532 1.4729165088172209 0 1.4729165088172209 -2.9977599022120245 0 0 0 0 238.9713436595739 44.907716346864618 0 44.907716346864618 -156.09593403782856 0 0 0 0 442.90439203240385 -71.570540387096116 0 -71.570540387096116 -187.07399370473092 0 0 0 0 385.52504801331816 47.972040871356512 0 47.972040871356512 -357.34529153028416 0 0 0 0 174.9317943903734 60.227097486349521 0 60.227097486349521 -91.980882833388023 0 0 0 0 322.07411853264784 143.46982026381374 0 143.46982026381374 -51.227660304717574 0 0 0 0 -1.4114244158547251 4.4383281236089864 0 4.4383281236089864 -5.4486082549839523 0 0 0 0 497.39791829036767 329.76436231995808 0 329.76436231995808 -35.866842375548003 0 0 0 0 392.37628152280377 358.94261417607049 0 358.94261417607049 156.29128379349095 0 0 0 0 357.56676141767821 307.13084378872554 0 307.13084378872554 89.923096442757014 0 0 0 0 481.83762282946554 100.79938379356827 0 100.79938379356827 -149.36901043894977 0 0 0 0 429.36766479112339 95.863391360122478 0 95.863391360122478 94.894683379912749 0 0 0 0 92.154005419812165 656.6787518721394 0 656.6787518721394 244.112249010097 0 0 0 0 316.28166900365613 125.35123813293285 0 125.35123813293285 -434.1004912545659 0 0 0 0 -0.82350286639248793 2.3665170722520159 0 2.3665170722520159 -2.5289773155923001 0 0 0 0 352.44431692147919 350.40060638539398 0 350.40060638539398 557.98380673942302 0 0 0 0 274.26403350596956 76.186198327810416 0 76.186198327810416 -24.574682887105155 0 0 0 0 322.09274800081766 69.405772421581105 0 69.405772421581105 -146.86833811646648 0 0 0 0 173.13303279749744 271.46505298132615 0 271.46505298132615 -57.223386140865841 0 0 0 0 139.83069072324724 228.21452029797911 0 228.21452029797911 -69.205270536472653 0 0 0 0 -33.869519785104785 407.43280279518967 0 407.43280279518967 -39.944945093080605 0 0 0 0 124.39808313538015 202.71196312446591 0 202.71196312446591 211.24605466161665 0 0 0 0 349.67417769740132 177.24111729741526 0 177.24111729741526 -19.989990518322884 0 0 0 0 -0.93079141567567092 2.2332867567575221 0 2.2332867567575221 -2.3442685844182023 0 0 0 0 29.607199137659336 593.30809722847516 0 593.30809722847516 220.39634288145385 0 0 0 0 27.964440365853079 492.3396751913051 0 492.3396751913051 -209.98454839525948 0 0 0 0 43.035112032561301 241.68070015561943 0 241.68070015561943 -356.05802375897838 0 0 0 0 208.45298734705284 228.96646475071248 0 228.96646475071248 -641.9517175131914 0 0 0 0 -76.897242700366405 435.01463233862751 0 435.01463233862751 -218.85982769769907 0 0 0 0 -14.431900525643869 233.57615826600613 0 233.57615826600613 -78.653812932450819 0 0 0 0 -22.356836151418975 254.13818776997323 0 254.13818776997323 -129.03965387588596 0 0 0 0 -83.241341458378884 451.8590966261927 0 451.8590966261927 -18.812821067043842 0 0 0 0 -201.73830371996155 321.0790886449704 0 321.0790886449704 -97.078946332582746 0 0 0 0 -344.65738254700409 378.41782524509836 0 378.41782524509836 -26.989853909482918 0 0 0 0 -183.29932291106525 385.77160473147978 0 385.77160473147978 -93.559015419785283 0 0 0 0 -145.40230532723217 335.01056614169283 0 335.01056614169283 -34.19612815668188 0 0 0 0 -90.648738304662402 431.4480081191914 0 431.4480081191914 -222.41441836993909 0 0 0 0 -295.31895228544272 298.50541779042851 0 298.50541779042851 -63.42261583501022 0 0 0 0 -630.12552494351985 671.52783279353935 0 671.52783279353935 -458.55764273902537 0 0 0 0 -178.80678321053347 289.52528343318136 0 289.52528343318136 20.894190732840798 0 0 0 0 -303.10589085124957 21.928714050845883 0 21.928714050845883 -534.51110204974975 0 0 0 0 -177.53636681967555 494.67075695594338 0 494.67075695594338 337.72763120775198 0 0 0 0 -207.8652665590962 115.45781401965178 0 115.45781401965178 102.8831752676324 0 0 0 0 48.049721324150596 130.83820280787768 0 130.83820280787768 -212.52459496890879 0 0 0 0 182.97237375965051 171.68878341702475 0 171.68878341702475 -78.693659070613649 0 0 0 0 151.43069329774153 267.62080085386151 0 267.62080085386151 -31.67587008488772 0 0 0 0 329.63239195878123 217.86004529453021 0 217.86004529453021 -159.52122798780329 0 0 0 0 305.60610160832584 176.11399861029713 0 176.11399861029713 -148.00678173039159 0 0 0 0 285.98313682540902 275.84336401849578 0 275.84336401849578 -144.2770183642433 0 0 0 0 260.94372467260246 227.67728424077814 0 227.67728424077814 -15.021022032757173 0 0 0 0 214.42454354169604 268.19182055359124 0 268.19182055359124 84.04989285602187 0 0 0 0 261.92453804524894 240.12777511352192 0 240.12777511352192 -26.30216458231007 0 0 0 0 202.91173038636043 160.53776587463653 0 160.53776587463653 119.09311264192729 0 0 0 0 225.77257556102995 201.06837588041708 0 201.06837588041708 -32.034853213851036 0 0 0 0 171.99801267444127 281.79829547511872 0 281.79829547511872 283.08377855387153 0 0 0 0 207.06595773946174 279.49057694930525 0 279.49057694930525 81.897922441221908 0 0 0 0 218.00597874545929 274.96903587995621 0 274.96903587995621 284.03613103094358 0 0 0 0 131.08607693884551 207.41393757557125 0 207.41393757557125 436.96294648304684 0 0 0 0 81.279578870908153 282.11748891782554 0 282.11748891782554 575.78855127334828 0 0 0 0 -78.582405056120479 439.78506414115236 0 439.78506414115236 698.29564615463096 0 0 0 0 324.26083494063096 405.68763061433674 0 405.68763061433674 351.89089128673368 0 0 0 0 -81.030468292796286 295.60963558966614 0 295.60963558966614 349.00500978916898 0 0 0 0 163.49771134439789 690.38207101058765 0 690.38207101058765 259.88470732243877 0 0 0 0 1061.8438652228288 902.70121630218273 0 902.70121630218273 285.68861456004197 0 0 0 0 142.12602203388087 745.85652560156268 0 745.85652560156268 596.55589526231233 0 0 0 0 -539.07153161163296 611.46422099596384 0 611.46422099596384 673.74466808172474 0 0 0 0 -26.229609869016713 659.31783259329131 0 659.31783259329131 552.07308512498457 0 0 0 0 89.339673131590644 568.55842840712739 0 568.55842840712739 623.27945805924537 0 0 0 0 88.764810814631346 534.53481842736437 0 534.53481842736437 336.84036605018264 0 0 0 0 157.65634276715718 550.2537857337411 0 550.2537857337411 338.47279927541967 0 0 0 0 505.00993410578667 398.97626307136306 0 398.97626307136306 107.21913088728252 0 0 0 0 102.27634591653623 170.90877658429963 0 170.90877658429963 36.670718715217845 0 0 0 0 -42.911943816206986 76.862160720396787 0 76.862160720396787 60.335459773970797 0 0 0 0 762.74631664518529 269.84808979003083 0 269.84808979003083 60.708415500364936 0 0 0 0 101.66444424006477 209.53463332327374 0 209.53463332327374 126.81096717236323 0 0 0 0 480.65558964845513 459.96821514980547 0 459.96821514980547 441.111411364589 0 0 0 0 1249.0402554446573 1182.0847538111848 0 1182.0847538111848 691.99388209262179 0 0 0 0 16.646929170121439 122.84616047847157 0 122.84616047847157 203.47006493550907 0 0 0 0 874.60579680224237 310.01389796611102 0 310.01389796611102 -76.089715754882491 0 0 0 0 5.2462313118921315 5.8152811082542541 0 5.8152811082542541 11.359943556092929 0 0 0 0 1934.0589266028437 821.00737574596769 0 821.00737574596769 147.95846817652273 0 0 0 0 854.77578759839889 472.62973715509906 0 472.62973715509906 45.50705914610171 0 0 0 0 1868.9611731748519 1129.8403021975482 0 1129.8403021975482 387.35175981257271 0 0 0 0 0.69784713947247923 2.2963448917335541 0 2.2963448917335541 6.9728107068738154 0 0 0 0 -774.50735985935171 522.27946958841312 0 522.27946958841312 273.43214572561556 0 0 0 0 -536.23813506278748 682.8961697996383 0 682.8961697996383 -360.97745742448387 0 0 0 0 -375.71026576019904 1212.2171429111854 0 1212.2171429111854 1056.2196506113105 0 0 0 0 -426.68620287100339 513.65756939391815 0 513.65756939391815 388.0812549021939 0 0 0 0 -936.56073754851241 70.733009562865846 0 70.733009562865846 102.65165570210411 0 0 0 0 -946.74450912605244 728.50342789007664 0 728.50342789007664 328.78466209329599 0 0 0 0 1.0760789650338012 11.532946413348689 0 11.532946413348689 -1.9492707646125922 0 0 0 0 -905.55233130164197 -13.174885334210558 0 -13.174885334210558 28.956360522013711 0 0 0 0 5.2940742606516906 7.0930538327022106 0 7.0930538327022106 18.541218525974074 0 0 0 0 124.50959100154478 510.50544558152274 0 510.50544558152274 484.30080097309838 0 0 0 0 4.8751909124766826 117.67577282224011 0 117.67577282224011 -529.20725285552726 0 0 0 0 8.3740670955914194 35.630954018118238 0 35.630954018118238 5.6088698674696786 0 0 0 0 -230.45556907999708 41.024581250756455 0 41.024581250756455 14.087014641630958 0 0 0 0 90.256040728954531 4.6338600805656824 0 4.6338600805656824 -7.471697765729914 0 0 0 0 -391.38492318797762 97.89486502590421 0 97.89486502590421 39.084516612696461 0 0 0 0 7.166938727293477 35.679005678305565 0 35.679005678305565 0.90269890852094647 0 0 0 0 115.57370363472864 35.313835390657687 0 35.313835390657687 -40.013791257944831 0 0 0 0 -123.96215886703249 83.659299263957564 0 83.659299263957564 -8.1671486240775266 0 0 0 0 -176.98841984552564 97.474797481334463 0 97.474797481334463 -2.4309769255978608 0 0 0 0 68.680045378390787 64.759185690626055 0 64.759185690626055 -93.164049379560311 0 0 0 0 66.612842095957603 55.694572768890794 0 55.694572768890794 -8.4654085348010994 0 0 0 0 61.432117346346786 26.268296512063898 0 26.268296512063898 3.8708221031720313 0 0 0 0 38.730139099836379 -26.090823850183824 0 -26.090823850183824 -99.201670195112456 0 0 0 0 1004.9854899702295 714.29620624683412 0 714.29620624683412 311.46148709460249 0 0 0 0 19.42088122165255 -5.8054325997190599 0 -5.8054325997190599 -3.1981265477571057 0 0 0 0 523.3927304741992 526.62871944166727 0 526.62871944166727 320.88169207001374 0 0 0 0 721.02465179470164 -116.53077629819018 0 -116.53077629819018 77.142392144189216 0 0 0 0 32.668410101696033 -7.3192855309750815 0 -7.3192855309750815 0.50597278578751315 0 0 0 0 917.09197545172219 984.19955978809412 0 984.19955978809412 1355.981142594821 0 0 0 0 1708.5443568639093 217.5101449077647 0 217.5101449077647 257.5807635780111 0 0 0 0 989.66069514641276 1087.6456591321521 0 1087.6456591321521 694.176485415961 0 0 0 0 414.21875783128235 315.70224533194062 0 315.70224533194062 167.08480530299494 0 0 0 0 742.53050360107591 592.19534458669114 0 592.19534458669114 186.45312529276998 0 0 0 0 346.83466617747763 647.30007861952981 0 647.30007861952981 407.34767157298847 0 0 0 0 972.26101427070898 785.6322511720482 0 785.6322511720482 340.19053597416723 0 0 0 0 877.79403721441849 1000.2927119069536 0 1000.2927119069536 877.96069226645568 0 0 0 0 653.35522646084428 527.47889345591557 0 527.47889345591557 437.08140420324708 0 0 0 0 7.7105603575182755 -0.55883896269441991 0 -0.55883896269441991 -1.5722595337913603 0 0 0 0 1283.7801876672784 1071.4588293775882 0 1071.4588293775882 474.37239765073173 0 0 0 0 1157.0093162608 1389.6602216636447 0 1389.6602216636447 820.26362372579388 0 0 0 0 153.22260163694955 721.85047722965828 0 721.85047722965828 217.04092319861229 0 0 0 0 -114.6407385124985 690.90283866591017 0 690.90283866591017 591.77988373473636 0 0 0 0 -49.837728299080482 626.40555437538205 0 626.40555437538205 473.67779413069366 0 0 0 0 104.59428135033158 632.15200391732196 0 632.15200391732196 605.51821571583423 0 0 0 0 351.9997518103628 794.58111810691844 0 794.58111810691844 454.37866113454947 0 0 0 0 511.78438287010067 522.56431434756087 0 522.56431434756087 443.95074571699661 0 0 0 0 155.25245544160862 693.15785948306802 0 693.15785948306802 543.32020735285732 0 0 0 0 483.77983019912426 513.11514223739323 0 513.11514223739323 -13.154378578037722 0 0 0 0 514.09555665366861 593.14311878372428 0 593.14311878372428 112.70861849339417 0 0 0 0 468.82665477424598 311.38893169865696 0 311.38893169865696 121.00993124416857 0 0 0 0 345.26534246154188 159.66326617212326 0 159.66326617212326 -235.8885898725548 0 0 0 0 426.90398290920712 344.06850370954635 0 344.06850370954635 122.34402873892395 0 0 0 0 381.6826954780845 590.55416508356211 0 590.55416508356211 -70.486766892207015 0 0 0 0 60.181406303527183 -40.066194432234624 0 -40.066194432234624 -462.50169426125831 0 0 0 0 345.1222520250376 496.95655479864217 0 496.95655479864217 -261.76451157747942 0 0 0 0 -56.911186854777043 990.57001837891585 0 990.57001837891585 -50.038244853210927 0 0 0 0 -101.4861965079217 806.56368886513883 0 806.56368886513883 417.99916619545547 0 0 0 0 -329.38526081843884 765.62670758051536 0 765.62670758051536 580.34203619010805 0 0 0 0 -13.191829866060289 869.72993212558504 0 869.72993212558504 52.817931809651782 0 0 0 0 -203.07855062099406 1321.7088364186493 0 1321.7088364186493 -343.630703334391 0 0 0 0 -374.47759901764584 1112.5965300711396 0 1112.5965300711396 287.09541381875169 0 0 0 0 295.05234072414896 807.51642470282241 0 807.51642470282241 -1094.891759526392 0 0 0 0 -349.8563249576182 -530.24607033160646 0 -530.24607033160646 -3511.7676567562157 0 0 0 0 -0.95314592139373389 0.59682485492317738 0 0.59682485492317738 -0.96051392417294323 0 0 0 0 68.096631463767153 869.34122798478984 0 869.34122798478984 -908.46638518392137 0 0 0 0 -821.25096984847914 170.3822805946038 0 170.3822805946038 342.74914175912272 0 0 0 0 121.30730275297174 203.5020305158705 0 203.5020305158705 291.23618395093217 0 0 0 0 -1.7083428176641817 2.0477393340989707 0 2.0477393340989707 -1.3689762535022325 0 0 0 0 -368.64442564995261 -383.99292769491876 0 -383.99292769491876 238.68818641393591 0 0 0 0 398.36386080182274 455.78413373628428 0 455.78413373628428 274.64286858631203 0 0 0 0 215.78582416151039 172.76168348979263 0 172.76168348979263 158.08876189145531 0 0 0 0 299.63648708856635 176.44481823331625 0 176.44481823331625 -115.73112510701321 0 0 0 0 50.836191813697951 7.9721832239647483 0 7.9721832239647483 158.58660188864997 0 0 0 0 119.73520474424367 364.34962244106828 0 364.34962244106828 209.68923097108382 0 0 0 0 -4.2553967021707066 5.6510912713819081 0 5.6510912713819081 15.865852452123391 0 0 0 0 -9.1964085652516587 31.330890922407889 0 31.330890922407889 -11.932515878244885 0 0 0 0 -6.4026929410853057 10.6566639477437 0 10.6566639477437 -17.17864167151042 0 0 0 0 2.7363510772265727 27.256703714170726 0 27.256703714170726 -11.410242365313024 0 0 0 0 5.5700991497833456 35.770701610364995 0 35.770701610364995 -14.085392086883076 0 0 0 0 -5.4434525193438787 31.689504347570498 0 31.689504347570498 -30.942673735218875 0 0 0 0 25.905806597752189 47.585256711360103 0 47.585256711360103 -17.841323564083723 0 0 0 0 5.1941199041175423 36.838281761749386 0 36.838281761749386 -16.635477421294127 0 0 0 0 16.611472844148011 38.492828908704723 0 38.492828908704723 -17.564672214000893 0 0 0 0 -8.5190701156550688 14.961849088948263 0 14.961849088948263 -29.091937223114272 0 0 0 0 209.92557510063671 77.028580435496224 0 77.028580435496224 -71.985838140117266 0 0 0 0 20.623297273537901 -42.084972207036117 0 -42.084972207036117 153.8874012827946 0 0 0 0 -214.59679485765082 224.612561203734 0 224.612561203734 798.95828143065046 0 0 0 0 5.2644639383699712 23.38145425925218 0 23.38145425925218 20.271258027304796 0 0 0 0 -6.8947629543248539 25.83071572519086 0 25.83071572519086 -38.067320790033108 0 0 0 0 -4.9991825406395947 108.94465580654196 0 108.94465580654196 -71.892449930534127 0 0 0 0 25.996532357328533 48.681626048504086 0 48.681626048504086 -17.732451171985304 0 0 0 0 15.228463137980725 46.051048867764621 0 46.051048867764621 -12.156301804818213 0 0 0 0 -10.997555559567523 42.984193599931693 0 42.984193599931693 -18.736479363037631 0 0 0 0 -0.7485184244565275 55.315702677956544 0 55.315702677956544 -22.631041618611661 0 0 0 0 22.254162388053373 49.855263373181515 0 49.855263373181515 -17.904389351482678 0 0 0 0 -8.9124024007251137 188.46389425502821 0 188.46389425502821 63.686327624756814 0 0 0 0 -127.87344326970924 -21.991720916394115 0 -21.991720916394115 -2.1480909662441263 0 0 0 0 120.62492426860263 47.586676677998412 0 47.586676677998412 -115.84396374240168 0 0 0 0 129.48080733991446 -14.684853135157027 0 -14.684853135157027 -127.46134226330105 0 0 0 0 -44.600195824918046 103.01534113886737 0 103.01534113886737 43.226589922705898 0 0 0 0 -20.418648727732943 106.25499222549843 0 106.25499222549843 39.530347599080415 0 0 0 0 -27.548096244756806 50.334811412084427 0 50.334811412084427 -41.800211749699166 0 0 0 0 -17.538536116026819 16.068801411940324 0 16.068801411940324 21.305543062202673 0 0 0 0 17.769025239060284 89.785995976893901 0 89.785995976893901 4.4584132932941429 0 0 0 0 -29.483270646509482 57.642419476141185 0 57.642419476141185 -1.5963223002181621 0 0 0 0 3.9776794392887567 12.630620786381741 0 12.630620786381741 0.162810849604341 0 0 0 0 -34.694301149276725 69.03767515940126 0 69.03767515940126 12.561332033837971 0 0 0 0 1.2382675810864612 30.638495099793388 0 30.638495099793388 -29.589881764633873 0 0 0 0 -51.508764030710154 79.943727627905901 0 79.943727627905901 3.6219404269722872 0 0 0 0 6.2433080305090698 93.966662417615225 0 93.966662417615225 31.821017867252522 0 0 0 0 78.136233818986511 37.904480018467439 0 37.904480018467439 -34.646016159642386 0 0 0 0 66.37278943417914 70.520210182403389 0 70.520210182403389 -43.490769445104888 0 0 0 0 24.830363321969344 82.236629223549244 0 82.236629223549244 -33.813514970082906 0 0 0 0 24.966074423977261 47.65862393286443 0 47.65862393286443 -17.809232972533209 0 0 0 0 52.735587635132106 51.168425980198663 0 51.168425980198663 -26.269899992244973 0 0 0 0 2.5773229052998516 33.748816120246914 0 33.748816120246914 -24.696484365118266 0 0 0 0 -56.844767563694404 29.819036992199472 0 29.819036992199472 -97.727819673869817 0 0 0 0 -74.369262754327792 94.019729693613044 0 94.019729693613044 -83.720797323295301 0 0 0 0 22.217894344084925 -1.0402456918745884 0 -1.0402456918745884 19.115830270744482 0 0 0 0 286.27725818991712 -1.7104389683045156 0 -1.7104389683045156 -108.22603088699543 0 0 0 0 49.111033355609834 59.552124717858533 0 59.552124717858533 -32.515172625797277 0 0 0 0 2.0347152220794413 2.2431781295319695 0 2.2431781295319695 5.0122490394827253 0 0 0 0 -46.713503049097199 45.563607378397137 0 45.563607378397137 -9.8373727743528434 0 0 0 0 -47.832248335067561 104.62517875402409 0 104.62517875402409 -99.595720100973267 0 0 0 0 -107.78448897962153 67.564502292178076 0 67.564502292178076 -15.174952716293774 0 0 0 0 -14.056501583405407 103.86145986438532 0 103.86145986438532 -77.382636094807822 0 0 0 0 -17.732797422624571 97.885159262572415 0 97.885159262572415 -22.057179886789527 0 0 0 0 -40.037454049277585 63.964066956243187 0 63.964066956243187 -30.039492311794675 0 0 0 0 -21.027715900956082 102.29682528141439 0 102.29682528141439 -154.44778335946467 0 0 0 0 -33.050559301293106 48.443740837137739 0 48.443740837137739 -125.24827794168232 0 0 0 0 -133.33617037944168 172.44992421499774 0 172.44992421499774 -238.54301460381248 0 0 0 0 0.641539346728905 1.1776614118248858 0 1.1776614118248858 -2.4622157523331083 0 0 0 0 -1.1294359828825691 -42.701832653317979 0 -42.701832653317979 -335.28666068904931 0 0 0 0 -3.3841467725817438 -26.701179716427532 0 -26.701179716427532 -87.606189435711713 0 0 0 0 1.0866161090143436 3.4855874031618939 0 3.4855874031618939 -4.7935723238140326 0 0 0 0 20.72479509303048 11.480809327417319 0 11.480809327417319 -5.6882436132218572 0 0 0 0 21.503442519358941 9.0234234937524889 0 9.0234234937524889 -39.385492099296243 0 0 0 0 -57.228708890375856 25.986371301740292 0 25.986371301740292 23.670653071512788 0 0 0 0 -73.915966197662556 129.70126015717642 0 129.70126015717642 -96.252590069474536 0 0 0 0 8.7649276215524878 20.532112135319039 0 20.532112135319039 -60.64610563720089 0 0 0 0 -71.078777301142509 28.117227818078391 0 28.117227818078391 -253.02722743263439 0 0 0 0 -10.451407255277445 110.7624122568559 0 110.7624122568559 -233.41909205397678 0 0 0 0 -11.299163135687479 161.97789729567344 0 161.97789729567344 -236.78863462314621 0 0 0 0 0.39328158110809142 0.67216319045697048 0 0.67216319045697048 1.1833855841438776 0 0 0 0 430.30971150680125 -176.75666574876777 0 -176.75666574876777 -102.56533512205351 0 0 0 0 -121.83456690272578 174.20936722755687 0 174.20936722755687 -219.19404398751067 0 0 0 0 64.265868110600422 52.239899774322112 0 52.239899774322112 -146.17802517893142 0 0 0 0 107.03325761562701 147.26297294851975 0 147.26297294851975 133.1108468449238 0 0 0 0 -24.950330494564696 60.879969690195139 0 60.879969690195139 -124.64266890224644 0 0 0 0 0.25146345710047058 3.8863800850503338 0 3.8863800850503338 -4.6734086480335293 0 0 0 0 -22.258926450424042 17.920560813618067 0 17.920560813618067 -9.6183449761156226 0 0 0 0 83.950978037880873 94.802506437387819 0 94.802506437387819 63.780224992631702 0 0 0 0 84.676450776016281 86.227656570916224 0 86.227656570916224 71.4828461626239 0 0 0 0 106.76597062179189 110.86582229831129 0 110.86582229831129 41.504246636592143 0 0 0 0 102.76271163790261 92.244642560621287 0 92.244642560621287 21.566489522971096 0 0 0 0 102.81569490957372 91.883894215005739 0 91.883894215005739 11.03025508398423 0 0 0 0 113.97304068904305 98.732892818296023 0 98.732892818296023 0.016706644913938362 0 0 0 0 88.082702930836604 9.376771646265297 0 9.376771646265297 -26.555450034735259 0 0 0 0 104.49797172550097 72.209251122130809 0 72.209251122130809 7.1018174206546973 0 0 0 0 -13.521468162129167 8.4137943610548973 0 8.4137943610548973 9.2119011530994612 0 0 0 0 -0.96687248775324974 0.5461956807845354 0 0.5461956807845354 1.3116857344052306 0 0 0 0 93.586071666828502 81.76662350650804 0 81.76662350650804 -0.0069338863322646223 0 0 0 0 65.314772876285133 72.917099613121536 0 72.917099613121536 47.307400552577747 0 0 0 0 53.748038065772562 42.900686697117635 0 42.900686697117635 2.43452590987863 0 0 0 0 -2.655865251531381 6.6436438250563654 0 6.6436438250563654 -6.5412177089830834 0 0 0 0 59.067370123062574 35.831281701723128 0 35.831281701723128 10.859473653988971 0 0 0 0 17.572587843140354 36.142739803734003 0 36.142739803734003 32.740500587882707 0 0 0 0 3.295294882307644 7.028061351928045 0 7.028061351928045 -26.462253314201007 0 0 0 0 -13.862375105003593 11.22562800932792 0 11.22562800932792 10.141277946124319 0 0 0 0 -6.5297405199380592 6.5934265097457683 0 6.5934265097457683 -10.783364818766131 0 0 0 0 -4.3145471955940593 8.4530172713421052 0 8.4530172713421052 -13.930593773598957 0 0 0 0 -0.04237895886762999 15.79069762799918 0 15.79069762799918 -16.911366379739775 0 0 0 0 4.7603026179585868 26.258648426025502 0 26.258648426025502 -30.407924445244134 0 0 0 0 2.10589804108713 28.450796843620992 0 28.450796843620992 0.64221500353596639 0 0 0 0 -6.9544236790461582 16.3996444119839 0 16.3996444119839 14.743964500878064 0 0 0 0 28.275630652409745 -43.014356023915752 0 -43.014356023915752 8.6642056547061657 0 0 0 0 -7.3258209882187657 43.082658021252428 0 43.082658021252428 24.386421892690123 0 0 0 0 -0.92498560798136964 5.2325509884094288 0 5.2325509884094288 -6.0443413486074178 0 0 0 0 -17.405879548266967 35.846645084457123 0 35.846645084457123 27.618552430460113 0 0 0 0 19.657730591650761 46.530537769758666 0 46.530537769758666 -19.076335771809681 0 0 0 0 35.849219566807733 -28.146524413645693 0 -28.146524413645693 0.72336618634290062 0 0 0 0 -7.4066735696569594 12.435350500007189 0 12.435350500007189 10.519346016990312 0 0 0 0 -0.73639016687930337 1.1108755823531453 0 1.1108755823531453 1.2614183359456632 0 0 0 0 -11.05410986275092 1.7505366082186811 0 1.7505366082186811 61.675384824517096 0 0 0 0 -1.6275395882507127 3.7559842468056672 0 3.7559842468056672 0.053237087045729936 0 0 0 0 -5.1322748112797854 15.211900430665992 0 15.211900430665992 6.0150300739660452 0 0 0 0 -8.2016807241364234 8.6917902052472549 0 8.6917902052472549 -6.9239852284936916 0 0 0 0 14.520990150216676 -23.898540289328594 0 -23.898540289328594 -0.39685189666124643 0 0 0 0 -4.8668164386690478 12.502162712669815 0 12.502162712669815 6.2930872398819702 0 0 0 0 -5.5436524348551757 10.989660191477014 0 10.989660191477014 11.454617098846938 0 0 0 0 24.729828186986197 26.372383890225137 0 26.372383890225137 -14.903172481739603 0 0 0 0 23.502049477436231 33.154136217330233 0 33.154136217330233 21.581223891302216 0 0 0 0 -1.3605727904405285 16.233901217139646 0 16.233901217139646 0.29230292467400432 0 0 0 0 -2.5805874845518701 15.302238781987398 0 15.302238781987398 0.20380015654518502 0 0 0 0 -2.0061214925990498 14.388342685858333 0 14.388342685858333 2.2816180657682708 0 0 0 0 -6.2222530808103329 17.290516239823774 0 17.290516239823774 2.8450260891986545 0 0 0 0 -3.6184039889703854 16.548529864459852 0 16.548529864459852 0.043516301899217069 0 0 0 0 -4.0462246494062128 15.651754902981338 0 15.651754902981338 1.9774593426845968 0 0 0 0 -1.6544090637471527 19.009847870227532 0 19.009847870227532 -4.3644373644492589 0 0 0 0 -11.767275087702728 -5.7538692691123288 0 -5.7538692691123288 47.666273597656982 0 0 0 0 -3.7365170864068205 12.142617285033339 0 12.142617285033339 -5.4401975441323884 0 0 0 0 -2.1470790452840447 12.486923579042923 0 12.486923579042923 -8.1875424752943218 0 0 0 0 -7.9439736430649646 9.1517562617809745 0 9.1517562617809745 -5.8912038870948891 0 0 0 0 -14.350277146419103 9.0280510273587424 0 9.0280510273587424 12.237632884105551 0 0 0 0 0.35692719021479036 1.9335932313215096 0 1.9335932313215096 -1.7630694749452722 0 0 0 0 -14.437591722409707 11.396182377560763 0 11.396182377560763 17.746875637563789 0 0 0 0 -14.410374833802052 22.621421935313265 0 22.621421935313265 -5.6799953637555518 0 0 0 0 -4.8857531400681182 12.318371108900465 0 12.318371108900465 -2.9204559721183614 0 0 0 0 -6.4267043197011731 9.296332516349338 0 9.296332516349338 -0.40253833060951472 0 0 0 0 -2.2702140157452959 13.189708543068264 0 13.189708543068264 -5.4724810414481908 0 0 0 0 -18.73761772865538 4.2598269655708236 0 4.2598269655708236 0.90689008930772452 0 0 0 0 -3.2627178862967412 13.611566322313593 0 13.611566322313593 -2.5978170937924006 0 0 0 0 4.7190824898372057 8.4964943432415794 0 8.4964943432415794 4.0825271173079187 0 0 0 0 -3.6169540999459002 3.2126494837374366 0 3.2126494837374366 0.4112694398811243 0 0 0 0 -0.63287600434705382 -68.553921475257084 0 -68.553921475257084 17.953715891599131 0 0 0 0 -305.16214550134464 -2.1587646982770821 0 -2.1587646982770821 262.39346654672408 0 0 0 0 -30.402223648867221 341.37503062776523 0 341.37503062776523 -306.45995826416765 0 0 0 0 -34.633150448782544 23.181141640601709 0 23.181141640601709 71.948091103371098 0 0 0 0 -22.383295116214867 51.828364101937041 0 51.828364101937041 2.2585573830911017 0 0 0 0 269.56169124316511 -78.666200992425729 0 -78.666200992425729 -152.26560455739673 0 0 0 0 -226.41769555848441 -36.681731503755145 0 -36.681731503755145 115.61427154977719 0 0 0 0 -1.8411480605217463 2.474808735209141 0 2.474808735209141 -0.72142638056818953 0 0 0 0 -14.780723202689813 2.9358867661521941 0 2.9358867661521941 -0.31387513389123356 0 0 0 0 -140.88293225872621 -5.9797679642142612 0 -5.9797679642142612 79.241902476162977 0 0 0 0 -133.20762654473583 116.89580497589077 0 116.89580497589077 63.02937278823083 0 0 0 0 199.09930318018451 303.89743189106957 0 303.89743189106957 137.77885534481175 0 0 0 0 0.14006103613121468 2.7490895884805013 0 2.7490895884805013 0.34833988719225317 0 0 0 0 -428.55407556220598 244.52090531187423 0 244.52090531187423 299.14122745319037 0 0 0 0 -5.9473884039798008 6.5839530926168521 0 6.5839530926168521 -3.8326945284175338 0 0 0 0 12.700324927551264 88.415141134562873 0 88.415141134562873 261.87678746195888 0 0 0 0 88.529236323094665 53.505272726633848 0 53.505272726633848 -43.946431727868912 0 0 0 0 14.192961724096676 60.725624620536109 0 60.725624620536109 28.176999620962306 0 0 0 0 63.362752696455573 -6.1897272182104643 0 -6.1897272182104643 -182.30258373447577 0 0 0 0 223.39665025287832 265.66495080955792 0 265.66495080955792 -39.174402557691792 0 0 0 0 346.69939414318651 -62.491436334938044 0 -62.491436334938044 -570.45035753671982 0 0 0 0 43.818364534316061 0.26644828403004794 0 0.26644828403004794 -126.41576721340243 0 0 0 0 -404.34222892278922 -192.45997204130254 0 -192.45997204130254 -178.39029916862637 0 0 0 0 11.208957227966948 11.412100580979995 0 11.412100580979995 -40.217483276996063 0 0 0 0 -201.33507560729049 -54.816067053074221 0 -54.816067053074221 -60.046890463589079 0 0 0 0 -64.286022945419973 -32.462397454262828 0 -32.462397454262828 43.464251654808322 0 0 0 0 -2.2641392155822047 3.1402994858866293 0 3.1402994858866293 -16.346663467250664 0 0 0 0 6.7408738721278496 38.701770539508288 0 38.701770539508288 -89.699782692070585 0 0 0 0 4.7330861930442154 -1.47434187970849 0 -1.47434187970849 -0.86506039636364562 0 0 0 0 40.174952291832597 -1.5937901923061872 0 -1.5937901923061872 -68.748822960355028 0 0 0 0 1.4723681653890708 -51.893882471401866 0 -51.893882471401866 -13.016405114358349 0 0 0 0 31.107503647296198 25.640695004762165 0 25.640695004762165 -14.819401538785314 0 0 0 0 7.7606727555947259 2.7647226899457422 0 2.7647226899457422 -2.619302136779794 0 0 0 0 4.4733158390008612 -2.9850778559448372 0 -2.9850778559448372 -68.740921156953846 0 0 0 0 0.90039983853785088 11.092555793013162 0 11.092555793013162 -75.644739265691896 0 0 0 0 18.552264885875047 8.0726146874185361 0 8.0726146874185361 -167.16824994168155 0 0 0 0 15.95284936457756 17.530825686571916 0 17.530825686571916 -75.045445237956301 0 0 0 0 6.4768968361859152 35.140461205606698 0 35.140461205606698 -100.09715380424313 0 0 0 0 -4.610535749077826 45.733573824349151 0 45.733573824349151 -55.105231365305372 0 0 0 0 10.122973649551568 51.206302610371495 0 51.206302610371495 -92.256282435992034 0 0 0 0 10.590490478036372 65.881456411367253 0 65.881456411367253 -84.7888113818899 0 0 0 0 5.6431192320087575 59.309276440457324 0 59.309276440457324 -21.332383843015123 0 0 0 0 -1.8577876372601168 88.160121788685046 0 88.160121788685046 -21.799563378568564 0 0 0 0 -23.051874168302376 46.629638645575916 0 46.629638645575916 -38.319604289250861 0 0 0 0 -18.662748894239385 44.367934129996563 0 44.367934129996563 -37.072109200731155 0 0 0 0 90.570060545855085 305.06419392109092 0 305.06419392109092 318.25506409518493 0 0 0 0 247.3813079481115 438.74976109487761 0 438.74976109487761 393.32800680448781 0 0 0 0 52.775744688754457 354.16469937306056 0 354.16469937306056 642.14245486129948 0 0 0 0 -15.226576955799885 41.273976661691052 0 41.273976661691052 -88.348765349765017 0 0 0 0 -14.606649474900507 42.491886369811787 0 42.491886369811787 -34.382237616520257 0 0 0 0 -33.246107173588825 233.28920644454411 0 233.28920644454411 505.49414481590793 0 0 0 0 -5.0482741307833976 52.784556517156489 0 52.784556517156489 -56.807444751648291 0 0 0 0 -15.369459920744703 31.529593357387057 0 31.529593357387057 -73.908011329585861 0 0 0 0 221.88104255157668 48.263956377029899 0 48.263956377029899 -59.229571910953382 0 0 0 0 4.3648401404752235 10.737130903446413 0 10.737130903446413 -9.7006689934121937 0 0 0 0 -34.181476435738659 208.88153824711287 0 208.88153824711287 1348.4968563618168 0 0 0 0 313.91017730376916 708.83294313056831 0 708.83294313056831 851.82954884202627 0 0 0 0 590.82615190062643 239.97512623692637 0 239.97512623692637 578.85717116556316 0 0 0 0 24.722082552540087 286.13097270810431 0 286.13097270810431 1050.5572156865255 0 0 0 0 9.7190095815458335 362.68852081444538 0 362.68852081444538 662.43559005764473 0 0 0 0 314.55718844805233 741.42595874407016 0 741.42595874407016 798.10698424839939 0 0 0 0 -13.279827100639494 23.438363038811055 0 23.438363038811055 -18.667202499010628 0 0 0 0 127.3842579795637 361.61664663602437 0 361.61664663602437 390.36064674671434 0 0 0 0 -5.3876164391913335 53.322651421967748 0 53.322651421967748 -10.10958980457508 0 0 0 0 139.86689266746271 424.34153385043464 0 424.34153385043464 664.00870385285089 0 0 0 0 -1.269092109635011 1.046329629911142 0 1.046329629911142 -5.4333569344681099 0 0 0 0 -0.11938053813537408 26.437735061666444 0 26.437735061666444 -62.321201297101652 0 0 0 0 0.079672818160673842 0.89439894816415233 0 0.89439894816415233 0.35724734872931485 0 0 0 0 29.128769805127376 20.111236290547822 0 20.111236290547822 -115.6879151584435 0 0 0 0 -21.469655704240722 -11.546668561079059 0 -11.546668561079059 -32.54322902016429 0 0 0 0 22.438302559196018 45.928318550091717 0 45.928318550091717 -69.642469836064265 0 0 0 0 15.550770126577845 32.846201404798194 0 32.846201404798194 -66.522270932946412 0 0 0 0 -22.583133285331115 29.58293129693098 0 29.58293129693098 -21.38959648220807 0 0 0 0 -50.248245330752979 95.102497623043746 0 95.102497623043746 12.966015512643935 0 0 0 0 -122.99712759910835 183.6645506938512 0 183.6645506938512 -210.15754081680643 0 0 0 0 -52.790532961746067 45.95467571503832 0 45.95467571503832 -150.56321949227276 0 0 0 0 -421.29492347712608 166.05209335517679 0 166.05209335517679 -182.41176989514497 0 0 0 0 -36.580860781294177 123.61856034631819 0 123.61856034631819 -498.09527978090409 0 0 0 0 38.669696413266365 -6.0678387043915336 0 -6.0678387043915336 -189.1051041009996 0 0 0 0 39.261292489063635 -15.089605250337627 0 -15.089605250337627 -270.26254912240802 0 0 0 0 73.419953464195714 -14.618811199132324 0 -14.618811199132324 156.77493281167699 0 0 0 0 -5.1848620705370365 3.6600367425542331 0 3.6600367425542331 -1.7651870480501941 0 0 0 0 -157.05568854996091 -87.450163269531913 0 -87.450163269531913 463.00995200247235 0 0 0 0 -327.98940448144276 105.63004539043322 0 105.63004539043322 559.43867952238725 0 0 0 0 -425.38962073385028 221.75528311264316 0 221.75528311264316 428.71270630360232 0 0 0 0 -154.15028461832298 178.5456288305495 0 178.5456288305495 391.51986306053004 0 0 0 0 -231.80870177871566 57.810310683289572 0 57.810310683289572 238.45629558227665 0 0 0 0 -243.38277594991814 -14.637890746613266 0 -14.637890746613266 300.42563860032533 0 0 0 0 -666.16227369252738 -153.16526470617464 0 -153.16526470617464 23.777522404801857 0 0 0 0 -10.041355864763318 3.9834355033235624 0 3.9834355033235624 0.30354392541084962 0 0 0 0 -158.9502694230614 49.537235865991534 0 49.537235865991534 -13.304923154049902 0 0 0 0 -197.8585724381046 -83.377237137814518 0 -83.377237137814518 -95.797149463418464 0 0 0 0 -224.84615059585485 -67.27507292185328 0 -67.27507292185328 187.20281905196316 0 0 0 0 -98.232624284810299 123.05917368582959 0 123.05917368582959 48.106670744018629 0 0 0 0 87.444519248890629 311.00076722293136 0 311.00076722293136 126.14483769296203 0 0 0 0 -43.457660753199889 80.424797518560808 0 80.424797518560808 108.58010646668845 0 0 0 0 -465.1751178358536 123.1404797563373 0 123.1404797563373 48.339394789458311 0 0 0 0 -95.001076616383216 267.48602633714472 0 267.48602633714472 -395.50619494795683 0 0 0 0 -4.5262743487610919 1.1843344665545743 0 1.1843344665545743 0.54672814750649223 0 0 0 0 -108.4257261142011 -157.07141996696009 0 -157.07141996696009 46.911682981190097 0 0 0 0 -260.731330152601 -508.95318453801156 0 -508.95318453801156 -483.87888811877929 0 0 0 0 -3.6091209708793741 1.6624769967389312 0 1.6624769967389312 0.51133066560868201 0 0 0 0 -109.37815492643858 446.65917705456377 0 446.65917705456377 -249.80409261707973 0 0 0 0 -6.0330315828310574 2.0140825153712996 0 2.0140825153712996 -0.47882745352464973 0 0 0 0 -8.3653503839450423 1.8933710032288218 0 1.8933710032288218 -0.85912858500815148 0 0 0 0 -85.630040174299211 361.98726300944691 0 361.98726300944691 -222.33578391929768 0 0 0 0 -19.1074384044623 404.42257489035546 0 404.42257489035546 -415.24021018941494 0 0 0 0 -53.406515380076598 385.84110566349409 0 385.84110566349409 -279.56245842530916 0 0 0 0 -25.286828699772741 343.72302811066402 0 343.72302811066402 -355.91572040977189 0 0 0 0 -64.193763261748245 458.38195098584401 0 458.38195098584401 -393.16555176914699 0 0 0 0 -108.31150722847178 514.66001537906232 0 514.66001537906232 -325.9783669456956 0 0 0 0 -24.272815566844656 13.32042059613741 0 13.32042059613741 -1.9157405504029157 0 0 0 0 -1.5527487016670705 1.1703177701597269 0 1.1703177701597269 0.4188776908498788 0 0 0 0 141.52098635215225 133.72694077698543 0 133.72694077698543 132.42863596410461 0 0 0 0 -13.032043347655417 75.05197231155762 0 75.05197231155762 -116.16230834555972 0 0 0 0 119.02849720274389 19.7309276678061 0 19.7309276678061 -119.47619465213211 0 0 0 0 163.66702231087402 106.15997298610091 0 106.15997298610091 134.90748058664758 0 0 0 0 24.755545116922804 91.417955686574714 0 91.417955686574714 148.64474989351584 0 0 0 0 -14.421092436241622 10.70522928199037 0 10.70522928199037 -5.0643072363610173 0 0 0 0 63.797171855318084 221.21739610747227 0 221.21739610747227 316.79761625340325 0 0 0 0 69.710482546383901 -33.497976136543002 0 -33.497976136543002 -143.66251465123787 0 0 0 0 -40.017152216085378 261.33537030242223 0 261.33537030242223 530.11760541051626 0 0 0 0 100.55450818810641 78.793873377497221 0 78.793873377497221 -164.53702007631364 0 0 0 0 -11.89676579744264 139.39329035803166 0 139.39329035803166 -33.896179818006203 0 0 0 0 -12.463069016520166 8.9703741636938048 0 8.9703741636938048 -4.1448271193257966 0 0 0 0 59.930010570809827 117.62779166339533 0 117.62779166339533 -387.9862725801645 0 0 0 0 -64.168709446341381 106.09659017558806 0 106.09659017558806 -169.05805862680427 0 0 0 0 -34.760459762529536 -13.155633764266895 0 -13.155633764266895 -147.6199868832191 0 0 0 0 -45.202569594759552 149.7437921188648 0 149.7437921188648 -1.252386721306036 0 0 0 0 -37.402253181349806 -17.933626521009501 0 -17.933626521009501 -163.07412475127057 0 0 0 0 73.702026113289321 64.29804503039486 0 64.29804503039486 -435.48535093488681 0 0 0 0 -5.8869149534648386 51.508875601298314 0 51.508875601298314 -16.978893471419724 0 0 0 0 103.79721057386996 -87.322186504403362 0 -87.322186504403362 -572.49739197809686 0 0 0 0 -7.8787797851075254 7.8199285240034406 0 7.8199285240034406 -5.1581875487914957 0 0 0 0 12.691659282532783 192.69313601259091 0 192.69313601259091 186.55707126300331 0 0 0 0 151.63774411510531 74.893971366200276 0 74.893971366200276 -231.62619848205941 0 0 0 0 17.399793908683932 150.21909376552685 0 150.21909376552685 -6.6406110334319237 0 0 0 0 116.72515591218507 144.91103835196554 0 144.91103835196554 -7.1144988625237602 0 0 0 0 -130.03328708522895 51.317338788830966 0 51.317338788830966 252.47507034261798 0 0 0 0 -15.635329206823371 234.12695931237977 0 234.12695931237977 441.78142851047596 0 0 0 0 -11.968106876689063 9.205898810558125 0 9.205898810558125 -4.4030054937763765 0 0 0 0 -4.7835951148092306 3.8834029507864827 0 3.8834029507864827 -1.7080620944416509 0 0 0 0 0.021369077272538561 425.35741642180074 0 425.35741642180074 579.28418473930469 0 0 0 0 12.469385865938813 1463.4457864516035 0 1463.4457864516035 -1488.0500589854746 0 0 0 0 224.38228121994689 199.04614430890979 0 199.04614430890979 -273.24498796925764 0 0 0 0 -37.082350000368024 -105.32539282250218 0 -105.32539282250218 204.45606195777145 0 0 0 0 -0.56378791903607073 407.44617797978589 0 407.44617797978589 -367.2720107307905 0 0 0 0 100.95623890802381 -311.64877964447987 0 -311.64877964447987 -998.33774544243897 0 0 0 0 -168.61860602244269 -22.472549204634561 0 -22.472549204634561 -123.84407203403134 0 0 0 0 21.525687941961223 -35.062072380544123 0 -35.062072380544123 -49.045397050223983 0 0 0 0 -2.673613651493298 1.6246645790989263 0 1.6246645790989263 -2.1467525562135137 0 0 0 0 0.16558749109026394 198.79696008802239 0 198.79696008802239 821.01511061584461 0 0 0 0 19.272190398442035 57.578978950637975 0 57.578978950637975 82.84855360119036 0 0 0 0 58.6450906542741 73.675504173148511 0 73.675504173148511 -21.233983525926305 0 0 0 0 86.64547231047618 15.188298525135906 0 15.188298525135906 -114.82415083607339 0 0 0 0 391.29478113764344 336.14015004570683 0 336.14015004570683 842.83330739415032 0 0 0 0 0.20813480006108875 396.70589471593485 0 396.70589471593485 1065.9722071119104 0 0 0 0 2.4230257461463225 0.97149201761794757 0 0.97149201761794757 1.7509944412657301 0 0 0 0 -72.2974373282741 301.38296349136363 0 301.38296349136363 1660.6509319704492 0 0 0 0 58.061239461723744 181.18789965589349 0 181.18789965589349 918.14689467291828 0 0 0 0 6.863732115823808 5.7623038739291701 0 5.7623038739291701 -4.7104390844276551 0 0 0 0 30.347955492114124 247.03509730130827 0 247.03509730130827 812.33286470095391 0 0 0 0 62.656911170270178 249.99477472791114 0 249.99477472791114 502.9846891574507 0 0 0 0 -4.7028653514331324 19.003892264991173 0 19.003892264991173 -14.351273562096559 0 0 0 0 43.473983828986093 263.2528919822762 0 263.2528919822762 832.02152744190971 0 0 0 0 -9.7668473792655277 373.05188286787961 0 373.05188286787961 739.50619399665993 0 0 0 0 -6.3546765907376539 325.25705917997766 0 325.25705917997766 1000.2692136766927 0 0 0 0 -33.625794683939603 422.39743643362999 0 422.39743643362999 796.63711924990457 0 0 0 0 14.044618386929869 373.99734047874153 0 373.99734047874153 707.70874091658698 0 0 0 0 -17.980145834044379 446.47089626687011 0 446.47089626687011 790.61721246094885 0 0 0 0 13.039571875735419 452.33469951268125 0 452.33469951268125 789.7403565594359 0 0 0 0 5.1329997352004284 417.82800548171872 0 417.82800548171872 790.1940188055305 0 0 0 0 -5.2848085444129538 477.83967781317187 0 477.83967781317187 626.67902207788939 0 0 0 0 -4.6373686101978819 320.24538702006794 0 320.24538702006794 560.28800482805309 0 0 0 0 0.010230938113617253 445.48504880443318 0 445.48504880443318 731.14270658566238 0 0 0 0 75.588317617435678 293.10498193233616 0 293.10498193233616 888.53362637453392 0 0 0 0 16.813325826835353 473.2430512680985 0 473.2430512680985 839.53225661231954 0 0 0 0 18.468700649827042 167.18256676953752 0 167.18256676953752 -184.29204556655168 0 0 0 0 38.76609025561811 231.37992796981052 0 231.37992796981052 -349.23690178469769 0 0 0 0 -52.026703767528943 253.4481281177832 0 253.4481281177832 -275.06245639799818 0 0 0 0 -56.900596741619665 314.45487994270479 0 314.45487994270479 -442.86824266495023 0 0 0 0 -83.251279575163608 205.68769860665998 0 205.68769860665998 -298.31725329413166 0 0 0 0 -148.1936985835523 287.73072704064907 0 287.73072704064907 -390.52947524972842 0 0 0 0 -9.9902259882464932 286.2885381806318 0 286.2885381806318 -369.3057993469738 0 0 0 0 -14.955311668880768 277.69351142399682 0 277.69351142399682 -267.95384713750718 0 0 0 0 0.14117634676631496 285.12405850475807 0 285.12405850475807 -331.44670683602817 0 0 0 0 -23.151362712959781 258.53192826877785 0 258.53192826877785 -261.74998632435381 0 0 0 0 -35.555971748603952 291.67424283076616 0 291.67424283076616 -258.19859073663611 0 0 0 0 -32.975591638894144 264.94106529749752 0 264.94106529749752 -231.46264441663516 0 0 0 0 -7.8536826322938396 256.80417034754282 0 256.80417034754282 -282.75262338232278 0 0 0 0 -11.793395223933203 224.13214588308256 0 224.13214588308256 -180.18904471767746 0 0 0 0 -41.038212419637375 237.5172560120136 0 237.5172560120136 -131.9965634408145 0 0 0 0 -1.3198659147869876 163.59229550488089 0 163.59229550488089 -121.20109248021345 0 0 0 0 -22.327769980314315 189.99492795486367 0 189.99492795486367 -143.61457558380789 0 0 0 0 -43.857577508992108 161.55321069866841 0 161.55321069866841 -7.5418125419091666 0 0 0 0 14.885338075776417 191.54528937631039 0 191.54528937631039 -176.95063204333564 0 0 0 0 15.689848903577058 245.0005631050808 0 245.0005631050808 -299.40850322494225 0 0 0 0 50.202912503407333 178.88087070482197 0 178.88087070482197 -184.12070301010681 0 0 0 0 19.443232385766123 125.17782573104523 0 125.17782573104523 -120.44300955189101 0 0 0 0 109.95439859617454 58.428122434917896 0 58.428122434917896 -119.97872401741282 0 0 0 0 94.193899893353091 122.87871502952976 0 122.87871502952976 -178.39420211271499 0 0 0 0 69.757326404926516 39.041399070771149 0 39.041399070771149 -67.699063263778953 0 0 0 0 -4.4404987717700806 84.289498416264905 0 84.289498416264905 -53.68332283662312 0 0 0 0 -10.609976472685503 88.809160584594792 0 88.809160584594792 -50.766651487108902 0 0 0 0 48.741466689872141 104.07101489053093 0 104.07101489053093 -130.20485030740656 0 0 0 0 54.850071630979528 30.865175550901768 0 30.865175550901768 20.241418945621263 0 0 0 0 12.990161964023173 12.225023628583585 0 12.225023628583585 13.358174296663492 0 0 0 0 90.563233961638616 49.198084676383587 0 49.198084676383587 -44.679523370003153 0 0 0 0 58.542724216730448 60.135289850319168 0 60.135289850319168 -22.119903195591178 0 0 0 0 165.89089577834147 87.165708050284593 0 87.165708050284593 34.798071757388243 0 0 0 0 125.56845945707391 30.006430796885979 0 30.006430796885979 -11.422153586870991 0 0 0 0 53.840731951691851 79.66689471076279 0 79.66689471076279 116.97184414769436 0 0 0 0 29.371337842663252 146.43426765577533 0 146.43426765577533 -9.3408633647704846 0 0 0 0 -45.866243962760564 246.52651902709113 0 246.52651902709113 -253.92835425840167 0 0 0 0 42.939481917149351 84.252534131759603 0 84.252534131759603 -227.99924203288947 0 0 0 0 -120.28902991046903 243.91510279482645 0 243.91510279482645 -169.42446877573093 0 0 0 0 -528.53684478233117 380.3667947918475 0 380.3667947918475 -226.43498900929626 0 0 0 0 -413.97741427569781 447.5818371027799 0 447.5818371027799 -328.35763232316822 0 0 0 0 -297.80179227030339 98.08794029047931 0 98.08794029047931 -288.74953625798298 0 0 0 0 -510.32310951700401 478.2834778917022 0 478.2834778917022 -233.52519940025013 0 0 0 0 -484.55614555521015 366.54781109268333 0 366.54781109268333 -419.69718299551459 0 0 0 0 -698.30439020901395 408.92448783035434 0 408.92448783035434 -256.24759238645856 0 0 0 0 -589.05069481804185 597.42894289964761 0 597.42894289964761 -398.6098287351997 0 0 0 0 -422.82963031183544 784.69106586235102 0 784.69106586235102 -1256.8984321800162 0 0 0 0 -1288.9165496710898 548.11328972953197 0 548.11328972953197 -413.84666965814904 0 0 0 0 -357.8668174035156 -191.02685038120671 0 -191.02685038120671 175.28980658520231 0 0 0 0 -10.739545700802076 -0.46250005013949647 0 -0.46250005013949647 -2.2384914128749287 0 0 0 0 -241.62133855051343 388.07359521116268 0 388.07359521116268 -421.93947737181225 0 0 0 0 -98.372794771411463 280.6393402056101 0 280.6393402056101 -523.85929490566195 0 0 0 0 -330.98068806905985 219.61694329239253 0 219.61694329239253 -726.69947624468114 0 0 0 0 -303.04306242673329 380.52146008140517 0 380.52146008140517 -171.63024778094041 0 0 0 0 -253.67924961396557 451.77931481158885 0 451.77931481158885 -305.1349419048056 0 0 0 0 -469.64507430017693 610.54621311890151 0 610.54621311890151 -487.46875701593854 0 0 0 0 -254.00302907655623 374.83362957609643 0 374.83362957609643 -177.69365047886276 0 0 0 0 -898.2749581194239 310.27076774336092 0 310.27076774336092 66.417910942123854 0 0 0 0 -339.67254756503644 87.656792701494851 0 87.656792701494851 63.517220772908473 0 0 0 0 -310.87379355138933 44.706629046465537 0 44.706629046465537 98.926703346747672 0 0 0 0 -239.57579040632663 16.445099292505802 0 16.445099292505802 62.566980560615775 0 0 0 0 -315.22538353781709 93.493236818947707 0 93.493236818947707 46.643512426886446 0 0 0 0 -281.28489290096786 53.327486667067205 0 53.327486667067205 64.222458369076776 0 0 0 0 -268.60310178186137 55.403485428603744 0 55.403485428603744 49.643942166319903 0 0 0 0 -475.8259172751209 239.2379757219569 0 239.2379757219569 21.35572747313563 0 0 0 0 -176.34819252530178 174.06675914981679 0 174.06675914981679 18.200307678108743 0 0 0 0 -170.99237305630049 67.98352903925479 0 67.98352903925479 52.790725156539338 0 0 0 0 -301.94922559288807 101.98126428299929 0 101.98126428299929 60.447444315912435 0 0 0 0 -98.679220662685339 242.86012853608827 0 242.86012853608827 71.205195771111903 0 0 0 0 -220.23390756444405 186.78421385350339 0 186.78421385350339 47.42019006078408 0 0 0 0 -151.28368521769517 604.02038840278692 0 604.02038840278692 -70.598468337346276 0 0 0 0 -501.65332815538932 638.19968836523913 0 638.19968836523913 55.772153375961352 0 0 0 0 -951.57496193134102 434.69695972385489 0 434.69695972385489 158.65236528806417 0 0 0 0 -330.52698983950427 185.0899938216844 0 185.0899938216844 -148.87710693684494 0 0 0 0 -279.66257411372681 304.27968527523262 0 304.27968527523262 -4.6091264935566869 0 0 0 0 -437.5621313114998 372.30772297514341 0 372.30772297514341 69.30072029411167 0 0 0 0 15.232936988615165 310.20925671852638 0 310.20925671852638 -103.12968505645404 0 0 0 0 -259.25234808285313 355.60093934911129 0 355.60093934911129 -98.756504915323603 0 0 0 0 -206.78831593896393 361.08458482346578 0 361.08458482346578 -183.23610067275149 0 0 0 0 -200.40878137081108 371.33404090080512 0 371.33404090080512 -184.24401240555835 0 0 0 0 -205.94373291425632 355.27776507014642 0 355.27776507014642 -159.40168441544665 0 0 0 0 -141.7412429736853 303.08942442350053 0 303.08942442350053 -279.10741506045451 0 0 0 0 -136.09975363451485 325.01756839816517 0 325.01756839816517 -203.15207715333236 0 0 0 0 -90.004773892583216 339.06225955937771 0 339.06225955937771 -322.67475360871504 0 0 0 0 -39.177059079157061 296.3929287516421 0 296.3929287516421 -297.40702991521539 0 0 0 0 -124.2860636141113 397.55284176445639 0 397.55284176445639 -435.81458482358539 0 0 0 0 -92.631962197193843 335.36777207138039 0 335.36777207138039 -325.48387050309248 0 0 0 0 -175.40542373222797 386.30536647753615 0 386.30536647753615 -292.37978022488096 0 0 0 0 13.685553313905075 251.92404433360571 0 251.92404433360571 -398.3382038176278 0 0 0 0 -4.3521569235721245 306.62334596004803 0 306.62334596004803 -356.88088058890571 0 0 0 0 -8.4140311063119952 276.41790424791543 0 276.41790424791543 -330.5270561461075 0 0 0 0 -43.485552797676974 282.7791155768391 0 282.7791155768391 -324.93077627892126 0 0 0 0 -13.839871232408314 252.93581265423381 0 252.93581265423381 -297.13150995719479 0 0 0 0 -101.99199611063068 209.70182841036512 0 209.70182841036512 -318.19353217452226 0 0 0 0 -101.58121195442936 224.35276510909716 0 224.35276510909716 -155.59103151369345 0 0 0 0 -41.07804890757825 151.65151747141863 0 151.65151747141863 -278.63402710262744 0 0 0 0 -0.51188300517378593 164.83981437507646 0 164.83981437507646 -384.24209739559592 0 0 0 0 17.583335071607507 135.34388847467199 0 135.34388847467199 -336.40523563454917 0 0 0 0 -4.124202343039201 237.71649028617685 0 237.71649028617685 -388.46477317161043 0 0 0 0 18.596353416868851 276.99769939437465 0 276.99769939437465 -491.33487238109956 0 0 0 0 38.098083431656278 135.41741122084204 0 135.41741122084204 -500.52466766116413 0 0 0 0 -7.0066595732732821 93.750822446701932 0 93.750822446701932 -359.95619714512395 0 0 0 0 -22.61435108641308 -17.420881699717938 0 -17.420881699717938 -156.66513587853115 0 0 0 0 -6.9054872469500665 70.654195487202216 0 70.654195487202216 -254.48960788888508 0 0 0 0 -123.11503884485501 94.630778791895864 0 94.630778791895864 -142.74461562060606 0 0 0 0 -162.07775415770448 6.0614382034873415 0 6.0614382034873415 -35.387152843853983 0 0 0 0 -757.39572293090907 -272.34278890966516 0 -272.34278890966516 133.77297093506786 0 0 0 0 -95.731654881436953 -1.3552008309670782 0 -1.3552008309670782 -37.425885422491774 0 0 0 0 -55.331114142991282 -35.969876676525018 0 -35.969876676525018 -30.536144512996543 0 0 0 0 -94.853979858062729 68.0223039537251 0 68.0223039537251 88.096098567264562 0 0 0 0 17.359912363378044 -143.60602533902602 0 -143.60602533902602 11.238370921637397 0 0 0 0 -111.39567796183564 -146.16148452875859 0 -146.16148452875859 267.11309647937014 0 0 0 0 -26.777374454912376 50.345140301638367 0 50.345140301638367 -100.99397692336061 0 0 0 0 -50.231016126518256 57.784999788953883 0 57.784999788953883 122.81142066033135 0 0 0 0 -171.50019648737134 -105.67451043819892 0 -105.67451043819892 -54.024820335775075 0 0 0 0 8.6685676702278442 -28.336297283034583 0 -28.336297283034583 -444.81959274600376 0 0 0 0 -95.902897932437327 -5.9741794401797961 0 -5.9741794401797961 -114.08787137648324 0 0 0 0 26.175804540313038 151.78658324554999 0 151.78658324554999 -815.37814346481173 0 0 0 0 -147.13367122025397 -228.36958146590769 0 -228.36958146590769 -604.87388180159542 0 0 0 0 -75.958648631003484 -171.0658347683202 0 -171.0658347683202 -51.227931871935652 0 0 0 0 -621.49444926436115 -341.01466553411956 0 -341.01466553411956 -645.62146912435855 0 0 0 0 -379.40435462597668 10.821616196863033 0 10.821616196863033 -155.18327362203127 0 0 0 0 -112.24731185454645 111.68804982050096 0 111.68804982050096 209.27861236625176 0 0 0 0 -389.29215034544541 -170.32676404569429 0 -170.32676404569429 142.69218551364611 0 0 0 0 -98.693153159387066 384.32163323411078 0 384.32163323411078 -15.039989265729673 0 0 0 0 56.446369057028392 640.78031467479991 0 640.78031467479991 -1479.0607296074595 0 0 0 0 24.450035862796085 470.52344966183227 0 470.52344966183227 -676.65000400994904 0 0 0 0 -180.31545341165679 368.12412582775505 0 368.12412582775505 -581.55731904694767 0 0 0 0 2.2758302155412258 -2.5154964165561502 0 -2.5154964165561502 3.5977361995549018 0 0 0 0 608.72248152095051 345.07026071422115 0 345.07026071422115 -531.67342650100181 0 0 0 0 -808.61909314715592 879.50158711624317 0 879.50158711624317 -565.90607296704911 0 0 0 0 367.69410734000968 242.40374401913732 0 242.40374401913732 -1651.2612966662055 0 0 0 0 3.4087289796608764 13.688892539852755 0 13.688892539852755 -6.294952331055697 0 0 0 0 378.52913999063855 521.8018044847588 0 521.8018044847588 -941.94125655227981 0 0 0 0 62.495654394155736 30.16378625955258 0 30.16378625955258 -1171.1426935301624 0 0 0 0 165.02796369358492 -142.84584645868654 0 -142.84584645868654 -1458.0921732480347 0 0 0 0 -18.162629619074323 139.07803240825706 0 139.07803240825706 -329.07414318140945 0 0 0 0 -752.3008895385201 853.13270430533703 0 853.13270430533703 -779.68486468480842 0 0 0 0 -5.5362370539961994 -4.2116445997305192 0 -4.2116445997305192 -2.0531421248854684 0 0 0 0 0.013650027682740706 -6.8558329358396861 0 -6.8558329358396861 -18.077073857791419 0 0 0 0 36.582441852860484 32.779305823778486 0 32.779305823778486 -3.1176033856863796 0 0 0 0 49.767613354824789 83.293813177100674 0 83.293813177100674 -22.712279213814327 0 0 0 0 22.717967529421532 23.431776534365472 0 23.431776534365472 -27.506503756743633 0 0 0 0 145.26360237819233 -35.329878573828864 0 -35.329878573828864 -65.661559827938618 0 0 0 0 -42.30444038814062 59.178668280317652 0 59.178668280317652 -143.91110361315077 0 0 0 0 -291.75439784236062 -353.70999074872907 0 -353.70999074872907 -372.82499996462866 0 0 0 0 -586.76356487718726 172.4141446376816 0 172.4141446376816 47.901593051992677 0 0 0 0 -603.29425122467774 325.49922748297467 0 325.49922748297467 -127.31909343495499 0 0 0 0 -460.81718060374442 -73.699853928592347 0 -73.699853928592347 -16.253839682911348 0 0 0 0 3.5939420935477528 3.0797821321605596 0 3.0797821321605596 -1.4886154600281856 0 0 0 0 24.747148637582207 47.46670941176707 0 47.46670941176707 -15.595365608158588 0 0 0 0 -302.36424499289086 -8.5187471764802467 0 -8.5187471764802467 87.865284391694331 0 0 0 0 -236.85322491286371 378.87187471313882 0 378.87187471313882 -446.14491052463563 0 0 0 0 -252.54395650880463 311.39276063427315 0 311.39276063427315 -244.29819007359401 0 0 0 0 -223.95802446954161 342.81896037871047 0 342.81896037871047 -225.44532869246905 0 0 0 0 -90.639115057267645 288.1339947291126 0 288.1339947291126 -260.15618666241062 0 0 0 0 -68.143279434982105 344.37027317454704 0 344.37027317454704 -326.67688321516471 0 0 0 0 5.2528440657583815 290.4373901865838 0 290.4373901865838 -423.78614322505018 0 0 0 0 -7.7799120383041327 291.42868715957957 0 291.42868715957957 -423.24303817824693 0 0 0 0 -202.71953111671291 448.14580620882407 0 448.14580620882407 -409.76894178498696 0 0 0 0 -49.545447674079242 174.46871378679498 0 174.46871378679498 -591.28850657007206 0 0 0 0 -3.8097090401172409 339.7472732449678 0 339.7472732449678 -687.439767519405 0 0 0 0 16.840570124254555 123.81142251961137 0 123.81142251961137 -412.34757772266403 0 0 0 0 38.937068058200111 111.42721832958523 0 111.42721832958523 -697.72587065202242 0 0 0 0 -65.029990449963975 79.586042914183054 0 79.586042914183054 -1768.8914700588066 0 0 0 0 -62.577551109095566 214.79864890877434 0 214.79864890877434 -692.53066099778516 0 0 0 0 -608.13952241302047 719.2358245108951 0 719.2358245108951 -631.44441455533524 0 0 0 0 352.92931543668237 -108.9088363028568 0 -108.9088363028568 -2343.3970589221744 0 0 0 0 -7.7894078376450722 9.9360322027690806 0 9.9360322027690806 -7.5110999863148109 0 0 0 0 -91.959191876496334 703.22490335853581 0 703.22490335853581 1093.7597592791499 0 0 0 0 2.6479503683221992 934.78475005256769 0 934.78475005256769 -1929.1020353421372 0 0 0 0 -127.16824658644418 909.02333635625246 0 909.02333635625246 555.37465586025792 0 0 0 0 -109.38165323546491 577.59848656480062 0 577.59848656480062 665.4129832098406 0 0 0 0 -13.196669746157568 406.4087539084685 0 406.4087539084685 885.41323917279078 0 0 0 0 94.421916710329242 463.22983618249782 0 463.22983618249782 646.61090554806287 0 0 0 0 90.904820218880559 458.15296268854217 0 458.15296268854217 634.55687063813093 0 0 0 0 90.367108503081454 435.60865586166346 0 435.60865586166346 650.22247691372468 0 0 0 0 183.76232933912979 308.78886057254113 0 308.78886057254113 872.39374749969647 0 0 0 0 347.50937154546591 411.958676157843 0 411.958676157843 595.29210398084251 0 0 0 0 -24.001223412122272 -152.26208261064585 0 -152.26208261064585 -1267.7395631197032 0 0 0 0 67.699135753740848 112.44891526965512 0 112.44891526965512 -719.81480010515043 0 0 0 0 263.90875835150109 232.89849300196875 0 232.89849300196875 -647.97462268393247 0 0 0 0 157.85877521834482 385.20061834429362 0 385.20061834429362 637.67542464525104 0 0 0 0 232.71754911826429 498.18220059367468 0 498.18220059367468 715.60754071399424 0 0 0 0 -26.487055538804519 25.361959399838366 0 25.361959399838366 -16.292809496988305 0 0 0 0 -44.625829813088998 34.231216001126185 0 34.231216001126185 -20.680988117960354 0 0 0 0 316.48252095412363 174.39676253481457 0 174.39676253481457 -1028.2258303478084 0 0 0 0 -651.55705526411475 -165.63749252733032 0 -165.63749252733032 -330.5694068462908 0 0 0 0 160.96367192681828 -190.14397135545005 0 -190.14397135545005 -967.72550765596134 0 0 0 0 -70.416014880848707 -299.21589630332983 0 -299.21589630332983 -110.06558929538369 0 0 0 0 115.94973540502269 40.550959756723387 0 40.550959756723387 -229.69100808963412 0 0 0 0 39.825366189094893 118.33400167886793 0 118.33400167886793 -114.08210660358964 0 0 0 0 7.0614326930481184 189.62413977069809 0 189.62413977069809 -416.74261314229079 0 0 0 0 -19.608081523398141 -3.5569383053916681 0 -3.5569383053916681 -40.271104178294991 0 0 0 0 158.47110832492672 -63.361005141965506 0 -63.361005141965506 -436.41199845837764 0 0 0 0 -65.420648472359744 365.47156169909272 0 365.47156169909272 -387.2564620930425 0 0 0 0 -65.277422071408182 126.25837153920565 0 126.25837153920565 61.81487852445207 0 0 0 0 26.742212588847906 18.372661376397446 0 18.372661376397446 27.341993916562387 0 0 0 0 -22.805807820852351 165.36342089957725 0 165.36342089957725 302.74717992753722 0 0 0 0 10.210727137724461 245.55007810652751 0 245.55007810652751 -329.50649648538456 0 0 0 0 -49.804462820407934 293.26244422263335 0 293.26244422263335 557.00038005242823 0 0 0 0 49.853848109429237 111.93840405231458 0 111.93840405231458 1051.7337055284879 0 0 0 0 108.78987498903734 215.52895484321198 0 215.52895484321198 -197.24708277657919 0 0 0 0 9.0195534802187467 240.00621826118731 0 240.00621826118731 182.31839031152049 0 0 0 0 287.37000345278648 376.1068796663676 0 376.1068796663676 245.79302787214328 0 0 0 0 -3.8788978050013654 2.4284198755684088 0 2.4284198755684088 6.7419809346437489 0 0 0 0 -16.075518632897001 -139.56207918935797 0 -139.56207918935797 515.41261618895373 0 0 0 0 232.62418985580734 -557.31049439571871 0 -557.31049439571871 -1318.9918720748392 0 0 0 0 408.74334552836081 85.658487324290945 0 85.658487324290945 4.6101291960512754 0 0 0 0 165.71747002516349 -84.506684486048471 0 -84.506684486048471 -112.38524863858765 0 0 0 0 -1.422215302431141 -407.00248761744297 0 -407.00248761744297 116.87951169861481 0 0 0 0 -107.11411484127893 27.698423566500423 0 27.698423566500423 -421.30233631812735 0 0 0 0 -263.99661919231221 120.84308453989252 0 120.84308453989252 -130.44759599863028 0 0 0 0 -166.02246805973118 380.49418549911206 0 380.49418549911206 -195.25682270235387 0 0 0 0 -98.359239507086386 146.47852510062694 0 146.47852510062694 -733.66773219658353 0 0 0 0 46.247697839869943 256.08778551393334 0 256.08778551393334 -1462.7887838379829 0 0 0 0 -874.78944866075653 1151.7232575710786 0 1151.7232575710786 -509.78764833537571 0 0 0 0 -269.51629860282992 341.29964165564888 0 341.29964165564888 -846.60354755808658 0 0 0 0 -388.01919340973836 388.62739574898296 0 388.62739574898296 -492.62809326625029 0 0 0 0 -13.444075666304343 34.185006806404999 0 34.185006806404999 -9.7973185626397026 0 0 0 0 -15.639174410538544 44.138421742266246 0 44.138421742266246 -11.585391928969329 0 0 0 0 2.7323262431696307 21.691305930744548 0 21.691305930744548 17.36700421284624 0 0 0 0 -1.5628934282685805 -8.2482651306127082 0 -8.2482651306127082 64.087069825991421 0 0 0 0 -76.121278596983757 153.99145469140058 0 153.99145469140058 73.627535899038776 0 0 0 0 -71.295124940224923 72.255246266751783 0 72.255246266751783 -121.98050961064291 0 0 0 0 0.21908346174036808 16.33496886987048 0 16.33496886987048 -12.263438235935858 0 0 0 0 1.7409864185565169 68.744561866154356 0 68.744561866154356 23.563280291204592 0 0 0 0 -7.4379576594172363 39.902906183138889 0 39.902906183138889 -18.992853211551093 0 0 0 0 -9.4260941147513222 83.548980185540131 0 83.548980185540131 72.081881224490644 0 0 0 0 10.525809266622197 19.183196595886287 0 19.183196595886287 -3.827564285386444 0 0 0 0 15.924401940470489 49.673541461354034 0 49.673541461354034 -30.322287694526494 0 0 0 0 -73.522389261539502 105.33526327984146 0 105.33526327984146 -79.314883240585914 0 0 0 0 11.620438446322623 48.990228941405803 0 48.990228941405803 15.218291136450716 0 0 0 0 -0.37641377637943663 16.472396567932535 0 16.472396567932535 15.316216872169235 0 0 0 0 14.350395490093881 31.71396639719363 0 31.71396639719363 5.3538277159243535 0 0 0 0 -69.24826135958574 100.3249409280179 0 100.3249409280179 -98.354411820757377 0 0 0 0 -43.782793547160736 117.49202875981382 0 117.49202875981382 40.788750135321607 0 0 0 0 0.66882157599443559 36.16617276834679 0 36.16617276834679 -26.232637302054272 0 0 0 0 10.807467672821076 29.115728404343827 0 29.115728404343827 -36.943609698377259 0 0 0 0 5.1421033599413022 35.282341886786526 0 35.282341886786526 -0.019321956118801609 0 0 0 0 1.8501311313482347 16.431106580966766 0 16.431106580966766 -33.448062398073859 0 0 0 0 16.87842332083676 59.444399012515305 0 59.444399012515305 -10.878446549366345 0 0 0 0 89.920477001132895 17.565179481905943 0 17.565179481905943 -17.103658201165672 0 0 0 0 -114.4035907225043 -0.44635525910416618 0 -0.44635525910416618 14.548003646574216 0 0 0 0 116.77034939269834 -10.801129140010744 0 -10.801129140010744 -28.784433029457432 0 0 0 0 -1.9487652057723466 3.9548795410706674 0 3.9548795410706674 -4.3050418757683815 0 0 0 0 -19.737981358127399 43.384134203743088 0 43.384134203743088 -27.41005024407059 0 0 0 0 -74.305897333208122 97.502327450216399 0 97.502327450216399 -89.9745205649524 0 0 0 0 8.3715631760978013 41.785900379817754 0 41.785900379817754 7.2884846060516821 0 0 0 0 9.2188630445312185 12.952650807954541 0 12.952650807954541 5.4262791277564872 0 0 0 0 5.8651603981052176 17.588566844118759 0 17.588566844118759 -29.683019438467454 0 0 0 0 13.157471487518706 25.513737224040597 0 25.513737224040597 -51.831862989645742 0 0 0 0 12.384973037231248 22.322965897572431 0 22.322965897572431 -48.095706512744073 0 0 0 0 7.5181207117602753 41.00612961501065 0 41.00612961501065 -59.250455021552625 0 0 0 0 13.072699537999142 27.644882201471773 0 27.644882201471773 -44.932148991894792 0 0 0 0 12.345858324083565 22.692553037913285 0 22.692553037913285 -49.562016139214393 0 0 0 0 -0.36419947774299999 7.9445240990188424 0 7.9445240990188424 -4.963519036715951 0 0 0 0 -25.042101226004888 14.703610251588543 0 14.703610251588543 12.358074842581118 0 0 0 0 -6.4437063398545433 21.09480944347888 0 21.09480944347888 8.9983637934346916 0 0 0 0 -18.273831543541746 31.091916769604723 0 31.091916769604723 29.78289357389076 0 0 0 0 11.674965191014053 85.691812121459407 0 85.691812121459407 1.5831146454511327 0 0 0 0 -42.927131657652353 47.192201985915744 0 47.192201985915744 55.62420067558196 0 0 0 0 -16.159768028694089 24.60886135526016 0 24.60886135526016 13.60041847541288 0 0 0 0 -183.7323568325337 -12.785491175134666 0 -12.785491175134666 11.768163615601225 0 0 0 0 -22.648452742562085 29.721447986769817 0 29.721447986769817 10.171166366992111 0 0 0 0 -158.1924599117865 154.96707624247574 0 154.96707624247574 -25.13877782545751 0 0 0 0 -69.173231583993584 175.39829414380802 0 175.39829414380802 -103.61636698106304 0 0 0 0 -101.56677591686338 76.320803779053676 0 76.320803779053676 78.685534656306118 0 0 0 0 23.716442533006607 27.249291247050408 0 27.249291247050408 28.838947452513651 0 0 0 0 -120.55226174721122 3.4097408765155706 0 3.4097408765155706 421.56652550022409 0 0 0 0 -1.4606218324870497 176.96677143870329 0 176.96677143870329 37.185030340508092 0 0 0 0 -32.95395213226675 78.011973140055488 0 78.011973140055488 67.2382241373125 0 0 0 0 -26.350896518412128 171.29796969300514 0 171.29796969300514 -78.41494123126904 0 0 0 0 -56.77547402980872 213.81533320167364 0 213.81533320167364 -53.225514332581952 0 0 0 0 -51.010024566665834 166.89281580664465 0 166.89281580664465 40.615040624106769 0 0 0 0 23.229489942408236 102.36772331086831 0 102.36772331086831 -24.98662165352016 0 0 0 0 103.00232195263538 129.82397276498159 0 129.82397276498159 -20.814942486220389 0 0 0 0 -105.18840839559721 165.57519060412233 0 165.57519060412233 -29.845174110023436 0 0 0 0 -29.769544693795979 223.21665285463314 0 223.21665285463314 -139.31399735949526 0 0 0 0 -24.446861173957132 217.07882447474549 0 217.07882447474549 -155.26708595854871 0 0 0 0 -69.030121975468319 281.30262160592974 0 281.30262160592974 -159.20454917372308 0 0 0 0 -70.172972264273028 221.41493887668742 0 221.41493887668742 -132.79592195284204 0 0 0 0 -132.89781511217006 314.26500217925786 0 314.26500217925786 -206.36279912799364 0 0 0 0 -184.17558250245477 217.5878504200391 0 217.5878504200391 -44.896845795330591 0 0 0 0 -92.142345775983173 175.76049571202748 0 175.76049571202748 -87.772993810416665 0 0 0 0 -164.82096412495292 78.737925840407115 0 78.737925840407115 90.316998182934185 0 0 0 0 44.474361053597221 -49.969571153946163 0 -49.969571153946163 -24.247327950419276 0 0 0 0 40.16864778942363 89.339157709757274 0 89.339157709757274 -28.71366055951512 0 0 0 0 23.930553574142891 35.101528938932731 0 35.101528938932731 27.848513051194232 0 0 0 0 24.479924858107552 65.321631833547144 0 65.321631833547144 -38.974661962216487 0 0 0 0 6.3803276291654996 17.256149535158364 0 17.256149535158364 -28.931563499787572 0 0 0 0 50.654041079054878 49.841273706912034 0 49.841273706912034 -15.528750566783856 0 0 0 0 39.41754350926675 101.84080706897703 0 101.84080706897703 -11.356769861369685 0 0 0 0 27.509338034440589 83.334122868429404 0 83.334122868429404 -0.29410050379374297 0 0 0 0 86.921826749680577 44.675938078898071 0 44.675938078898071 -57.715799539902946 0 0 0 0 75.407235121983831 41.087173926356627 0 41.087173926356627 -36.099893728998723 0 0 0 0 -77.392422821405489 155.03672677668328 0 155.03672677668328 -83.231987210310763 0 0 0 0 -37.767924899650097 68.239407425495301 0 68.239407425495301 -25.159081798898114 0 0 0 0 45.990701218388494 94.999455152883456 0 94.999455152883456 -92.157325016058167 0 0 0 0 21.038705837432644 107.55944635611013 0 107.55944635611013 -88.221292975766119 0 0 0 0 106.13163165723017 56.474913621306769 0 56.474913621306769 -81.857065950345714 0 0 0 0 62.373647263475505 50.777797314980489 0 50.777797314980489 -71.182578230218496 0 0 0 0 65.322366472650174 51.513272190066346 0 51.513272190066346 -50.537714947975473 0 0 0 0 88.983717795605116 67.763817557988659 0 67.763817557988659 -93.408258758543525 0 0 0 0 119.70708448994628 5.351962343978812 0 5.351962343978812 -34.860537906548416 0 0 0 0 94.969024942263786 31.216423760060934 0 31.216423760060934 -44.081531024799915 0 0 0 0 124.17068782038041 1.3036138044117251 0 1.3036138044117251 20.247792261041468 0 0 0 0 142.60515126743121 5.7218084502092097 0 5.7218084502092097 -55.829548810346751 0 0 0 0 127.75109310710832 9.5752916834026109 0 9.5752916834026109 -33.119847885027411 0 0 0 0 142.22554755764941 -31.120389160591003 0 -31.120389160591003 3.3211329555051634 0 0 0 0 117.43285159970037 -35.054657820226566 0 -35.054657820226566 53.605055043299217 0 0 0 0 266.70887035015039 -9.2745154460935737 0 -9.2745154460935737 9.5316245314461412 0 0 0 0 7.5207611466644906 6.3574050802446891 0 6.3574050802446891 5.8794137105461886 0 0 0 0 176.89530630052832 -72.498151772226265 0 -72.498151772226265 13.834282910705952 0 0 0 0 -25.716026763708214 38.798843240765564 0 38.798843240765564 -42.368832972511882 0 0 0 0 -24.125841817214223 88.502559120815647 0 88.502559120815647 -81.643418502069835 0 0 0 0 148.78891546825616 -28.75218002757174 0 -28.75218002757174 33.412099926114024 0 0 0 0 125.63389052203888 97.593375645370088 0 97.593375645370088 -130.85249069165729 0 0 0 0 148.39349329865581 -25.92413419917284 0 -25.92413419917284 -13.924307125271298 0 0 0 0 136.04123688982145 20.40384745317715 0 20.40384745317715 -72.270750710486027 0 0 0 0 179.69722707366964 -16.95288092050032 0 -16.95288092050032 -11.552096304472798 0 0 0 0 261.82879139858414 -2.0875522920105141 0 -2.0875522920105141 -66.307626814421383 0 0 0 0 84.943142580917993 286.7172008605412 0 286.7172008605412 -42.105281757278135 0 0 0 0 -179.79692094482789 277.86636972777251 0 277.86636972777251 -113.5821793795476 0 0 0 0 -66.423886683593992 84.341027568254503 0 84.341027568254503 -76.652328443378792 0 0 0 0 -34.205935974197928 129.47962010280025 0 129.47962010280025 -83.094299867501832 0 0 0 0 -22.681237215681904 87.450465879912372 0 87.450465879912372 -63.904373719666182 0 0 0 0 -21.736983057172267 122.67027114874065 0 122.67027114874065 -152.81907007501286 0 0 0 0 -3.8357323754546542 32.957409055099561 0 32.957409055099561 -5.9476102127773629 0 0 0 0 18.885826277252647 23.40859879968734 0 23.40859879968734 23.360198685945946 0 0 0 0 225.6737144023981 35.478934425978878 0 35.478934425978878 -183.38198172274861 0 0 0 0 8.2842249142681723 4.4771601930374949 0 4.4771601930374949 -1.167193206764523 0 0 0 0 -395.86043554303433 172.09121086930827 0 172.09121086930827 51.970485347621434 0 0 0 0 -92.396144656409888 113.41001374178086 0 113.41001374178086 -132.04815059382963 0 0 0 0 9.2607894855737314 7.5617542215872433 0 7.5617542215872433 3.3783608229607012 0 0 0 0 -453.25279317832747 353.71995323350075 0 353.71995323350075 11.569452285111765 0 0 0 0 -44.486609762267108 242.67366065044553 0 242.67366065044553 -46.400717918659211 0 0 0 0 -271.78544244231034 197.625736893875 0 197.625736893875 210.45216768761748 0 0 0 0 -278.65330008724595 140.58703209886698 0 140.58703209886698 -207.13539860065794 0 0 0 0 -283.44545109395767 109.76736443506888 0 109.76736443506888 28.745502605626825 0 0 0 0 -458.73159967345782 -10.533137633377919 0 -10.533137633377919 55.680786976023228 0 0 0 0 -153.39866451178023 -43.34923107747818 0 -43.34923107747818 47.514725644999999 0 0 0 0 -274.24609539066478 -31.994021693120885 0 -31.994021693120885 97.302849660678476 0 0 0 0 141.87715722701705 -118.58934197429153 0 -118.58934197429153 353.44534685534745 0 0 0 0 -28.914660816200922 116.31011206633775 0 116.31011206633775 71.092899459039472 0 0 0 0 398.71994861197163 354.43567467520188 0 354.43567467520188 103.47514777814285 0 0 0 0 -40.69932351802521 117.42305752142022 0 117.42305752142022 47.676539146821597 0 0 0 0 -74.701792377793026 128.1197127748128 0 128.1197127748128 110.30892410043452 0 0 0 0 633.62641745403653 -219.80215493488413 0 -219.80215493488413 30.720963732303062 0 0 0 0 2.3548457877910245 2.1724789094788974 0 2.1724789094788974 2.4667175054441515 0 0 0 0 11.467522407420802 0.53898003389804217 0 0.53898003389804217 0.27460063280159375 0 0 0 0 1.5280688782440848 25.559795661327371 0 25.559795661327371 -54.954143398390443 0 0 0 0 31.050651695710258 63.768915733387985 0 63.768915733387985 -105.90316489772522 0 0 0 0 45.168813871394377 20.721619745359931 0 20.721619745359931 -77.494146731885849 0 0 0 0 92.675184514004286 72.344030508062133 0 72.344030508062133 46.634550443617627 0 0 0 0 47.904909388700617 93.714263639347337 0 93.714263639347337 45.715199424124876 0 0 0 0 292.59159164139419 276.03076648120987 0 276.03076648120987 95.276229105115135 0 0 0 0 400.37980426727972 174.6466858241256 0 174.6466858241256 -3.2729531299264636 0 0 0 0 38.834570034412536 141.74838219578669 0 141.74838219578669 118.70129915293001 0 0 0 0 117.17851509587126 257.53513414430927 0 257.53513414430927 62.113823181658518 0 0 0 0 307.13307335723948 133.03873779543937 0 133.03873779543937 -61.942500188240956 0 0 0 0 -0.2249671962023605 0.80608985142418987 0 0.80608985142418987 2.5099647011862771 0 0 0 0 -81.701413484590375 -43.0457915728839 0 -43.0457915728839 31.448228689023381 0 0 0 0 -179.76584174413892 82.233918029780398 0 82.233918029780398 65.005507844834938 0 0 0 0 -178.22526137905879 60.786243697461032 0 60.786243697461032 -40.920564847958303 0 0 0 0 -173.77665397207329 32.131045053025446 0 32.131045053025446 131.40632836797158 0 0 0 0 -162.04255582108453 9.1093498881600681 0 9.1093498881600681 29.223012569811544 0 0 0 0 -233.75294415619817 -29.309780683853887 0 -29.309780683853887 68.304528816159291 0 0 0 0 -240.51231553030811 12.345530477148259 0 12.345530477148259 92.491499166178983 0 0 0 0 -105.17101328004537 -80.279505167160096 0 -80.279505167160096 164.72142968023581 0 0 0 0 129.10003913704531 170.4732847694977 0 170.4732847694977 89.705815947123483 0 0 0 0 12.738820625248991 68.488723011014372 0 68.488723011014372 -276.29287153818223 0 0 0 0 4.5423705546218116 -105.64713900609968 0 -105.64713900609968 -252.87271523706295 0 0 0 0 72.596965404636194 175.29314362256127 0 175.29314362256127 -213.83469372383115 0 0 0 0 -0.87112581380637266 1.1325971868979394 0 1.1325971868979394 -3.7795847407057295 0 0 0 0 -280.26277972337812 117.83228407113529 0 117.83228407113529 -14.20821219075151 0 0 0 0 7.6034647549989813 28.926451860610086 0 28.926451860610086 -33.963473840354709 0 0 0 0 18.244054344755568 23.959006773493456 0 23.959006773493456 -52.668637936021696 0 0 0 0 16.822680436576775 40.065629073204036 0 40.065629073204036 -42.715379473527719 0 0 0 0 21.389880312757668 38.878906009231287 0 38.878906009231287 -62.165065141016385 0 0 0 0 39.2255228613285 165.17435297497286 0 165.17435297497286 -64.305907957251009 0 0 0 0 49.185445115386756 196.64550869572849 0 196.64550869572849 8.5224705491491477 0 0 0 0 49.888337790086553 200.50939682986154 0 200.50939682986154 -27.197205109179777 0 0 0 0 11.700322299891923 214.40283829571126 0 214.40283829571126 17.369191279191 0 0 0 0 35.852829856128665 179.09626630299681 0 179.09626630299681 -50.611727194434934 0 0 0 0 -31.613492293063246 177.0819850090229 0 177.0819850090229 1.440551457068068 0 0 0 0 -48.456706556321251 94.245461028077443 0 94.245461028077443 -68.299834857818496 0 0 0 0 -108.06183590133514 110.12723958963034 0 110.12723958963034 -14.053435908383562 0 0 0 0 0.92197676827404962 1.7718631831888771 0 1.7718631831888771 -2.5221892382791538 0 0 0 0 63.228260155867041 -158.56923529090423 0 -158.56923529090423 -322.15277459942445 0 0 0 0 42.050480972549849 198.53084891460094 0 198.53084891460094 241.66419326460891 0 0 0 0 -68.98880774180725 112.55004190539148 0 112.55004190539148 -179.60753386960278 0 0 0 0 86.180357075036227 133.38907609767011 0 133.38907609767011 54.204366214991751 0 0 0 0 107.94640215593938 98.209518468173627 0 98.209518468173627 101.55838775047596 0 0 0 0 41.56369630820609 220.31188814825964 0 220.31188814825964 58.595496126690705 0 0 0 0 58.98664373187421 111.88897562096281 0 111.88897562096281 91.453183037992858 0 0 0 0 43.343177263370308 157.93522941327865 0 157.93522941327865 8.404962542008434 0 0 0 0 35.502277410614624 151.80404391728371 0 151.80404391728371 31.181410807388602 0 0 0 0 51.756009304021063 204.58032840492888 0 204.58032840492888 7.2939611771712407 0 0 0 0 37.270340822919025 187.51755113492982 0 187.51755113492982 36.990281079622946 0 0 0 0 45.418722532758693 141.32164592363188 0 141.32164592363188 18.463649137502216 0 0 0 0 76.620548625385709 106.50827415619642 0 106.50827415619642 8.6754616494799848 0 0 0 0 50.464067029874059 142.82087524001327 0 142.82087524001327 -0.0036756415720446967 0 0 0 0 33.947136630529712 102.85097579981266 0 102.85097579981266 -10.664795530421543 0 0 0 0 55.882745252760287 125.05590676090924 0 125.05590676090924 0.022956962704483885 0 0 0 0 39.150681923663797 134.22553757138303 0 134.22553757138303 43.77326017613268 0 0 0 0 78.367959508525018 112.73760871918466 0 112.73760871918466 25.480357952532358 0 0 0 0 104.83221615258299 108.49101727314337 0 108.49101727314337 -0.0017238520930703486 0 0 0 0 107.83691099714815 100.64255022653197 0 100.64255022653197 19.90586190407339 0 0 0 0 97.54142200201386 94.663410997291066 0 94.663410997291066 42.50279709010465 0 0 0 0 113.91560658363869 102.98969683953692 0 102.98969683953692 19.149337447437574 0 0 0 0 4.7433524550197035 87.885651173997758 0 87.885651173997758 -64.110460631740352 0 0 0 0 1.3737243615891686 2.7821074882329313 0 2.7821074882329313 4.0576204272331609 0 0 0 0 29.416358062983818 220.31972419961858 0 220.31972419961858 -94.152279054866085 0 0 0 0 -231.15481363950494 148.0832477996737 0 148.0832477996737 14.422428665871848 0 0 0 0 -191.9382886763442 79.106091855603154 0 79.106091855603154 43.176852008160495 0 0 0 0 -47.969536855473052 115.66487567281001 0 115.66487567281001 -45.069940945024427 0 0 0 0 0.98006171323227065 2.6236822329885214 0 2.6236822329885214 4.3144237821584284 0 0 0 0 21.979047621087375 89.026505844714848 0 89.026505844714848 -63.3684928454187 0 0 0 0 135.11643573222955 155.78880977688459 0 155.78880977688459 -52.352722064249974 0 0 0 0 6.9751399086471793 123.52601315488209 0 123.52601315488209 -27.944978330051526 0 0 0 0 -21.411629192558962 82.48250920200303 0 82.48250920200303 -42.248013553238707 0 0 0 0 -20.753260930135184 98.377729750875005 0 98.377729750875005 -4.0674715711102181 0 0 0 0 39.892383990714734 119.09341192542342 0 119.09341192542342 -42.169794918911066 0 0 0 0 18.778443538732517 119.87925879823888 0 119.87925879823888 -0.050690235875663348 0 0 0 0 -88.850251567067971 97.012872022904048 0 97.012872022904048 0.02499690571858082 0 0 0 0 -95.735923705922687 75.764169580012094 0 75.764169580012094 -28.428319882237702 0 0 0 0 -118.14601963593805 111.4210254762047 0 111.4210254762047 -42.88902191993111 0 0 0 0 -109.08368009215019 67.121272241063707 0 67.121272241063707 -34.650788125502004 0 0 0 0 0.38543149385432329 0.97675800566208437 0 0.97675800566208437 2.1454291649542938 0 0 0 0 -136.30787374099054 78.326747199684178 0 78.326747199684178 -0.092214747262797589 0 0 0 0 666.27337195644031 196.58241268427082 0 196.58241268427082 -142.37535718652725 0 0 0 0 377.02651308263967 322.31252932726602 0 322.31252932726602 -0.09388971324369777 0 0 0 0 380.62279224224221 149.58216650069153 0 149.58216650069153 -149.99901297388442 0 0 0 0 207.32979443455633 288.78684765404887 0 288.78684765404887 -0.07693922647376894 0 0 0 0 240.33369800140554 227.20576038612307 0 227.20576038612307 -54.817720473773079 0 0 0 0 391.40602233591017 282.74668320744604 0 282.74668320744604 -71.396651987120094 0 0 0 0 272.3845816432879 264.88650578956322 0 264.88650578956322 -36.002544619914261 0 0 0 0 466.50000837549123 205.18531679468651 0 205.18531679468651 -78.677627575343649 0 0 0 0 285.24009656340138 231.35591576771321 0 231.35591576771321 -79.075690895355365 0 0 0 0 501.9253737694753 -8.9610283784750209 0 -8.9610283784750209 233.19357258006858 0 0 0 0 349.60700669292328 223.48927553800604 0 223.48927553800604 23.99100964115496 0 0 0 0 648.56091691242182 269.76102924365841 0 269.76102924365841 26.85541107185054 0 0 0 0 223.54440203028798 175.45649092139138 0 175.45649092139138 116.20624999404754 0 0 0 0 216.10444893941531 208.85972358389336 0 208.85972358389336 -4.5391200080630369 0 0 0 0 51.195515006831556 166.1485667379693 0 166.1485667379693 -29.774510177332559 0 0 0 0 360.32003059415433 276.63119638005992 0 276.63119638005992 -10.934502391115529 0 0 0 0 108.50103910042708 128.28101580781004 0 128.28101580781004 106.61721072131695 0 0 0 0 -72.855956904833874 84.315885612664715 0 84.315885612664715 20.400888473570376 0 0 0 0 2.3984559095033546 226.14344054541743 0 226.14344054541743 139.59780828072689 0 0 0 0 -223.61251189306154 126.3009963812915 0 126.3009963812915 213.13199374105898 0 0 0 0 -192.41281394694852 2.5209010740327358 0 2.5209010740327358 92.741267690733366 0 0 0 0 -0.13978695970350508 0.18295078043258428 0 0.18295078043258428 1.7300811407764627 0 0 0 0 -313.67288796590628 38.185766893200707 0 38.185766893200707 141.35462793119223 0 0 0 0 -246.10798363197318 -35.513835850855685 0 -35.513835850855685 -2.2800280472074519 0 0 0 0 -313.1222365875426 116.41150282308172 0 116.41150282308172 -102.04109676618828 0 0 0 0 157.94408071796352 -234.84252069777358 0 -234.84252069777358 -84.574566226390743 0 0 0 0 2.8726942067652352 3.1628202917328139 0 3.1628202917328139 4.2073379225188035 0 0 0 0 305.72557326258038 369.86171689036564 0 369.86171689036564 351.43083379274321 0 0 0 0 -29.512256738851079 247.62582883214009 0 247.62582883214009 340.67697187999147 0 0 0 0 156.98578416311466 310.30618502492143 0 310.30618502492143 541.70774103109216 0 0 0 0 96.414060468816388 201.73901778933578 0 201.73901778933578 349.33314927323227 0 0 0 0 -9.2842043918089985 256.79184008435914 0 256.79184008435914 105.13942089666671 0 0 0 0 320.0932528308067 372.57604639804049 0 372.57604639804049 145.55728730914416 0 0 0 0 808.62272309384753 -118.12110906610906 0 -118.12110906610906 91.799594587035244 0 0 0 0 382.47230374254923 484.97720430864501 0 484.97720430864501 345.87263986266044 0 0 0 0 -20.318834328611047 -4.1854301454441156 0 -4.1854301454441156 122.59570732408974 0 0 0 0 -27.807606985889834 -146.04781474714036 0 -146.04781474714036 -137.04471343849582 0 0 0 0 101.31812708732286 -191.53059089474118 0 -191.53059089474118 -484.35573302740522 0 0 0 0 161.71095475752463 382.06181286102219 0 382.06181286102219 -65.60095776246817 0 0 0 0 124.73881108043861 160.52760333936385 0 160.52760333936385 -388.28994618983052 0 0 0 0 -65.873266208895302 71.633719236641809 0 71.633719236641809 236.21285880301002 0 0 0 0 -0.45431534909164739 3.4342154863369103 0 3.4342154863369103 -0.22772890730119588 0 0 0 0 48.314539408988821 -0.65621672625456995 0 -0.65621672625456995 82.745094800680818 0 0 0 0 0.76231619702827125 0.51761361327008615 0 0.51761361327008615 -0.20094759400841067 0 0 0 0 14.005856938494617 111.42065851124607 0 111.42065851124607 479.4012843284072 0 0 0 0 280.88216210230712 204.80868932460726 0 204.80868932460726 97.106349010980921 0 0 0 0 91.299141769254675 133.9783768099951 0 133.9783768099951 146.57316119305688 0 0 0 0 10.737475715494011 14.40858699114424 0 14.40858699114424 16.943747057673448 0 0 0 0 65.831702527206289 122.82340182083863 0 122.82340182083863 -14.450309212086722 0 0 0 0 64.385143386275786 -7.3831664394274412 0 -7.3831664394274412 82.502350375085371 0 0 0 0 316.43742707534801 -45.198691364698789 0 -45.198691364698789 -10.241958016020362 0 0 0 0 1.8554361881779187 -159.40301579020525 0 -159.40301579020525 -40.849358315608697 0 0 0 0 8.9313443381968582 10.046330243677893 0 10.046330243677893 10.345735184830744 0 0 0 0 0.21463701977491034 2.3582687466513903 0 2.3582687466513903 4.5113287180238899 0 0 0 0 -551.8851786274754 170.06290050661119 0 170.06290050661119 74.435226555273402 0 0 0 0 78.00033717871429 206.53025539217197 0 206.53025539217197 -42.891250784026397 0 0 0 0 366.3104226047999 -101.73426199583628 0 -101.73426199583628 -719.90154415490633 0 0 0 0 196.8707132624877 -65.658578909842618 0 -65.658578909842618 -0.84393291242304258 0 0 0 0 379.21641737936761 74.126802886798032 0 74.126802886798032 -515.98306833268725 0 0 0 0 249.20013566234957 116.22305843098729 0 116.22305843098729 -130.86017481244926 0 0 0 0 -517.58013447508279 181.23660186450616 0 181.23660186450616 920.34510088135357 0 0 0 0 -540.51662259767886 426.1215485886205 0 426.1215485886205 -96.797145724893198 0 0 0 0 -682.09013201700213 486.72252257728178 0 486.72252257728178 356.80425496027601 0 0 0 0 -637.9178698629139 414.30127661902407 0 414.30127661902407 -95.82947706890991 0 0 0 0 -714.18498231646981 565.68465326052319 0 565.68465326052319 -270.6266156440106 0 0 0 0 -360.01424376138266 577.87870418128296 0 577.87870418128296 -670.34279504512961 0 0 0 0 -2.8313088775436217 2.1287556875407745 0 2.1287556875407745 0.15924205089975318 0 0 0 0 15.706876415877559 221.18308648825769 0 221.18308648825769 -380.73164877768431 0 0 0 0 34.184003342239521 3.612743136647623 0 3.612743136647623 -107.59012692667966 0 0 0 0 -4.0740330306808659 4.3869616156294455 0 4.3869616156294455 0.18818369911353461 0 0 0 0 -191.28051866855549 144.1868464202571 0 144.1868464202571 86.027141268812557 0 0 0 0 -5.4341248590681062 289.73720411449176 0 289.73720411449176 333.78396846377404 0 0 0 0 -17.424907763607735 204.96062463644557 0 204.96062463644557 136.2733069193273 0 0 0 0 26.602473476714749 137.46072628717047 0 137.46072628717047 344.20866564014432 0 0 0 0 7.0575422792530844 344.66218122209102 0 344.66218122209102 214.64353058812412 0 0 0 0 49.317612648384966 353.53150354346326 0 353.53150354346326 199.91737630445641 0 0 0 0 77.727305010096643 357.81741079661151 0 357.81741079661151 112.97087559146939 0 0 0 0 35.320822762909188 336.74209747137138 0 336.74209747137138 115.04026839103608 0 0 0 0 -121.84337563287318 326.79916997372129 0 326.79916997372129 222.57793523500641 0 0 0 0 -113.65658281802291 277.86234273978084 0 277.86234273978084 72.338776780645276 0 0 0 0 -405.22732374648149 352.90053226455711 0 352.90053226455711 236.75562261324558 0 0 0 0 -539.10852549173228 165.5762391137041 0 165.5762391137041 283.89738855091855 0 0 0 0 -135.57322643533303 162.94139222189915 0 162.94139222189915 -132.31919801150616 0 0 0 0 -413.04044998602092 333.73204653535686 0 333.73204653535686 -270.54785233682924 0 0 0 0 -408.34663790800641 286.04754580653753 0 286.04754580653753 113.58419580953705 0 0 0 0 -425.67575692745049 248.35809660323139 0 248.35809660323139 17.592134708294907 0 0 0 0 -632.48440090817974 -4.8923251917794914 0 -4.8923251917794914 -164.82837395578463 0 0 0 0 -116.30904500710858 249.91703244686323 0 249.91703244686323 82.473349634950864 0 0 0 0 7.8814218346387861 141.66646939998463 0 141.66646939998463 139.04200005969415 0 0 0 0 68.43144242354947 176.34688070900302 0 176.34688070900302 27.984067357914682 0 0 0 0 66.930788847859304 193.95666247655072 0 193.95666247655072 -124.38567667260941 0 0 0 0 -42.335875478808703 111.77606902520347 0 111.77606902520347 -10.712858122493344 0 0 0 0 -186.54417234940689 271.78045780469529 0 271.78045780469529 -0.063357825871207751 0 0 0 0 2.5236660313698849 194.48292191449218 0 194.48292191449218 -24.756310167804713 0 0 0 0 -379.33337438088063 89.398833753530198 0 89.398833753530198 -12.523705757544121 0 0 0 0 -545.53238130643081 265.64214809836812 0 265.64214809836812 0.21860857004867285 0 0 0 0 -615.85271715182489 227.71077383383636 0 227.71077383383636 62.513680642652616 0 0 0 0 -675.02961195158389 406.16891647454395 0 406.16891647454395 4.311676048731897 0 0 0 0 -395.30506813595775 292.67531429150404 0 292.67531429150404 -0.11114113657185305 0 0 0 0 -398.31641246992695 272.86255657449146 0 272.86255657449146 -129.1928393671551 0 0 0 0 -421.44094133848557 196.63298332234262 0 196.63298332234262 -0.020131556942942552 0 0 0 0 -203.70602450325805 311.89606663665836 0 311.89606663665836 -122.01471975378445 0 0 0 0 -189.45418563362159 108.95423944067807 0 108.95423944067807 118.64083091916473 0 0 0 0 -260.50442001892498 151.48224427446985 0 151.48224427446985 260.68940761062549 0 0 0 0 -20.772406058939303 2.5443392959971902 0 2.5443392959971902 1.6410569806152715 0 0 0 0 -292.734746000222 -68.001622188268811 0 -68.001622188268811 636.52714959378864 0 0 0 0 -91.356849252768825 -222.03036782747222 0 -222.03036782747222 79.641073350110673 0 0 0 0 -105.35784049908079 251.05083473215927 0 251.05083473215927 238.89835676089933 0 0 0 0 -526.41709377451321 -236.00355234000745 0 -236.00355234000745 503.33406628782359 0 0 0 0 -9.4150315929543655 1.3498553042870043 0 1.3498553042870043 0.50227712578323747 0 0 0 0 -1047.3538590512967 316.32967493625983 0 316.32967493625983 44.354279504404985 0 0 0 0 -678.00149314207454 687.39740901602636 0 687.39740901602636 -432.6485281715768 0 0 0 0 -187.50356814806756 339.67312437852689 0 339.67312437852689 -197.65066913349438 0 0 0 0 -288.72039970330934 134.34489128460609 0 134.34489128460609 409.92011501051093 0 0 0 0 -34.312388105432092 -93.884520771243842 0 -93.884520771243842 302.67764956678366 0 0 0 0 -10.156646120987713 4.2111751524656285 0 4.2111751524656285 0.17126497852075762 0 0 0 0 -6.1668703658870072 8.8619473705002747 0 8.8619473705002747 0.041187325299688382 0 0 0 0 -18.353991606690215 23.192437046220221 0 23.192437046220221 -15.831200354670727 0 0 0 0 -17.422258977381716 -40.154154688247218 0 -40.154154688247218 377.08142061697799 0 0 0 0 -7.491636969795902 2.9259676159374806 0 2.9259676159374806 0.16428359327362507 0 0 0 0 9.1337550728403585 2.1930373358190991 0 2.1930373358190991 280.37828696266297 0 0 0 0 -32.923337687605908 21.205219071114698 0 21.205219071114698 -0.25088360403606202 0 0 0 0 -273.18767756414309 251.71268298083669 0 251.71268298083669 -220.6786410448376 0 0 0 0 -392.05399074982529 84.730040325049231 0 84.730040325049231 232.23757813695556 0 0 0 0 -2.7337651416974609 1.6971591274356541 0 1.6971591274356541 -0.05694558239034464 0 0 0 0 -55.476972261625633 -67.126667099240876 0 -67.126667099240876 210.06415000353695 0 0 0 0 63.763119182671289 -39.968201387095178 0 -39.968201387095178 190.7579628072026 0 0 0 0 -311.20382266392835 677.73810819299251 0 677.73810819299251 -387.54418549520415 0 0 0 0 -250.31789737745703 284.21397155923114 0 284.21397155923114 70.114300899615046 0 0 0 0 -17.60340219445731 3.5724505485759721 0 3.5724505485759721 1.4265593198292024 0 0 0 0 24.374227036554657 -51.348940032927203 0 -51.348940032927203 267.30646512837666 0 0 0 0 -77.128107974048817 -94.314267020263287 0 -94.314267020263287 381.67557037848383 0 0 0 0 19.191359079179392 -62.461156437188947 0 -62.461156437188947 255.91230470613664 0 0 0 0 -6.2940022879970527 2.5835508205215802 0 2.5835508205215802 0.26779454887549292 0 0 0 0 -32.854282886909459 235.41615321863173 0 235.41615321863173 -442.56533156727892 0 0 0 0 114.80170824978768 342.00354483158117 0 342.00354483158117 -829.38713416718747 0 0 0 0 -339.88599280704238 249.07862602759269 0 249.07862602759269 -319.82569296880683 0 0 0 0 -173.96879366747908 243.53134302457056 0 243.53134302457056 -315.35697574312508 0 0 0 0 -282.33984701082591 -0.75062201813125284 0 -0.75062201813125284 152.48065075214254 0 0 0 0 233.31821149276811 146.00435340281547 0 146.00435340281547 -326.8104314087177 0 0 0 0 -5.5592557174750308 7.1911390336457544 0 7.1911390336457544 -2.8247597954703139 0 0 0 0 -47.483136435737379 331.9291086927733 0 331.9291086927733 89.598391036735848 0 0 0 0 104.33699776368348 119.89957078895895 0 119.89957078895895 -435.78123347543715 0 0 0 0 253.38794891180123 -78.640080293938809 0 -78.640080293938809 20.967960393292742 0 0 0 0 181.92924067394506 -276.24829942405449 0 -276.24829942405449 281.44585183880554 0 0 0 0 419.08202241433742 -145.04464993326474 0 -145.04464993326474 -19.63062224049645 0 0 0 0 -223.56789928486646 179.87891858072737 0 179.87891858072737 28.569850327679887 0 0 0 0 394.95883601563696 -63.641619318976154 0 -63.641619318976154 -82.066305613161603 0 0 0 0 -2.7436653388172068 3.9543270894497482 0 3.9543270894497482 -4.7385299739689231 0 0 0 0 -1.8831063190710546 4.4224035917852547 0 4.4224035917852547 -2.0622908670683842 0 0 0 0 104.07713508092286 299.436337436955 0 299.436337436955 -986.84078054180281 0 0 0 0 -865.46185276363212 713.84761733779305 0 713.84761733779305 354.87488500963991 0 0 0 0 -85.330315671952576 530.06487605322036 0 530.06487605322036 -339.63247562793549 0 0 0 0 -189.55346035086473 564.81842034020406 0 564.81842034020406 -305.50183127057971 0 0 0 0 139.81305911287666 311.53770982649166 0 311.53770982649166 -246.35374440161831 0 0 0 0 -45.221616904613199 30.489544846181161 0 30.489544846181161 199.7447700049961 0 0 0 0 85.847550066926374 71.177132847697067 0 71.177132847697067 142.5819331467028 0 0 0 0 -2.9179235622438213 3.891597226555561 0 3.891597226555561 -3.6644352079426881 0 0 0 0 59.758024626887277 135.17316780659894 0 135.17316780659894 238.79588202223476 0 0 0 0 63.806703147713847 7.9662593060147628 0 7.9662593060147628 39.216506117452809 0 0 0 0 87.638947085761856 64.075195039269602 0 64.075195039269602 148.09102344005805 0 0 0 0 -1243.2731930228961 408.71978640530142 0 408.71978640530142 511.66081096872222 0 0 0 0 -7.5191379135984207 7.7888510709894803 0 7.7888510709894803 -7.1762081188433768 0 0 0 0 -1091.404283085476 1025.8355709112948 0 1025.8355709112948 -538.57787828985602 0 0 0 0 86.040827488167352 79.326340108415025 0 79.326340108415025 158.04003713361453 0 0 0 0 65.733401935282131 95.139039173413039 0 95.139039173413039 171.2558210164425 0 0 0 0 49.714863740843384 57.286011464304465 0 57.286011464304465 158.59825031503738 0 0 0 0 -4.4167253588460458 3.8967593192901546 0 3.8967593192901546 -4.2105896580417692 0 0 0 0 1307.2300624934483 -641.90968690963928 0 -641.90968690963928 211.78001774309087 0 0 0 0 113.85330869723339 41.749266581464326 0 41.749266581464326 172.04416433746417 0 0 0 0 45.552678277563018 112.43951881964313 0 112.43951881964313 98.883705601081601 0 0 0 0 144.27359470982719 136.64469983482923 0 136.64469983482923 60.887874060310423 0 0 0 0 131.6557285881081 104.53469030291308 0 104.53469030291308 -277.85022351537191 0 0 0 0 63.223676292012897 239.49375768026221 0 239.49375768026221 -542.51421849761755 0 0 0 0 -93.911238623866666 575.37590930380247 0 575.37590930380247 -598.90509726966866 0 0 0 0 -111.85181816575823 418.96736467064329 0 418.96736467064329 -240.47613825080043 0 0 0 0 -35.260673498516098 437.74004848517689 0 437.74004848517689 -277.02696913620457 0 0 0 0 -590.67546944834294 221.79576964558873 0 221.79576964558873 231.57464831306731 0 0 0 0 -1045.9137693056466 276.63112717846707 0 276.63112717846707 234.53218929423383 0 0 0 0 -492.70306798790216 146.26463491030518 0 146.26463491030518 -9.3847325820685228 0 0 0 0 -500.56501956978673 202.79095689105225 0 202.79095689105225 88.347762458652142 0 0 0 0 95.048260777560927 1.1949302965658717 0 1.1949302965658717 -8.1368350332159025 0 0 0 0 -212.76611079067015 428.43941178156456 0 428.43941178156456 -219.73264919384383 0 0 0 0 49.48080347117093 171.54940957701183 0 171.54940957701183 -380.56146327380338 0 0 0 0 -376.31698919856944 473.77601302904804 0 473.77601302904804 -221.77512416828176 0 0 0 0 -238.12472270840908 558.08846772250763 0 558.08846772250763 -247.27053186307603 0 0 0 0 -227.22612708518398 174.40651831411878 0 174.40651831411878 -186.86761923000449 0 0 0 0 -444.79393745132052 465.19548345730334 0 465.19548345730334 -49.711149890164961 0 0 0 0 -432.74268387674601 396.89265022719519 0 396.89265022719519 -198.97232697692016 0 0 0 0 -1.7634750706273739 2.341582248408713 0 2.341582248408713 -2.0153639570264374 0 0 0 0 -451.50694503571185 391.66629239650865 0 391.66629239650865 207.16810054086818 0 0 0 0 -397.46275346116863 145.64124518211247 0 145.64124518211247 230.88418463717153 0 0 0 0 -372.43352831748689 204.36156173160998 0 204.36156173160998 -76.035363943348329 0 0 0 0 -428.63464800412021 388.09680264949202 0 388.09680264949202 -133.7263956060915 0 0 0 0 -432.82242835496459 379.2338213798721 0 379.2338213798721 -132.37414928317594 0 0 0 0 -537.65334698401557 393.16561590880883 0 393.16561590880883 66.826251272349054 0 0 0 0 -487.52142388689413 483.18718725757026 0 483.18718725757026 -271.13943570275296 0 0 0 0 -342.01679704584967 426.69738254846379 0 426.69738254846379 -292.32895796719367 0 0 0 0 -380.88005319352715 347.81324777029295 0 347.81324777029295 -258.0877382460385 0 0 0 0 -347.50952137342392 369.76383501931923 0 369.76383501931923 -279.27312219817395 0 0 0 0 -379.72628440543167 374.05871957365162 0 374.05871957365162 -238.99221584193947 0 0 0 0 -96.942609210268529 297.13605080622438 0 297.13605080622438 -614.31347098512924 0 0 0 0 -268.74473484708187 246.28204492786972 0 246.28204492786972 -243.94457363241963 0 0 0 0 -104.78129758122486 153.74961595492823 0 153.74961595492823 -256.04395341205964 0 0 0 0 7.2408303568207035 38.79218280893933 0 38.79218280893933 76.634467597315052 0 0 0 0 -30.330951892251793 3.3795880543116965 0 3.3795880543116965 9.8540379673453806 0 0 0 0 -72.515030331249363 61.654923670435892 0 61.654923670435892 136.59438698359281 0 0 0 0 -17.848551963191312 131.85724771373407 0 131.85724771373407 -17.952975555981538 0 0 0 0 -32.964129537541794 114.6807911715232 0 114.6807911715232 18.39576798032067 0 0 0 0 16.356977639064553 25.248024599794007 0 25.248024599794007 -97.757796703285749 0 0 0 0 -2.1385752568641028 7.5298433511974494 0 7.5298433511974494 -12.059653162985853 0 0 0 0 -0.75658286070612313 57.961224572915299 0 57.961224572915299 22.505079682663148 0 0 0 0 -7.4945984028701105 -41.565068222887021 0 -41.565068222887021 -59.114500497325935 0 0 0 0 -12.353319235027584 8.9949532224345603 0 8.9949532224345603 -37.548291602783138 0 0 0 0 -1.0191783049905867 -1.6928503801614383 0 -1.6928503801614383 -0.85731387239272294 0 0 0 0 -380.89669982733039 388.83043934304442 0 388.83043934304442 -289.7894767179896 0 0 0 0 -383.2833454226311 324.36807270149188 0 324.36807270149188 -327.12159419223462 0 0 0 0 127.40731734526184 27.198863919482392 0 27.198863919482392 -206.86427531093068 0 0 0 0 151.91884460566826 193.94792459026939 0 193.94792459026939 88.551283635650179 0 0 0 0 161.03689518590483 -4.361968447655272 0 -4.361968447655272 -118.75821898967115 0 0 0 0 -20.627762046795851 83.532784800423542 0 83.532784800423542 -151.67457823525001 0 0 0 0 58.120431111066921 221.15549278190883 0 221.15549278190883 -9.7111688244476682 0 0 0 0 32.63430862553605 214.30181268534943 0 214.30181268534943 7.8956094236054923 0 0 0 0 81.915388911896343 104.55453769240194 0 104.55453769240194 95.787573888504994 0 0 0 0 8.1385084324629133 180.48249488537112 0 180.48249488537112 29.156496336119744 0 0 0 0 -1.0235786508635556 179.29960611326169 0 179.29960611326169 29.322504718922573 0 0 0 0 83.24751777223986 61.076048228422223 0 61.076048228422223 110.7133030221521 0 0 0 0 22.954426496759197 55.662770606577396 0 55.662770606577396 115.194345060263 0 0 0 0 -0.79735856607245159 1.6093124308686555 0 1.6093124308686555 -1.9203220165610446 0 0 0 0 29.744486359471694 198.34266855872556 0 198.34266855872556 -236.50943984468449 0 0 0 0 128.40470841352345 139.85692282954778 0 139.85692282954778 -229.20260720072838 0 0 0 0 -60.15269204034189 127.68900339760512 0 127.68900339760512 80.964049558540864 0 0 0 0 33.823404547622346 218.43748300678999 0 218.43748300678999 -165.99683200704021 0 0 0 0 -80.279783538405212 270.90714815380215 0 270.90714815380215 -52.043070289029856 0 0 0 0 -4.7531514061149274 260.58103378409805 0 260.58103378409805 -59.418640373492963 0 0 0 0 -125.02047098823806 15.53244699845618 0 15.53244699845618 -24.158100329674198 0 0 0 0 9.2300845089285257 58.266878016781831 0 58.266878016781831 13.050123639824347 0 0 0 0 41.47141240965675 68.834542292728656 0 68.834542292728656 -249.04305091702554 0 0 0 0 -7.9283500541595231 36.549454587271043 0 36.549454587271043 -164.78667230310748 0 0 0 0 60.792043376003733 119.92618269160585 0 119.92618269160585 -252.76795214092635 0 0 0 0 7.3444741033321437 58.505936470752751 0 58.505936470752751 13.15589664638609 0 0 0 0 -23.634113805341713 107.3922497133608 0 107.3922497133608 -155.82275698624289 0 0 0 0 42.635544709363103 67.309371771925726 0 67.309371771925726 -78.721174993645036 0 0 0 0 49.901426576725044 109.99698505455308 0 109.99698505455308 -155.94191311578993 0 0 0 0 21.53944188074793 51.35099157098648 0 51.35099157098648 -85.237083861615247 0 0 0 0 61.070268163904075 38.484981694511589 0 38.484981694511589 -164.91637588890057 0 0 0 0 4.4106954098911615 57.837869199788521 0 57.837869199788521 12.015997149903072 0 0 0 0 64.096436227205459 37.286614944074245 0 37.286614944074245 -206.15298892027931 0 0 0 0 115.00022613031751 146.61575208614522 0 146.61575208614522 -207.29686755043804 0 0 0 0 -0.21310635862863592 75.530253358680056 0 75.530253358680056 -148.11634583787509 0 0 0 0 31.24943176411864 149.70125473297048 0 149.70125473297048 -36.900687419934911 0 0 0 0 13.224050943538259 126.14750461522726 0 126.14750461522726 -129.31547719919627 0 0 0 0 1.2381551956761427 156.85129122402031 0 156.85129122402031 -43.41144550800891 0 0 0 0 20.77228733534821 134.4712189552929 0 134.4712189552929 -32.952239961974101 0 0 0 0 10.967007195016436 158.62629923365876 0 158.62629923365876 89.984311379977953 0 0 0 0 99.183350956027539 148.03947024866284 0 148.03947024866284 -37.485067802354024 0 0 0 0 84.131425626909447 119.19213605476216 0 119.19213605476216 85.002349887217406 0 0 0 0 23.430424174245672 14.917569902620016 0 14.917569902620016 -12.338071347243385 0 0 0 0 127.58708360896594 15.552945277777326 0 15.552945277777326 -73.230746932958937 0 0 0 0 76.388449296039994 92.049553750563064 0 92.049553750563064 36.374231089981549 0 0 0 0 100.40364197826344 139.05836384236454 0 139.05836384236454 -40.978463756211568 0 0 0 0 59.945074818684475 64.552739934712918 0 64.552739934712918 326.84184783039382 0 0 0 0 178.19821291990365 224.04220552209699 0 224.04220552209699 107.68005836773227 0 0 0 0 252.50631558750825 21.537609816622307 0 21.537609816622307 -25.869009308855311 0 0 0 0 0.35012634655129471 1.2819870564485392 0 1.2819870564485392 2.7358080726869574 0 0 0 0 215.99183710802458 86.025354687748404 0 86.025354687748404 249.89685555278265 0 0 0 0 88.737590980666482 213.29331225424312 0 213.29331225424312 257.42067823653997 0 0 0 0 143.69844153286638 -26.675523500476174 0 -26.675523500476174 231.39050866801153 0 0 0 0 58.858904200520783 -33.757716880858425 0 -33.757716880858425 272.91859172231489 0 0 0 0 98.222314909772166 -24.667132717285313 0 -24.667132717285313 237.31383551471481 0 0 0 0 -53.917635435070224 79.060442113832323 0 79.060442113832323 252.33423386469622 0 0 0 0 4.8383162133782207 172.94591900166415 0 172.94591900166415 297.30465414731225 0 0 0 0 20.925261270557634 115.05767609621125 0 115.05767609621125 162.30423946313385 0 0 0 0 34.016931514531791 154.18439054817941 0 154.18439054817941 68.438169895554893 0 0 0 0 140.83778501380792 -81.89709983220655 0 -81.89709983220655 279.52870793910915 0 0 0 0 250.79126038320092 41.128045171181839 0 41.128045171181839 121.02342350472281 0 0 0 0 9.5091281855989536 184.29365033106751 0 184.29365033106751 235.56374257294738 0 0 0 0 -72.466122703604924 55.726792970983297 0 55.726792970983297 131.2049534106327 0 0 0 0 -65.345881354311587 150.94507434518164 0 150.94507434518164 182.6364005000114 0 0 0 0 -129.96607509292744 113.67564969161685 0 113.67564969161685 111.46649950767005 0 0 0 0 -99.012294000344355 89.19640947593598 0 89.19640947593598 80.711523910500546 0 0 0 0 -106.25262223604113 61.735673538518313 0 61.735673538518313 83.432719747971532 0 0 0 0 5.4281878494954885 17.026790656028567 0 17.026790656028567 46.572954675244148 0 0 0 0 -183.76097088721417 69.288004179571544 0 69.288004179571544 109.80649695549937 0 0 0 0 -152.21784456715613 71.040844927413218 0 71.040844927413218 34.422742290853421 0 0 0 0 -173.34239830535148 138.87555476834223 0 138.87555476834223 70.132482790992071 0 0 0 0 9.2352814774427969 23.223045645387408 0 23.223045645387408 64.937961731746753 0 0 0 0 -78.713578611266712 -0.82729537011982757 0 -0.82729537011982757 -21.04030424769735 0 0 0 0 -82.396458587831148 107.39215766341022 0 107.39215766341022 34.566999344635406 0 0 0 0 -99.803087100242919 108.98004777016467 0 108.98004777016467 25.180461123843088 0 0 0 0 -63.554393535200461 132.19691675911417 0 132.19691675911417 29.083503095485867 0 0 0 0 -7.8779291051114342 170.25014045652097 0 170.25014045652097 22.575008046351286 0 0 0 0 -34.252017199119564 134.96751763661723 0 134.96751763661723 69.314817484523701 0 0 0 0 -50.677551547513985 164.15929019772466 0 164.15929019772466 68.775503506038149 0 0 0 0 129.37571621058851 -47.611017656943659 0 -47.611017656943659 -190.74840803355619 0 0 0 0 148.42334718818893 8.108562140558206 0 8.108562140558206 -66.425837464356164 0 0 0 0 94.735133012254664 -1.9462713657667337 0 -1.9462713657667337 -66.685902620037496 0 0 0 0 127.04670722315495 76.770432894951227 0 76.770432894951227 -85.165432156591123 0 0 0 0 126.63060012395363 43.687124782103638 0 43.687124782103638 -51.519836794053845 0 0 0 0 97.392742840274877 58.046976733847259 0 58.046976733847259 -38.759617451822123 0 0 0 0 130.62129704740801 95.294302728998446 0 95.294302728998446 -14.664686874377367 0 0 0 0 95.72384567626068 105.64830698078003 0 105.64830698078003 29.901675131113734 0 0 0 0 83.283444749591581 85.050749736725265 0 85.050749736725265 -0.36531979901337763 0 0 0 0 75.222682458956115 95.635195259248576 0 95.635195259248576 33.891526665378478 0 0 0 0 84.236568641477788 77.37710104638245 0 77.37710104638245 4.9296341080626007 0 0 0 0 80.141516516807314 70.031226569190039 0 70.031226569190039 -7.7577273243878153 0 0 0 0 57.68940288561862 57.350466865958879 0 57.350466865958879 -10.899393218340265 0 0 0 0 96.59502111114125 50.301164748456358 0 50.301164748456358 -29.470062756969128 0 0 0 0 96.947091150381311 32.6901679665134 0 32.6901679665134 -52.768383703823929 0 0 0 0 75.354536998864205 36.574091492955631 0 36.574091492955631 -36.680464244596806 0 0 0 0 84.956048822834418 23.399587805008196 0 23.399587805008196 -47.009519281971734 0 0 0 0 77.32363069747953 37.790589451822598 0 37.790589451822598 -37.584628627097118 0 0 0 0 79.697407962190482 55.745479414930287 0 55.745479414930287 -23.698055987566477 0 0 0 0 58.263373250745644 43.525874409766402 0 43.525874409766402 -30.634926107642968 0 0 0 0 69.334574757074733 31.623770863212485 0 31.623770863212485 -39.56274295107869 0 0 0 0 62.108929500740487 44.341407764753967 0 44.341407764753967 -31.898618950042874 0 0 0 0 53.727923292171909 37.236098573066556 0 37.236098573066556 -37.44416948716389 0 0 0 0 56.896133516653208 39.90316788527889 0 39.90316788527889 -39.397796450692113 0 0 0 0 53.6602718074937 30.207298839062787 0 30.207298839062787 -39.670402011019178 0 0 0 0 37.618052036501467 33.613177084371273 0 33.613177084371273 -38.723545634609764 0 0 0 0 76.789525014304672 24.391452092211694 0 24.391452092211694 -47.099837984282203 0 0 0 0 68.231917241071642 26.385642948451277 0 26.385642948451277 -46.107344229545561 0 0 0 0 68.97040312448371 19.6034264103655 0 19.6034264103655 -47.45614449189452 0 0 0 0 77.987993191374699 20.660929481589847 0 20.660929481589847 -44.624973105077515 0 0 0 0 78.317805212464009 20.118792205594218 0 20.118792205594218 -45.522779345308663 0 0 0 0 105.77080187774845 24.800229627398949 0 24.800229627398949 -45.756809055543272 0 0 0 0 81.181123464484699 19.488597384022796 0 19.488597384022796 -46.759889472254144 0 0 0 0 73.953946228088171 -1.3401707798602729 0 -1.3401707798602729 -41.812784210429527 0 0 0 0 57.642490125646873 21.129395650576043 0 21.129395650576043 -35.943964668178523 0 0 0 0 77.330322957508542 10.911668443266535 0 10.911668443266535 -30.66447223668365 0 0 0 0 61.021669972407835 9.3056931227401947 0 9.3056931227401947 -15.155365009886737 0 0 0 0 56.526853310251681 -13.492775492263263 0 -13.492775492263263 19.59391411132674 0 0 0 0 72.170589689858389 -8.0915069568113722 0 -8.0915069568113722 -19.968802117007726 0 0 0 0 62.833374763045867 -0.65735128878077376 0 -0.65735128878077376 -25.542901912431262 0 0 0 0 -228.93048528707732 88.923604659539706 0 88.923604659539706 -117.51870063164461 0 0 0 0 -0.5524659232744682 -3.7679853697523669 0 -3.7679853697523669 -11.246988485447616 0 0 0 0 -66.383826507590129 95.868398216472997 0 95.868398216472997 -180.63038840047375 0 0 0 0 65.082663699202385 0.15165974735282362 0 0.15165974735282362 -9.5275995314368629 0 0 0 0 -164.15290855371768 166.07197635177272 0 166.07197635177272 -195.24224577688437 0 0 0 0 -232.23297457822446 304.84390540960248 0 304.84390540960248 -332.36939188941324 0 0 0 0 96.623133496479568 -62.179891475969271 0 -62.179891475969271 -79.861538617473343 0 0 0 0 -0.46647587170660643 -1.2357455728619797 0 -1.2357455728619797 -4.0654630995002208 0 0 0 0 97.876593891236553 -77.405116042084046 0 -77.405116042084046 -12.371773245411532 0 0 0 0 -290.3743797121042 215.15083991295523 0 215.15083991295523 49.182501611438056 0 0 0 0 -199.72393747034221 79.035070021633146 0 79.035070021633146 41.149388675916271 0 0 0 0 85.580839709751672 31.164804040674426 0 31.164804040674426 -376.42610392827191 0 0 0 0 -37.192376397473708 66.752583500497167 0 66.752583500497167 39.865406125034497 0 0 0 0 137.99191454485117 234.86931034335794 0 234.86931034335794 257.99832673751916 0 0 0 0 341.07277047100797 258.07782952347043 0 258.07782952347043 27.715090773897828 0 0 0 0 -180.09198041520722 78.721817715884754 0 78.721817715884754 378.12056855292394 0 0 0 0 -17.057665573790537 15.808224901440788 0 15.808224901440788 -10.853835781969433 0 0 0 0 230.92686277416942 189.66050419603016 0 189.66050419603016 50.857326097298539 0 0 0 0 61.156977125619051 272.89137226269577 0 272.89137226269577 145.18963589242776 0 0 0 0 1.9603650121702572 6.3902609812147517 0 6.3902609812147517 -6.9666103280606224 0 0 0 0 -18.653291213799093 222.03015680617318 0 222.03015680617318 587.84376099086705 0 0 0 0 102.5249978906977 134.50611958424815 0 134.50611958424815 81.999300701390894 0 0 0 0 233.14887835569607 147.89825538677178 0 147.89825538677178 -320.49150640636071 0 0 0 0 183.76459219696517 180.48135573661966 0 180.48135573661966 0.76606853021075949 0 0 0 0 80.963478614186897 148.55300806490413 0 148.55300806490413 77.721519262428046 0 0 0 0 87.861315781620533 110.33468467172156 0 110.33468467172156 27.59253580855875 0 0 0 0 87.437167089752393 124.23522936152153 0 124.23522936152153 58.890810974276974 0 0 0 0 105.8043922092329 134.74932403026105 0 134.74932403026105 38.901591940973958 0 0 0 0 -86.253073317671806 15.678958875789249 0 15.678958875789249 81.071508194701892 0 0 0 0 78.322781541886798 51.968515629418107 0 51.968515629418107 -81.945710289177441 0 0 0 0 8.1257436235475282 9.0920264493434004 0 9.0920264493434004 -6.5529953517781889 0 0 0 0 254.98683318404801 -3.7646203691365372 0 -3.7646203691365372 -437.15994459109726 0 0 0 0 -23.961066701577117 21.055669207892329 0 21.055669207892329 -14.309437075432385 0 0 0 0 6.1573210715970674 4.8873559819659711 0 4.8873559819659711 0.41623286045532515 0 0 0 0 -31.82099503443078 9.7088402039971697 0 9.7088402039971697 -62.735153145575168 0 0 0 0 5.635831771636731 109.16885626758631 0 109.16885626758631 -197.84468246396213 0 0 0 0 30.886143122183057 305.30426404011996 0 305.30426404011996 177.0080380690745 0 0 0 0 1.9826861751163065 3.5069680400499266 0 3.5069680400499266 0.34671559686841236 0 0 0 0 -99.131771450955057 336.25497475210432 0 336.25497475210432 933.81392968561295 0 0 0 0 -0.63148471965268982 75.579816290238341 0 75.579816290238341 0.51820011984921166 0 0 0 0 -51.486378541579597 95.312697545446554 0 95.312697545446554 -30.122186932101613 0 0 0 0 -28.823006186794373 59.928775446629515 0 59.928775446629515 18.842548711223571 0 0 0 0 -43.790235916808911 57.438710358992921 0 57.438710358992921 3.0078963744635985 0 0 0 0 3.7409072698589299 3.9383745681121383 0 3.9383745681121383 -7.1870602155116607 0 0 0 0 -27.345550188193364 21.435708794374165 0 21.435708794374165 -16.411678362737234 0 0 0 0 333.02509923143953 99.668731312987802 0 99.668731312987802 -326.5219808113543 0 0 0 0 -46.143683013346163 129.60419001655464 0 129.60419001655464 58.613716001302237 0 0 0 0 44.948984206537716 116.79385778061987 0 116.79385778061987 98.604883367530419 0 0 0 0 29.461855271394597 86.914381878421409 0 86.914381878421409 91.812086350302707 0 0 0 0 17.083981293752004 126.90355483353051 0 126.90355483353051 -65.54408315659748 0 0 0 0 -112.79927264950766 193.43840503523461 0 193.43840503523461 340.95363469675112 0 0 0 0 -26.934326828878511 238.37203443609633 0 238.37203443609633 336.42612307433023 0 0 0 0 50.034821007639948 137.14749843584195 0 137.14749843584195 -338.68719853107541 0 0 0 0 62.850650367217895 241.30228959738952 0 241.30228959738952 118.06959832761459 0 0 0 0 -22.008193310235583 28.153461318634072 0 28.153461318634072 122.15500720729358 0 0 0 0 -42.111504385454737 200.73683815529421 0 200.73683815529421 286.40337989851832 0 0 0 0 6.5250080579976384 32.8018441338927 0 32.8018441338927 61.562467295203533 0 0 0 0 -46.975164129403765 48.711870497182645 0 48.711870497182645 387.70750329969087 0 0 0 0 -13.898975863102237 24.087511923740976 0 24.087511923740976 51.270845341558015 0 0 0 0 -25.979442974486119 50.200779880978189 0 50.200779880978189 66.21480904334021 0 0 0 0 -29.679758030615318 30.852155648194916 0 30.852155648194916 -24.020359248793635 0 0 0 0 -1.9167052442462591 70.225286235250678 0 70.225286235250678 -55.758362187487364 0 0 0 0 7.8421824788717913 40.918399937536833 0 40.918399937536833 -51.22254365839035 0 0 0 0 -17.794061963606509 47.120094745861934 0 47.120094745861934 54.343393291114808 0 0 0 0 -9.3155480390369121 22.576618926394076 0 22.576618926394076 -22.791714738003066 0 0 0 0 -1.7021643311402768 8.4574808963827302 0 8.4574808963827302 -0.88757192357643078 0 0 0 0 10.546384564593525 2.8525357187078377 0 2.8525357187078377 -10.046590636982593 0 0 0 0 19.506364598080836 60.936945596680744 0 60.936945596680744 5.568645840674435 0 0 0 0 41.496199225075543 78.709539945994038 0 78.709539945994038 19.909752607039991 0 0 0 0 63.954142532544211 65.455369239691208 0 65.455369239691208 -8.7717406179945101 0 0 0 0 39.625665980951453 64.181197303296358 0 64.181197303296358 7.2897407605632907 0 0 0 0 43.316044859340764 80.192960949883854 0 80.192960949883854 37.454511569871102 0 0 0 0 58.585405529920536 78.313742821912456 0 78.313742821912456 16.059517912872252 0 0 0 0 56.118341172892542 73.22615712726838 0 73.22615712726838 18.204816889519861 0 0 0 0 60.080094589371583 89.685151612742629 0 89.685151612742629 46.510167579161134 0 0 0 0 45.15422691963613 79.120790518187277 0 79.120790518187277 37.480975642160047 0 0 0 0 53.571087637901655 97.880970781228825 0 97.880970781228825 68.722882454341743 0 0 0 0 29.783510283014039 79.432245984477049 0 79.432245984477049 76.193119659787044 0 0 0 0 27.093112836257205 70.294699382186081 0 70.294699382186081 46.260860475667869 0 0 0 0 43.272043654098525 78.421077776896709 0 78.421077776896709 19.925542039022275 0 0 0 0 -31.436975467322661 25.758851269690968 0 25.758851269690968 -21.116868622100128 0 0 0 0 -17.67900239105802 96.681602892931551 0 96.681602892931551 44.043601136169855 0 0 0 0 -350.7945860286477 97.71357974772036 0 97.71357974772036 379.10396087703884 0 0 0 0 24.733475074051967 77.170150897005442 0 77.170150897005442 26.236354748787562 0 0 0 0 18.72311670860654 81.109513285169669 0 81.109513285169669 24.648876544933955 0 0 0 0 1.1570047821542175 54.015461553310615 0 54.015461553310615 -16.383644712921523 0 0 0 0 -2.7354220196721144 56.01382577176264 0 56.01382577176264 4.6028085325378925 0 0 0 0 13.821487542558316 66.986140790570062 0 66.986140790570062 -46.322570582851768 0 0 0 0 11.156087398208911 74.749363274138886 0 74.749363274138886 -18.010269785543642 0 0 0 0 19.556336232923059 48.980495593576052 0 48.980495593576052 -30.094673733488889 0 0 0 0 31.886908975668121 54.210702429433695 0 54.210702429433695 -49.785708147253899 0 0 0 0 26.341468788094062 59.298981961579557 0 59.298981961579557 -15.596925455254677 0 0 0 0 46.857444260342163 62.349070786545781 0 62.349070786545781 -15.41540217329748 0 0 0 0 62.034079595045114 54.202728003299853 0 54.202728003299853 -25.19195837242296 0 0 0 0 41.139528375162627 57.011504008078191 0 57.011504008078191 -11.760728228415246 0 0 0 0 43.981719808609341 48.028212118129886 0 48.028212118129886 -27.279681031661312 0 0 0 0 46.599011054189759 49.532520316348382 0 49.532520316348382 -33.508604445800302 0 0 0 0 27.593485535500804 48.972238192334771 0 48.972238192334771 -33.294032557871105 0 0 0 0 44.450140415399801 45.615007064494421 0 45.615007064494421 -44.614546349112061 0 0 0 0 27.739657537487801 51.784242691399413 0 51.784242691399413 -44.946989264368312 0 0 0 0 27.941754573846993 48.724372774628137 0 48.724372774628137 -49.807928389323934 0 0 0 0 11.714186285025789 61.062013137243412 0 61.062013137243412 -55.164978246451938 0 0 0 0 1.0293233675474767 61.135048013158666 0 61.135048013158666 -53.277034366488806 0 0 0 0 25.433287762723921 46.178287167036615 0 46.178287167036615 -54.022871883949847 0 0 0 0 12.598685755074257 55.946508986009576 0 55.946508986009576 -60.493019720124721 0 0 0 0 10.120360710250679 70.439876355434535 0 70.439876355434535 -79.357336484186817 0 0 0 0 14.654025948417257 67.797406878897164 0 67.797406878897164 -81.534198270612251 0 0 0 0 2.2373710832471261 74.016587118057942 0 74.016587118057942 -74.21925365477091 0 0 0 0 13.772661384704406 62.041841067244604 0 62.041841067244604 -72.882323248690227 0 0 0 0 15.041309915031889 60.060073222064602 0 60.060073222064602 -62.953340384734474 0 0 0 0 19.309650347866409 62.335537976516207 0 62.335537976516207 -88.243539383511234 0 0 0 0 18.976691814532387 74.749101208113643 0 74.749101208113643 -100.95075940408424 0 0 0 0 13.862827323318925 65.772299657968688 0 65.772299657968688 -51.392821498333433 0 0 0 0 -29.064788555435371 67.45602454029904 0 67.45602454029904 -45.13426827436615 0 0 0 0 14.329641819145763 54.485569264223159 0 54.485569264223159 -105.65226690173586 0 0 0 0 0.67396624627190249 64.230757241823085 0 64.230757241823085 -77.718959376437851 0 0 0 0 4.2706439206876894 71.214710724171255 0 71.214710724171255 -145.42082244429002 0 0 0 0 37.494125485201963 9.7390333534922746 0 9.7390333534922746 -29.740115056079752 0 0 0 0 19.158747601199138 44.662268332296662 0 44.662268332296662 -142.00294759096141 0 0 0 0 20.08234253887349 58.471613232151867 0 58.471613232151867 -104.08706407959926 0 0 0 0 -15.076009966174752 68.996827565482818 0 68.996827565482818 -128.79582761084748 0 0 0 0 13.632087919293554 25.652339562599082 0 25.652339562599082 -202.53999535368348 0 0 0 0 19.363097129958987 7.4620277786689257 0 7.4620277786689257 -230.82386404440331 0 0 0 0 15.106203466988518 43.736915183559177 0 43.736915183559177 -155.79964514146559 0 0 0 0 19.74725800057422 33.510803580627908 0 33.510803580627908 -221.17205439522513 0 0 0 0 12.911209775360476 62.657906225944316 0 62.657906225944316 -124.67545968591003 0 0 0 0 18.247270778054371 67.206205227936152 0 67.206205227936152 -148.92404457363955 0 0 0 0 11.691764594943379 67.390675783652114 0 67.390675783652114 -132.18170336641197 0 0 0 0 8.6723465323484561 73.374845185529921 0 73.374845185529921 -99.963411129501765 0 0 0 0 6.4475475625222316 78.311208754814288 0 78.311208754814288 -100.9376567244617 0 0 0 0 12.484243918097491 70.866398504884273 0 70.866398504884273 -132.60614133805211 0 0 0 0 4.4504123779188376 79.469161808949139 0 79.469161808949139 -100.95729512313846 0 0 0 0 13.349716763645119 75.008689380734722 0 75.008689380734722 -100.12648118393554 0 0 0 0 16.130287355728797 71.703556821729762 0 71.703556821729762 -101.66840452590986 0 0 0 0 25.199987394012624 13.118532006265355 0 13.118532006265355 -81.735425952676451 0 0 0 0 16.35233600047377 50.077165549762867 0 50.077165549762867 -143.01995223495214 0 0 0 0 15.076645191834359 28.412275011127349 0 28.412275011127349 -91.537385618790722 0 0 0 0 19.392695331829827 49.911117497283158 0 49.911117497283158 -66.916126016119961 0 0 0 0 -13.389599553800508 88.465206656297596 0 88.465206656297596 -46.422536140771626 0 0 0 0 35.86090322899117 7.7385135787896955 0 7.7385135787896955 -20.134560360121952 0 0 0 0 8.9188204571864844 21.445625524238494 0 21.445625524238494 -97.803559208226943 0 0 0 0 25.10772059647843 26.510675271462787 0 26.510675271462787 -115.16062183438044 0 0 0 0 22.765931568135102 40.939902789570169 0 40.939902789570169 -91.978027888344513 0 0 0 0 15.382704638726864 58.75022227299678 0 58.75022227299678 -170.36437946197111 0 0 0 0 12.226928486518592 56.376751634696681 0 56.376751634696681 13.521825653338123 0 0 0 0 0.14642167777310533 48.553375089430119 0 48.553375089430119 -127.49103546515653 0 0 0 0 -10.605615851885887 75.23572433334266 0 75.23572433334266 -138.28889803268839 0 0 0 0 11.54408662141168 194.04185637516275 0 194.04185637516275 -87.050098520907341 0 0 0 0 49.095321363865125 79.061847197156567 0 79.061847197156567 47.513346712235943 0 0 0 0 -287.47686425868898 191.88802822985599 0 191.88802822985599 10.310392339648388 0 0 0 0 71.59920906905495 22.704250558381318 0 22.704250558381318 55.669245561257412 0 0 0 0 -72.824480329004331 25.995627895907091 0 25.995627895907091 93.626442379047148 0 0 0 0 -171.50349941125131 -37.442110486819729 0 -37.442110486819729 58.332435570027883 0 0 0 0 113.32295802948778 243.10565282304924 0 243.10565282304924 183.02279328480654 0 0 0 0 -24.234116656441653 -0.7612665270535075 0 -0.7612665270535075 15.883288375664137 0 0 0 0 266.71435746099695 67.897469033792731 0 67.897469033792731 -196.62177233747207 0 0 0 0 -4.4241683079775491 3.9261470553331321 0 3.9261470553331321 -2.6309595608776135 0 0 0 0 68.249870772910839 232.7906740566832 0 232.7906740566832 10.628528620727593 0 0 0 0 -46.846505256478395 42.598289419656794 0 42.598289419656794 30.033927771208255 0 0 0 0 -204.63093881238501 177.41882607313164 0 177.41882607313164 364.46708498836961 0 0 0 0 -587.86197968546685 414.74210295578814 0 414.74210295578814 947.68697241790505 0 0 0 0 3.174114083422293 7.5637574431200107 0 7.5637574431200107 1.9047455935200013 0 0 0 0 -18.02566254950159 237.04030010302813 0 237.04030010302813 -11.731933690534788 0 0 0 0 -6.6782194417177152 274.13001771412382 0 274.13001771412382 -10.888614545561722 0 0 0 0 -35.704014008685931 286.29612184069265 0 286.29612184069265 -10.443990032785223 0 0 0 0 -27.060461809082508 9.7017479228125438 0 9.7017479228125438 23.898547638580908 0 0 0 0 -0.64603409432675107 55.526098715774424 0 55.526098715774424 82.609826529907878 0 0 0 0 4.931696052877669 56.388004452892346 0 56.388004452892346 68.362515589412396 0 0 0 0 4.5238122634145839 66.306613189743075 0 66.306613189743075 47.451333040255122 0 0 0 0 11.132807369023794 28.714996219408931 0 28.714996219408931 -23.706122303497978 0 0 0 0 -0.65796734145720137 33.513415852438364 0 33.513415852438364 2.3502600996714023 0 0 0 0 20.158104067198465 43.133161978297139 0 43.133161978297139 -30.789828734124015 0 0 0 0 17.630459115169387 88.835268614897331 0 88.835268614897331 26.55383694560922 0 0 0 0 72.316050301563905 86.67019072542098 0 86.67019072542098 103.48727850239266 0 0 0 0 13.718896427996064 62.505397304236965 0 62.505397304236965 8.237329353517076 0 0 0 0 24.832684975613176 47.777928812940445 0 47.777928812940445 141.45175403781468 0 0 0 0 7.3228132980329974 50.38754245322707 0 50.38754245322707 94.503919233291526 0 0 0 0 82.935956261342653 23.450305582417059 0 23.450305582417059 134.69327829856411 0 0 0 0 0.04338013723986478 28.905309675222995 0 28.905309675222995 -5.1299913104256234 0 0 0 0 -4.1376909806276672 39.671343415757292 0 39.671343415757292 85.79246591241008 0 0 0 0 0.88010280786198791 25.18196729045259 0 25.18196729045259 -5.1057603045234465 0 0 0 0 10.553674986973419 42.643148010687582 0 42.643148010687582 51.385162484668399 0 0 0 0 14.515276568968147 124.5393090564412 0 124.5393090564412 136.58817421681306 0 0 0 0 -77.031875518283414 89.534839248473872 0 89.534839248473872 226.44813676578815 0 0 0 0 -1.1967979018081678 38.398013352365524 0 38.398013352365524 70.880788160857264 0 0 0 0 2.1603587820193937 25.147104182067721 0 25.147104182067721 -6.2381282274970609 0 0 0 0 -52.236551750753279 9.9749704267087509 0 9.9749704267087509 255.89390312683736 0 0 0 0 250.50149462087575 16.565655624661304 0 16.565655624661304 79.376096695050364 0 0 0 0 -31.051527665562389 77.924784442815508 0 77.924784442815508 77.371549903822597 0 0 0 0 -154.36402786690451 -70.996981365824468 0 -70.996981365824468 177.11739957633836 0 0 0 0 1.4736619155113431 4.4568904945739121 0 4.4568904945739121 -8.5753587453644116 0 0 0 0 37.656513961526798 79.728436988576505 0 79.728436988576505 -18.097278796796218 0 0 0 0 107.46806380456292 40.999358699435106 0 40.999358699435106 -79.782633876686305 0 0 0 0 20.228022879331178 30.818253189132818 0 30.818253189132818 6.878047512533584 0 0 0 0 17.383349954568985 50.441727236498991 0 50.441727236498991 57.871446304568963 0 0 0 0 4.8189609350374667 51.976595897223888 0 51.976595897223888 59.003568840513253 0 0 0 0 40.492290613838122 22.884153039914963 0 22.884153039914963 -288.33650348382071 0 0 0 0 49.031412997079315 75.716341579287473 0 75.716341579287473 -332.33303265454015 0 0 0 0 5.3881070497377976 8.9091373379034451 0 8.9091373379034451 3.466092820882416 0 0 0 0 42.029510860331357 69.124804800041602 0 69.124804800041602 -216.80758766862346 0 0 0 0 46.874479629099369 40.671179406810552 0 40.671179406810552 -235.71964378453413 0 0 0 0 25.809337847647839 54.588784357583791 0 54.588784357583791 -177.2725423865777 0 0 0 0 23.030821027758066 54.715152378412313 0 54.715152378412313 -166.29610277271422 0 0 0 0 17.703615627833642 67.472907069724897 0 67.472907069724897 -170.02614679530961 0 0 0 0 15.653101162948587 77.083816428072168 0 77.083816428072168 -138.08736003581726 0 0 0 0 16.43990982179821 91.761283422179986 0 91.761283422179986 -193.37072581749453 0 0 0 0 10.815703433923773 79.194488265391556 0 79.194488265391556 -173.92922673552675 0 0 0 0 -37.07242537993443 129.8374327104948 0 129.8374327104948 -134.99134409612452 0 0 0 0 -17.038112434674986 70.803655252624594 0 70.803655252624594 -25.933636580768507 0 0 0 0 -12.996290685463464 93.738531342729402 0 93.738531342729402 -97.092418337095296 0 0 0 0 8.7934951394272503 79.298125567278476 0 79.298125567278476 -138.64563862948125 0 0 0 0 33.454930534178857 221.95150545000797 0 221.95150545000797 -319.57784913529758 0 0 0 0 330.14455231200554 -180.16351184408995 0 -180.16351184408995 82.016231302317465 0 0 0 0 -204.44381256139604 -9.6243267158279195 0 -9.6243267158279195 412.4956314474839 0 0 0 0 -116.41097220695519 162.44810322224657 0 162.44810322224657 -63.488068077815115 0 0 0 0 -50.605014693237536 71.204100903060862 0 71.204100903060862 51.35948191517673 0 0 0 0 -156.91613965155557 417.83830677489459 0 417.83830677489459 -149.22217741892382 0 0 0 0 -347.22113852456096 309.63200852790033 0 309.63200852790033 302.84873482270632 0 0 0 0 2.7754591297699562 1.6059219327470728 0 1.6059219327470728 1.6281211973267062 0 0 0 0 40.827870361801615 -19.800969001378689 0 -19.800969001378689 -19.872324457217474 0 0 0 0 30.487029093579622 102.91584698080987 0 102.91584698080987 -94.852928674493569 0 0 0 0 261.67848571215291 79.740141324939032 0 79.740141324939032 -314.86770115836407 0 0 0 0 31.616352280343563 45.560533137264429 0 45.560533137264429 -44.983266372211801 0 0 0 0 19.526396190027299 65.565042385522247 0 65.565042385522247 -45.314520204621658 0 0 0 0 114.25877605528513 73.087664506121655 0 73.087664506121655 -97.943700251719747 0 0 0 0 183.92484808230074 28.863945369783323 0 28.863945369783323 -70.193833948942483 0 0 0 0 185.63948307619285 10.05742367559651 0 10.05742367559651 -58.695305988614564 0 0 0 0 90.307404756458709 75.508101005609205 0 75.508101005609205 -59.207762605731659 0 0 0 0 97.166712384176208 27.74267496586981 0 27.74267496586981 -61.108607947600831 0 0 0 0 45.779144273372367 53.050538040035462 0 53.050538040035462 -37.366023115559074 0 0 0 0 81.13071487417983 53.706480856134476 0 53.706480856134476 -43.564489543634409 0 0 0 0 75.7634016055963 28.60859300402808 0 28.60859300402808 -40.644869148454745 0 0 0 0 84.933257106087694 38.124788061872096 0 38.124788061872096 -39.330469287720916 0 0 0 0 84.179211406574268 29.724298809270067 0 29.724298809270067 -54.32910592573171 0 0 0 0 79.074556943240168 23.690870518679731 0 23.690870518679731 -47.668067124221125 0 0 0 0 78.466589233001287 24.571271544053161 0 24.571271544053161 -46.484136840052088 0 0 0 0 78.691472595110099 23.418620131303214 0 23.418620131303214 -48.436156610943726 0 0 0 0 68.438588926306693 16.028227092443558 0 16.028227092443558 -49.752469218388796 0 0 0 0 63.718490739600384 13.950168040311837 0 13.950168040311837 -50.117272939281975 0 0 0 0 58.398312113662541 28.176706497481064 0 28.176706497481064 -44.350583567589638 0 0 0 0 48.243412056588568 20.575849868120713 0 20.575849868120713 -42.795382799362415 0 0 0 0 39.98431061192241 39.635041025467217 0 39.635041025467217 -40.367277164055849 0 0 0 0 32.733977062285703 33.571874032711094 0 33.571874032711094 -43.450935895263683 0 0 0 0 18.902261171489954 43.028132589555753 0 43.028132589555753 -41.524609648367004 0 0 0 0 29.954603185789892 28.227834359764529 0 28.227834359764529 -40.061041730454235 0 0 0 0 28.944090805969608 26.968202484185895 0 26.968202484185895 -41.314834549761144 0 0 0 0 1.3917264233023161 42.596060203082743 0 42.596060203082743 -36.515699511102866 0 0 0 0 12.167337837636296 54.386044265949749 0 54.386044265949749 -58.305615168050281 0 0 0 0 -8.4880859934637556 72.480508108303184 0 72.480508108303184 -53.812790340234642 0 0 0 0 7.685203542769159 46.738611466379552 0 46.738611466379552 -52.044019117369317 0 0 0 0 35.732630893282476 2.3996860971092246 0 2.3996860971092246 -15.570892352356168 0 0 0 0 2.6155346943978657 19.015136799356696 0 19.015136799356696 -17.140274832374416 0 0 0 0 64.841982059049769 -18.084682759799762 0 -18.084682759799762 -2.285038068985159 0 0 0 0 41.311442080048437 10.708141900962801 0 10.708141900962801 -24.56566521798959 0 0 0 0 104.46097685592395 0.7403642376211792 0 0.7403642376211792 -47.996236663035234 0 0 0 0 49.114332198478223 5.0383353041106602 0 5.0383353041106602 -31.829834632895654 0 0 0 0 43.549913151873625 18.336961570916174 0 18.336961570916174 -39.72324757752358 0 0 0 0 55.398510435945354 -7.2891550234198803 0 -7.2891550234198803 -17.048211857189017 0 0 0 0 67.936810201731305 -23.838078268890627 0 -23.838078268890627 -14.285569618259615 0 0 0 0 19.539350986218778 -1.7205428125962499 0 -1.7205428125962499 -19.886369282723535 0 0 0 0 54.889470825373792 -6.9182557642070606 0 -6.9182557642070606 -24.52829814873985 0 0 0 0 38.16194729828203 -20.744957929662633 0 -20.744957929662633 -5.4181825767373084 0 0 0 0 40.41096919969641 -10.361778988390142 0 -10.361778988390142 -13.048187022890488 0 0 0 0 44.931175461941166 21.228792057099781 0 21.228792057099781 -23.111695710180356 0 0 0 0 -10.592047653728514 31.504444639635039 0 31.504444639635039 -25.20632990816739 0 0 0 0 41.859909361837254 20.538014187609178 0 20.538014187609178 -22.980916175161838 0 0 0 0 32.319831074120884 -0.80199927628746082 0 -0.80199927628746082 -43.79279405489433 0 0 0 0 -50.988300189383153 59.483213250565314 0 59.483213250565314 -41.510879043262321 0 0 0 0 -24.252663507167199 -7.4328919499052972 0 -7.4328919499052972 -76.717686330979632 0 0 0 0 9.6486978920002002 25.820710388605221 0 25.820710388605221 -45.022935954530112 0 0 0 0 46.02581242841552 -5.9990376357873174 0 -5.9990376357873174 -18.412822763228178 0 0 0 0 23.434104065147949 -4.1003362729493347 0 -4.1003362729493347 -25.718854317656223 0 0 0 0 48.801720393927098 -8.0132974522875884 0 -8.0132974522875884 -32.360900880925328 0 0 0 0 5.4827399844716638 5.4060058237269004 0 5.4060058237269004 -15.505175037267037 0 0 0 0 14.811410178352162 23.565537704162125 0 23.565537704162125 15.807727867144422 0 0 0 0 13.162252230889862 37.810799440986557 0 37.810799440986557 -41.89967050366613 0 0 0 0 42.072852093195252 16.817779449620502 0 16.817779449620502 -39.897949647529458 0 0 0 0 3.706858415882202 17.863157871163978 0 17.863157871163978 -19.879441055561358 0 0 0 0 7.2603078017108089 15.720667497783225 0 15.720667497783225 3.7253681228422124 0 0 0 0 -0.84997677932551596 24.419646077920333 0 24.419646077920333 -29.154997269986779 0 0 0 0 9.8959899233886972 23.479630537636694 0 23.479630537636694 43.808954614767572 0 0 0 0 -1.0741152714025191 12.093616373257625 0 12.093616373257625 57.290471985127823 0 0 0 0 4.4305736355645768 38.875556223215796 0 38.875556223215796 15.151786047648628 0 0 0 0 -39.283838007937447 45.993430298309249 0 45.993430298309249 6.9483721067545048 0 0 0 0 9.5047068607289447 6.8883819740979426 0 6.8883819740979426 -7.7629390222927199 0 0 0 0 4.9978748578704781 27.222890720623511 0 27.222890720623511 9.0144282422703199 0 0 0 0 6.0269631325245427 31.535864338384272 0 31.535864338384272 -87.217030433237596 0 0 0 0 25.533441778970882 37.875292192959023 0 37.875292192959023 -82.202930558045409 0 0 0 0 11.061633396606339 -45.766818991192849 0 -45.766818991192849 53.936687413442996 0 0 0 0 44.348924940809411 72.572097166723324 0 72.572097166723324 10.942733206902631 0 0 0 0 3.2714520058264753 24.037923913523869 0 24.037923913523869 0.92811915390599964 0 0 0 0 0.040456096244939843 9.2721160641732752 0 9.2721160641732752 13.565810181231285 0 0 0 0 -3.940205224284 6.5801968858031614 0 6.5801968858031614 125.16789035485908 0 0 0 0 275.20893951598055 124.24934313181893 0 124.24934313181893 43.13591042032931 0 0 0 0 0.99172700846251605 -3.4693488546729654 0 -3.4693488546729654 2.9761372071473033 0 0 0 0 234.44556746276703 -167.32862334255969 0 -167.32862334255969 120.01052904623793 0 0 0 0 196.56210593651122 177.10747931980222 0 177.10747931980222 127.49036098581564 0 0 0 0 -118.38764011379317 -215.46911015351361 0 -215.46911015351361 339.73398994760464 0 0 0 0 -90.540762947703115 30.14354472326886 0 30.14354472326886 84.063045085575141 0 0 0 0 -229.33903491273304 352.40710302283696 0 352.40710302283696 -34.590889897590387 0 0 0 0 -12.237763350991827 -43.332819387403106 0 -43.332819387403106 168.41479677814641 0 0 0 0 -186.46285162163986 22.689799457763002 0 22.689799457763002 145.28869424942968 0 0 0 0 -107.51290746127415 26.690323342947522 0 26.690323342947522 140.58852453421787 0 0 0 0 -37.335305510704529 55.834367959384508 0 55.834367959384508 151.9805122937687 0 0 0 0 -42.859317063956041 117.82345897016057 0 117.82345897016057 19.712140715113492 0 0 0 0 11.767412179283383 36.73249083718656 0 36.73249083718656 109.27695252050034 0 0 0 0 -24.42231545618688 118.84975713586209 0 118.84975713586209 136.7220751615605 0 0 0 0 -15.3309871567144 54.204786270536715 0 54.204786270536715 -73.282634866067383 0 0 0 0 -270.21337350414979 38.159465742330212 0 38.159465742330212 413.55168817214144 0 0 0 0 33.433226405941241 88.236514601090676 0 88.236514601090676 -390.53139060646936 0 0 0 0 -3.7737979177558927 2.7296901848178408 0 2.7296901848178408 -1.0265928561801161 0 0 0 0 -32.146344555713767 32.728301321518302 0 32.728301321518302 -57.424208826138056 0 0 0 0 55.068815144955352 192.22640296050986 0 192.22640296050986 142.92207064872127 0 0 0 0 108.52206656087219 81.656156412380369 0 81.656156412380369 22.492056960923946 0 0 0 0 -163.40947209803562 -56.691762384944013 0 -56.691762384944013 315.840971776066 0 0 0 0 -92.226824654997472 220.40056863973223 0 220.40056863973223 -72.680209068268596 0 0 0 0 -464.73284603833963 111.17672602176026 0 111.17672602176026 230.99950679171889 0 0 0 0 -287.05187240070245 -194.48422066316743 0 -194.48422066316743 162.92701811731968 0 0 0 0 -0.32422596049465824 5.4247273141082246 0 5.4247273141082246 10.639176095315804 0 0 0 0 -364.82627482558019 227.79461582266231 0 227.79461582266231 -60.218258051751036 0 0 0 0 19.20636915013165 -14.231020586430532 0 -14.231020586430532 198.35421690071234 0 0 0 0 -15.307489462154507 -9.9292759865491007 0 -9.9292759865491007 47.601143946418787 0 0 0 0 -5.5445212786871707 38.897339862187437 0 38.897339862187437 150.92463523974584 0 0 0 0 -53.480909768135461 199.95167317739106 0 199.95167317739106 80.126126105169533 0 0 0 0 -28.55170043821272 52.496400340540276 0 52.496400340540276 83.29133576642198 0 0 0 0 13.907633334893433 30.845811085236917 0 30.845811085236917 -9.0774206310741476 0 0 0 0 -150.26346874702358 285.70816207911412 0 285.70816207911412 28.467227711382293 0 0 0 0 -114.77979465902536 -138.30729211422295 0 -138.30729211422295 -184.66533343651099 0 0 0 0 -199.60733860859909 98.772169492367539 0 98.772169492367539 155.61741081571381 0 0 0 0 -138.81474023030569 262.46709651796118 0 262.46709651796118 -186.17417454976021 0 0 0 0 -26.349295824411456 232.48672251687458 0 232.48672251687458 -210.72150689609407 0 0 0 0 -16.558674707259343 202.35616188972926 0 202.35616188972926 -141.50964497911627 0 0 0 0 35.461072018826599 331.19298212684225 0 331.19298212684225 -425.43809474540467 0 0 0 0 -889.23158641597456 625.68351933712256 0 625.68351933712256 73.568639943594462 0 0 0 0 -17.784285472973401 14.304284657875399 0 14.304284657875399 -1.9490856946391375 0 0 0 0 107.12983518679175 -31.004108011751669 0 -31.004108011751669 -85.326710442428521 0 0 0 0 -60.823766470344708 115.12202387049183 0 115.12202387049183 251.02837901463499 0 0 0 0 -103.77845346341019 -5.4629013250087155 0 -5.4629013250087155 232.61136525873007 0 0 0 0 -23.418461999439387 58.801480548096151 0 58.801480548096151 32.722986759843479 0 0 0 0 -73.631724976252372 67.119487859104993 0 67.119487859104993 159.11815964343805 0 0 0 0 17.522121837939267 76.634233808890713 0 76.634233808890713 173.23883256573026 0 0 0 0 -4.1309541663467826 50.812725320736718 0 50.812725320736718 161.76684407846187 0 0 0 0 17.768628648819686 -11.109883020177222 0 -11.109883020177222 51.33482073545747 0 0 0 0 38.402136424992932 87.032454671349115 0 87.032454671349115 27.013319434801815 0 0 0 0 -243.41284916735458 122.70405760804715 0 122.70405760804715 55.141820631288283 0 0 0 0 -6.0033277800375799 14.051106623297528 0 14.051106623297528 -92.520057014968188 0 0 0 0 87.371493312120947 -32.483644850282872 0 -32.483644850282872 32.230655791157915 0 0 0 0 331.77349576157394 12.906471114853048 0 12.906471114853048 -5.440263980479358 0 0 0 0 0.077012517224520849 -1.2553258281614461 0 -1.2553258281614461 1.2002036854621281 0 0 0 0 158.58549098964068 111.24711744072192 0 111.24711744072192 125.75708551376738 0 0 0 0 -86.071788826360716 26.465343635714817 0 26.465343635714817 30.550260541087482 0 0 0 0 -171.72277904526163 95.362295214162259 0 95.362295214162259 132.68450358088012 0 0 0 0 -27.037927613531792 62.856579766696086 0 62.856579766696086 -21.018717805203778 0 0 0 0 -40.545699475544097 41.736359376220207 0 41.736359376220207 -43.757449143922713 0 0 0 0 -2.5516409244886313 1.1489991945704574 0 1.1489991945704574 2.9172858988661403 0 0 0 0 -9.5951225756457887 6.6765078542007359 0 6.6765078542007359 -1.2130549433686468 0 0 0 0 -24.533230951785299 38.29133509051826 0 38.29133509051826 -54.037987454794347 0 0 0 0 -1.485540691133501 3.296311984981962 0 3.296311984981962 -0.22589922276833363 0 0 0 0 195.40127485103949 109.62366319027569 0 109.62366319027569 18.035816990322928 0 0 0 0 -85.792776995447639 46.649640814295708 0 46.649640814295708 -9.0373587116373528 0 0 0 0 -5.9230867467067654 5.9907900862944388 0 5.9907900862944388 -1.0972721900428368 0 0 0 0 -54.771856028283764 80.707210839018444 0 80.707210839018444 -171.96434128107649 0 0 0 0 171.46785961461444 55.829776350577504 0 55.829776350577504 -90.839266657254484 0 0 0 0 115.27075430969671 142.24195567731294 0 142.24195567731294 90.423837914582691 0 0 0 0 135.50736649490136 9.203949752576591 0 9.203949752576591 -235.8319874801964 0 0 0 0 -478.4010995302815 56.680199922120664 0 56.680199922120664 -29.112359618073242 0 0 0 0 -2.7170012590791579 2.5102606746445417 0 2.5102606746445417 -0.79214802383999228 0 0 0 0 -417.72012694810564 208.06663374810159 0 208.06663374810159 530.32226949406322 0 0 0 0 -77.796519931408511 256.79173684114903 0 256.79173684114903 -488.96235441588942 0 0 0 0 11.983569576947048 139.37886256438651 0 139.37886256438651 -345.08473893482733 0 0 0 0 -161.49690161416129 -188.9250391631831 0 -188.9250391631831 82.286376478674356 0 0 0 0 -575.87360157826606 242.89250527242257 0 242.89250527242257 -252.1164895237016 0 0 0 0 -661.08806576018833 396.47417846587632 0 396.47417846587632 663.47184279241083 0 0 0 0 -3.1073697431425202 3.9255549378581662 0 3.9255549378581662 -1.3599266983575546 0 0 0 0 -60.12647647243648 288.54724236134643 0 288.54724236134643 -557.68694512248476 0 0 0 0 -281.833979158798 460.5015180244518 0 460.5015180244518 -357.63587303508393 0 0 0 0 -54.429580229760177 109.10812263593834 0 109.10812263593834 -347.1758012254395 0 0 0 0 -191.71194057009961 163.42801139790754 0 163.42801139790754 -236.89835968244188 0 0 0 0 -249.54453354772977 85.371371263418951 0 85.371371263418951 -307.77697455973248 0 0 0 0 -197.56616175979434 323.42885345333343 0 323.42885345333343 -318.24507503370478 0 0 0 0 -224.29717132485621 283.85293992513107 0 283.85293992513107 -236.89108028308692 0 0 0 0 -17.42781981194139 312.84582895606263 0 312.84582895606263 -373.9243880214708 0 0 0 0 -238.87699959121323 176.98621016195784 0 176.98621016195784 -58.667742195008032 0 0 0 0 619.59291743457311 118.04714806303627 0 118.04714806303627 -287.42796967819595 0 0 0 0 0.18804636577798917 0.11898232918880325 0 0.11898232918880325 -0.71934727148388333 0 0 0 0 -699.53086675086706 484.57443376095398 0 484.57443376095398 -213.3482772658499 0 0 0 0 -194.91208905498206 132.11644885047281 0 132.11644885047281 423.30155079946417 0 0 0 0 -58.968390636484401 446.48248187042918 0 446.48248187042918 -800.91880604871039 0 0 0 0 -3.7123707731326192 3.4474813486295943 0 3.4474813486295943 -0.41318170327808623 0 0 0 0 -297.29787335951187 560.18812418315065 0 560.18812418315065 -466.33643632910389 0 0 0 0 -288.40911006923125 286.2814230558979 0 286.2814230558979 244.43679005168451 0 0 0 0 -17.355386745870419 186.48025460428107 0 186.48025460428107 0.1289053644213709 0 0 0 0 68.384752854455655 40.976866316545056 0 40.976866316545056 147.4015423529745 0 0 0 0 -67.714178494192311 391.94855314919187 0 391.94855314919187 -742.97708853824952 0 0 0 0 -65.856902707797417 134.39606630340859 0 134.39606630340859 -179.80606514447209 0 0 0 0 -131.36519277039406 260.07371057052296 0 260.07371057052296 76.433909183117066 0 0 0 0 -9.1868226010425218 5.1625646021311411 0 5.1625646021311411 -0.15829725534574202 0 0 0 0 13.577778126047633 22.710781349051103 0 22.710781349051103 0.10048697494417171 0 0 0 0 54.810363966241539 89.417487430283018 0 89.417487430283018 79.689182312864432 0 0 0 0 8.194393976149513 25.483809036311868 0 25.483809036311868 18.582868308825709 0 0 0 0 106.40220886794668 230.70747054632011 0 230.70747054632011 -280.87077749632408 0 0 0 0 -65.839388493772276 147.49149797330028 0 147.49149797330028 -70.1786011725344 0 0 0 0 -158.02832828056853 132.50189047267486 0 132.50189047267486 -45.643715447811701 0 0 0 0 -60.668583544076682 108.21996463348114 0 108.21996463348114 -31.546884265339031 0 0 0 0 -45.092639285285259 131.54446294734589 0 131.54446294734589 -51.585131590763922 0 0 0 0 3.4557176363596227 49.598505283955092 0 49.598505283955092 -9.7177144632441923 0 0 0 0 -30.659892992505775 114.06592242103579 0 114.06592242103579 -43.149392422383244 0 0 0 0 9.6398486482939916 78.47574736563547 0 78.47574736563547 14.032216565632552 0 0 0 0 -32.061958521580891 104.47080037279011 0 104.47080037279011 -66.227170862315688 0 0 0 0 31.560336387963616 -9.6236425186361885 0 -9.6236425186361885 -2.6854214641207363 0 0 0 0 -166.30096353456611 179.58088659196073 0 179.58088659196073 -75.72652540593117 0 0 0 0 14.508668180867971 117.62719851649308 0 117.62719851649308 -97.427661948284367 0 0 0 0 -152.36446441700627 142.55653512081153 0 142.55653512081153 -41.68773255184351 0 0 0 0 -412.04261186053918 177.63652909509983 0 177.63652909509983 -45.885012152517447 0 0 0 0 1.6841130072528046 6.2866939848091619 0 6.2866939848091619 8.2470333908717208 0 0 0 0 -173.26392122211109 257.8591841896523 0 257.8591841896523 -166.66460654458206 0 0 0 0 74.074798716911573 130.24307964101081 0 130.24307964101081 -176.67051402600191 0 0 0 0 -157.17037375403743 -9.4283837000184576 0 -9.4283837000184576 -121.02979568144656 0 0 0 0 -437.75507066314822 151.06739195344198 0 151.06739195344198 -102.89136621906073 0 0 0 0 -178.23607856136005 68.185097721743659 0 68.185097721743659 -66.957565017823072 0 0 0 0 -185.35623331648821 29.570760206810519 0 29.570760206810519 -28.91887977820079 0 0 0 0 -275.27028477894055 27.882548074230726 0 27.882548074230726 -69.130433161601104 0 0 0 0 35.806642959010787 78.106021725947357 0 78.106021725947357 -139.49364550452447 0 0 0 0 37.317735683907813 132.53392995961258 0 132.53392995961258 51.148212470994622 0 0 0 0 72.550266197697056 -36.577104505780881 0 -36.577104505780881 9.8239714191158782 0 0 0 0 -139.15822037834369 97.780711094739672 0 97.780711094739672 -100.82546284501586 0 0 0 0 13.568975119876995 57.435900882008355 0 57.435900882008355 -91.38301530204626 0 0 0 0 -132.5742041282947 87.519279206882857 0 87.519279206882857 -94.176126846003172 0 0 0 0 -252.47688350067619 96.668837161389092 0 96.668837161389092 -34.088708936229523 0 0 0 0 -145.63757670103951 106.06386344519706 0 106.06386344519706 -34.570571451601154 0 0 0 0 -122.07946576310133 162.34867288775422 0 162.34867288775422 -139.39698829781992 0 0 0 0 -104.62426729044091 191.62288370630267 0 191.62288370630267 -107.94340423714311 0 0 0 0 -74.747826323433401 62.838607360481546 0 62.838607360481546 -235.24449890694814 0 0 0 0 -115.0560121333001 250.96696040929237 0 250.96696040929237 -364.78818536663675 0 0 0 0 -226.54123862757842 280.61545693136213 0 280.61545693136213 0.0040504965763830114 0 0 0 0 -271.86662461815899 381.11982511878114 0 381.11982511878114 -149.11119567476999 0 0 0 0 -130.82418256719393 213.49874942237511 0 213.49874942237511 -121.07097690053524 0 0 0 0 -113.99177326600147 167.68946396741376 0 167.68946396741376 -0.12309687841843697 0 0 0 0 -137.65849111181524 207.58239224335648 0 207.58239224335648 -65.532560735344305 0 0 0 0 -120.22941933673428 145.26068039193706 0 145.26068039193706 -60.227747193496725 0 0 0 0 -94.340920311860827 157.85663220415518 0 157.85663220415518 -62.434887249364692 0 0 0 0 -88.612643191589086 140.94987629988009 0 140.94987629988009 -26.568417042057263 0 0 0 0 -81.754905888155918 162.33370827133331 0 162.33370827133331 -41.741949295988888 0 0 0 0 -77.199247566299164 138.93152020473281 0 138.93152020473281 -3.31127530199592 0 0 0 0 -90.107079700013855 142.0243715516699 0 142.0243715516699 0.046097544043732341 0 0 0 0 -134.79407413375623 69.827059109800473 0 69.827059109800473 37.552379170236236 0 0 0 0 -136.21191612763141 121.88115762929374 0 121.88115762929374 9.5531930495708366 0 0 0 0 -111.51410762231535 62.431992637750227 0 62.431992637750227 39.723198725507245 0 0 0 0 -47.784402584285999 100.49412606321857 0 100.49412606321857 14.701817128769108 0 0 0 0 -37.091407925057865 99.595388451478357 0 99.595388451478357 -10.731061690946746 0 0 0 0 -72.818019996724615 137.13912753674413 0 137.13912753674413 -11.061016172192467 0 0 0 0 -54.256645427231888 112.33568084881426 0 112.33568084881426 -16.821351241727825 0 0 0 0 -3.6264509991633531 70.707030003522959 0 70.707030003522959 -16.05470039805715 0 0 0 0 7.5967624801414786 33.948846279288773 0 33.948846279288773 19.616954747216369 0 0 0 0 -61.478931505507717 66.415472439787663 0 66.415472439787663 22.646923202148173 0 0 0 0 -30.300113516259444 60.808921490177454 0 60.808921490177454 17.621230879936775 0 0 0 0 19.023837829008698 43.035642160997668 0 43.035642160997668 10.813768055319088 0 0 0 0 55.583763309150527 33.561467089828511 0 33.561467089828511 26.275684687927424 0 0 0 0 15.222294628420059 34.933339946530396 0 34.933339946530396 31.472815302967319 0 0 0 0 16.83717177284052 43.907750336638856 0 43.907750336638856 29.947992802950466 0 0 0 0 25.345948013282396 35.363813069838216 0 35.363813069838216 35.496692303731834 0 0 0 0 50.879597254326654 57.328530229438911 0 57.328530229438911 25.695326319588276 0 0 0 0 0.55495586022573917 0.80342599818503402 0 0.80342599818503402 -2.2776497217619323 0 0 0 0 49.671412502613748 50.031187049891741 0 50.031187049891741 17.75142545800918 0 0 0 0 11.175342015943897 27.228250339347142 0 27.228250339347142 32.316141313567641 0 0 0 0 53.204972299605288 35.94627943312662 0 35.94627943312662 0.60666851574205793 0 0 0 0 0.82889569982233979 0.26123580954762815 0 0.26123580954762815 -1.6264564929222871 0 0 0 0 53.55345220673189 35.891416024755017 0 35.891416024755017 -0.012389491388603346 0 0 0 0 22.266848845547429 19.590165322151734 0 19.590165322151734 17.548798241834447 0 0 0 0 -10.404523923352826 48.397113534192613 0 48.397113534192613 0.035146577913110377 0 0 0 0 -17.229485833414856 53.347989900470566 0 53.347989900470566 31.972347042108595 0 0 0 0 -26.575443923979037 61.98727477403736 0 61.98727477403736 38.217220381005973 0 0 0 0 1.2051345646768468 -0.55676632245689461 0 -0.55676632245689461 -1.311853704513851 0 0 0 0 -35.131481578693638 61.03963049910999 0 61.03963049910999 22.644455517554889 0 0 0 0 -19.083076477862505 61.559058904198537 0 61.559058904198537 27.106000584557478 0 0 0 0 -13.73347774834474 72.374485606280359 0 72.374485606280359 0.047496530549391451 0 0 0 0 0.71791433149519435 88.72692405910675 0 88.72692405910675 -6.2280716987806954 0 0 0 0 -35.605162523199397 75.3916983359195 0 75.3916983359195 24.135439948133353 0 0 0 0 17.75248754164204 49.642961523266422 0 49.642961523266422 14.294408003734134 0 0 0 0 42.094433973616106 34.533892066385306 0 34.533892066385306 22.902899337757844 0 0 0 0 39.511497515813971 52.606321196639328 0 52.606321196639328 11.811226728070324 0 0 0 0 44.78846214357327 59.211179313344473 0 59.211179313344473 12.526644016230421 0 0 0 0 40.839843081608706 69.741377226786426 0 69.741377226786426 26.617151780246786 0 0 0 0 83.074888438960443 38.101966926834393 0 38.101966926834393 48.762495264949393 0 0 0 0 45.100500657412795 50.08351822629902 0 50.08351822629902 12.795561274921056 0 0 0 0 -33.320931382710114 -21.401335821241446 0 -21.401335821241446 16.560835087730084 0 0 0 0 -143.86335253599827 86.623912922812451 0 86.623912922812451 40.525619793279475 0 0 0 0 17.590958751213293 146.22414683807256 0 146.22414683807256 -4.8979680120683042 0 0 0 0 -237.07376100315196 -21.908290433309958 0 -21.908290433309958 -21.269966101834143 0 0 0 0 -0.05797209301147177 0.41035016025463733 0 0.41035016025463733 -1.0802090147048489 0 0 0 0 133.10676833819343 124.80370646785013 0 124.80370646785013 -1.158571353968 0 0 0 0 0.73382656406585767 0.36181589914048118 0 0.36181589914048118 -1.6635654025043891 0 0 0 0 -166.80499817679083 121.48687578248791 0 121.48687578248791 9.0370564820832442 0 0 0 0 59.38250529752986 49.079363229822775 0 49.079363229822775 -16.745848627026135 0 0 0 0 36.198184602202673 48.925831585365813 0 48.925831585365813 61.93524690947379 0 0 0 0 -53.245192271795531 140.75768692572183 0 140.75768692572183 -27.782642782935 0 0 0 0 -42.629272678321286 1.4281021482820506 0 1.4281021482820506 -21.177648858189059 0 0 0 0 -150.22456823804168 18.351036215355634 0 18.351036215355634 64.642935792988283 0 0 0 0 12.848928243205592 101.82546814307716 0 101.82546814307716 84.531595501191987 0 0 0 0 -368.33197454327819 9.7658333556082653 0 9.7658333556082653 704.68784014415905 0 0 0 0 -13.547465960590529 37.342985707607042 0 37.342985707607042 -14.32855795485284 0 0 0 0 -99.995156233642774 118.75298244757141 0 118.75298244757141 166.56514187769062 0 0 0 0 44.994993104857713 46.556711933753832 0 46.556711933753832 41.909649723929761 0 0 0 0 29.555627127805565 69.800314095520662 0 69.800314095520662 34.475175099549233 0 0 0 0 0.84790242187519738 0.22490840518318578 0 0.22490840518318578 -4.285009506113056 0 0 0 0 80.375697498762747 86.944783582792297 0 86.944783582792297 49.931898219126879 0 0 0 0 -85.948793592726361 -34.377272911855471 0 -34.377272911855471 25.461297619607649 0 0 0 0 -50.828433155700623 35.36564918503791 0 35.36564918503791 120.57848917478623 0 0 0 0 -12.204397409199544 39.632902575498832 0 39.632902575498832 -16.015312680408861 0 0 0 0 5.0881943135240135 -24.1676591028845 0 -24.1676591028845 16.798386786074843 0 0 0 0 18.93339857877254 74.2183828723646 0 74.2183828723646 26.289252560309251 0 0 0 0 14.352926695733913 65.871221304329083 0 65.871221304329083 41.28517613085728 0 0 0 0 -4.8267706000803017 10.582007409349814 0 10.582007409349814 7.786251730730072 0 0 0 0 257.89029513734022 265.06864917904932 0 265.06864917904932 69.578434312417812 0 0 0 0 -3.1402333877237538 9.6313441708917793 0 9.6313441708917793 10.481763631568398 0 0 0 0 -130.52178803562128 363.52893701559151 0 363.52893701559151 426.32535080818707 0 0 0 0 146.89631747503518 5.6768363170376688 0 5.6768363170376688 -37.111223309235356 0 0 0 0 -97.933448015824979 54.983422603138024 0 54.983422603138024 15.610701385190623 0 0 0 0 33.412549673288595 -185.46676433658649 0 -185.46676433658649 -842.19141019727431 0 0 0 0 128.14304818484743 109.49445058784841 0 109.49445058784841 -352.55519950521921 0 0 0 0 160.96366338991356 -41.888316223998117 0 -41.888316223998117 -22.924083388432337 0 0 0 0 -193.35386014550659 -63.831641057472552 0 -63.831641057472552 -472.37345401800485 0 0 0 0 -108.62019148365835 96.865605301810319 0 96.865605301810319 -169.02071214546959 0 0 0 0 79.98519584060341 106.06812864057429 0 106.06812864057429 376.20062912627509 0 0 0 0 -0.92362104444430315 0.10090609772771586 0 0.10090609772771586 -0.82175496474302889 0 0 0 0 189.83462877103739 -161.10478858925853 0 -161.10478858925853 338.77665009701741 0 0 0 0 -41.585242551205738 499.03681004555619 0 499.03681004555619 -159.0015494464842 0 0 0 0 -395.88246521872861 192.54505283312756 0 192.54505283312756 125.26095254346365 0 0 0 0 201.32280580912629 356.17242587665532 0 356.17242587665532 -103.94148129471432 0 0 0 0 -1.5107446105220106 3.3511948805163456 0 3.3511948805163456 -4.0638821183293601 0 0 0 0 -130.6517020355459 273.274603933457 0 273.274603933457 153.04792618075953 0 0 0 0 -75.321767838115193 280.56458461392685 0 280.56458461392685 -253.2399577582255 0 0 0 0 -44.554664857685566 278.44975849926959 0 278.44975849926959 -333.10976809066324 0 0 0 0 -26.049043245187931 172.19431970493679 0 172.19431970493679 -257.36588804672647 0 0 0 0 -81.916057192480366 269.12204659260897 0 269.12204659260897 -160.72669134055468 0 0 0 0 6.2755461154538352 -66.780788717866017 0 -66.780788717866017 164.16867392749919 0 0 0 0 -92.575295184641618 77.678183070768227 0 77.678183070768227 -15.53448198042679 0 0 0 0 14.012783417254468 19.441294247044425 0 19.441294247044425 73.865961208568478 0 0 0 0 -4.4428303367108839 -1.6597871504423658 0 -1.6597871504423658 7.9404414364894649 0 0 0 0 -105.52521405382504 -9.4954241122759413 0 -9.4954241122759413 99.591321848974985 0 0 0 0 -12.001970653170744 -13.558589946794513 0 -13.558589946794513 52.921554672317598 0 0 0 0 -1.4649042074997851 191.82462992619185 0 191.82462992619185 210.08278164329386 0 0 0 0 28.550151170053141 69.234568117470189 0 69.234568117470189 36.568947721778386 0 0 0 0 -42.809549551006057 79.692178713296016 0 79.692178713296016 128.21567877748453 0 0 0 0 -126.321333982949 37.009546899098495 0 37.009546899098495 130.30424128266736 0 0 0 0 -13.133668136579303 -15.34378283434674 0 -15.34378283434674 45.628893101941443 0 0 0 0 113.74398550273713 -272.84330335737991 0 -272.84330335737991 118.25700339920149 0 0 0 0 -7.5140887678976469 -57.667936522797845 0 -57.667936522797845 52.071219731813471 0 0 0 0 -9.4586585119686788 39.002978547621751 0 39.002978547621751 100.2806340976058 0 0 0 0 -1.7982791870344954 -2.4738341334395955 0 -2.4738341334395955 149.10100028866691 0 0 0 0 -34.365426117250536 60.69810972131836 0 60.69810972131836 231.30873187897305 0 0 0 0 -35.773234412641614 -27.915356765943216 0 -27.915356765943216 106.14426066313172 0 0 0 0 50.477309822577809 50.130043746081355 0 50.130043746081355 86.375909367713575 0 0 0 0 19.687475797906245 25.010091562118305 0 25.010091562118305 38.586407426482765 0 0 0 0 2.7129431275758407 31.864170063653575 0 31.864170063653575 -13.878259985364988 0 0 0 0 5.7521656840235664 43.274793170532575 0 43.274793170532575 52.478347539901733 0 0 0 0 -0.097822444286066457 34.586277836755471 0 34.586277836755471 71.674429203569161 0 0 0 0 23.381081605610234 45.084189929380955 0 45.084189929380955 25.151962423999066 0 0 0 0 31.598880250084449 76.552884210273305 0 76.552884210273305 57.941058371114195 0 0 0 0 -6.4871685359012332 34.827712970677908 0 34.827712970677908 -13.930923175139885 0 0 0 0 -8.7164419514556357 69.617060450378631 0 69.617060450378631 320.7307065594905 0 0 0 0 1.9443292782034405 431.62028255871428 0 431.62028255871428 289.69056810957227 0 0 0 0 317.24173515159055 450.83448298656549 0 450.83448298656549 231.25968065118104 0 0 0 0 321.08295541331245 218.31465785407272 0 218.31465785407272 3.2612092470371863 0 0 0 0 223.91444001593118 666.75400921044547 0 666.75400921044547 290.08507802290114 0 0 0 0 2238.0790864355222 1314.569121869321 0 1314.569121869321 -3.6390300072139459 0 0 0 0 3.085740947451896 3.986105389492657 0 3.986105389492657 6.7432943522124162 0 0 0 0 -110.28344718443896 61.944488247297159 0 61.944488247297159 -0.0011042405712942127 0 0 0 0 -77.969691861810134 36.330403847954585 0 36.330403847954585 1.1268984105627169 0 0 0 0 -56.597738174794358 53.180465784782427 0 53.180465784782427 -8.8717990565728542 0 0 0 0 6.1612240373405385 12.267619575310384 0 12.267619575310384 21.163206697844714 0 0 0 0 858.95946419913525 265.69434500335501 0 265.69434500335501 -3.537846148465178 0 0 0 0 -92.627407228988886 55.073639121983433 0 55.073639121983433 12.903267016372411 0 0 0 0 172.5922165726588 91.287542319390923 0 91.287542319390923 -24.454448978038272 0 0 0 0 -50.515723230510048 45.054476478586366 0 45.054476478586366 19.035674064667546 0 0 0 0 -50.396615052595735 45.935037567818654 0 45.935037567818654 7.3279205700819148 0 0 0 0 -39.303690262131568 59.55835196287444 0 59.55835196287444 12.108487699282705 0 0 0 0 -8.9671016131323995 57.256211010735569 0 57.256211010735569 6.6813037587926374 0 0 0 0 -8.2444005386932986 57.733657207088982 0 57.733657207088982 -1.2564721836206445 0 0 0 0 -26.791404193987546 59.359768248254113 0 59.359768248254113 10.056308184612135 0 0 0 0 -56.803116513001896 53.798391489753158 0 53.798391489753158 8.1754605261376128 0 0 0 0 -26.624694401187298 49.925798950425815 0 49.925798950425815 1.7261215723374335 0 0 0 0 -28.310871777233842 57.084297861871164 0 57.084297861871164 -5.01510717569181 0 0 0 0 -57.003534459907314 61.394895297969015 0 61.394895297969015 -0.0089655339470482431 0 0 0 0 -31.109079305810155 47.467539531022339 0 47.467539531022339 -2.7363095448990862 0 0 0 0 -11.622951985078544 60.192167944516768 0 60.192167944516768 0.010926581391686341 0 0 0 0 -31.326086903967962 50.065651771872581 0 50.065651771872581 5.5092738281091442 0 0 0 0 -28.598436880064355 59.846350273890721 0 59.846350273890721 7.3490718834946165 0 0 0 0 -16.034776891512593 61.170909416061477 0 61.170909416061477 14.097720668186412 0 0 0 0 11.390515520817644 32.477894687944172 0 32.477894687944172 18.108318624548701 0 0 0 0 51.328913600420492 47.916520780028804 0 47.916520780028804 0.02420951223103476 0 0 0 0 55.599126848870583 59.131802850451095 0 59.131802850451095 -0.62994076501490781 0 0 0 0 1.0649121043984664 -0.48990520509047997 0 -0.48990520509047997 -1.1904639267204402 0 0 0 0 33.351638412903412 70.031456076896575 0 70.031456076896575 -5.2393139696087019 0 0 0 0 -8.6649231472802057 59.214177483367621 0 59.214177483367621 1.4750147237427882 0 0 0 0 -0.20715999224194093 56.38094598862881 0 56.38094598862881 2.4010535068337049 0 0 0 0 -11.268019530634774 61.532574085289525 0 61.532574085289525 24.16637435053417 0 0 0 0 -6.7041217309415515 61.590177743750246 0 61.590177743750246 28.201789739083324 0 0 0 0 12.342247688749922 67.149421954600257 0 67.149421954600257 20.517929039880983 0 0 0 0 13.794151822035928 60.761336443658365 0 60.761336443658365 47.906296856832341 0 0 0 0 0.50290596114064101 61.745336425516143 0 61.745336425516143 20.614801919822639 0 0 0 0 3.9917021041765111 74.057148277432134 0 74.057148277432134 34.750459013968793 0 0 0 0 -2.1708053531256155 65.36155158161273 0 65.36155158161273 37.545760088534735 0 0 0 0 4.9440187738073291 66.765679101099522 0 66.765679101099522 32.803649599067285 0 0 0 0 0.25076649000766338 73.204407123474084 0 73.204407123474084 40.277051643046434 0 0 0 0 1.0830859202251304 64.863992927996151 0 64.863992927996151 47.905802757642959 0 0 0 0 1.1851414972916245 64.394248755037552 0 64.394248755037552 33.86792287865137 0 0 0 0 5.6695286141621182 69.918324151323759 0 69.918324151323759 41.414214404983795 0 0 0 0 6.508007676096895 71.421360190885025 0 71.421360190885025 37.038369336332835 0 0 0 0 -7.3748453990457534 41.597901059401508 0 41.597901059401508 -16.81789199016081 0 0 0 0 13.04843503167649 62.870983227738179 0 62.870983227738179 14.713173687050585 0 0 0 0 -9.5955306091345847 -24.856322681956954 0 -24.856322681956954 18.204158617809298 0 0 0 0 -57.896371008217102 40.741865282237995 0 40.741865282237995 130.76330121809042 0 0 0 0 -219.63686870069068 20.906364563907118 0 20.906364563907118 8.2360140631553804 0 0 0 0 288.63863272956587 175.27513080530116 0 175.27513080530116 -176.89353625047806 0 0 0 0 3.9224194575216202 -1.7594812310330212 0 -1.7594812310330212 -4.7904970192173124 0 0 0 0 -47.257290862900845 153.80761298215293 0 153.80761298215293 -95.794854556996142 0 0 0 0 -33.096754139445693 58.968434725442421 0 58.968434725442421 6.3753129436463496 0 0 0 0 2.2157643723294314 75.031177184158878 0 75.031177184158878 63.329447798183537 0 0 0 0 -28.943411435706139 153.71840270339646 0 153.71840270339646 74.292874031591055 0 0 0 0 -0.23893056868480755 39.639831328562337 0 39.639831328562337 -17.316151896366833 0 0 0 0 18.803063985673361 66.951176896403922 0 66.951176896403922 46.222162958918489 0 0 0 0 10.695464077361976 47.995304615149507 0 47.995304615149507 63.944872667416348 0 0 0 0 2.3272618634728133 58.541945634591684 0 58.541945634591684 -55.353383940106141 0 0 0 0 17.022428107709857 120.07617363811187 0 120.07617363811187 -74.265311817376642 0 0 0 0 169.85248658942874 75.641819549013235 0 75.641819549013235 -10.949264686460083 0 0 0 0 134.55083563314838 41.054699538644854 0 41.054699538644854 -42.561877646090579 0 0 0 0 -13.7105792585171 66.2916523256863 0 66.2916523256863 71.370597003631701 0 0 0 0 8.9050877187051896 39.554476792664339 0 39.554476792664339 -10.323756205907355 0 0 0 0 -14.110903070271888 57.642918406370882 0 57.642918406370882 89.086783367223688 0 0 0 0 -11.110920189898025 60.734357475140314 0 60.734357475140314 40.272302454177407 0 0 0 0 -21.332996905795881 48.857395472259668 0 48.857395472259668 36.335850533349003 0 0 0 0 -17.288168991035491 46.746240021122503 0 46.746240021122503 25.847626687027514 0 0 0 0 -8.751139648098615 53.946796465716034 0 53.946796465716034 25.093040578532964 0 0 0 0 -5.4875620159095888 63.731363872054999 0 63.731363872054999 49.930332353062113 0 0 0 0 -6.3859851595916552 51.561549359095807 0 51.561549359095807 51.560071005420468 0 0 0 0 4.8471876963594696 57.512974572287931 0 57.512974572287931 36.957413329713745 0 0 0 0 -2.2003986561758211 70.14528481731395 0 70.14528481731395 45.788403669741456 0 0 0 0 -12.352285258704796 62.891477692326589 0 62.891477692326589 35.777897344731173 0 0 0 0 -3.0704906200480764 58.054617370074084 0 58.054617370074084 21.459391362135648 0 0 0 0 -20.766968628049653 59.176753354498942 0 59.176753354498942 25.708332394970057 0 0 0 0 -7.0481961807527114 68.961285069042788 0 68.961285069042788 33.267263386591367 0 0 0 0 -19.769459833929432 50.044877559790621 0 50.044877559790621 13.08491667979979 0 0 0 0 -33.865520327828563 42.792285158123377 0 42.792285158123377 25.70155016744684 0 0 0 0 -30.760467320142197 55.587180277085281 0 55.587180277085281 28.125369570276234 0 0 0 0 -0.20550816411196138 192.47104358461911 0 192.47104358461911 154.8179850804936 0 0 0 0 -77.937205314243329 135.09528588871763 0 135.09528588871763 -53.32045525603462 0 0 0 0 -61.939888533146586 38.368433227229616 0 38.368433227229616 36.925256818358321 0 0 0 0 -66.159799708875653 53.221660131734097 0 53.221660131734097 26.177951753808884 0 0 0 0 7.7713709848400825 17.31021290522132 0 17.31021290522132 37.232056673585859 0 0 0 0 -39.115333564492175 48.221609211279429 0 48.221609211279429 29.213085612260329 0 0 0 0 -46.87615392004227 55.059861311601708 0 55.059861311601708 19.016495337855304 0 0 0 0 -52.822112059486244 210.34623381194069 0 210.34623381194069 115.01204799132393 0 0 0 0 101.809292321871 238.8691249234198 0 238.8691249234198 34.851942816261726 0 0 0 0 -419.11494837969076 50.514077869691391 0 50.514077869691391 163.47717045801255 0 0 0 0 -296.12049847550225 9.0480258023681017 0 9.0480258023681017 142.34394284078007 0 0 0 0 -2.1827282006493931 1.5590461743818054 0 1.5590461743818054 0.82327222986850757 0 0 0 0 223.64476622369693 211.16443718461596 0 211.16443718461596 39.178115780090138 0 0 0 0 -49.004758638824569 30.867108472273685 0 30.867108472273685 33.520659343426814 0 0 0 0 -37.446752384537831 32.499432757409522 0 32.499432757409522 29.655122256779578 0 0 0 0 -18.358843732645255 39.847012405612986 0 39.847012405612986 30.813781440068851 0 0 0 0 -266.54474166729779 -40.927294325043476 0 -40.927294325043476 -9.4637602932343725 0 0 0 0 7.0626985393238968 26.941179993189174 0 26.941179993189174 49.507558992008825 0 0 0 0 -8.543611736055027 56.132260662190674 0 56.132260662190674 49.603452931820357 0 0 0 0 -282.39120867633574 -10.866410109795652 0 -10.866410109795652 60.830109301867196 0 0 0 0 49.833688419952523 240.43553703469297 0 240.43553703469297 -597.76543085865706 0 0 0 0 -7.4163436243819092 6.6214801565761832 0 6.6214801565761832 6.0374727081384698 0 0 0 0 -119.20384464174276 -118.28225158608257 0 -118.28225158608257 -66.396520205658817 0 0 0 0 -204.70629840555921 119.22945376041753 0 119.22945376041753 -102.8252167373721 0 0 0 0 -108.39287291047367 80.543920671781962 0 80.543920671781962 -260.08508122374769 0 0 0 0 -676.31388300250183 371.77592195472062 0 371.77592195472062 -21.262986953828658 0 0 0 0 -24.440007641642296 -510.90397883033802 0 -510.90397883033802 -398.27800074478 0 0 0 0 -769.75518162871595 -296.69593436411014 0 -296.69593436411014 156.59656765335239 0 0 0 0 -536.33901816392608 405.22928769597638 0 405.22928769597638 -64.951015551101591 0 0 0 0 139.73092102128066 216.65498674440823 0 216.65498674440823 -37.663758595976105 0 0 0 0 -298.58500845574599 -62.531596991131664 0 -62.531596991131664 107.82474192383233 0 0 0 0 116.49719833329073 161.36556038895105 0 161.36556038895105 127.26973399684357 0 0 0 0 95.819680673893345 117.67506729571278 0 117.67506729571278 112.23309689013695 0 0 0 0 -2.6671399842504258 2.3882640338159717 0 2.3882640338159717 0.3817992915532642 0 0 0 0 -1.4543024226973102 0.43469872628365636 0 0.43469872628365636 3.1611630019313566 0 0 0 0 348.9975956393464 -41.239055303922214 0 -41.239055303922214 -24.343199886803632 0 0 0 0 367.6695103362581 -151.53984581599798 0 -151.53984581599798 -142.17208357921481 0 0 0 0 32.706291704427713 74.979315317652436 0 74.979315317652436 165.46368021637318 0 0 0 0 125.48807819493959 294.31656383905647 0 294.31656383905647 107.00123757551046 0 0 0 0 155.61777350016928 156.70597055001417 0 156.70597055001417 56.637103405428206 0 0 0 0 178.71718306347066 123.6345406158589 0 123.6345406158589 91.392435951012885 0 0 0 0 132.15023830195241 134.84798556587793 0 134.84798556587793 36.484069305282901 0 0 0 0 0.0058520620441413485 4.7709461210451991 0 4.7709461210451991 4.8628745895966858 0 0 0 0 4.2031928499054629 3.3142217912027263 0 3.3142217912027263 2.2269363377672562 0 0 0 0 10.142884339777083 3.810950828600653 0 3.810950828600653 5.8185389725076675 0 0 0 0 4.936074166132741 5.0739957072227426 0 5.0739957072227426 1.1429551519670582 0 0 0 0 -2.3048621130437823 5.0900694201445731 0 5.0900694201445731 6.2413636422738819 0 0 0 0 -12.90083320242411 8.725748723041761 0 8.725748723041761 -0.88498653023634688 0 0 0 0 0.2078500059290036 2.6465133490948158 0 2.6465133490948158 0.73761584306485162 0 0 0 0 0.70366991864463557 1.8402079661121888 0 1.8402079661121888 0.30832616569277604 0 0 0 0 0.00079146884672809392 7.6792457556057343 0 7.6792457556057343 -1.4828414710827929 0 0 0 0 4.5493294415500714 6.665667595447303 0 6.665667595447303 -1.4312095279165078 0 0 0 0 2.687998751658597 7.1466673766517488 0 7.1466673766517488 -3.4299141016433055 0 0 0 0 3.3338810528512113 8.4796804701509245 0 8.4796804701509245 -3.422241170198987 0 0 0 0 2.0151744975009933 5.4611916224566812 0 5.4611916224566812 0.81326619775791187 0 0 0 0 1.4213454967539292 3.6358968853528495 0 3.6358968853528495 -12.346669549908256 0 0 0 0 3.0219311025287823 1.8643878118327191 0 1.8643878118327191 -0.85776273097336997 0 0 0 0 -0.088656152409384958 2.7270208589216054 0 2.7270208589216054 3.9372718602844543 0 0 0 0 7.4175703821529169 6.2245422249961848 0 6.2245422249961848 -9.906145959153946 0 0 0 0 0.00050832337001338601 1.5822508556884713 0 1.5822508556884713 -0.34657650956069119 0 0 0 0 -0.60401246465754355 0.63955232767428072 0 0.63955232767428072 1.1099209600662476 0 0 0 0 0.61363591065240541 0.25746159916245048 0 0.25746159916245048 -1.9874633423532231 0 0 0 0 -2.5804846810226962 2.5637215322654043 0 2.5637215322654043 0.66109035852734621 0 0 0 0 0.0016718415427021682 3.7678888480004389 0 3.7678888480004389 1.4241581680325908 0 0 0 0 2.849736877498799 -5.0324041339190444 0 -5.0324041339190444 11.901132972358027 0 0 0 0 0.96514218053104628 -0.6355451769241256 0 -0.6355451769241256 -0.12934037360415118 0 0 0 0 133.13557419012068 -140.04628698732995 0 -140.04628698732995 135.19313150892413 0 0 0 0 -9.2855335291533265 11.030854329022986 0 11.030854329022986 134.511891669943 0 0 0 0 -5.8875704625552316 12.301927750053892 0 12.301927750053892 1.8110454860179743 0 0 0 0 -2.4391920491958956 5.0590548000077362 0 5.0590548000077362 2.2834309660210863 0 0 0 0 -167.46597131880117 -312.68386315680618 0 -312.68386315680618 37.269364259987924 0 0 0 0 0.49425490839695385 1.1750361727846865 0 1.1750361727846865 -1.1668972282576249 0 0 0 0 -3.8467123525312417 5.5670354467386574 0 5.5670354467386574 -1.9869622979142463 0 0 0 0 -1.8568388420935662 4.6405966024585723 0 4.6405966024585723 2.3405562669213396 0 0 0 0 -2.9287395538631245 16.594780546487527 0 16.594780546487527 -1.0740079473980586 0 0 0 0 -5.3873270590192988 14.375018823029677 0 14.375018823029677 -2.2965355899796123 0 0 0 0 -2.968197723821504 10.485234796791701 0 10.485234796791701 -3.0364687613255228 0 0 0 0 -4.8089286928188812 6.3482910537986754 0 6.3482910537986754 0.64123338467470603 0 0 0 0 -4.5873367283411994 6.3533493101108043 0 6.3533493101108043 5.5693885214588477 0 0 0 0 -4.2401881668056092 5.3907786773905499 0 5.3907786773905499 5.911774033661203 0 0 0 0 0.4316696445675916 7.7287443011227879 0 7.7287443011227879 -3.8686868452496128 0 0 0 0 -0.78427540006549634 0.9511238320897526 0 0.9511238320897526 0.3548419349983476 0 0 0 0 -4.2961227534205904 9.0712280974072996 0 9.0712280974072996 3.012980996934516 0 0 0 0 104.42490764768445 -77.765804999209649 0 -77.765804999209649 40.9438388809358 0 0 0 0 -0.71068952028521437 -0.040822623420282866 0 -0.040822623420282866 2.3970131639006382 0 0 0 0 -383.17530145909404 42.893056860222714 0 42.893056860222714 594.82185613122419 0 0 0 0 5.4253934607040719 72.132052871966152 0 72.132052871966152 582.36848244325665 0 0 0 0 156.71381956721962 24.089166211879274 0 24.089166211879274 105.87400028033881 0 0 0 0 -35.145268896754715 -93.693684983962157 0 -93.693684983962157 212.68999239575351 0 0 0 0 -179.50479330497183 206.75709373123755 0 206.75709373123755 175.96708714932902 0 0 0 0 -37.756809994178184 389.79108955266202 0 389.79108955266202 246.10806643117394 0 0 0 0 -41.363988030439941 221.66324127147527 0 221.66324127147527 -237.4998793970899 0 0 0 0 -95.210367530686199 -24.014210254739737 0 -24.014210254739737 386.03049502752401 0 0 0 0 -101.25867287183064 103.77607634637388 0 103.77607634637388 57.893792688584654 0 0 0 0 39.056221391132567 -18.282516051964194 0 -18.282516051964194 44.764662327554561 0 0 0 0 -121.57266195921693 95.65087735610723 0 95.65087735610723 72.609772160660214 0 0 0 0 -3.7423007173164251 10.324258890123911 0 10.324258890123911 11.740784326480345 0 0 0 0 -6.9229446557328629 16.833126546393942 0 16.833126546393942 1.2936182592275145 0 0 0 0 -90.260260614115396 6.8854184217452712 0 6.8854184217452712 28.722092474914461 0 0 0 0 48.226178033248289 47.573683338225237 0 47.573683338225237 -26.118967463073204 0 0 0 0 1.5341921787791932 5.9216769560069658 0 5.9216769560069658 2.7641834365509226 0 0 0 0 -5.9145806103442737 17.819098501883673 0 17.819098501883673 1.5075358025933383 0 0 0 0 -6.6732068679848453 13.133402167582972 0 13.133402167582972 7.5611110177378578 0 0 0 0 5.1538627450499916 23.474180550238088 0 23.474180550238088 3.0354463504336309 0 0 0 0 4.4637541123665869 12.194154303104369 0 12.194154303104369 -4.4570608292269753 0 0 0 0 -6.3324623845765018 16.641661285088048 0 16.641661285088048 -0.98389954480080632 0 0 0 0 -14.643030479688605 27.155783295958827 0 27.155783295958827 5.1124001787102316 0 0 0 0 0.58082700761677586 0.3888266802788678 0 0.3888266802788678 0.40335300346666259 0 0 0 0 0.30939044959086459 -2.6140138361679419 0 -2.6140138361679419 4.5925285262128455 0 0 0 0 -2.0108775619628432 -0.024872946150935604 0 -0.024872946150935604 26.341463023971301 0 0 0 0 -120.8891604609089 -105.43468682382081 0 -105.43468682382081 -109.44329250085866 0 0 0 0 207.0342889277963 235.36403005958346 0 235.36403005958346 136.70103816583287 0 0 0 0 -15.494402850352344 18.07947175463778 0 18.07947175463778 10.251040883628775 0 0 0 0 -9.8949885899237415 13.475244891036709 0 13.475244891036709 13.171918888947403 0 0 0 0 29.934233215506538 24.453505761299311 0 24.453505761299311 -56.442355712006247 0 0 0 0 0.1079346053221002 2.1210862223507831 0 2.1210862223507831 0.96101480604865941 0 0 0 0 -5.6882672350038774 12.234077987162891 0 12.234077987162891 2.3931021929693088 0 0 0 0 -2.5808593889961458 8.2460217970711369 0 8.2460217970711369 -6.2558267986762459 0 0 0 0 57.856577134756662 1.1519180869217962 0 1.1519180869217962 -15.894695294457051 0 0 0 0 -4.2964490252015821 22.68266279364434 0 22.68266279364434 4.617816412148386 0 0 0 0 0.83426811642493703 61.486519053112715 0 61.486519053112715 29.387373247285723 0 0 0 0 -7.3389844777120743 38.104149621147371 0 38.104149621147371 32.476510781569232 0 0 0 0 3.784692265839567 16.688753334481014 0 16.688753334481014 9.7215546685519811 0 0 0 0 2.6981880067905877 26.720128993199978 0 26.720128993199978 -7.4756921915050043 0 0 0 0 7.1037481991515961 18.51211812265683 0 18.51211812265683 -17.731657324547996 0 0 0 0 -1.1820356002563699 15.336275441879614 0 15.336275441879614 4.2103590256946646 0 0 0 0 7.6318774440660491 14.693178948853529 0 14.693178948853529 14.422302272771049 0 0 0 0 3.6499814922204905 9.8732619955689671 0 9.8732619955689671 -1.7562379730938744 0 0 0 0 1.5721198915515657 12.323859411479223 0 12.323859411479223 -5.6002212299369916 0 0 0 0 -3.3277928328436417 9.8663922771183223 0 9.8663922771183223 2.907643161682941 0 0 0 0 -4.0997691448865226 8.2263687563499843 0 8.2263687563499843 12.316286638322708 0 0 0 0 -8.8152977187564829 8.0991959194361698 0 8.0991959194361698 -5.9976523044751957 0 0 0 0 5.2585768939407131 8.6706039590791057 0 8.6706039590791057 7.426783092714885 0 0 0 0 -0.81922382355696755 23.8594176362094 0 23.8594176362094 -19.748977992450818 0 0 0 0 -6.2289112285998272 75.099449458502022 0 75.099449458502022 -39.21391903849144 0 0 0 0 -56.55091857683874 -27.086513430724153 0 -27.086513430724153 -68.287759522208944 0 0 0 0 -232.41019835287898 206.33170518733777 0 206.33170518733777 -5.9885109491006006 0 0 0 0 209.44299116766615 -74.868993075370781 0 -74.868993075370781 -51.586394875295809 0 0 0 0 -0.13242307722951807 2.2112933270047819 0 2.2112933270047819 -3.8375410067643543 0 0 0 0 -67.188250694274757 154.36912661998213 0 154.36912661998213 -134.56308227399859 0 0 0 0 -63.185130110352475 115.53043967671329 0 115.53043967671329 -63.518327296646021 0 0 0 0 -2.0552762812552317 -0.67066863218444794 0 -0.67066863218444794 2.811522051180475 0 0 0 0 -58.901152779871836 54.442392330175039 0 54.442392330175039 -84.625338520403602 0 0 0 0 27.207205275117303 55.342343322376109 0 55.342343322376109 -34.263276568275614 0 0 0 0 -4.8542828241964173 3.5048686238035884 0 3.5048686238035884 0.2050036086332625 0 0 0 0 -7.545354945003055 15.470235681670601 0 15.470235681670601 -27.062793852848699 0 0 0 0 -20.896111449539603 14.34484329143379 0 14.34484329143379 21.115658535039984 0 0 0 0 -5.6833882271114931 9.9996681222184947 0 9.9996681222184947 -8.6212043665021412 0 0 0 0 -3.764543655474764 0.89092667346108101 0 0.89092667346108101 0.71248323271561276 0 0 0 0 3.3125120677505038 9.063320512916107 0 9.063320512916107 -70.928471330626053 0 0 0 0 -21.001412560377503 18.760299022269464 0 18.760299022269464 -51.872502649144735 0 0 0 0 -15.195741768962762 16.694042268569319 0 16.694042268569319 -53.206996295011777 0 0 0 0 -28.182449379637546 21.550015397126117 0 21.550015397126117 -126.60588603779979 0 0 0 0 -4.1645530810101263 58.50578411889046 0 58.50578411889046 -154.92855207753382 0 0 0 0 -13.436401606937579 41.826879907905095 0 41.826879907905095 -110.13044576749235 0 0 0 0 0.4654730538095464 78.73126231895003 0 78.73126231895003 -75.923142921084946 0 0 0 0 -56.749191836575392 72.306604282475519 0 72.306604282475519 -149.14873791313585 0 0 0 0 -64.005969188212475 35.440915744729864 0 35.440915744729864 -94.678947440159391 0 0 0 0 -20.227529707372014 33.632865147916164 0 33.632865147916164 -109.33544911303397 0 0 0 0 -11.062293262473858 14.10480157467191 0 14.10480157467191 -13.55608814451405 0 0 0 0 13.833417554181324 -1.414053384374256 0 -1.414053384374256 -38.12229183447198 0 0 0 0 -17.589061315400613 36.411886597185003 0 36.411886597185003 -95.584708132693777 0 0 0 0 12.114220128165471 85.387293016017793 0 85.387293016017793 -46.05431621894968 0 0 0 0 -49.334821627737256 55.986443965513899 0 55.986443965513899 -91.216307279632019 0 0 0 0 28.472600519227854 33.60047150751052 0 33.60047150751052 -38.802350383085695 0 0 0 0 2.851366198505275 18.007253861382196 0 18.007253861382196 -6.0241296844578756 0 0 0 0 26.719614855413965 16.073354304175155 0 16.073354304175155 -12.057744852832002 0 0 0 0 -1.4712489602946448 1.8077131938723845 0 1.8077131938723845 -1.8898855790623372 0 0 0 0 -1.5135239054764895 6.9316993146952726 0 6.9316993146952726 -6.0002374444701374 0 0 0 0 21.190740036014176 24.431057327561575 0 24.431057327561575 5.9940653914745781 0 0 0 0 55.106751431554585 61.289304110061494 0 61.289304110061494 -10.160782687180472 0 0 0 0 -3.0224166646512458 5.0447025083267363 0 5.0447025083267363 -37.357028260339575 0 0 0 0 11.682634529628558 11.318648627071525 0 11.318648627071525 -34.709209624932555 0 0 0 0 -8.1723461809015134 20.170067648534314 0 20.170067648534314 -12.156911292287987 0 0 0 0 24.402661765103403 29.339462345589709 0 29.339462345589709 -10.58089398471202 0 0 0 0 -29.412865612655878 16.771492219719221 0 16.771492219719221 -4.9608771059429273 0 0 0 0 -8.28505390507447 10.531369412354763 0 10.531369412354763 -6.6469149560124379 0 0 0 0 -54.915659490652615 10.244254819641355 0 10.244254819641355 -5.6420961603507749 0 0 0 0 -49.356745449651498 11.500101322075352 0 11.500101322075352 -5.3660294081237225 0 0 0 0 -12.774832998693455 17.127647825051099 0 17.127647825051099 -13.558922757772962 0 0 0 0 -3.4794139647274278 10.802494326722808 0 10.802494326722808 -4.2717066946279374 0 0 0 0 -4.6821803383686529 14.431128654730117 0 14.431128654730117 -22.709073166243442 0 0 0 0 -12.139557682996383 30.937920156655309 0 30.937920156655309 -49.815297349632601 0 0 0 0 -3.8599464741818679 28.573517968006399 0 28.573517968006399 -9.058471359782942 0 0 0 0 0.40275654711876996 19.348615522540058 0 19.348615522540058 0.41761723298986908 0 0 0 0 -0.79899454928883529 9.6316764105218553 0 9.6316764105218553 -1.132741131865302 0 0 0 0 2.2759905872226227 22.630687898563338 0 22.630687898563338 8.1549486129151774 0 0 0 0 -3.2090475516666146 16.401989560283113 0 16.401989560283113 5.6365014928588337 0 0 0 0 -1.2823261914776793 25.118136101600939 0 25.118136101600939 -5.8990453375984018 0 0 0 0 -26.790576912433608 14.346478792991547 0 14.346478792991547 19.053799203480594 0 0 0 0 -45.54515901124978 0.61973701767419698 0 0.61973701767419698 -20.608789299636555 0 0 0 0 -18.892937742415128 8.1775148581466013 0 8.1775148581466013 0.51878190026447157 0 0 0 0 -13.503274029597378 13.819306913150285 0 13.819306913150285 -2.5296711925475392 0 0 0 0 -6.4881008918176164 9.8371022468428251 0 9.8371022468428251 -8.8884710322593747 0 0 0 0 -5.5244045265862951 18.094119700343072 0 18.094119700343072 7.9891994024446262 0 0 0 0 -18.483815145422341 29.998130041852164 0 29.998130041852164 -0.098450175049947575 0 0 0 0 -3.9694644580141372 17.799787547867311 0 17.799787547867311 3.7301559941181068 0 0 0 0 -36.544838961806818 21.346844436984611 0 21.346844436984611 31.151460968452739 0 0 0 0 16.689352493849583 44.043080852570711 0 44.043080852570711 31.352406138714286 0 0 0 0 -9.8438312365916971 2.1248730915581326 0 2.1248730915581326 7.5257096990144134 0 0 0 0 -26.788220696620556 7.1877551178622525 0 7.1877551178622525 29.331857983590453 0 0 0 0 -2.6493990584388101 0.45752397043692739 0 0.45752397043692739 -2.000579445479076 0 0 0 0 -24.365217559366101 6.7121605205616106 0 6.7121605205616106 -34.76795128845697 0 0 0 0 33.877075438940665 20.682725210393983 0 20.682725210393983 -4.7035380915804126 0 0 0 0 -49.809148895204999 -46.661532421145239 0 -46.661532421145239 -94.030334699724335 0 0 0 0 45.245754507584934 72.103091579082502 0 72.103091579082502 -54.243199454831483 0 0 0 0 174.0033097547639 -122.70662890353105 0 -122.70662890353105 -102.55468313616439 0 0 0 0 -124.15057484630961 -246.16044117137062 0 -246.16044117137062 -9.551901612248912 0 0 0 0 8.6321110592980403 37.359640158079856 0 37.359640158079856 23.763787272513582 0 0 0 0 -235.93777426717133 -25.848877990836627 0 -25.848877990836627 63.107327682875621 0 0 0 0 -0.43992811715361313 51.289655989761741 0 51.289655989761741 12.957587420401978 0 0 0 0 -67.202706377196591 -25.075879149328102 0 -25.075879149328102 9.792113932180655 0 0 0 0 -75.794520980052766 10.309698614117224 0 10.309698614117224 64.831810627922096 0 0 0 0 -69.3307132080663 65.015653358614145 0 65.015653358614145 69.145222781502525 0 0 0 0 -1.1108326797839112 1.2205711763252651 0 1.2205711763252651 -0.60687889814558105 0 0 0 0 -413.67798895566375 -227.36874312192958 0 -227.36874312192958 70.495193830072822 0 0 0 0 140.95061738778531 109.16972608587457 0 109.16972608587457 6.0898936184457853 0 0 0 0 -108.70394522472634 169.2359015929469 0 169.2359015929469 107.48870482290931 0 0 0 0 625.15302773502481 399.65408350803591 0 399.65408350803591 131.05421417399702 0 0 0 0 -53.92307364178123 41.926179446568312 0 41.926179446568312 569.86504314563354 0 0 0 0 -72.561431662452378 149.96425676911531 0 149.96425676911531 86.954309068933071 0 0 0 0 128.76933044653197 227.29183486914189 0 227.29183486914189 141.13405620240883 0 0 0 0 94.173525139871344 59.966630488008832 0 59.966630488008832 -5.555056655772205 0 0 0 0 433.5282406559927 120.72572629990464 0 120.72572629990464 -57.846265378237149 0 0 0 0 240.59976505165469 145.29861587843243 0 145.29861587843243 -32.863684157120588 0 0 0 0 143.70893352135499 -22.148639561542041 0 -22.148639561542041 -1.320630508751492 0 0 0 0 1.8099603613582715 12.954898169849002 0 12.954898169849002 18.165828664124732 0 0 0 0 -53.549515224858624 115.72086287474758 0 115.72086287474758 20.813982044204181 0 0 0 0 -53.800875139937489 146.43817411769305 0 146.43817411769305 94.536490865844826 0 0 0 0 6.0986671594624937 10.237232738027998 0 10.237232738027998 1.5121821987817441 0 0 0 0 -267.37891500243495 -47.637191707387501 0 -47.637191707387501 40.974160340520029 0 0 0 0 25.06129681825405 56.317366230774496 0 56.317366230774496 27.206232789995738 0 0 0 0 73.856112241810479 67.186383022468362 0 67.186383022468362 15.851766125386348 0 0 0 0 6.1378904492938275 6.3757677298100788 0 6.3757677298100788 2.8892896441620621 0 0 0 0 27.18477081648598 67.664355694754704 0 67.664355694754704 31.107122389323195 0 0 0 0 -0.97972299499865301 44.204754420258432 0 44.204754420258432 28.647940387908605 0 0 0 0 12.802673006692203 59.95630811486626 0 59.95630811486626 27.860155875547207 0 0 0 0 -25.782740143011324 35.856953449489083 0 35.856953449489083 24.392499214683994 0 0 0 0 23.912558977550361 55.656404954719619 0 55.656404954719619 29.518451241525327 0 0 0 0 -25.828613399502501 54.562105137852996 0 54.562105137852996 -19.477744806172268 0 0 0 0 -15.995220165059422 30.066864915701373 0 30.066864915701373 2.443291512913973 0 0 0 0 31.216991056138795 53.062368567406338 0 53.062368567406338 28.825826561693248 0 0 0 0 33.002798130211886 56.32963175129953 0 56.32963175129953 30.944827572919166 0 0 0 0 57.812560708116507 40.154769659027806 0 40.154769659027806 32.630647496735946 0 0 0 0 52.458366604114417 52.034273961209692 0 52.034273961209692 11.070802629623358 0 0 0 0 48.854443368210923 50.411041351717358 0 50.411041351717358 21.615208673021698 0 0 0 0 55.387882984417956 63.191966933809454 0 63.191966933809454 42.761127974772535 0 0 0 0 46.154494308568246 50.352967716125931 0 50.352967716125931 21.634833814249305 0 0 0 0 55.627931809234724 31.682543775700651 0 31.682543775700651 0.52411957394360797 0 0 0 0 42.146079167541757 45.392758690330993 0 45.392758690330993 20.969434812839609 0 0 0 0 24.967935765385846 40.151417467266242 0 40.151417467266242 21.210262659693399 0 0 0 0 34.787174381817749 39.326257218125647 0 39.326257218125647 -0.4348442722694017 0 0 0 0 44.931850864675653 6.5697910416129162 0 6.5697910416129162 -7.2740749758231686 0 0 0 0 19.99250908245449 40.926905298845668 0 40.926905298845668 21.204830644864302 0 0 0 0 10.153625947811861 4.731273785947522 0 4.731273785947522 -12.930183204286735 0 0 0 0 -2.4170316959347389 13.961884708049581 0 13.961884708049581 19.057329305242234 0 0 0 0 18.902773699977843 45.879585690527165 0 45.879585690527165 70.891871441031981 0 0 0 0 -23.038261046203843 22.500855691941979 0 22.500855691941979 -6.8341358816978754 0 0 0 0 -3.2065952257839143 27.740626481155481 0 27.740626481155481 13.494579049838975 0 0 0 0 19.806464531851816 41.711306794928532 0 41.711306794928532 24.845722173963395 0 0 0 0 7.061022873103866 10.431125119334865 0 10.431125119334865 -19.015247958952386 0 0 0 0 -12.410411510941152 22.015230031548285 0 22.015230031548285 14.023401865005013 0 0 0 0 2.285122868103727 2.5485296121614738 0 2.5485296121614738 1.7629417506306666 0 0 0 0 8.1204636117308837 4.6272788142750869 0 4.6272788142750869 12.291279237586423 0 0 0 0 -34.16744607660803 55.118114775541471 0 55.118114775541471 -101.70291248982539 0 0 0 0 -58.889260060677771 -72.292698225523054 0 -72.292698225523054 88.416175729020324 0 0 0 0 -51.20603115871927 48.365086404339309 0 48.365086404339309 30.774357528884138 0 0 0 0 -10.214977751496917 40.051380309660999 0 40.051380309660999 45.054081717622466 0 0 0 0 -14.103507528401678 55.336264669924276 0 55.336264669924276 -13.579443485908087 0 0 0 0 -11.612786599893298 47.877811515601934 0 47.877811515601934 47.775611351744374 0 0 0 0 75.089777318053166 38.410709793807655 0 38.410709793807655 -0.46619758617453044 0 0 0 0 86.836194143317698 12.643527388143411 0 12.643527388143411 -7.8632725725201453 0 0 0 0 2.6662451410636976 1.2998452625993053 0 1.2998452625993053 -1.2218980790113108 0 0 0 0 -5.9138022418846958 5.1413224814441492 0 5.1413224814441492 2.115753963462339 0 0 0 0 38.567305986922293 6.0033787852353271 0 6.0033787852353271 -4.852915404313535 0 0 0 0 -1.118536879047312 8.4051071994339424 0 8.4051071994339424 -6.6395435567418417 0 0 0 0 -5.3249070307574584 27.621598934114445 0 27.621598934114445 10.031114429617901 0 0 0 0 -4.9996977934715687 24.550503501093772 0 24.550503501093772 30.602054308702918 0 0 0 0 5.3923724822009547 9.3415518761783076 0 9.3415518761783076 7.0043974151916188 0 0 0 0 9.2786673980479009 10.769282692671197 0 10.769282692671197 1.8503084357400752 0 0 0 0 15.366192944875365 11.14920405751127 0 11.14920405751127 -19.79082885499156 0 0 0 0 2.3679601162132542 2.3942193391043816 0 2.3942193391043816 1.7758894631328701 0 0 0 0 15.126571470937051 20.109813733519331 0 20.109813733519331 -1.8500244280439802 0 0 0 0 -7.3131598299987672 27.810623767931247 0 27.810623767931247 8.0258393702897592 0 0 0 0 10.805718094485613 5.1666066822824348 0 5.1666066822824348 -15.256177080030227 0 0 0 0 18.100582840444986 31.261400738942029 0 31.261400738942029 1.4072346092179941 0 0 0 0 11.516183716328669 13.251373661548314 0 13.251373661548314 -3.1542258788576873 0 0 0 0 10.045030565323188 15.231578543829016 0 15.231578543829016 4.9390446724616197 0 0 0 0 103.6099142699095 52.445840638636582 0 52.445840638636582 4.4037088701143148 0 0 0 0 -5.3690404797475537 8.7077148676347349 0 8.7077148676347349 -4.5710681978128846 0 0 0 0 15.034554011965156 36.689008604415449 0 36.689008604415449 40.986436949524432 0 0 0 0 47.631076271019992 52.151577078893752 0 52.151577078893752 18.737270424353483 0 0 0 0 57.762106022539228 35.839529062500333 0 35.839529062500333 13.589197505469201 0 0 0 0 2.7516488828967738 3.8382506172010835 0 3.8382506172010835 -4.3646675008813531 0 0 0 0 -24.562816788755299 39.426130574642229 0 39.426130574642229 -1.9084705079803825 0 0 0 0 -32.299740719605779 -2.7071171882437284 0 -2.7071171882437284 9.0154656031263585 0 0 0 0 -34.477520756550803 44.603820306087982 0 44.603820306087982 -5.6312006971893425 0 0 0 0 -44.418382183546782 42.821940149977308 0 42.821940149977308 14.922086801645264 0 0 0 0 -168.03629477942013 54.882774334182614 0 54.882774334182614 16.718826276010986 0 0 0 0 -101.47712816251988 182.96442507017809 0 182.96442507017809 -31.906509977379756 0 0 0 0 -0.47414588367246324 135.48668029891087 0 135.48668029891087 -34.101319122482892 0 0 0 0 -48.946103901223978 119.46884512309771 0 119.46884512309771 -38.537431339183968 0 0 0 0 0.13387754795257933 103.534513876848 0 103.534513876848 -45.806706015975578 0 0 0 0 -72.837465845204861 78.341579279794132 0 78.341579279794132 -17.997136054287694 0 0 0 0 -22.732776415636181 44.740411871776814 0 44.740411871776814 3.0970407727545535 0 0 0 0 -1.6836354795887019 56.925211968808071 0 56.925211968808071 -20.578774401539931 0 0 0 0 14.310142337599245 6.5787075556399941 0 6.5787075556399941 -14.035629055568279 0 0 0 0 14.425407095470291 9.02713692580528 0 9.02713692580528 -76.153141403836344 0 0 0 0 -12.344684957221034 82.100761446858996 0 82.100761446858996 -78.896221151841019 0 0 0 0 -1.57950460625662 0.75020531199916718 0 0.75020531199916718 1.0344026759971854 0 0 0 0 -567.47244767830489 268.21430615743338 0 268.21430615743338 -108.0411759708677 0 0 0 0 -411.38022962485775 218.50906156814563 0 218.50906156814563 -227.60212914412841 0 0 0 0 384.14663848808596 1.3089925703170593 0 1.3089925703170593 -9.8585034465722856 0 0 0 0 -591.02799225201306 426.66419011929247 0 426.66419011929247 -290.50743447551758 0 0 0 0 120.85527934343554 8.0132336006427067 0 8.0132336006427067 -4.6841561848923448 0 0 0 0 119.1100724646567 10.499527551414758 0 10.499527551414758 -6.4092157808918273 0 0 0 0 -1.6746737555911366 2.6703622667803977 0 2.6703622667803977 -1.0896432618869767 0 0 0 0 74.435426794814703 14.051291419493282 0 14.051291419493282 -0.99634536642042804 0 0 0 0 102.7987868881055 3.093628923400729 0 3.093628923400729 -5.9407852637959877 0 0 0 0 -2.5718934758027299 10.099781030554176 0 10.099781030554176 -2.9366682475431531 0 0 0 0 106.62143329006267 32.949020511823392 0 32.949020511823392 -8.3961885431635892 0 0 0 0 -599.8802695469567 376.74331057886593 0 376.74331057886593 -142.65674560180196 0 0 0 0 -4.9277475607870187 -3.0378731978819982 0 -3.0378731978819982 -3.218769599579943 0 0 0 0 -427.37041504559966 344.18271822880706 0 344.18271822880706 -252.7626496264611 0 0 0 0 -353.77927496768825 268.86546416106648 0 268.86546416106648 -176.64427197285841 0 0 0 0 -379.87799362400619 216.55045065398917 0 216.55045065398917 -127.13807965911292 0 0 0 0 -315.54306679108777 156.95735484750367 0 156.95735484750367 -60.353628040124022 0 0 0 0 -476.86525966355657 211.9361756010303 0 211.9361756010303 -121.51470964423061 0 0 0 0 -287.01131204537523 239.70103397853381 0 239.70103397853381 -190.20870119616302 0 0 0 0 -0.14193050785339523 -2.0994664578350779 0 -2.0994664578350779 -0.58719501728447199 0 0 0 0 -240.73762573554995 177.78115120623261 0 177.78115120623261 -110.03005743751055 0 0 0 0 -221.77183570082707 147.34208108370512 0 147.34208108370512 -146.0873190570419 0 0 0 0 -269.15696760829996 100.2233516480992 0 100.2233516480992 -3.9927836528440821 0 0 0 0 0.74029895181866223 -3.9683999390769955 0 -3.9683999390769955 -11.604414862301383 0 0 0 0 11.305776035907911 3.1998266180762585 0 3.1998266180762585 -9.6577900411793962 0 0 0 0 -91.348278129909886 12.00765665354993 0 12.00765665354993 -73.257613508527356 0 0 0 0 3.2100264308851791 1.1092935461543796 0 1.1092935461543796 -6.6257034603176663 0 0 0 0 7.7264589409824111 2.4979963973710255 0 2.4979963973710255 -9.7726694958464577 0 0 0 0 -423.42015992745837 218.88414347391335 0 218.88414347391335 -87.286715414738865 0 0 0 0 -136.52492360773522 173.06561578652418 0 173.06561578652418 -126.88918287826527 0 0 0 0 -247.21164746411523 100.07827325335347 0 100.07827325335347 0.46164809112451621 0 0 0 0 -199.49832372065794 174.73636706223988 0 174.73636706223988 -171.1563216805589 0 0 0 0 3.7342779539753792 3.0282722524972634 0 3.0282722524972634 -2.6524341684288402 0 0 0 0 -73.081851980652573 39.877268302559969 0 39.877268302559969 -92.400635935617174 0 0 0 0 -166.31397047050268 115.84307851128324 0 115.84307851128324 -10.632423190108966 0 0 0 0 -0.47802913519971924 2.4922434162117781 0 2.4922434162117781 1.1570383715615549 0 0 0 0 21.843855241138954 1.3196625148120802 0 1.3196625148120802 86.192063661881548 0 0 0 0 -2.3782371642409998 7.3580109328231629 0 7.3580109328231629 0.033708200557157397 0 0 0 0 15.434255285331346 8.5083637092211575 0 8.5083637092211575 -6.8036452800879488 0 0 0 0 2.8611205028646509 9.0386187933763722 0 9.0386187933763722 -0.042959831607731758 0 0 0 0 5.3645745380023442 5.4257866432859174 0 5.4257866432859174 2.3839156753395283 0 0 0 0 -2.3381354823286529 11.332859683080642 0 11.332859683080642 90.865347371691314 0 0 0 0 0.14223586135411637 0.65087801617203667 0 0.65087801617203667 14.242836052840826 0 0 0 0 -18.022411017809645 -0.39807716285577044 0 -0.39807716285577044 -18.315661599270243 0 0 0 0 -1.3286100726024443 26.920431899320185 0 26.920431899320185 28.597339457301274 0 0 0 0 33.207908979835338 83.617446902033407 0 83.617446902033407 12.53464982767764 0 0 0 0 -3.2917260379181243 6.4275735366500157 0 6.4275735366500157 81.470338906159668 0 0 0 0 30.980160619095841 70.668074763590994 0 70.668074763590994 14.035366021344089 0 0 0 0 -0.81231006090746405 1.9995032536102926 0 1.9995032536102926 3.8118217052715408 0 0 0 0 -435.08718201647571 482.47951311404177 0 482.47951311404177 600.79447660852748 0 0 0 0 51.407571553858361 -92.433047563064974 0 -92.433047563064974 91.799289616752503 0 0 0 0 74.93872803573322 12.451412152560806 0 12.451412152560806 -63.312544698565034 0 0 0 0 -86.14889174416021 76.239558280271012 0 76.239558280271012 70.048285638842572 0 0 0 0 -5.8451899763495021 -43.9755167474068 0 -43.9755167474068 92.277507782415341 0 0 0 0 -52.291942626539822 22.666509410162689 0 22.666509410162689 81.416190529196683 0 0 0 0 2.5175397239462782 31.221649747886552 0 31.221649747886552 40.863380328910488 0 0 0 0 95.007686601853493 -292.18353118206323 0 -292.18353118206323 708.83525516175723 0 0 0 0 -1.5468399141497287 5.2508903546641719 0 5.2508903546641719 8.7788888307934201 0 0 0 0 -298.42994281304345 135.38331166165517 0 135.38331166165517 -18.552150982346348 0 0 0 0 30.340938536530302 186.40657635127718 0 186.40657635127718 -120.54270721712965 0 0 0 0 -208.32826806082448 269.36000232407969 0 269.36000232407969 -119.79932363556981 0 0 0 0 -14.293538750200241 80.194013928234199 0 80.194013928234199 -50.19062445803138 0 0 0 0 -136.445959881823 192.80344447005791 0 192.80344447005791 -105.02755268038891 0 0 0 0 -251.69539982097922 159.00031886843499 0 159.00031886843499 -28.998954794566089 0 0 0 0 -365.59193160529685 281.49402974510122 0 281.49402974510122 -17.372215199939092 0 0 0 0 -380.47023260288552 253.52746658477827 0 253.52746658477827 -50.148451224427845 0 0 0 0 -478.52541664149248 304.02775471003224 0 304.02775471003224 -42.148035339640046 0 0 0 0 -330.91251482507505 227.73433885905615 0 227.73433885905615 -216.19622143865126 0 0 0 0 -360.02016612781881 198.59409137343027 0 198.59409137343027 -62.081912191766605 0 0 0 0 0.54060700875281498 1.0327569109933066 0 1.0327569109933066 -0.44329329408499518 0 0 0 0 -671.07293322791156 500.96244206803294 0 500.96244206803294 -127.34407451778679 0 0 0 0 -535.97747041336697 232.64832984600798 0 232.64832984600798 -113.92349955294048 0 0 0 0 -70.909095073177014 436.67760388680836 0 436.67760388680836 -122.14315113194584 0 0 0 0 -337.6116651060438 221.12147982026909 0 221.12147982026909 -64.563328953128803 0 0 0 0 -121.61486136269014 265.52483439245589 0 265.52483439245589 -55.647768827468099 0 0 0 0 -66.345583862959757 303.34077895170594 0 303.34077895170594 -90.914440046544769 0 0 0 0 26.392387417771715 215.59443623458674 0 215.59443623458674 -130.06527752459806 0 0 0 0 0.90875862885160075 1.3186461795621227 0 1.3186461795621227 -1.1778495919835734 0 0 0 0 -7.8551004015826038 -58.898652497497096 0 -58.898652497497096 -380.78642206853783 0 0 0 0 78.556470954176802 225.84030153437652 0 225.84030153437652 276.30104006711917 0 0 0 0 96.737604913643736 96.257678206089622 0 96.257678206089622 123.62962825167415 0 0 0 0 228.25574706586849 162.9668956815367 0 162.9668956815367 60.845466301592751 0 0 0 0 63.759826288407567 292.84595598798296 0 292.84595598798296 18.966638822170353 0 0 0 0 87.400864686720524 -155.97795996632431 0 -155.97795996632431 -369.12664350918931 0 0 0 0 63.789525703563413 133.77882232741104 0 133.77882232741104 53.790933501670054 0 0 0 0 -6.2613627528662477 9.1667886678612831 0 9.1667886678612831 -9.3380316585402454 0 0 0 0 167.68871171781211 103.52603203414037 0 103.52603203414037 -140.89002148267173 0 0 0 0 -89.734142818586406 -125.55284738223781 0 -125.55284738223781 61.742038533888262 0 0 0 0 79.403282106930419 104.12150607939475 0 104.12150607939475 96.669928222705494 0 0 0 0 99.915122267433617 99.588479932357586 0 99.588479932357586 69.194206981082971 0 0 0 0 0.11420721294291525 2.9342809307388364 0 2.9342809307388364 -2.2713576508273263 0 0 0 0 45.466965706014889 77.634946021295036 0 77.634946021295036 91.239839720390592 0 0 0 0 107.94135160782753 -65.768106753246684 0 -65.768106753246684 -185.90992627823289 0 0 0 0 -56.251005547092063 -81.261582754010306 0 -81.261582754010306 56.050789226193217 0 0 0 0 90.068123898556223 40.530985205645266 0 40.530985205645266 -83.672965212797862 0 0 0 0 23.677729000381078 15.361442398007057 0 15.361442398007057 -2.179371156184061 0 0 0 0 35.66170756257452 53.022380789319868 0 53.022380789319868 63.793973396976071 0 0 0 0 88.109596044145292 69.457451395755925 0 69.457451395755925 -6.8877594768273411 0 0 0 0 152.1275065321679 115.46681874928254 0 115.46681874928254 -4.3684030042848008 0 0 0 0 110.41753337310729 140.49243213465161 0 140.49243213465161 38.836424154786073 0 0 0 0 127.33961205756714 137.43793129671394 0 137.43793129671394 3.5387997959805944 0 0 0 0 106.84298599282192 103.70866774242677 0 103.70866774242677 40.759715339685499 0 0 0 0 106.72943164420167 110.00142119874045 0 110.00142119874045 75.824952787392249 0 0 0 0 122.13813595184911 182.04099806147315 0 182.04099806147315 23.21860406306223 0 0 0 0 147.05487764371719 163.37442355704115 0 163.37442355704115 -8.6059344779841922 0 0 0 0 277.6895390020436 123.66558978057947 0 123.66558978057947 -59.229621508637138 0 0 0 0 118.74734929060833 -99.348864268100442 0 -99.348864268100442 -129.55439619074605 0 0 0 0 192.92074589925141 202.71611019437478 0 202.71611019437478 -1.6817957800521981 0 0 0 0 129.393249901339 100.14990049031439 0 100.14990049031439 38.189183886406681 0 0 0 0 115.85810765406495 129.3650223001232 0 129.3650223001232 42.744190948382311 0 0 0 0 113.69961104032336 144.96616542511219 0 144.96616542511219 82.973208949830223 0 0 0 0 59.110889951218269 146.5881262640105 0 146.5881262640105 38.973951964831031 0 0 0 0 88.9553582411354 122.41355260650744 0 122.41355260650744 37.698923351497797 0 0 0 0 59.595061678141064 54.315921248060477 0 54.315921248060477 4.9818253351513704 0 0 0 0 145.68793140238995 20.160937570419264 0 20.160937570419264 -14.416726297531568 0 0 0 0 144.44608574900485 103.15007266694374 0 103.15007266694374 30.921938567089455 0 0 0 0 88.537477982386918 29.591435952859683 0 29.591435952859683 -8.1209095279282337 0 0 0 0 88.241604039829724 61.6500055816106 0 61.6500055816106 -9.7069730232324218 0 0 0 0 36.17366129637594 18.089743801056102 0 18.089743801056102 -40.392881839605252 0 0 0 0 14.869880987518627 182.89249514789935 0 182.89249514789935 29.701823039315059 0 0 0 0 -49.377460277355567 82.810678013862344 0 82.810678013862344 26.36154262063792 0 0 0 0 -0.35542553656464548 0.36036799930327845 0 0.36036799930327845 -1.4470657250844141 0 0 0 0 -138.6596230063069 -40.741557093012489 0 -40.741557093012489 24.687964096548967 0 0 0 0 -48.91731406715553 112.62977793345635 0 112.62977793345635 -37.84365810929279 0 0 0 0 82.758319619471877 18.260615976363624 0 18.260615976363624 10.683425639177585 0 0 0 0 126.73812694392109 183.16869034384581 0 183.16869034384581 8.926585257348961 0 0 0 0 410.33073752727068 445.11338754016469 0 445.11338754016469 249.91267703890844 0 0 0 0 639.5139944317707 -153.60255499182676 0 -153.60255499182676 13.201343868029653 0 0 0 0 126.10555289303375 212.23316332600916 0 212.23316332600916 25.086407172231702 0 0 0 0 56.543767202634626 28.354430696825148 0 28.354430696825148 9.3694230257497111 0 0 0 0 28.91451465252976 38.20096972997635 0 38.20096972997635 96.221557505597957 0 0 0 0 -61.129621336498531 42.270407121806784 0 42.270407121806784 343.55278898543429 0 0 0 0 980.82491119703081 -64.838358962425445 0 -64.838358962425445 -20.820727326696215 0 0 0 0 2.2294154104601347 2.6764454240803133 0 2.6764454240803133 3.7266091168727371 0 0 0 0 357.01320712164306 -0.26153804382192902 0 -0.26153804382192902 -20.179331489600457 0 0 0 0 308.73698083859927 32.142952351768145 0 32.142952351768145 5.0646478498420038 0 0 0 0 4.5379824434049567 8.54311845860882 0 8.54311845860882 10.087976158543697 0 0 0 0 1.4437383423943331 5.1769045335506405 0 5.1769045335506405 -0.73326586765291779 0 0 0 0 -28.254391453792778 4.9730590997833133 0 4.9730590997833133 28.89035321656047 0 0 0 0 13.113360712184658 29.812678045636858 0 29.812678045636858 9.9746104857549653 0 0 0 0 3.3059065168890811 46.457152325805509 0 46.457152325805509 34.857576374324708 0 0 0 0 13.073222274797445 32.811911492115541 0 32.811911492115541 19.577606650880625 0 0 0 0 5.5294802705662391 15.630994124664337 0 15.630994124664337 17.019997557552031 0 0 0 0 287.56811827732963 73.225782664507278 0 73.225782664507278 9.3985359548055385 0 0 0 0 296.18350699914663 95.556256333378769 0 95.556256333378769 -3.1111825469815813 0 0 0 0 1.1469490804739593 5.7256055203674663 0 5.7256055203674663 -1.352057224333393 0 0 0 0 11.341197975536488 15.902790878115411 0 15.902790878115411 1.2670985019576619 0 0 0 0 20.832577431596292 124.12998229134246 0 124.12998229134246 51.035343496462701 0 0 0 0 -5.2293715104267378 6.9153035313397666 0 6.9153035313397666 -10.864658068238015 0 0 0 0 23.792473274166696 26.693636073938251 0 26.693636073938251 -2.6334655876457873 0 0 0 0 -3.4017639336563974 12.81578419220255 0 12.81578419220255 -10.667563698652785 0 0 0 0 11.134042209687323 19.116313351350982 0 19.116313351350982 -1.421305997258969 0 0 0 0 39.621231754623295 52.039544018884044 0 52.039544018884044 12.564671251539039 0 0 0 0 -3.9875443385585871 11.351372892115592 0 11.351372892115592 -2.4119118359661798 0 0 0 0 -155.65982892779903 91.405196805333844 0 91.405196805333844 84.999396778386654 0 0 0 0 -93.818562073152862 38.083533215058196 0 38.083533215058196 21.047201450581269 0 0 0 0 -126.62694968669939 -73.510070995000433 0 -73.510070995000433 -12.568664836937387 0 0 0 0 -25.457908215877978 26.07244302430081 0 26.07244302430081 0.69772879730226123 0 0 0 0 97.695326495971585 87.255301913742414 0 87.255301913742414 -12.887632772391953 0 0 0 0 23.161942504457329 18.321307531331513 0 18.321307531331513 -2.353540041425731 0 0 0 0 -5.149318581395125 11.545936292576627 0 11.545936292576627 -0.004611931047676876 0 0 0 0 0.99086338903735793 5.1386192101161967 0 5.1386192101161967 -7.9674345162396065 0 0 0 0 -38.024188596734348 23.671877180719093 0 23.671877180719093 6.79492786800256 0 0 0 0 -40.934323926403522 17.910052768078458 0 17.910052768078458 8.939878946825047 0 0 0 0 -44.050945159233379 23.784512857841037 0 23.784512857841037 9.1208873726245656 0 0 0 0 -73.3143794710777 7.3011861021077493 0 7.3011861021077493 5.7709441404367681 0 0 0 0 -24.62861945891018 -10.581091580726934 0 -10.581091580726934 8.4337878880396602 0 0 0 0 89.253788887610426 26.427403256495381 0 26.427403256495381 -0.28768710100484896 0 0 0 0 -30.000611661882431 13.077282117097639 0 13.077282117097639 -3.4235815512365662 0 0 0 0 5.8478501186046543 0.28615383554539875 0 0.28615383554539875 -3.4185354249701163 0 0 0 0 -239.37160910386956 173.79273857338922 0 173.79273857338922 -209.66529450396956 0 0 0 0 -287.93598806655427 130.18179296441122 0 130.18179296441122 -158.03366510734486 0 0 0 0 -498.95990776329836 198.38384691670853 0 198.38384691670853 -173.625460731575 0 0 0 0 -0.67363375689871674 -0.54324462402919416 0 -0.54324462402919416 -1.6607627540585241 0 0 0 0 -568.94528290912604 334.92437992436317 0 334.92437992436317 -174.87657578843132 0 0 0 0 5.2871542960510851 -38.210566273174663 0 -38.210566273174663 -3.364011676836526 0 0 0 0 -513.23409042092135 138.35777644077598 0 138.35777644077598 -113.56366553006956 0 0 0 0 -286.37904158270976 84.041000090786838 0 84.041000090786838 -164.32144161626547 0 0 0 0 -141.67970584476643 55.280169339750501 0 55.280169339750501 -169.03095537070612 0 0 0 0 -316.09571387081439 95.387140532382006 0 95.387140532382006 71.535597227808466 0 0 0 0 -321.76466336019257 -39.177267139506512 0 -39.177267139506512 103.06511326941836 0 0 0 0 -263.58968832878418 -4.5888195297884522 0 -4.5888195297884522 194.52562680645497 0 0 0 0 -212.50905114075067 -8.7088714231340418 0 -8.7088714231340418 111.12932453707617 0 0 0 0 -218.39778864668915 31.546708586661225 0 31.546708586661225 216.96129344614019 0 0 0 0 -173.85953247663929 33.880695334850316 0 33.880695334850316 84.86550346591639 0 0 0 0 38.838607228946785 153.87315558040063 0 153.87315558040063 142.92912688116212 0 0 0 0 -413.73703748763546 115.05810588467557 0 115.05810588467557 189.08352843696025 0 0 0 0 -79.26343310260927 -40.794071448492105 0 -40.794071448492105 -537.11219810817965 0 0 0 0 -274.25211853689507 -65.36628174937232 0 -65.36628174937232 234.30981879377578 0 0 0 0 -4.888184225834884 3.0121153943946481 0 3.0121153943946481 -2.1665667927957912 0 0 0 0 -132.87939170254049 365.38358398946912 0 365.38358398946912 -408.05196718800289 0 0 0 0 -268.09756163468046 267.12092576372743 0 267.12092576372743 -131.9582868215839 0 0 0 0 -454.64087522411592 182.43427045034787 0 182.43427045034787 -31.195508235847228 0 0 0 0 36.633346188991709 -72.850075482501779 0 -72.850075482501779 101.32465984877308 0 0 0 0 -103.77352683522895 431.35840045214218 0 431.35840045214218 -55.606369448159967 0 0 0 0 -2.3643993002286479 0.98688266355401311 0 0.98688266355401311 -0.076876672543875202 0 0 0 0 70.703102072198817 -49.27970921074666 0 -49.27970921074666 28.626508776249466 0 0 0 0 4.2578763744845674 -56.214501975361827 0 -56.214501975361827 27.909508375387304 0 0 0 0 -3.052343576833664 -30.453207972961536 0 -30.453207972961536 32.163350070966771 0 0 0 0 -29.362960099329939 -48.808942346426193 0 -48.808942346426193 42.489720839708752 0 0 0 0 -157.67243595761011 -199.34917624396303 0 -199.34917624396303 -147.71745614249085 0 0 0 0 201.73940108275201 -50.914924635111674 0 -50.914924635111674 -92.174353405349393 0 0 0 0 233.42928703739926 131.26257834729131 0 131.26257834729131 -128.66851198871882 0 0 0 0 25.517195477941868 29.530955635850432 0 29.530955635850432 15.715677890959341 0 0 0 0 -293.76287735998812 284.85990073540233 0 284.85990073540233 -103.98794355418431 0 0 0 0 24.452353296295769 55.278880069769002 0 55.278880069769002 -385.14729998629628 0 0 0 0 -77.8312153142233 69.281140432415668 0 69.281140432415668 85.762096255873985 0 0 0 0 3.6577019308606395 16.4533191006376 0 16.4533191006376 -0.93254829813122342 0 0 0 0 5.1819055601386026 21.844756004695228 0 21.844756004695228 0.74563836356537649 0 0 0 0 8.2764994392728894 12.861300788509867 0 12.861300788509867 7.0208832643189254 0 0 0 0 -2.197965958777786 19.734118913407656 0 19.734118913407656 0.1435174196585649 0 0 0 0 -4.0643160156193652 11.131196653960679 0 11.131196653960679 -3.4106422952762045 0 0 0 0 0.29961318885034416 16.670898659162049 0 16.670898659162049 -0.31673388771469035 0 0 0 0 -0.0080688612470112275 16.297137510598986 0 16.297137510598986 -0.72734189702896401 0 0 0 0 43.816638328561112 39.47682527687607 0 39.47682527687607 -79.689778617314005 0 0 0 0 44.043624535555864 36.49040352989141 0 36.49040352989141 -40.843385902175214 0 0 0 0 2.2072099607503333 12.617811517708105 0 12.617811517708105 15.482570869080064 0 0 0 0 -0.021191210281550354 7.8038441721747418 0 7.8038441721747418 -1.5896282144694709 0 0 0 0 3.0548872545823542 29.315138283883243 0 29.315138283883243 4.6499006377180194 0 0 0 0 -1.8472761315643282 1.303187457727276 0 1.303187457727276 -1.415546910527226 0 0 0 0 -201.53481856984581 -44.206150977664947 0 -44.206150977664947 136.32523575228151 0 0 0 0 36.017680547294731 95.022728135649231 0 95.022728135649231 -3.8063561168637534 0 0 0 0 -5.3992527867303579 48.611358525045944 0 48.611358525045944 -28.768970568635268 0 0 0 0 23.807387404063775 22.590810530457929 0 22.590810530457929 -35.260475157338078 0 0 0 0 -150.57164154078419 -41.859928079336896 0 -41.859928079336896 14.480418387596728 0 0 0 0 15.771772630021587 15.220061028137025 0 15.220061028137025 -8.7178192494575342 0 0 0 0 22.629517716958503 22.404883128200936 0 22.404883128200936 -5.3196201676255441 0 0 0 0 -19.067707114099903 23.302296573754575 0 23.302296573754575 31.435947644777116 0 0 0 0 23.320240362396248 43.285633477794022 0 43.285633477794022 1.6423561868723482 0 0 0 0 1.486868610012607 -4.1756552823044331 0 -4.1756552823044331 21.874363119535701 0 0 0 0 -0.35994692151871277 31.036197259301844 0 31.036197259301844 28.167908583815006 0 0 0 0 61.372778728837147 -22.699367273027747 0 -22.699367273027747 11.818375607959752 0 0 0 0 3.5042589639103809 9.2119018233627692 0 9.2119018233627692 2.2619630360269127 0 0 0 0 -10.024219633396569 9.837161667485816 0 9.837161667485816 0.31334239726345459 0 0 0 0 -1.9117589483085293 10.050618629607023 0 10.050618629607023 -2.1930985885055065 0 0 0 0 -9.4798223703801341 21.601077992607316 0 21.601077992607316 -9.854054010688742 0 0 0 0 -19.413808928642538 14.354732901019815 0 14.354732901019815 -5.5923727112012784 0 0 0 0 -20.400461346818702 36.193944960029057 0 36.193944960029057 7.589371823851252 0 0 0 0 108.17915167890169 -42.078441833213219 0 -42.078441833213219 20.451953087031143 0 0 0 0 -3.3400830747440082 16.501959364556605 0 16.501959364556605 -3.8503362257683875 0 0 0 0 -33.399374652981351 11.849176100795376 0 11.849176100795376 7.1071472019320936 0 0 0 0 -5.1290263848074531 2.0967045209700998 0 2.0967045209700998 0.10041206507806066 0 0 0 0 -32.768466293977326 16.143371151654492 0 16.143371151654492 9.7193227780808229 0 0 0 0 -23.578746287606918 16.387461319371141 0 16.387461319371141 -6.1965168098649883 0 0 0 0 -11.225314600687852 18.663043402882977 0 18.663043402882977 -7.8645725055648654 0 0 0 0 -4.999620300748596 3.7095761189581946 0 3.7095761189581946 -1.2243564115916215 0 0 0 0 -9.7106836486227621 10.990193569129588 0 10.990193569129588 -3.9558366115670651 0 0 0 0 4.202631445845924 7.6756823207020162 0 7.6756823207020162 -2.8500816015186476 0 0 0 0 -66.334044228278799 45.852778088539708 0 45.852778088539708 -16.218783259415432 0 0 0 0 26.568921016430977 5.0111960205495052 0 5.0111960205495052 -41.581476935301907 0 0 0 0 -13.664794285712922 11.444386643531256 0 11.444386643531256 -3.4695460987204036 0 0 0 0 10.446804205108529 12.487930953604895 0 12.487930953604895 -9.0204745173804071 0 0 0 0 -5.0406524185164017 19.729888108760861 0 19.729888108760861 -2.5939220277650747 0 0 0 0 14.013015810057027 33.020304402304149 0 33.020304402304149 -8.2822328660454012 0 0 0 0 -20.442389038406638 29.668210033665183 0 29.668210033665183 -4.6662255630393759 0 0 0 0 -26.918713567381928 25.42667163599981 0 25.42667163599981 -15.815396406098444 0 0 0 0 26.244680913999673 24.239205320928136 0 24.239205320928136 21.472335436395952 0 0 0 0 41.331800918418594 22.146221256960416 0 22.146221256960416 7.9926194061663409 0 0 0 0 54.822365019805147 22.699886810776661 0 22.699886810776661 19.657404462133854 0 0 0 0 26.322537858228316 24.244366145567255 0 24.244366145567255 4.3121170249505667 0 0 0 0 20.536052110666787 16.858292863533279 0 16.858292863533279 -21.027282847000606 0 0 0 0 21.8532876695499 30.271193412503635 0 30.271193412503635 24.461558452697318 0 0 0 0 0.35513539810336425 0.029459820505339351 0 0.029459820505339351 0.21067373954237212 0 0 0 0 -2.6015513384172664 -0.91112086959583394 0 -0.91112086959583394 4.5456320648954716 0 0 0 0 10.053541746716292 6.8289213911421029 0 6.8289213911421029 -4.463890535338578 0 0 0 0 13.021973664974212 2.6390226306684781 0 2.6390226306684781 1.3875574705448344 0 0 0 0 16.301161259147193 14.73136631512898 0 14.73136631512898 17.473078621858804 0 0 0 0 29.755460211557875 18.115931547719583 0 18.115931547719583 8.3197553022437205 0 0 0 0 11.326560269124514 -0.72173633149595418 0 -0.72173633149595418 -0.84533305668411884 0 0 0 0 35.790279674365593 0.32016377917534555 0 0.32016377917534555 -10.111720742374018 0 0 0 0 27.965991564571596 -4.3315542676755285 0 -4.3315542676755285 -79.946125330330688 0 0 0 0 1.3442453860753858 -2.3317529271932074 0 -2.3317529271932074 -1.4343314150857331 0 0 0 0 8.8569802540150704 -7.6894127765408484 0 -7.6894127765408484 -49.233751505322289 0 0 0 0 12.428589299044006 -1.5973962601195808 0 -1.5973962601195808 -4.4907929576678427 0 0 0 0 17.284148154360082 18.285810494564657 0 18.285810494564657 -34.101045084531506 0 0 0 0 6.8789076798711903 3.6564215735306789 0 3.6564215735306789 -21.826503667573888 0 0 0 0 6.0059585170882315 4.0215046604371238 0 4.0215046604371238 -2.2916878804877037 0 0 0 0 7.3899947393583716 16.151475592692805 0 16.151475592692805 -6.2024727238531341 0 0 0 0 29.199217045490514 13.065419201319855 0 13.065419201319855 -32.386843430373119 0 0 0 0 29.846826753302594 14.013586252178357 0 14.013586252178357 -10.353918621709454 0 0 0 0 36.326201243333344 45.840715062151503 0 45.840715062151503 0.024241238220383821 0 0 0 0 32.487261483845941 24.272540169109561 0 24.272540169109561 -34.425410762361935 0 0 0 0 22.122167485526006 -0.26095354993458386 0 -0.26095354993458386 -53.602112981061509 0 0 0 0 17.791916372435608 12.45826938125311 0 12.45826938125311 -0.4046384313830842 0 0 0 0 -28.281995564502722 68.534294078983294 0 68.534294078983294 -5.0422608494654924 0 0 0 0 32.592947229536691 15.172523461227492 0 15.172523461227492 -6.5241507072948153 0 0 0 0 15.595904442581741 20.771725970430907 0 20.771725970430907 -14.736879362082618 0 0 0 0 11.58990394562257 12.00519036708269 0 12.00519036708269 -7.4443885630329731 0 0 0 0 19.677152805081278 13.695177023621 0 13.695177023621 -10.789761585685937 0 0 0 0 18.056782380146615 12.349296102125663 0 12.349296102125663 -15.234071070542996 0 0 0 0 3.4056524675252149 9.8847129776377187 0 9.8847129776377187 8.9618327462799243 0 0 0 0 21.63356537868458 9.2456011913964176 0 9.2456011913964176 -17.394321328785736 0 0 0 0 12.190802504540315 19.125795142785392 0 19.125795142785392 -14.536773069900978 0 0 0 0 -3.7029431566988933 -5.2607615498600353 0 -5.2607615498600353 4.4262224680687723 0 0 0 0 4.416606446185245 3.5061105550358249 0 3.5061105550358249 -4.0327373917367524 0 0 0 0 1.1873836652505361 10.243272255839891 0 10.243272255839891 -13.854604777234037 0 0 0 0 4.2407988392078551 30.694025420391881 0 30.694025420391881 18.865525886900286 0 0 0 0 -29.870353908117977 -50.485857892044805 0 -50.485857892044805 -26.253998328009402 0 0 0 0 21.410222745180363 -4.6091840387537104 0 -4.6091840387537104 -72.741440413126838 0 0 0 0 12.800882996063592 -17.453352269026709 0 -17.453352269026709 -91.903401095407389 0 0 0 0 28.629546763979306 -30.424696968868375 0 -30.424696968868375 -83.027609355440291 0 0 0 0 -2.1108301109888998 -75.080630124716663 0 -75.080630124716663 -147.84071758926075 0 0 0 0 39.981196419850676 -29.085494726796469 0 -29.085494726796469 -140.89460189914826 0 0 0 0 -22.177670326136649 79.187731567571063 0 79.187731567571063 12.180583987308637 0 0 0 0 67.812928970678513 124.6469369055626 0 124.6469369055626 -186.62835302105668 0 0 0 0 -10.272574664235435 159.57105345369928 0 159.57105345369928 -15.877759991296557 0 0 0 0 21.170571792743431 97.920172800520959 0 97.920172800520959 -17.950821398522635 0 0 0 0 94.917292473168345 -89.034605366439791 0 -89.034605366439791 -102.48563533373454 0 0 0 0 3.3649192034719277 -4.232413828104896 0 -4.232413828104896 -4.4886131088920038 0 0 0 0 51.143406121775328 18.147777073818133 0 18.147777073818133 3.3982054677149875 0 0 0 0 33.054578512904712 10.740106220460683 0 10.740106220460683 3.1930841420759606 0 0 0 0 106.31387153619653 12.057757866572501 0 12.057757866572501 -260.58767295409416 0 0 0 0 210.52061041725392 164.76342391237631 0 164.76342391237631 -217.29325303402129 0 0 0 0 208.37740971204039 46.736587814351878 0 46.736587814351878 -299.83796620447538 0 0 0 0 244.3560095064222 67.078040718843113 0 67.078040718843113 -309.46896083520551 0 0 0 0 251.76799500467951 53.72913367613296 0 53.72913367613296 -690.21347841124589 0 0 0 0 204.44265599819119 166.13172245133865 0 166.13172245133865 -353.51258052738194 0 0 0 0 63.335864364413283 224.62627490895466 0 224.62627490895466 138.13569561317308 0 0 0 0 80.559495648391021 330.56273088053058 0 330.56273088053058 18.422983134723836 0 0 0 0 73.790132739447927 130.59590602968331 0 130.59590602968331 157.83013684833713 0 0 0 0 -46.903846890051682 43.784906145810055 0 43.784906145810055 -62.478149834205396 0 0 0 0 192.25165251405724 150.88640704190311 0 150.88640704190311 -105.88290120917009 0 0 0 0 71.218094882249716 77.208865773191064 0 77.208865773191064 -32.290652978696016 0 0 0 0 82.783193703126017 160.87761383710313 0 160.87761383710313 20.15788427145344 0 0 0 0 32.850577445031377 86.840728869330633 0 86.840728869330633 103.29186221838609 0 0 0 0 100.97957075422437 111.30807136087515 0 111.30807136087515 112.06587158051116 0 0 0 0 54.894599361135079 22.273151323696311 0 22.273151323696311 282.43598214403391 0 0 0 0 98.820466496024892 246.54093077900779 0 246.54093077900779 252.36924611077848 0 0 0 0 -30.083422331961629 194.62503996527539 0 194.62503996527539 496.18437842361345 0 0 0 0 -7.0099288304298639 4.4428818786112672 0 4.4428818786112672 -0.63933958859385775 0 0 0 0 -220.49643561374432 -61.563298090921307 0 -61.563298090921307 4.9842769742317614 0 0 0 0 -49.955590150683747 28.15100915930725 0 28.15100915930725 29.565628445492621 0 0 0 0 -69.717497888788785 93.920229149740408 0 93.920229149740408 240.90015459925417 0 0 0 0 13.298564268978225 -19.699914792659001 0 -19.699914792659001 -22.37348934021793 0 0 0 0 -4.8531594733224779 2.1044682858213903 0 2.1044682858213903 -0.49192627579167691 0 0 0 0 -31.072440430394636 -29.696027524494639 0 -29.696027524494639 82.270185294498333 0 0 0 0 -47.428116717461762 -47.623602704547466 0 -47.623602704547466 64.894979008699011 0 0 0 0 -40.769082017804976 -37.48285508261506 0 -37.48285508261506 80.31435080148367 0 0 0 0 -13.386039775388781 -32.995908004200828 0 -32.995908004200828 55.2101797215837 0 0 0 0 -13.168508163311344 -25.273933693919389 0 -25.273933693919389 54.725526908379834 0 0 0 0 76.494056090567028 0.66556155798934924 0 0.66556155798934924 57.283786519206842 0 0 0 0 -58.721583758335328 28.682273817137684 0 28.682273817137684 67.154176383561207 0 0 0 0 103.50733238624161 33.934019718020863 0 33.934019718020863 -33.181709630052865 0 0 0 0 60.789412934715074 90.322638023309992 0 90.322638023309992 11.037663232610612 0 0 0 0 -2.7564406781424751 -0.550785579642735 0 -0.550785579642735 4.6726039161551931 0 0 0 0 -8.181225136752154 5.792380500043727 0 5.792380500043727 -1.5018430280427673 0 0 0 0 -28.795679121803914 -1.7346800202785744 0 -1.7346800202785744 42.969543255676399 0 0 0 0 -35.678881850195467 115.95440609380967 0 115.95440609380967 217.94472980285082 0 0 0 0 -8.2989858046477707 1.0900249932389627 0 1.0900249932389627 2.8599800276518863 0 0 0 0 -12.323804194149488 36.731259996623521 0 36.731259996623521 157.29580335253559 0 0 0 0 51.590757730547921 143.73930081731305 0 143.73930081731305 142.55242783765425 0 0 0 0 0.65761953454421018 134.25732197143407 0 134.25732197143407 141.91460190388898 0 0 0 0 0.023661100371100474 -10.425775296952452 0 -10.425775296952452 6.4608164676392335 0 0 0 0 -18.119693186879886 1.5914260599483896 0 1.5914260599483896 32.096862589824013 0 0 0 0 -2.4373360136639306 1.8737736663029665 0 1.8737736663029665 10.474453540159303 0 0 0 0 -9.0322368693778117 -33.63407200452184 0 -33.63407200452184 49.710200282104779 0 0 0 0 14.049788798613008 20.749113253510586 0 20.749113253510586 34.629931064597258 0 0 0 0 39.372580585819378 -44.991052641084025 0 -44.991052641084025 49.746342198515777 0 0 0 0 77.663764383760281 28.235669941081142 0 28.235669941081142 34.413026449678 0 0 0 0 -30.12839761080977 -9.2617833111362415 0 -9.2617833111362415 44.198567677438405 0 0 0 0 -77.157898627701798 8.289902687229187 0 8.289902687229187 50.229203702838277 0 0 0 0 -47.77751096256543 4.9921180428809748 0 4.9921180428809748 50.487466365706723 0 0 0 0 -21.668692839812138 -16.936679533631832 0 -16.936679533631832 42.281692381399807 0 0 0 0 -48.837115445247036 -30.238251777992446 0 -30.238251777992446 93.577327671478997 0 0 0 0 -40.437944876051915 -59.988041350214189 0 -59.988041350214189 100.00694589233899 0 0 0 0 -127.44687613911265 -29.588327322749592 0 -29.588327322749592 101.26221409065329 0 0 0 0 -107.95816125077363 25.85387407315875 0 25.85387407315875 107.73364939853855 0 0 0 0 -241.29487692214752 51.57408529017448 0 51.57408529017448 136.37313775743678 0 0 0 0 -190.47896622392 -79.424599896388827 0 -79.424599896388827 170.537564914619 0 0 0 0 0.70601762980221494 0.53232680576256541 0 0.53232680576256541 3.4769930759931498 0 0 0 0 308.08578304563707 -221.00607173557546 0 -221.00607173557546 39.480222920028609 0 0 0 0 58.286618486075895 -150.44107738983439 0 -150.44107738983439 113.54251379320704 0 0 0 0 128.14163890366035 19.999689443552597 0 19.999689443552597 6.3214792790204228 0 0 0 0 112.02816531468125 -187.98092379712034 0 -187.98092379712034 125.97013668297586 0 0 0 0 -42.377754872948572 -88.884706540709885 0 -88.884706540709885 118.31665305795104 0 0 0 0 113.51634752525024 -46.823720506212794 0 -46.823720506212794 47.871662178571569 0 0 0 0 213.35758429310226 -32.859485969107482 0 -32.859485969107482 3.8194857503622188 0 0 0 0 103.06460891242023 19.281615212996257 0 19.281615212996257 37.569133928889642 0 0 0 0 292.71940966688271 -155.96854414710288 0 -155.96854414710288 30.565090324147604 0 0 0 0 59.413889173127245 -178.30922841768552 0 -178.30922841768552 103.14877454977614 0 0 0 0 195.32775178862357 -353.31416677379275 0 -353.31416677379275 213.9640151041458 0 0 0 0 -236.95931503555039 -163.16969036592127 0 -163.16969036592127 314.56768820214347 0 0 0 0 -70.72851652551617 124.18103773964958 0 124.18103773964958 -232.20420985311648 0 0 0 0 -30.615937119298906 -312.76336631895538 0 -312.76336631895538 372.28509745615156 0 0 0 0 -135.13068726906204 110.35338993863479 0 110.35338993863479 259.95340230706734 0 0 0 0 -105.1359560920464 223.6001358172357 0 223.6001358172357 -40.411946343330783 0 0 0 0 -155.99244780724985 185.53479918396624 0 185.53479918396624 -31.967876915141801 0 0 0 0 -382.93344543010608 -1.4085155570810457 0 -1.4085155570810457 14.514295215672973 0 0 0 0 -334.83030721468822 330.78402149118119 0 330.78402149118119 -102.36996809018092 0 0 0 0 -3.7884030883924993 2.211239460229379 0 2.211239460229379 -1.5822674306638618 0 0 0 0 -293.51464511702761 249.20151759718055 0 249.20151759718055 -22.910604086493549 0 0 0 0 -504.98987048885465 -126.48149655109228 0 -126.48149655109228 90.132547987670478 0 0 0 0 -160.47331817369013 -3.3630141663229551 0 -3.3630141663229551 113.29312442548326 0 0 0 0 32.532399969524704 83.466532447489044 0 83.466532447489044 -165.09700866734602 0 0 0 0 12.871880330114436 45.357361052733722 0 45.357361052733722 20.265867168065597 0 0 0 0 49.715678705415485 27.302197248641278 0 27.302197248641278 -7.1201665079515806 0 0 0 0 59.924838547591207 117.34207969597446 0 117.34207969597446 -16.592626142797599 0 0 0 0 -24.710341145998228 24.06861713623524 0 24.06861713623524 2.1860871626139016 0 0 0 0 -36.882651377538423 59.373747833681591 0 59.373747833681591 52.090195100547135 0 0 0 0 -83.158243280442548 133.02049434902619 0 133.02049434902619 33.390427369091412 0 0 0 0 -28.607073345971003 74.988576237372399 0 74.988576237372399 50.543768285363853 0 0 0 0 -62.716032827520394 32.911201558227276 0 32.911201558227276 47.667361967934994 0 0 0 0 -68.239545926990104 30.488592305660859 0 30.488592305660859 94.022810302993094 0 0 0 0 -24.55702195502829 23.29877108545206 0 23.29877108545206 3.4766995003618035 0 0 0 0 -13.703851076577848 37.283998000692918 0 37.283998000692918 23.077416080934199 0 0 0 0 28.863679458045226 64.85657849310337 0 64.85657849310337 22.605305665968217 0 0 0 0 29.611035167297814 66.81475677999515 0 66.81475677999515 13.632140196485125 0 0 0 0 72.945971929460939 82.728818850002426 0 82.728818850002426 19.999178800645495 0 0 0 0 44.621482990813092 102.86528948539126 0 102.86528948539126 39.739904400499654 0 0 0 0 89.999388397904113 104.02895068222642 0 104.02895068222642 19.603581318160821 0 0 0 0 92.949988046399085 121.13461104972521 0 121.13461104972521 36.532243865956843 0 0 0 0 70.000647449960525 97.127899891926063 0 97.127899891926063 19.582751781805925 0 0 0 0 61.548758789991552 107.13137872036987 0 107.13137872036987 37.710860249510006 0 0 0 0 -2.9379241853457643 55.372869700673618 0 55.372869700673618 59.968668902914942 0 0 0 0 63.599804257850337 105.26119263435339 0 105.26119263435339 34.302439534090809 0 0 0 0 -28.729021742597979 22.368463810658795 0 22.368463810658795 22.100803263359012 0 0 0 0 4.3442470763930032 61.426498822798294 0 61.426498822798294 18.067785209193971 0 0 0 0 73.923551710315223 44.590451319849308 0 44.590451319849308 -0.1329259052836278 0 0 0 0 -25.542171157848102 23.68141890130147 0 23.68141890130147 0.16170068767882384 0 0 0 0 76.678723294280644 56.763365527319365 0 56.763365527319365 9.8793151029203727 0 0 0 0 -13.94235127113825 0.28019591889187723 0 0.28019591889187723 11.746254311528901 0 0 0 0 -2.6726462193564657 6.7695506189643311 0 6.7695506189643311 -36.399583970438471 0 0 0 0 16.113714727971455 103.83630514074957 0 103.83630514074957 113.26365921377874 0 0 0 0 -58.805312183954811 -2.568907435881556 0 -2.568907435881556 67.2379574398866 0 0 0 0 -73.433387912414219 119.77141244286327 0 119.77141244286327 157.81623252938516 0 0 0 0 21.513126519348589 82.355194514220784 0 82.355194514220784 76.335459072673984 0 0 0 0 -22.157836885886354 95.649893045645513 0 95.649893045645513 163.3132225224108 0 0 0 0 89.421855336375302 231.34117110319858 0 231.34117110319858 225.4123844013302 0 0 0 0 488.13964584406494 251.80324579341504 0 251.80324579341504 48.795500469201215 0 0 0 0 -1.1225188638197849 1.2115769570571686 0 1.2115769570571686 -1.0345151995425823 0 0 0 0 470.72623508362449 105.18941132843793 0 105.18941132843793 -17.252460087195686 0 0 0 0 317.40185791609838 181.28454665391837 0 181.28454665391837 96.442965788930451 0 0 0 0 344.25424186950113 3.3549742952091037 0 3.3549742952091037 -63.184933542139333 0 0 0 0 676.33261653874797 158.75519965418789 0 158.75519965418789 -199.32168439216912 0 0 0 0 4.1097034363816078 4.4277678687106068 0 4.4277678687106068 6.1444125194945514 0 0 0 0 31.663698218559148 132.11850980639792 0 132.11850980639792 -148.77808584832383 0 0 0 0 174.70395465626643 -167.64106905105291 0 -167.64106905105291 611.10200311960398 0 0 0 0 256.42418090388674 553.17439060126708 0 553.17439060126708 355.56778157007284 0 0 0 0 -87.298953142902974 205.15319114040631 0 205.15319114040631 85.409024016022158 0 0 0 0 315.1217361074614 44.657168192085919 0 44.657168192085919 -72.193415333924349 0 0 0 0 236.61911855865037 -217.7775781718592 0 -217.7775781718592 -160.3096350957403 0 0 0 0 292.74426179557486 22.088403440669936 0 22.088403440669936 -92.740943756314664 0 0 0 0 729.99385396836442 17.239942183967287 0 17.239942183967287 -112.53246495047642 0 0 0 0 416.36439609306399 368.69420987464855 0 368.69420987464855 164.52962909269263 0 0 0 0 172.31690677972801 185.46731189489219 0 185.46731189489219 62.559496679969016 0 0 0 0 109.0204694351487 203.63792858575835 0 203.63792858575835 187.37282977510768 0 0 0 0 24.947649065841688 109.93350737338915 0 109.93350737338915 85.083853163501772 0 0 0 0 84.955502180171607 132.37018785951659 0 132.37018785951659 47.848054412275815 0 0 0 0 133.51741963317909 161.21043668998755 0 161.21043668998755 64.690421155815784 0 0 0 0 133.71982325235876 164.88186025359028 0 164.88186025359028 55.071742193300452 0 0 0 0 264.37728770223475 168.12791545200162 0 168.12791545200162 2.6685747188239475 0 0 0 0 148.89046409584989 105.64387350139395 0 105.64387350139395 -30.300494374867412 0 0 0 0 153.09037872188492 133.99869344080616 0 133.99869344080616 14.177453617801802 0 0 0 0 110.29508758061638 110.85582467190579 0 110.85582467190579 5.2073980630775623 0 0 0 0 106.72195876025216 103.96717888969943 0 103.96717888969943 6.6966029926643387 0 0 0 0 112.95472693089687 71.129386286367662 0 71.129386286367662 -17.266025853841711 0 0 0 0 164.56985258834175 89.084194960028981 0 89.084194960028981 -12.971467706807744 0 0 0 0 89.23707906382333 38.50906993271019 0 38.50906993271019 -0.77033888520963956 0 0 0 0 68.112812357117946 5.8412324052405893 0 5.8412324052405893 -5.1323006130178328 0 0 0 0 91.694165880224318 7.2138118204475177 0 7.2138118204475177 -5.3515985530393664 0 0 0 0 116.81100453644103 -9.1918393901105446 0 -9.1918393901105446 -54.974210451444378 0 0 0 0 165.24920400062547 21.904246714408146 0 21.904246714408146 -37.903759124586941 0 0 0 0 74.55948805227672 49.853939288175752 0 49.853939288175752 19.99156121280248 0 0 0 0 55.116110460141499 35.855996137344846 0 35.855996137344846 11.061305626411922 0 0 0 0 48.184578882872302 35.934028982397649 0 35.934028982397649 23.531127534632105 0 0 0 0 94.965371630739583 68.917578172750382 0 68.917578172750382 6.4427884659526171 0 0 0 0 94.023876443686731 44.257100983808527 0 44.257100983808527 5.068555137833755 0 0 0 0 121.91373014603778 91.324430292434045 0 91.324430292434045 4.789756141602993 0 0 0 0 88.786059243466298 82.56958539745392 0 82.56958539745392 5.5723926602256597 0 0 0 0 78.363813389678398 86.750867266930072 0 86.750867266930072 27.82430893612036 0 0 0 0 95.226185170540703 94.376661815605985 0 94.376661815605985 27.208068094019836 0 0 0 0 69.949214721658791 66.294363665318087 0 66.294363665318087 24.086829636446055 0 0 0 0 95.27115849670372 72.556491511953936 0 72.556491511953936 13.019758805276069 0 0 0 0 73.516393355592299 84.319686244744844 0 84.319686244744844 49.083040100005746 0 0 0 0 67.972024869015513 68.361660220941303 0 68.361660220941303 27.182935073906265 0 0 0 0 47.146520616362977 59.916964398165874 0 59.916964398165874 47.309212819454842 0 0 0 0 52.138060786412098 67.576355560740922 0 67.576355560740922 50.927942557503229 0 0 0 0 57.894130945929646 75.528363839474423 0 75.528363839474423 60.869087683735415 0 0 0 0 57.471805215449649 82.846421822573006 0 82.846421822573006 76.610633922340639 0 0 0 0 54.585908137389197 63.582156630067402 0 63.582156630067402 48.251157177444838 0 0 0 0 40.011809299088782 62.121670373817324 0 62.121670373817324 88.258500105665007 0 0 0 0 30.456050754248281 42.329586404179281 0 42.329586404179281 50.582034961851605 0 0 0 0 -3.2654283172014402 18.385593419679935 0 18.385593419679935 40.634415042624823 0 0 0 0 30.501208732748637 41.583568804904644 0 41.583568804904644 50.100825028086547 0 0 0 0 46.449076267854252 46.068764726627705 0 46.068764726627705 29.847745390288765 0 0 0 0 43.885433680120514 47.249064639805852 0 47.249064639805852 32.421074402191152 0 0 0 0 19.947807317585102 16.901999610632629 0 16.901999610632629 23.406707310185993 0 0 0 0 44.862736986149685 33.067571501902421 0 33.067571501902421 21.152072272925579 0 0 0 0 30.945346209118725 11.021676852046312 0 11.021676852046312 24.818088941072347 0 0 0 0 3.2781166099957773 -5.920258644673595 0 -5.920258644673595 18.111902746139094 0 0 0 0 21.540522643837903 43.250789130936028 0 43.250789130936028 58.234386311007256 0 0 0 0 5.7060985232412804 -22.719828315822554 0 -22.719828315822554 -67.699157673974696 0 0 0 0 7.2921652097429615 8.3129135135714023 0 8.3129135135714023 -57.820812186702824 0 0 0 0 31.198880401956558 27.993857341118201 0 27.993857341118201 -30.438089725897953 0 0 0 0 26.774719799551349 6.9344852448712118 0 6.9344852448712118 -74.867166963849741 0 0 0 0 45.722493938083062 -8.399715750652831 0 -8.399715750652831 -62.83231036819052 0 0 0 0 28.670726558790193 55.163511452950843 0 55.163511452950843 -8.2242314944996906 0 0 0 0 33.876929214406118 36.830750002936838 0 36.830750002936838 -98.961172636249103 0 0 0 0 45.941283595675486 -4.3105970075412188 0 -4.3105970075412188 -156.71831972084692 0 0 0 0 7.8823258785851067 28.79728367444477 0 28.79728367444477 -83.284277822684089 0 0 0 0 -15.014000478127855 110.06138892211357 0 110.06138892211357 -186.32193263556837 0 0 0 0 33.070927397973719 33.574709946205985 0 33.574709946205985 50.142432784283301 0 0 0 0 5.9442294519980976 -0.3809606418635525 0 -0.3809606418635525 0.041000329117144574 0 0 0 0 183.54107767555979 -48.609602918380915 0 -48.609602918380915 -354.23166929425497 0 0 0 0 22.954806894907961 -47.80224404008186 0 -47.80224404008186 -37.336533392275669 0 0 0 0 73.372238979882241 -85.435283943857939 0 -85.435283943857939 -79.121355915754975 0 0 0 0 23.050268681259695 24.445553655828689 0 24.445553655828689 74.252645967339049 0 0 0 0 0.56743045910843648 20.352003467251052 0 20.352003467251052 -108.50539442888476 0 0 0 0 1.6176783845336331 0.19246894699510619 0 0.19246894699510619 0.01735234089374238 0 0 0 0 19.285848552768584 44.726392638498055 0 44.726392638498055 157.89314458183071 0 0 0 0 50.54311881947433 134.39917476607479 0 134.39917476607479 261.49018892344066 0 0 0 0 155.62082866658602 165.45573220805272 0 165.45573220805272 141.03401614248287 0 0 0 0 -253.68553860785323 204.11050193957635 0 204.11050193957635 -235.97070591617376 0 0 0 0 -0.74508041113109869 0.55552478145928319 0 0.55552478145928319 -2.6532599874051499 0 0 0 0 -134.58362039217354 19.841899954094515 0 19.841899954094515 -51.631605671223952 0 0 0 0 58.378877401926729 -75.809696141746826 0 -75.809696141746826 -116.76459293679 0 0 0 0 -24.245090624088334 -54.876926159073264 0 -54.876926159073264 -34.876518116303487 0 0 0 0 62.526595099319593 -14.557653354600347 0 -14.557653354600347 -51.893238383599964 0 0 0 0 202.00834211450274 19.412320317569538 0 19.412320317569538 -157.26984489009192 0 0 0 0 59.893980859131261 -30.718919433275005 0 -30.718919433275005 -62.666277467289547 0 0 0 0 97.318197149656044 74.064443748682606 0 74.064443748682606 -1.0996652482426725 0 0 0 0 105.50561631939854 34.677828675732599 0 34.677828675732599 -21.502899981704104 0 0 0 0 189.22597529384075 153.94978559971787 0 153.94978559971787 27.507784717730829 0 0 0 0 85.611941438310168 54.819190260986034 0 54.819190260986034 -28.544990938520641 0 0 0 0 72.889462955725321 94.432695941024576 0 94.432695941024576 123.18209053917599 0 0 0 0 177.54749780182465 66.811956854384334 0 66.811956854384334 76.03764910668724 0 0 0 0 77.814691484073364 90.616329094275898 0 90.616329094275898 82.210851703046501 0 0 0 0 64.713049457684974 81.360587768158439 0 81.360587768158439 45.099208802985231 0 0 0 0 114.78275223892706 56.66728953531856 0 56.66728953531856 56.5539913162429 0 0 0 0 107.54707529833058 111.9539579922216 0 111.9539579922216 67.663577074104978 0 0 0 0 98.373293708784331 85.657260274496366 0 85.657260274496366 95.669099535834903 0 0 0 0 86.985748531667923 116.17668520669395 0 116.17668520669395 109.18997394649705 0 0 0 0 90.420095136287273 105.14050406498063 0 105.14050406498063 55.827735842960465 0 0 0 0 100.47539021234115 87.597634713965817 0 87.597634713965817 39.28753992550628 0 0 0 0 88.25641193267802 100.92059163642625 0 100.92059163642625 31.877434930071104 0 0 0 0 96.424628637629212 99.133921874798034 0 99.133921874798034 14.174944823367696 0 0 0 0 92.028944545445484 92.865512741469502 0 92.865512741469502 22.419158159253129 0 0 0 0 96.532754266336269 97.985832480248064 0 97.985832480248064 13.928272651326552 0 0 0 0 68.82873428275343 96.315066686662249 0 96.315066686662249 22.460519852287689 0 0 0 0 36.299953739369812 73.262659866335525 0 73.262659866335525 30.563955179721233 0 0 0 0 88.956558295407547 65.859371380695933 0 65.859371380695933 28.434426262516354 0 0 0 0 47.668673168482201 49.194399081298116 0 49.194399081298116 8.1653372079490509 0 0 0 0 16.468743072469806 66.210398641615029 0 66.210398641615029 31.644361790969924 0 0 0 0 -50.243215947859426 9.6733047000234365 0 9.6733047000234365 21.783648458815151 0 0 0 0 -24.968272116308924 23.541218938107825 0 23.541218938107825 5.7630294337565431 0 0 0 0 -49.571348565019434 12.334930030181567 0 12.334930030181567 20.444435197250641 0 0 0 0 20.734640193426458 72.148916921823911 0 72.148916921823911 11.213808170672564 0 0 0 0 0.19553364092644188 33.912406686255054 0 33.912406686255054 30.487443022710067 0 0 0 0 -12.51444749690171 10.673251383607255 0 10.673251383607255 9.7461454817654598 0 0 0 0 27.435182778055605 53.805155375297545 0 53.805155375297545 38.058177522969345 0 0 0 0 60.936353022707408 45.771923060376366 0 45.771923060376366 37.447661695572606 0 0 0 0 33.905430902639637 72.159576471476612 0 72.159576471476612 59.032664954205757 0 0 0 0 35.711053340492072 83.464294199653523 0 83.464294199653523 83.089188165922678 0 0 0 0 75.576323607884206 57.896835864970285 0 57.896835864970285 59.951754898898798 0 0 0 0 35.151708253113611 76.955952449230608 0 76.955952449230608 53.527023736092815 0 0 0 0 14.563940435124096 77.622808523385174 0 77.622808523385174 62.648006025279756 0 0 0 0 72.926176724898369 95.864724511675291 0 95.864724511675291 52.286317894551757 0 0 0 0 58.427398289240955 93.867901252811862 0 93.867901252811862 52.656215173865348 0 0 0 0 47.49982342844487 76.010238049284453 0 76.010238049284453 25.33609335476649 0 0 0 0 38.277549420983632 84.421808687133307 0 84.421808687133307 57.646316928596207 0 0 0 0 48.581432529317681 72.650796115784033 0 72.650796115784033 23.816525478317999 0 0 0 0 30.498588418889995 59.192439489802837 0 59.192439489802837 43.823760175211646 0 0 0 0 39.593230321072042 61.071496493157611 0 61.071496493157611 32.388711592044274 0 0 0 0 40.326735664246371 71.577295315102674 0 71.577295315102674 36.920749393370897 0 0 0 0 28.621650297289307 70.434806100873175 0 70.434806100873175 37.39036619366334 0 0 0 0 6.046427688032054 51.356244250221152 0 51.356244250221152 52.534143878030591 0 0 0 0 8.8297288883768488 55.681807534181644 0 55.681807534181644 54.001120705808717 0 0 0 0 23.293294489922118 69.604891856004542 0 69.604891856004542 53.126793168885342 0 0 0 0 5.981895605345926 70.482950643028744 0 70.482950643028744 63.233890284536756 0 0 0 0 -3.8192262888114783 22.852243509088112 0 22.852243509088112 14.147035010340915 0 0 0 0 -4.65219715150306 16.807291900472592 0 16.807291900472592 3.9998529866825265 0 0 0 0 -20.013514667635931 11.6310217624332 0 11.6310217624332 16.038555562332405 0 0 0 0 56.003321248801512 58.911879926460188 0 58.911879926460188 27.699104727947997 0 0 0 0 48.130055365458247 54.149358253533137 0 54.149358253533137 35.879618542214303 0 0 0 0 -11.011533142776898 28.665892559896747 0 28.665892559896747 14.927414365839468 0 0 0 0 -0.044868578741443343 13.237697641563045 0 13.237697641563045 9.3693372300449482 0 0 0 0 -10.223137383312093 16.119557596529411 0 16.119557596529411 19.767940130404945 0 0 0 0 -1.9271322728236555 12.810907126279744 0 12.810907126279744 9.273030017237943 0 0 0 0 0.0082902727444889024 10.142047093048859 0 10.142047093048859 7.6007334213718423 0 0 0 0 1.7895780107834458 10.103697559508419 0 10.103697559508419 10.732893673010253 0 0 0 0 -40.592621123825666 6.7974954125575096 0 6.7974954125575096 27.464093485419653 0 0 0 0 -0.38013953518384369 9.9864918779885556 0 9.9864918779885556 7.5414233676956428 0 0 0 0 0.10943444641258182 10.277702458647042 0 10.277702458647042 5.2661841798471016 0 0 0 0 -0.0051966186729259789 9.3265920429303151 0 9.3265920429303151 6.9053303583859815 0 0 0 0 -33.540824190251442 7.5446944464056287 0 7.5446944464056287 11.060534021706189 0 0 0 0 -16.276171572957537 0.89391981604421744 0 0.89391981604421744 5.8512334658423697 0 0 0 0 -41.208923122445412 19.93680737374234 0 19.93680737374234 -1.7234640160495474 0 0 0 0 -15.126649696183449 9.5369288151978253 0 9.5369288151978253 28.048688214323192 0 0 0 0 -20.510176230875345 6.8694355572175647 0 6.8694355572175647 8.209447247805187 0 0 0 0 -27.21019874556805 2.4007298210635781 0 2.4007298210635781 20.212333801264322 0 0 0 0 -37.162419718602905 4.2849370415897283 0 4.2849370415897283 21.065985500572424 0 0 0 0 -12.018295183279406 -2.786888685816848 0 -2.786888685816848 13.975380833493546 0 0 0 0 -4.6322420057731506 7.8535467893771056 0 7.8535467893771056 10.288605806614214 0 0 0 0 -3.6747442768194105 2.4605236491872144 0 2.4605236491872144 5.7109935780096919 0 0 0 0 -14.959316020609805 1.19148270356912 0 1.19148270356912 6.7153547705237706 0 0 0 0 -24.640666804114517 9.5154441954923641 0 9.5154441954923641 5.7252957403361506 0 0 0 0 -0.028219067971804179 8.3248099171464673 0 8.3248099171464673 -2.0651754814582546 0 0 0 0 1.010882284513869 0.92567546119259703 0 0.92567546119259703 0.44005705342505408 0 0 0 0 93.910004559111258 42.986718659036796 0 42.986718659036796 11.728169569251122 0 0 0 0 79.700620470746799 66.308705282923256 0 66.308705282923256 12.458591209055612 0 0 0 0 72.889434728243941 42.018849023960001 0 42.018849023960001 21.162348114139149 0 0 0 0 92.004325743495428 53.821677277116464 0 53.821677277116464 5.4172825844802901 0 0 0 0 10.416735872377075 -1.5848281493258867 0 -1.5848281493258867 -16.157638887398633 0 0 0 0 3.7761797672909232 13.157014413696523 0 13.157014413696523 2.4560373004295855 0 0 0 0 40.360209816786664 25.027442645147403 0 25.027442645147403 6.7829713499450008 0 0 0 0 0.11590266636630986 8.9698733954537602 0 8.9698733954537602 6.5669400926981325 0 0 0 0 0.77242640140320873 10.849145786737608 0 10.849145786737608 -1.3861503349701252 0 0 0 0 7.5217579516075048 6.1201042784641544 0 6.1201042784641544 4.3716207483518055 0 0 0 0 6.8826860333258271 15.361635424738921 0 15.361635424738921 4.076881575657211 0 0 0 0 0.049636158906832373 25.264614217003373 0 25.264614217003373 22.138566110166721 0 0 0 0 48.483754420674813 47.323997692402372 0 47.323997692402372 20.315323905022069 0 0 0 0 15.033580572220671 16.190281534767564 0 16.190281534767564 3.9197553695144052 0 0 0 0 -4.0782589931294506 9.2937619509961564 0 9.2937619509961564 16.157150091743098 0 0 0 0 -4.4727264745204991 7.0911467015424368 0 7.0911467015424368 13.244210024534789 0 0 0 0 -14.54789138039996 25.835451828968417 0 25.835451828968417 36.494014586747653 0 0 0 0 49.600212636381912 49.189795312253409 0 49.189795312253409 34.201589484770921 0 0 0 0 34.693529276012271 23.151663870473804 0 23.151663870473804 8.8232399936065882 0 0 0 0 52.178269819902198 58.076113406346849 0 58.076113406346849 31.07130883638456 0 0 0 0 51.688191783363436 61.008621348923043 0 61.008621348923043 20.53673319923837 0 0 0 0 50.576339198465575 42.58497089066077 0 42.58497089066077 23.744476576015586 0 0 0 0 29.19533305146615 26.995448727655457 0 26.995448727655457 2.4725657018607308 0 0 0 0 80.678841075008677 60.467903642792862 0 60.467903642792862 4.7841673995419569 0 0 0 0 17.228350483992386 11.204137300931109 0 11.204137300931109 -11.205552956914175 0 0 0 0 45.795686709454458 44.316712142370989 0 44.316712142370989 18.224599050831785 0 0 0 0 32.493235348645612 60.456795299207442 0 60.456795299207442 11.603505694649357 0 0 0 0 14.277166943905456 -1.2994020445363734 0 -1.2994020445363734 -15.775265729181093 0 0 0 0 52.592826985142892 118.74954039905424 0 118.74954039905424 73.760819170202012 0 0 0 0 76.117843054613331 60.313042698355275 0 60.313042698355275 -13.695574318291619 0 0 0 0 76.356818770720565 32.532522711196634 0 32.532522711196634 -10.710317428658527 0 0 0 0 53.006854096567764 36.076021161783508 0 36.076021161783508 7.7831716704584046 0 0 0 0 25.209840782626998 39.90013418289891 0 39.90013418289891 21.690492027795699 0 0 0 0 4.5552757620112843 7.7268340543091867 0 7.7268340543091867 8.1985530781510363 0 0 0 0 78.711863207514398 65.864837381566758 0 65.864837381566758 25.364884236681974 0 0 0 0 52.620446469180024 41.860636539653569 0 41.860636539653569 -28.922010140202474 0 0 0 0 39.422756677238795 51.548314362604287 0 51.548314362604287 15.212039647529309 0 0 0 0 55.450104250849108 58.985772238960635 0 58.985772238960635 4.2665343260741793 0 0 0 0 49.89549597146106 47.240163100577774 0 47.240163100577774 -16.532873080504942 0 0 0 0 46.653940153148142 62.964396551436948 0 62.964396551436948 6.9293753374440712 0 0 0 0 42.479139233328169 60.475778214131424 0 60.475778214131424 22.975929041698691 0 0 0 0 37.99230364592222 65.383140250181896 0 65.383140250181896 22.800777198906871 0 0 0 0 47.351818285547779 56.319873060423561 0 56.319873060423561 24.367368580038601 0 0 0 0 43.674916575720999 61.237599527779821 0 61.237599527779821 17.790209191531176 0 0 0 0 66.684447126343002 64.57559532698906 0 64.57559532698906 0.63133586781987105 0 0 0 0 47.905279852773674 70.27905750539685 0 70.27905750539685 15.913629333983408 0 0 0 0 45.438976970659496 61.460148254372143 0 61.460148254372143 12.351873126594 0 0 0 0 48.761884650310094 65.07645237955694 0 65.07645237955694 2.1260781166274683 0 0 0 0 45.545375917769888 48.338250268361435 0 48.338250268361435 -8.5657698033901397 0 0 0 0 30.733236772920378 21.420310048804076 0 21.420310048804076 11.307079242849046 0 0 0 0 24.611740813721553 50.712999979932647 0 50.712999979932647 -1.9797318632663519 0 0 0 0 39.86455919087166 56.809659910737537 0 56.809659910737537 -10.667471840326471 0 0 0 0 15.568775683903368 34.973515875354678 0 34.973515875354678 -9.5067213974198239 0 0 0 0 19.929549425881191 21.598997525010482 0 21.598997525010482 14.476980220484503 0 0 0 0 45.43539136121035 52.350646922930537 0 52.350646922930537 -7.8319145609348197 0 0 0 0 45.227287140252884 53.044933601534694 0 53.044933601534694 -3.5833406515700972 0 0 0 0 23.364043362518714 23.725725464150628 0 23.725725464150628 1.6100588743125286 0 0 0 0 67.252344212734897 53.813188940793111 0 53.813188940793111 1.039909907263791 0 0 0 0 43.592600366442639 45.861956249115565 0 45.861956249115565 20.688265760745935 0 0 0 0 43.461484697627384 45.823159087095803 0 45.823159087095803 24.175797561608761 0 0 0 0 3.8630494229655596 41.514367678581948 0 41.514367678581948 27.173284869665622 0 0 0 0 36.402703501276847 35.486108853308338 0 35.486108853308338 26.733483987703828 0 0 0 0 5.2828926526635769 33.151884897023479 0 33.151884897023479 26.905046565339035 0 0 0 0 12.238506900276661 53.745598571257347 0 53.745598571257347 28.278818212187616 0 0 0 0 32.606874192206305 56.662276247961472 0 56.662276247961472 28.432927813153704 0 0 0 0 2.472917368835013 15.021505579637925 0 15.021505579637925 0.7011609885054404 0 0 0 0 -19.889268857084971 78.132380286894659 0 78.132380286894659 52.528235884129572 0 0 0 0 32.293631909793476 105.2857372536273 0 105.2857372536273 45.508842588773405 0 0 0 0 11.651076021047594 13.726311517279171 0 13.726311517279171 3.719170915953228 0 0 0 0 -9.6925743598185363 94.233041456038336 0 94.233041456038336 57.222257244162392 0 0 0 0 0.026184934924884828 14.751913674121994 0 14.751913674121994 10.242575468163068 0 0 0 0 45.709807093720883 51.597630084588673 0 51.597630084588673 44.124337016684876 0 0 0 0 16.099732979897453 32.735818160425424 0 32.735818160425424 10.324208727597579 0 0 0 0 35.040713721351494 53.944704326469946 0 53.944704326469946 65.452284215090913 0 0 0 0 3.466167437807826 19.033344580526084 0 19.033344580526084 20.838342084367675 0 0 0 0 -1.1157833605248157 3.0700229179534517 0 3.0700229179534517 1.3866884898469323 0 0 0 0 18.605970509990584 78.277205483234866 0 78.277205483234866 130.17101521411678 0 0 0 0 36.634689236314443 60.896159381729376 0 60.896159381729376 90.412407520430861 0 0 0 0 58.419192410197866 74.261855472161187 0 74.261855472161187 29.716594521378283 0 0 0 0 20.464754714479241 23.948252579583873 0 23.948252579583873 20.666211924289911 0 0 0 0 15.798446474724187 28.68745978537163 0 28.68745978537163 18.742703554334184 0 0 0 0 17.901273862560629 34.487071356190427 0 34.487071356190427 9.4446550382272108 0 0 0 0 18.646461113930854 25.020645900273848 0 25.020645900273848 3.7411421457800316 0 0 0 0 26.964822602785262 18.99355249053167 0 18.99355249053167 -19.571831995992397 0 0 0 0 22.511365326517904 20.029492100483139 0 20.029492100483139 8.8715547879256462 0 0 0 0 33.863965002892655 19.110335890329225 0 19.110335890329225 -27.634264661669476 0 0 0 0 43.517214816260093 7.5287806022970472 0 7.5287806022970472 -31.36116263900476 0 0 0 0 61.180842981637397 38.365531362323964 0 38.365531362323964 -8.9325476499907381 0 0 0 0 55.289356885499728 45.315341688685294 0 45.315341688685294 -16.376562986648423 0 0 0 0 12.12576502900265 4.4816327615408227 0 4.4816327615408227 -9.3296155638599885 0 0 0 0 38.047029967718117 10.046761620938923 0 10.046761620938923 -11.531253662080417 0 0 0 0 2.9790220831889496 4.8646826218395987 0 4.8646826218395987 -7.9315116414943816 0 0 0 0 -62.533172222765643 0.22357939953963069 0 0.22357939953963069 57.987683170948003 0 0 0 0 27.106690896165674 16.418918347592808 0 16.418918347592808 -15.179838449646923 0 0 0 0 57.83679941725859 46.346172303145067 0 46.346172303145067 -95.009987194200221 0 0 0 0 40.844931832893053 8.4290338145237911 0 8.4290338145237911 -5.65600004559019 0 0 0 0 46.35820742186479 39.083425297301801 0 39.083425297301801 -25.400379573571627 0 0 0 0 1.7218398261468906 0.29921261666601673 0 0.29921261666601673 -2.5939002547623566 0 0 0 0 60.057675577281771 5.8972227257618215 0 5.8972227257618215 -5.6810764579604438 0 0 0 0 -14.035424419788185 2.4169784398891636 0 2.4169784398891636 -0.41508734484543197 0 0 0 0 82.635672620919649 15.56642480031951 0 15.56642480031951 -39.377415189597741 0 0 0 0 6.677888132238877 61.517494821818218 0 61.517494821818218 146.97878943553769 0 0 0 0 -25.494487571948412 77.981511092559231 0 77.981511092559231 195.14484672764956 0 0 0 0 91.444044565978402 -4.9657463761432155 0 -4.9657463761432155 -75.330977082117897 0 0 0 0 89.927906690711097 76.177973122088588 0 76.177973122088588 -33.30820854765625 0 0 0 0 1.9738765866641188 -45.934270007146552 0 -45.934270007146552 -65.22458660560369 0 0 0 0 -16.980181179213105 34.109316336909615 0 34.109316336909615 -22.328260763999424 0 0 0 0 17.750815289222373 35.200411938336401 0 35.200411938336401 12.261647583357444 0 0 0 0 4.5593728717536095 0.98647887996587258 0 0.98647887996587258 -9.088827301078048 0 0 0 0 14.84391847002189 44.619647909650212 0 44.619647909650212 34.781221442193782 0 0 0 0 -18.017189873302414 -14.250867637687861 0 -14.250867637687861 74.500228322620387 0 0 0 0 -112.02456656164895 -23.828441922404636 0 -23.828441922404636 74.734470715378848 0 0 0 0 -98.942950161625049 62.726103480190432 0 62.726103480190432 59.625555660353712 0 0 0 0 -44.325073328148392 38.414621563289529 0 38.414621563289529 87.67712081719219 0 0 0 0 0.38697911250346806 33.669839148948085 0 33.669839148948085 94.068249438350904 0 0 0 0 49.015062537160702 164.27492008810077 0 164.27492008810077 56.209892776867491 0 0 0 0 66.958529432209616 59.634494574086602 0 59.634494574086602 24.260686084006011 0 0 0 0 -17.492264132466516 15.970320170239575 0 15.970320170239575 82.791344612551711 0 0 0 0 -44.017116199142038 59.160234487233538 0 59.160234487233538 44.82790789556725 0 0 0 0 -49.83190926315001 19.977757000378006 0 19.977757000378006 29.887613154218798 0 0 0 0 -1.9749554636291577 42.376429839840057 0 42.376429839840057 12.858385460956924 0 0 0 0 29.104969960484596 82.237962408124076 0 82.237962408124076 39.854298482634476 0 0 0 0 -19.874604084208841 60.428566832557408 0 60.428566832557408 36.149503842463673 0 0 0 0 -78.704540622971763 37.434459793228143 0 37.434459793228143 75.552143485661873 0 0 0 0 -41.880058608748186 112.81907237461654 0 112.81907237461654 167.90269845968737 0 0 0 0 -19.974065551639796 157.94159932709738 0 157.94159932709738 -105.65836934280242 0 0 0 0 -138.94810383144068 127.07667202330958 0 127.07667202330958 7.4610930690910209 0 0 0 0 -185.18184415520955 167.31450480785315 0 167.31450480785315 20.976545916808391 0 0 0 0 33.991535984921157 31.285741547729529 0 31.285741547729529 28.671520237374498 0 0 0 0 -94.708894339528342 64.768067235773742 0 64.768067235773742 100.25906335052127 0 0 0 0 -52.447102353318769 50.482368118717659 0 50.482368118717659 84.878595024963943 0 0 0 0 95.42112759569136 107.60330369123176 0 107.60330369123176 118.1406716971569 0 0 0 0 -47.480515400035074 28.91540123736695 0 28.91540123736695 124.39580521525826 0 0 0 0 11.172527681497741 -131.31382078113427 0 -131.31382078113427 -210.27930132257188 0 0 0 0 -147.83544403225824 -42.287934670398045 0 -42.287934670398045 52.862599004503181 0 0 0 0 -118.96651627273968 7.4366943096019895 0 7.4366943096019895 143.72481555078321 0 0 0 0 -68.426618785582832 49.551670590044978 0 49.551670590044978 119.32320634678695 0 0 0 0 142.20097933511715 59.46727925167761 0 59.46727925167761 -137.46685217569075 0 0 0 0 0.19285452396150049 0.34008340351782351 0 0.34008340351782351 -0.38088260278896957 0 0 0 0 68.113811592113052 249.07774169671325 0 249.07774169671325 277.32556468655616 0 0 0 0 80.132840866695915 141.83132293065 0 141.83132293065 316.22794545024317 0 0 0 0 146.77109015248425 137.66352156785911 0 137.66352156785911 164.12531616411343 0 0 0 0 157.49165868664568 215.48630482406816 0 215.48630482406816 83.380465817859204 0 0 0 0 55.516173302312382 189.38674642976889 0 189.38674642976889 510.24322985096569 0 0 0 0 132.06932200526353 245.34314524165438 0 245.34314524165438 315.14661696803387 0 0 0 0 60.003903047298081 248.63903827256854 0 248.63903827256854 529.77545261322666 0 0 0 0 -27.779167206179409 -139.85819774973925 0 -139.85819774973925 -60.734841970003799 0 0 0 0 -0.43254108133390901 1.9433272131500132 0 1.9433272131500132 3.3810421038399516 0 0 0 0 -59.009327726973424 71.839305198401803 0 71.839305198401803 214.72882184676109 0 0 0 0 -148.798420207866 -111.82319456674031 0 -111.82319456674031 178.56279485504183 0 0 0 0 1.4114743974760557 1.2484610588451375 0 1.2484610588451375 0.16535847546402316 0 0 0 0 -5.1447608121816302 1.0883604729160652 0 1.0883604729160652 -42.58058684534808 0 0 0 0 7.1213259891956113 165.02594226681867 0 165.02594226681867 788.04449751646462 0 0 0 0 285.89845499562216 337.1055386945236 0 337.1055386945236 399.20014277425759 0 0 0 0 283.99778395142857 111.2745540470529 0 111.2745540470529 443.89465511675098 0 0 0 0 355.31322277299478 225.8334261020168 0 225.8334261020168 416.08841030101098 0 0 0 0 361.85706725151067 465.49737751048519 0 465.49737751048519 710.85270681834481 0 0 0 0 169.12647836597534 138.71815383082492 0 138.71815383082492 438.5475153238167 0 0 0 0 124.50701830282924 260.69982057306788 0 260.69982057306788 410.96235819423293 0 0 0 0 132.64181879493117 197.32067473776169 0 197.32067473776169 214.90359327305373 0 0 0 0 187.34430088258523 347.76197450956738 0 347.76197450956738 398.84026429153516 0 0 0 0 117.07281207788037 195.79255754724329 0 195.79255754724329 217.63962188768005 0 0 0 0 217.1040636135258 139.60826287505517 0 139.60826287505517 -32.755728021844561 0 0 0 0 138.16776858784215 75.23709249922473 0 75.23709249922473 76.415836811153895 0 0 0 0 -8.9768597646325361 -9.7630154353420266 0 -9.7630154353420266 -119.16532869229343 0 0 0 0 127.59253170951342 0.17533629955734398 0 0.17533629955734398 -203.64870722583464 0 0 0 0 150.12096107155958 195.08816173556073 0 195.08816173556073 -68.131998782854907 0 0 0 0 169.85790376493787 106.99739865507385 0 106.99739865507385 -118.20927065300532 0 0 0 0 104.20381199614712 68.877278178447256 0 68.877278178447256 -111.59418316740926 0 0 0 0 90.616997629920661 85.905589110132169 0 85.905589110132169 32.295330772376161 0 0 0 0 111.90823738508334 106.21658863671792 0 106.21658863671792 -146.97572970587589 0 0 0 0 33.775506729420158 117.22902448230968 0 117.22902448230968 -137.4780117183127 0 0 0 0 39.81611499975854 40.918455333332602 0 40.918455333332602 34.63098620601879 0 0 0 0 70.832685026907711 40.486623762247746 0 40.486623762247746 -110.14205618544781 0 0 0 0 43.16532674051814 48.385850515730894 0 48.385850515730894 -112.0981229270559 0 0 0 0 75.480456377874361 43.754093785596979 0 43.754093785596979 -132.71672341587279 0 0 0 0 18.917770392166858 24.536200929931852 0 24.536200929931852 34.340366961181417 0 0 0 0 -26.885427318287839 61.388549780868004 0 61.388549780868004 48.261917684024752 0 0 0 0 42.401787144233822 60.567912750886535 0 60.567912750886535 21.58391717041161 0 0 0 0 -33.409291465140996 126.45196836807713 0 126.45196836807713 -32.163338368890379 0 0 0 0 42.616790103169478 61.807006218945276 0 61.807006218945276 11.766541865002637 0 0 0 0 114.10223778221552 30.213099923758705 0 30.213099923758705 -392.42949266020355 0 0 0 0 -63.102265964081198 -173.61106257564171 0 -173.61106257564171 -213.38153847877675 0 0 0 0 121.69622939866531 142.59944635879674 0 142.59944635879674 -373.06648301147573 0 0 0 0 -2.6317768083838189 1.2994081014297194 0 1.2994081014297194 -3.7011538302955005 0 0 0 0 38.263349141772778 -194.87594641849134 0 -194.87594641849134 -417.98539777250687 0 0 0 0 69.945814049351611 132.657196997141 0 132.657196997141 37.016557128968088 0 0 0 0 -148.61539675982203 142.17873962403712 0 142.17873962403712 30.574985197043588 0 0 0 0 134.47856747353944 154.27159092332965 0 154.27159092332965 31.053137419681889 0 0 0 0 61.638513185080228 94.97309917689347 0 94.97309917689347 310.75531804519323 0 0 0 0 174.08181863990467 244.48092388591567 0 244.48092388591567 181.52483632079975 0 0 0 0 88.995082658293541 352.11776716900727 0 352.11776716900727 697.12934944548147 0 0 0 0 9.5830864261021702 3.4611377468861519 0 3.4611377468861519 -1.4679763897769944 0 0 0 0 179.95548768553272 409.42979726438688 0 409.42979726438688 457.1358374182505 0 0 0 0 226.95286338387632 208.31891411823017 0 208.31891411823017 201.98468266988903 0 0 0 0 35.243334582955868 120.73037115138803 0 120.73037115138803 455.51601970219099 0 0 0 0 166.9738034760594 29.042864304595923 0 29.042864304595923 -47.430867457860813 0 0 0 0 -17.679095863946714 23.582283929412597 0 23.582283929412597 172.05083879780241 0 0 0 0 156.05012117763545 -22.587960045433761 0 -22.587960045433761 -288.67448653911595 0 0 0 0 24.732139958687185 377.08106052947267 0 377.08106052947267 -29.09602816510278 0 0 0 0 -235.01932849328296 57.345080630175516 0 57.345080630175516 346.34391880654101 0 0 0 0 0.29852643881531549 203.66769663632192 0 203.66769663632192 -301.40312694237718 0 0 0 0 -181.77657058854675 237.97047270264898 0 237.97047270264898 -233.4832602174431 0 0 0 0 -0.37717116753760016 45.354310980169259 0 45.354310980169259 -39.265407834984217 0 0 0 0 -0.068869058985955078 0.74480201690536774 0 0.74480201690536774 -4.5880764786915895 0 0 0 0 258.3088458383354 -99.567854901289707 0 -99.567854901289707 -231.36250800970606 0 0 0 0 118.73189969022314 -13.228106684454715 0 -13.228106684454715 14.898955061202741 0 0 0 0 124.83314673434143 113.21850596495415 0 113.21850596495415 -42.917799177564575 0 0 0 0 207.2927893727574 51.070608919534607 0 51.070608919534607 -36.963538050539569 0 0 0 0 12.528204603277118 16.420202353231844 0 16.420202353231844 -72.374912937820682 0 0 0 0 2.6867863902169127 2.5443997315548046 0 2.5443997315548046 -11.916572034060781 0 0 0 0 464.66349213560898 501.51910129221869 0 501.51910129221869 1420.229334219518 0 0 0 0 619.4368765892541 153.12400423443069 0 153.12400423443069 318.78201416554657 0 0 0 0 595.2261160762464 251.3314899752877 0 251.3314899752877 234.57433814746082 0 0 0 0 500.61742835726182 496.9825838006218 0 496.9825838006218 1110.2916821831841 0 0 0 0 322.11096924876983 3.8536076173331821 0 3.8536076173331821 115.24347905031755 0 0 0 0 172.57009513615048 -91.775075153458602 0 -91.775075153458602 377.58969808759412 0 0 0 0 832.26686151154354 437.37812526949347 0 437.37812526949347 453.55854131846718 0 0 0 0 835.68548243540135 513.942028809146 0 513.942028809146 516.40579403225092 0 0 0 0 673.08204410603867 541.61869233792822 0 541.61869233792822 576.02308825677756 0 0 0 0 767.21420585132728 835.86305385218657 0 835.86305385218657 871.24468328488365 0 0 0 0 1093.8976629957542 692.72523075957179 0 692.72523075957179 554.17722919797961 0 0 0 0 1318.165554801355 1435.3240674953311 0 1435.3240674953311 1298.7586186560802 0 0 0 0 3.1878785932091702 -2.8577367541085792 0 -2.8577367541085792 6.1541384830955792 0 0 0 0 -81.685883229311003 136.91500648054262 0 136.91500648054262 956.61352975559566 0 0 0 0 -123.81040649781426 -129.89195112397283 0 -129.89195112397283 114.8368264602388 0 0 0 0 67.955292057346014 142.38516161394909 0 142.38516161394909 149.71120369671189 0 0 0 0 135.87093185244339 496.50405190095262 0 496.50405190095262 451.70944483815765 0 0 0 0 206.7491196287483 766.11961317333498 0 766.11961317333498 903.55837124516461 0 0 0 0 576.67396101073246 578.63077385108681 0 578.63077385108681 363.88289502339831 0 0 0 0 482.64543992671042 112.13923856974907 0 112.13923856974907 483.1143824313076 0 0 0 0 176.12706675116715 334.35527761989124 0 334.35527761989124 226.15577912336084 0 0 0 0 81.991777364704831 547.54210401230557 0 547.54210401230557 555.11752760389936 0 0 0 0 43.460833930439549 518.52130154594033 0 518.52130154594033 541.92190010623563 0 0 0 0 91.678221757118081 606.61647963771247 0 606.61647963771247 639.02123761079929 0 0 0 0 -61.868411339211889 239.78238077970263 0 239.78238077970263 410.38629150364432 0 0 0 0 231.8024409039208 437.70446007440069 0 437.70446007440069 210.46698490324161 0 0 0 0 80.117651761700472 60.109314171615551 0 60.109314171615551 -57.224795724850992 0 0 0 0 295.95918639278534 383.4441235878212 0 383.4441235878212 -247.07355328637823 0 0 0 0 35.264154974855046 21.63194023606502 0 21.63194023606502 -241.21242835477642 0 0 0 0 322.34633964074965 -45.867684646867019 0 -45.867684646867019 -308.48400819924063 0 0 0 0 245.45606312060863 -142.39580224664246 0 -142.39580224664246 43.195977587234665 0 0 0 0 135.05230811378715 410.1216451422406 0 410.1216451422406 229.34325375568733 0 0 0 0 329.8511689630468 162.32040759966912 0 162.32040759966912 399.91043660333526 0 0 0 0 234.11987700604186 -145.12947840967036 0 -145.12947840967036 -131.99815649428638 0 0 0 0 177.20332019080161 -56.886796136771409 0 -56.886796136771409 98.205918622232275 0 0 0 0 396.66049037918856 -104.36868082643196 0 -104.36868082643196 65.250329600079567 0 0 0 0 194.05462332445313 -145.02003843531384 0 -145.02003843531384 118.35996791246635 0 0 0 0 70.694861281725025 -44.99103796388863 0 -44.99103796388863 -182.2949984773586 0 0 0 0 115.97096698425958 182.53300478805158 0 182.53300478805158 -401.13639193107883 0 0 0 0 94.520089433019166 -90.68177474850927 0 -90.68177474850927 -150.1733335648405 0 0 0 0 -5.3437703330273507 -171.13362836978649 0 -171.13362836978649 -153.32457488361797 0 0 0 0 -53.003666962878924 45.424476167227112 0 45.424476167227112 -41.516748628644564 0 0 0 0 0.31046963646650738 -1.1189001194398145 0 -1.1189001194398145 -2.239426511184007 0 0 0 0 -161.47107277192117 -153.45638425819016 0 -153.45638425819016 -82.497915047668357 0 0 0 0 -184.9110385828244 -36.551244246707029 0 -36.551244246707029 89.912366409771494 0 0 0 0 -149.93453490863976 -105.39530312330407 0 -105.39530312330407 -62.920754519311231 0 0 0 0 -71.118020998928841 -7.7439290552629245 0 -7.7439290552629245 -115.96429548823289 0 0 0 0 11.570268414725433 -137.15178593553901 0 -137.15178593553901 77.543351197165521 0 0 0 0 -60.869787408737466 -11.953584736602352 0 -11.953584736602352 101.18152713780137 0 0 0 0 22.908428317408834 -77.725675658999535 0 -77.725675658999535 135.85715018404881 0 0 0 0 2.7540795108959202 5.6384135947428646 0 5.6384135947428646 -12.125314421049865 0 0 0 0 26.352949924068525 54.845880807238245 0 54.845880807238245 -33.45628652675623 0 0 0 0 11.190111726224131 3.8145994349579269 0 3.8145994349579269 -23.75486120966525 0 0 0 0 18.394143257581163 -7.5534875255034422 0 -7.5534875255034422 -158.53663996410432 0 0 0 0 -43.492430631929892 20.395672409097642 0 20.395672409097642 64.869997939640598 0 0 0 0 39.332448970078985 -32.169480162554464 0 -32.169480162554464 -78.392751259183569 0 0 0 0 -15.431355762385422 -6.5060062099466247 0 -6.5060062099466247 -3.4089531716090882 0 0 0 0 19.267841239450718 -38.596196427986342 0 -38.596196427986342 1.0958402295555061 0 0 0 0 13.143349683461565 -71.417561891104924 0 -71.417561891104924 44.311371534457066 0 0 0 0 -13.484756539648515 -27.861479823449372 0 -27.861479823449372 16.656173425553789 0 0 0 0 -35.663861780620209 67.838363158514767 0 67.838363158514767 156.43684952556032 0 0 0 0 -13.008025996492506 -23.056623599334671 0 -23.056623599334671 105.14490113694046 0 0 0 0 40.720650566159748 -128.03998573669742 0 -128.03998573669742 7.8576471931570779 0 0 0 0 -1.239290367783795 -1.0195247280886655 0 -1.0195247280886655 0.36193249939542405 0 0 0 0 -48.180233738850802 -70.1652733014962 0 -70.1652733014962 281.83894856488951 0 0 0 0 -63.740880282333819 -124.58325447350398 0 -124.58325447350398 187.48287241306207 0 0 0 0 -50.89110170418644 -61.91834439543527 0 -61.91834439543527 95.496025118483885 0 0 0 0 -0.85293097004769436 -1.4043790222404944 0 -1.4043790222404944 0.18861087274261495 0 0 0 0 -141.22096419142326 52.035221884476414 0 52.035221884476414 133.20867221578553 0 0 0 0 2.3478234881749813 -2.1089294478942975 0 -2.1089294478942975 132.35295053616028 0 0 0 0 -394.20719505945453 475.73345473527297 0 475.73345473527297 -13.500271080209131 0 0 0 0 -52.277962717576884 -61.957145913831482 0 -61.957145913831482 21.536069190355647 0 0 0 0 36.393389382858004 -120.77056919809547 0 -120.77056919809547 210.57237560553767 0 0 0 0 39.553704685116827 84.33847439710371 0 84.33847439710371 227.16659104248538 0 0 0 0 -188.01710151577572 -10.751696024406556 0 -10.751696024406556 156.53258389377152 0 0 0 0 -143.15394716281298 -69.178210111413136 0 -69.178210111413136 141.33197716886934 0 0 0 0 193.80459241944482 -344.72357619300965 0 -344.72357619300965 -31.150929051557341 0 0 0 0 -154.17650488854815 -38.929545476269141 0 -38.929545476269141 84.717813390037918 0 0 0 0 -179.48334885946679 8.6979337371512884 0 8.6979337371512884 101.91401831523763 0 0 0 0 94.675434807191778 17.472114208463609 0 17.472114208463609 -54.678379316756036 0 0 0 0 -153.01554642229166 -0.46346973730032914 0 -0.46346973730032914 64.939376423095382 0 0 0 0 -5.0989967141371153 -2.2118597330827559 0 -2.2118597330827559 -0.82038786987329715 0 0 0 0 33.184780157956993 28.412260424098349 0 28.412260424098349 367.04593978537378 0 0 0 0 -193.8035740578448 222.44790912867052 0 222.44790912867052 593.80428257417952 0 0 0 0 -226.6662170213167 -244.96730963748087 0 -244.96730963748087 243.97344827919005 0 0 0 0 -0.38600005629042755 0.46291705784030412 0 0.46291705784030412 0.59471352448601467 0 0 0 0 194.34838113228034 235.73301957393051 0 235.73301957393051 470.96479956930489 0 0 0 0 525.48858529576682 405.09461727164307 0 405.09461727164307 515.9639994572276 0 0 0 0 113.95508891259669 352.96160922523995 0 352.96160922523995 530.38050196384575 0 0 0 0 -18.731524392132997 123.72113632699256 0 123.72113632699256 281.26140180180664 0 0 0 0 684.30279381938453 297.98225268019178 0 297.98225268019178 485.21284208500583 0 0 0 0 557.85483839281369 441.78109786690766 0 441.78109786690766 461.70616377368788 0 0 0 0 435.79335655003524 323.01747509774395 0 323.01747509774395 600.28538911482246 0 0 0 0 840.68984687094053 482.74837306027621 0 482.74837306027621 547.86836979834698 0 0 0 0 435.36842516294837 298.42505941210993 0 298.42505941210993 444.78593087312765 0 0 0 0 632.78330886876211 583.77030196706437 0 583.77030196706437 607.26214749963674 0 0 0 0 421.01971061293443 363.88969146481031 0 363.88969146481031 653.7423802296953 0 0 0 0 404.95958404042176 376.47232466470086 0 376.47232466470086 513.84335093055506 0 0 0 0 110.21676969116379 251.75662001121964 0 251.75662001121964 564.74443019688988 0 0 0 0 40.554439213330625 144.88168589843372 0 144.88168589843372 519.31767816120555 0 0 0 0 107.15995779573132 42.280004947562702 0 42.280004947562702 340.38933091121362 0 0 0 0 178.48058238149679 150.52548170879527 0 150.52548170879527 392.77081548951537 0 0 0 0 25.496694243371167 18.978534408834093 0 18.978534408834093 327.50933856154006 0 0 0 0 177.52032936788237 209.88431950006361 0 209.88431950006361 316.79959508780303 0 0 0 0 359.13679616226 391.73899340922799 0 391.73899340922799 518.65541219595616 0 0 0 0 492.27265343037288 410.00928907813432 0 410.00928907813432 276.72360550094936 0 0 0 0 205.07026213180507 182.193269322378 0 182.193269322378 333.33635039721048 0 0 0 0 232.53185958247195 273.92421283956537 0 273.92421283956537 212.59610807689387 0 0 0 0 291.44290582447502 225.34651290927286 0 225.34651290927286 111.90720666279958 0 0 0 0 636.38507276691962 422.07180403198799 0 422.07180403198799 62.590692529155604 0 0 0 0 760.42100709629449 553.48907912147297 0 553.48907912147297 165.88083740851562 0 0 0 0 1014.0783647618882 650.6725621262849 0 650.6725621262849 341.24753771043834 0 0 0 0 826.83598740251909 754.8217924883138 0 754.8217924883138 509.08054579547752 0 0 0 0 855.83234998509579 674.34360766953796 0 674.34360766953796 968.57967440973152 0 0 0 0 814.99704317464057 519.22634549857594 0 519.22634549857594 473.7074991637237 0 0 0 0 466.67970438225166 493.58763751543256 0 493.58763751543256 449.18112818128793 0 0 0 0 529.46611413771461 389.58277097105201 0 389.58277097105201 378.24961974702819 0 0 0 0 -92.681599036601256 47.582572266675925 0 47.582572266675925 132.11020611452341 0 0 0 0 -102.29992922065867 22.492841710867651 0 22.492841710867651 88.807908640043024 0 0 0 0 -41.841347112567746 -21.162464993017238 0 -21.162464993017238 197.38884824046181 0 0 0 0 36.94372417320119 126.06833587853907 0 126.06833587853907 124.03804313341152 0 0 0 0 8.0642935599316843 53.711197838832959 0 53.711197838832959 273.27211746082412 0 0 0 0 39.051352792397665 109.25243841876181 0 109.25243841876181 251.58391406762894 0 0 0 0 78.392711780441459 100.46641341117447 0 100.46641341117447 41.164336710669886 0 0 0 0 -50.566939971336978 167.07955598428271 0 167.07955598428271 201.47354693829584 0 0 0 0 -70.305867338578537 89.518876828422435 0 89.518876828422435 -55.981386827490496 0 0 0 0 -151.08413148092222 167.83067235749695 0 167.83067235749695 89.561037258377922 0 0 0 0 -167.5350074003768 70.303812452288412 0 70.303812452288412 -105.40746534856225 0 0 0 0 -55.262680814535997 151.15868752931988 0 151.15868752931988 9.7150318052781586 0 0 0 0 -154.65661306812399 392.54506554154023 0 392.54506554154023 -219.30288703451401 0 0 0 0 23.176996224940311 22.134488646549773 0 22.134488646549773 19.803773820529315 0 0 0 0 -164.25688163712039 65.133026905032693 0 65.133026905032693 2.1137928416865179 0 0 0 0 322.84000810641737 40.989331794281497 0 40.989331794281497 -326.76073115643976 0 0 0 0 -247.74340813460731 333.59057472656878 0 333.59057472656878 58.438274429391868 0 0 0 0 118.93408238427219 280.56298985502326 0 280.56298985502326 38.193122979133079 0 0 0 0 -24.986161199893104 -89.327552061927236 0 -89.327552061927236 -139.86374230531692 0 0 0 0 61.837829728836368 225.96812758104215 0 225.96812758104215 893.41445993502089 0 0 0 0 9.6239805289381195 8.0275885870851909 0 8.0275885870851909 7.0314301481461978 0 0 0 0 15.417249805817846 190.84249245377214 0 190.84249245377214 211.80722539652379 0 0 0 0 -69.282307782925272 -26.911284601392595 0 -26.911284601392595 52.16608119065495 0 0 0 0 -33.142020767518261 134.69475255551288 0 134.69475255551288 227.63032617439251 0 0 0 0 1011.9381615418679 611.5492429115402 0 611.5492429115402 -422.93050934297844 0 0 0 0 411.41158356097003 360.66950001349733 0 360.66950001349733 -655.43785732221295 0 0 0 0 1108.8927554341699 967.87073996545087 0 967.87073996545087 247.45035050408842 0 0 0 0 0.91450402997722335 1.287327613087065 0 1.287327613087065 -3.3069955928249897 0 0 0 0 755.79788920695137 655.99133906268071 0 655.99133906268071 226.66470392479823 0 0 0 0 1064.6159481595623 795.27470783326203 0 795.27470783326203 -217.03286296185615 0 0 0 0 668.88065531849497 458.22355787914648 0 458.22355787914648 -167.49966389794281 0 0 0 0 279.10927105615701 95.49699949646083 0 95.49699949646083 -155.61324803167372 0 0 0 0 836.51788497442612 281.0643455966474 0 281.0643455966474 -223.30904591635453 0 0 0 0 1008.0680684776453 542.64938357480787 0 542.64938357480787 -175.35321218515639 0 0 0 0 1041.7889944566596 181.88556535200587 0 181.88556535200587 -337.50237767315593 0 0 0 0 955.38361821624335 822.89212047733031 0 822.89212047733031 182.7062707387704 0 0 0 0 296.91133073213132 251.44995841790387 0 251.44995841790387 -213.27693766861876 0 0 0 0 16.052766328015423 215.29558069835184 0 215.29558069835184 178.91173103567326 0 0 0 0 6.5779922308256573 263.89657823221944 0 263.89657823221944 189.01552057574736 0 0 0 0 27.000143123186717 294.73121259783238 0 294.73121259783238 146.62951499404062 0 0 0 0 43.63366065795708 250.67823170846259 0 250.67823170846259 209.66300450082235 0 0 0 0 86.974293613806367 179.57435136925324 0 179.57435136925324 322.46371191689286 0 0 0 0 19.671859295791364 216.77106640082548 0 216.77106640082548 266.89055547209227 0 0 0 0 51.882729777200439 170.24777301742051 0 170.24777301742051 113.45567186995959 0 0 0 0 64.456799653329654 217.97458002003441 0 217.97458002003441 100.37023460539785 0 0 0 0 108.47870099137072 145.63993296795707 0 145.63993296795707 189.70320508303848 0 0 0 0 107.22053253068702 189.46844762451465 0 189.46844762451465 178.08241599840403 0 0 0 0 131.02499236043514 65.512510020536865 0 65.512510020536865 -40.829141471970615 0 0 0 0 97.136409889937568 92.084724070142101 0 92.084724070142101 -61.596088928381505 0 0 0 0 61.490423100083717 -30.686854869284616 0 -30.686854869284616 -165.549691279326 0 0 0 0 65.551207570331826 -12.934842482872227 0 -12.934842482872227 -256.37675746945388 0 0 0 0 73.069996780628571 273.46533894491768 0 273.46533894491768 -133.54609308896033 0 0 0 0 34.699575366506906 -27.589537067093261 0 -27.589537067093261 -186.60337335086297 0 0 0 0 -196.13282625917054 -404.79635677773422 0 -404.79635677773422 -595.01305061240555 0 0 0 0 -43.422715849927044 -103.16932901481687 0 -103.16932901481687 -210.77383730813608 0 0 0 0 1368.9484609621777 183.70422540773825 0 183.70422540773825 37.264673487523396 0 0 0 0 1196.5435023263854 835.77204563473788 0 835.77204563473788 500.79973657877417 0 0 0 0 3.2114885970047027 8.8801156451633858 0 8.8801156451633858 -3.0398680424371634 0 0 0 0 71.606858773426211 -39.954297245324597 0 -39.954297245324597 -232.51595925955917 0 0 0 0 12.352950149215758 -13.277656314210617 0 -13.277656314210617 -169.63810234825542 0 0 0 0 16.823001623892139 29.598960217250532 0 29.598960217250532 -0.66018502835435555 0 0 0 0 927.06527014737367 900.3604948395805 0 900.3604948395805 783.57517897746402 0 0 0 0 -61.438906932777172 38.725521011511773 0 38.725521011511773 68.987448299329117 0 0 0 0 3.3196741793480271 -5.6708781140914652 0 -5.6708781140914652 26.925326274254857 0 0 0 0 1048.5845767969877 822.96911576990715 0 822.96911576990715 786.37662970860038 0 0 0 0 920.15080817095441 459.97134597630065 0 459.97134597630065 492.44648106513341 0 0 0 0 1014.5185918397547 267.69471368704762 0 267.69471368704762 708.4697050029099 0 0 0 0 1459.222683769025 765.5862852864484 0 765.5862852864484 635.53313570096179 0 0 0 0 2.7828120767792797 0.39484365314889303 0 0.39484365314889303 4.7366855509699546 0 0 0 0 1202.3175042759322 1194.7805225226621 0 1194.7805225226621 1241.8536194715489 0 0 0 0 929.90662531121779 846.26572602423221 0 846.26572602423221 820.26649679894399 0 0 0 0 100.45095358443905 62.220800780506579 0 62.220800780506579 -49.491766303639452 0 0 0 0 36.68046358036348 30.649143148692083 0 30.649143148692083 -2.6479372510786732 0 0 0 0 23.609703483329213 106.43311483833713 0 106.43311483833713 159.27926011039744 0 0 0 0 9.7931463736495061 102.98021182144112 0 102.98021182144112 106.4046393273598 0 0 0 0 -22.365981099326746 -22.6746882798152 0 -22.6746882798152 -101.52671833973 0 0 0 0 134.64385301218863 130.25448328802258 0 130.25448328802258 -196.04103078086882 0 0 0 0 109.18163518437359 100.96936651294914 0 100.96936651294914 -37.69217995967665 0 0 0 0 86.691253765897272 109.71958151978106 0 109.71958151978106 -24.037698389425714 0 0 0 0 172.92401459557004 57.736133064832757 0 57.736133064832757 -281.66251185478984 0 0 0 0 93.687651560707309 1.2841071503735293 0 1.2841071503735293 -159.47894995027127 0 0 0 0 249.19601160372986 67.952458321442464 0 67.952458321442464 -13.302675408174309 0 0 0 0 102.01497313899017 168.93561706543096 0 168.93561706543096 273.44946289763175 0 0 0 0 157.09779371640616 87.890521260103924 0 87.890521260103924 -36.669587866063921 0 0 0 0 120.20663484398892 154.90074888797352 0 154.90074888797352 120.26162418330932 0 0 0 0 51.035109178313178 50.522348492584115 0 50.522348492584115 94.52666459964621 0 0 0 0 -3.8086468807965588 1.1087198441025023 0 1.1087198441025023 0.340771202860644 0 0 0 0 244.55131439455727 317.12626356001692 0 317.12626356001692 180.28251174527304 0 0 0 0 255.22863009237335 202.54513918024713 0 202.54513918024713 86.61924066181291 0 0 0 0 302.99728684315778 163.771396780141 0 163.771396780141 112.92996337105978 0 0 0 0 225.08769835352723 108.75554761460444 0 108.75554761460444 232.54902451715134 0 0 0 0 41.40249021253112 85.116040938491096 0 85.116040938491096 80.134051717353941 0 0 0 0 15.040082230344638 21.919142363642933 0 21.919142363642933 -29.477472358376897 0 0 0 0 499.14149430268299 21.027240495930528 0 21.027240495930528 -113.92452879900134 0 0 0 0 43.75455621349829 87.085267489046146 0 87.085267489046146 67.001015240481138 0 0 0 0 -306.12568745518365 207.98326003562988 0 207.98326003562988 925.90425054199841 0 0 0 0 7.1712920085410587 3.1715315432866191 0 3.1715315432866191 457.03446715534301 0 0 0 0 -503.82226362155779 -395.09979916174234 0 -395.09979916174234 -12.538489649674375 0 0 0 0 159.09742992933025 456.41430994959956 0 456.41430994959956 1088.2092208003523 0 0 0 0 4.3026419507340279 0.65102210354651291 0 0.65102210354651291 -4.8057627573421584 0 0 0 0 894.31063986866684 917.22282333367502 0 917.22282333367502 531.03516882690747 0 0 0 0 -1.9223443161608884 101.9056899242587 0 101.9056899242587 104.17690427593334 0 0 0 0 -10.339276812965721 40.164125579490971 0 40.164125579490971 -27.11941089189256 0 0 0 0 -337.0529276940506 -330.13217412955964 0 -330.13217412955964 -115.23142794184696 0 0 0 0 -398.72655928875974 -209.37943505371641 0 -209.37943505371641 95.157875104570849 0 0 0 0 -249.2988142620402 -69.51627104643012 0 -69.51627104643012 71.10485234454336 0 0 0 0 -30.152073857469077 53.253093948844253 0 53.253093948844253 33.51588758842172 0 0 0 0 -7.7034992804912434 34.63821806441306 0 34.63821806441306 48.098965356774009 0 0 0 0 -390.62305627915339 -252.59407030968759 0 -252.59407030968759 24.10837586190064 0 0 0 0 -416.34920443026203 -198.54658990464486 0 -198.54658990464486 101.7463907996455 0 0 0 0 -237.58471244005341 -99.963004145900413 0 -99.963004145900413 87.716629318227206 0 0 0 0 -250.06162488916743 -51.264833725182598 0 -51.264833725182598 90.586006226993049 0 0 0 0 -25.486137452775438 19.598876539352204 0 19.598876539352204 93.859074956675613 0 0 0 0 -657.44794963929598 -203.85122796163705 0 -203.85122796163705 124.41868656817678 0 0 0 0 22.346637228081818 783.95278176905049 0 783.95278176905049 477.85756416025106 0 0 0 0 -45.804149988194695 81.884321690595243 0 81.884321690595243 283.97774517999278 0 0 0 0 -6.0588890527479435 4.6610487455361813 0 4.6610487455361813 -2.7241664959918772 0 0 0 0 -36.660117695047319 30.26178871098347 0 30.26178871098347 21.715909944160948 0 0 0 0 -31.538725557755242 56.847397599713076 0 56.847397599713076 36.144994656700874 0 0 0 0 -25.269245807183324 137.23610558906967 0 137.23610558906967 73.779108194932633 0 0 0 0 31.878702822476043 173.07051890884213 0 173.07051890884213 122.62860997747339 0 0 0 0 -100.16865235707519 -39.601068505488911 0 -39.601068505488911 83.970497846326907 0 0 0 0 -159.62769841537374 52.313888397407027 0 52.313888397407027 152.13489728370951 0 0 0 0 -1.1241786636610982 0.9491358755726651 0 0.9491358755726651 0.072426347677939873 0 0 0 0 -12.94182258552064 15.854105033687802 0 15.854105033687802 149.64124491398616 0 0 0 0 -9.2399802470317809 34.043904504313105 0 34.043904504313105 37.064654922401132 0 0 0 0 21.039140745910117 102.99512816086644 0 102.99512816086644 103.27637951739962 0 0 0 0 122.69339637485973 218.72989722183593 0 218.72989722183593 145.38385506933628 0 0 0 0 -61.231303109620058 63.501708764550131 0 63.501708764550131 170.78465316102302 0 0 0 0 -49.2212207368284 88.864493290380778 0 88.864493290380778 219.07126312346736 0 0 0 0 -68.044979341059843 -0.60902854803862283 0 -0.60902854803862283 38.729208465396368 0 0 0 0 -28.280854485534292 76.952233135365532 0 76.952233135365532 93.380532754708838 0 0 0 0 71.920054202816573 31.427981247081334 0 31.427981247081334 52.457957814067072 0 0 0 0 9.3689558577134449 125.52200543903564 0 125.52200543903564 21.694975127160433 0 0 0 0 1.1404535739111452 103.59847733666174 0 103.59847733666174 -36.691419907940144 0 0 0 0 -38.510762564553261 40.275074559586756 0 40.275074559586756 -33.988993205763109 0 0 0 0 -64.925259420239854 12.439203388876194 0 12.439203388876194 82.077195817913434 0 0 0 0 -33.550727303154417 45.875419952408265 0 45.875419952408265 18.993496438390139 0 0 0 0 5.9702248204721151 28.871668090106983 0 28.871668090106983 44.574064318455655 0 0 0 0 -110.37096034075103 61.986261232244942 0 61.986261232244942 67.32377982557955 0 0 0 0 -29.979028168596415 54.35134661830034 0 54.35134661830034 29.204377588632269 0 0 0 0 -54.673167532388106 21.669998197341556 0 21.669998197341556 35.374783714980367 0 0 0 0 9.9550658536783203 46.74680811769008 0 46.74680811769008 53.257893496229372 0 0 0 0 -51.887062888676155 7.1181742499902612 0 7.1181742499902612 106.80069283099147 0 0 0 0 -24.919316079147393 99.728833946113809 0 99.728833946113809 197.03160370467231 0 0 0 0 -16.079412378974006 22.393826448043498 0 22.393826448043498 4.0469284362187068 0 0 0 0 12.622161714161848 37.488842948667298 0 37.488842948667298 84.404215670083431 0 0 0 0 -65.970838958881359 13.389830896850981 0 13.389830896850981 -176.06978619438814 0 0 0 0 86.734281419845502 24.93911278798987 0 24.93911278798987 -175.89842774187497 0 0 0 0 22.244692741749759 45.500240994257638 0 45.500240994257638 -59.749276136913977 0 0 0 0 0.281372770511787 1.4130199652188296 0 1.4130199652188296 -0.27713958814146178 0 0 0 0 85.269630969694845 29.576406050804508 0 29.576406050804508 -337.05271769622163 0 0 0 0 0.49847677633988496 91.760509656896829 0 91.760509656896829 -201.62730862803073 0 0 0 0 191.62759789046504 260.97589401308903 0 260.97589401308903 19.966145192145632 0 0 0 0 40.474596571729307 172.84340289568297 0 172.84340289568297 59.979011436025758 0 0 0 0 -26.902121350649395 118.93825846712843 0 118.93825846712843 18.110525377346676 0 0 0 0 1.9354061582462236 57.882470304521121 0 57.882470304521121 73.226443838429986 0 0 0 0 46.396312833254342 132.95049996647231 0 132.95049996647231 -109.41621046459204 0 0 0 0 22.074591121330783 45.853259760099149 0 45.853259760099149 51.854880852550998 0 0 0 0 35.52455845170698 79.507950887733386 0 79.507950887733386 77.196464518366867 0 0 0 0 -109.04187114180968 158.24308402266615 0 158.24308402266615 121.39846567529548 0 0 0 0 46.783265617425059 -41.049714369755748 0 -41.049714369755748 -201.61185297436896 0 0 0 0 78.138756142558123 59.410344435076695 0 59.410344435076695 -205.13973716695182 0 0 0 0 -15.471252391409507 108.97362494108893 0 108.97362494108893 -217.08826390992181 0 0 0 0 0.96174859819131342 12.043187660333864 0 12.043187660333864 9.9498904724537329 0 0 0 0 17.266254615789514 6.0295128409967216 0 6.0295128409967216 -11.373073970779217 0 0 0 0 47.084180189485778 23.241577105640317 0 23.241577105640317 -199.90674018384107 0 0 0 0 -55.682960678735981 65.113592884597892 0 65.113592884597892 -21.290936529658211 0 0 0 0 80.237011835961312 13.096228103479007 0 13.096228103479007 -100.58105092828373 0 0 0 0 69.645397991043865 104.06673286991645 0 104.06673286991645 -165.27982205218086 0 0 0 0 90.396040403131337 28.138022590726905 0 28.138022590726905 -125.79026287989495 0 0 0 0 53.524060768851243 32.216780851935454 0 32.216780851935454 1.7822547453755337 0 0 0 0 93.479678413541478 201.73896083257387 0 201.73896083257387 142.47451580352936 0 0 0 0 18.859784998527175 186.74391426850343 0 186.74391426850343 162.23434972096948 0 0 0 0 65.091281348941266 75.568813194404356 0 75.568813194404356 82.214912906965765 0 0 0 0 21.163643484973363 251.55807000250388 0 251.55807000250388 572.35825674349508 0 0 0 0 270.82406771112073 396.57959629763172 0 396.57959629763172 353.19509435112923 0 0 0 0 33.176068332981231 196.6810946454134 0 196.6810946454134 282.71232304740261 0 0 0 0 237.44346211515222 137.68639616352266 0 137.68639616352266 169.52191364063856 0 0 0 0 155.30814019088393 173.28896017712032 0 173.28896017712032 38.67688351796096 0 0 0 0 10.696766457891499 57.442960464096359 0 57.442960464096359 -12.552383737307537 0 0 0 0 114.43467174545731 148.77431538540623 0 148.77431538540623 -16.890830609896511 0 0 0 0 36.738020142656751 108.20687078482661 0 108.20687078482661 -61.246629078203114 0 0 0 0 -25.239963076544882 59.644595145971834 0 59.644595145971834 -48.550637027372431 0 0 0 0 26.243015741782074 120.67167222473836 0 120.67167222473836 -44.484149127182832 0 0 0 0 15.584090922444375 73.38600740806578 0 73.38600740806578 -104.95475280582104 0 0 0 0 23.414202624190693 21.541606737273469 0 21.541606737273469 -160.15461240681179 0 0 0 0 22.921399724113712 54.135921772939867 0 54.135921772939867 -80.799376091690647 0 0 0 0 -52.853771527597928 213.27253641490188 0 213.27253641490188 -6.2909108823441784 0 0 0 0 -59.509338050371298 170.76106248050928 0 170.76106248050928 213.12374044813987 0 0 0 0 88.055983959184232 56.533927920383576 0 56.533927920383576 14.740154301978691 0 0 0 0 42.631794146421271 125.8707340691526 0 125.8707340691526 202.48528995844754 0 0 0 0 55.944691357528882 227.91676561668442 0 227.91676561668442 400.29488992096958 0 0 0 0 80.801326839900867 195.4438625923267 0 195.4438625923267 189.33604636983819 0 0 0 0 -108.45430220695835 169.67465894640191 0 169.67465894640191 394.54706425299628 0 0 0 0 -106.10158996168138 345.42308599533862 0 345.42308599533862 384.78582282677445 0 0 0 0 30.980028090005021 346.6792128874099 0 346.6792128874099 257.75000768134487 0 0 0 0 40.802440282775933 421.82411754603709 0 421.82411754603709 781.35647979587065 0 0 0 0 600.78046620309397 655.00321040616745 0 655.00321040616745 507.73522687741934 0 0 0 0 444.37001308515028 85.067404265812911 0 85.067404265812911 442.51415296128471 0 0 0 0 36.382487146584026 486.54261744539326 0 486.54261744539326 998.60318507349075 0 0 0 0 10.449113809056186 5.1282704771033849 0 5.1282704771033849 2.4335875511229048 0 0 0 0 170.33943842574854 422.67099297599611 0 422.67099297599611 385.22152239383286 0 0 0 0 216.73993341249661 549.47698298839987 0 549.47698298839987 484.08499823758393 0 0 0 0 -375.52003950741255 241.64148414363535 0 241.64148414363535 151.05316724770091 0 0 0 0 -371.43991244568156 109.08296191841455 0 109.08296191841455 209.54418233221077 0 0 0 0 -1.0652362729877449 1.6708954820210451 0 1.6708954820210451 -0.11466939495051953 0 0 0 0 -142.87014975137799 -3.2920124172087526 0 -3.2920124172087526 248.49103754775024 0 0 0 0 -83.717363647350908 282.19202897842024 0 282.19202897842024 312.22082475826846 0 0 0 0 -214.65299066635907 236.06307834721611 0 236.06307834721611 235.852772955614 0 0 0 0 -118.5785342824438 284.41393236440035 0 284.41393236440035 266.57600533217874 0 0 0 0 -270.09949546369353 262.90826231282517 0 262.90826231282517 277.77882859581541 0 0 0 0 -118.99894142590324 228.65433238401329 0 228.65433238401329 139.18991908180942 0 0 0 0 -301.85618763958973 163.98819737888152 0 163.98819737888152 224.56255162550929 0 0 0 0 -277.2282470400848 138.74995463755442 0 138.74995463755442 20.976572978010154 0 0 0 0 -312.59851758263994 315.73961129798954 0 315.73961129798954 -39.142132238595877 0 0 0 0 -158.83704207267874 143.90558323092409 0 143.90558323092409 148.29139749194223 0 0 0 0 11.97839256532302 95.298302300738897 0 95.298302300738897 -237.26448844299011 0 0 0 0 -692.66232271600757 330.58626515076867 0 330.58626515076867 -67.495891278576892 0 0 0 0 -292.54565181834187 14.783435645042118 0 14.783435645042118 -442.06217969963473 0 0 0 0 -262.27492003370139 154.06964471980473 0 154.06964471980473 -35.28458420338211 0 0 0 0 -177.53354789511107 286.7838626630255 0 286.7838626630255 -250.03296104195942 0 0 0 0 -200.87854951766712 386.47374681620749 0 386.47374681620749 -495.55573597630928 0 0 0 0 -492.87527493547987 355.9532337208293 0 355.9532337208293 -202.94760371726807 0 0 0 0 -266.52154315836265 187.27299644272534 0 187.27299644272534 -77.300187971401101 0 0 0 0 -86.241248368279344 379.05092076770597 0 379.05092076770597 -261.40627471751577 0 0 0 0 -1.5164584434733115 18.311558353745568 0 18.311558353745568 -151.9327023396836 0 0 0 0 -6.8308169360316242 63.465272430848927 0 63.465272430848927 -60.231200007136067 0 0 0 0 -456.16931990062324 -144.64686768414128 0 -144.64686768414128 -56.084943544334237 0 0 0 0 -54.126205964223118 171.27398665131204 0 171.27398665131204 -591.82317556229282 0 0 0 0 -3.8783490909428675 3.7108032752966977 0 3.7108032752966977 -3.1828296639155624 0 0 0 0 -111.73503203059636 -75.31346885318635 0 -75.31346885318635 -87.728475601270475 0 0 0 0 -114.03442790587496 -22.565503792186064 0 -22.565503792186064 91.872610646860267 0 0 0 0 -44.463940874796435 -42.352363585857347 0 -42.352363585857347 -46.704735768746104 0 0 0 0 -13.971650090328392 7.9545449794203194 0 7.9545449794203194 -7.0260694709226144 0 0 0 0 -13.408145074655067 138.75880391169062 0 138.75880391169062 207.18624744553381 0 0 0 0 -232.94771328412571 1.7896171847578444 0 1.7896171847578444 44.569886294404569 0 0 0 0 -115.62147016807194 -129.69111241505379 0 -129.69111241505379 0.67518706947521423 0 0 0 0 -884.35899837204499 -244.08201659902807 0 -244.08201659902807 585.83472544705364 0 0 0 0 -1.1433913508565134 0.3849098429415978 0 0.3849098429415978 -0.80368250766096594 0 0 0 0 273.19651246015837 125.21932718993867 0 125.21932718993867 0.015695465501266881 0 0 0 0 -41.034879897676774 195.50997113541962 0 195.50997113541962 33.105382156149062 0 0 0 0 2.0236325624426073 390.62287170184868 0 390.62287170184868 -84.230004626071604 0 0 0 0 47.555055662049654 238.27525849722952 0 238.27525849722952 -88.556303843140995 0 0 0 0 403.60752097743489 -326.67967074867192 0 -326.67967074867192 175.40030384462807 0 0 0 0 631.89983078740295 500.67221601798383 0 500.67221601798383 170.78460423351498 0 0 0 0 -280.48517817659285 105.05884274062191 0 105.05884274062191 277.81944712372024 0 0 0 0 -250.00392597540144 308.77212359634541 0 308.77212359634541 777.04188613894257 0 0 0 0 -227.95225509299775 162.63708219800355 0 162.63708219800355 329.61206601461708 0 0 0 0 -343.9563779012758 157.58367275115506 0 157.58367275115506 37.785470069384246 0 0 0 0 -199.58059161166702 291.8832750055044 0 291.8832750055044 154.77169288305595 0 0 0 0 -83.976748716040902 661.51624176477526 0 661.51624176477526 -94.862918334762071 0 0 0 0 0.4112442724667833 1.1559989125237635 0 1.1559989125237635 -3.2471357444761111 0 0 0 0 558.37417910563727 442.37087892981799 0 442.37087892981799 -26.712700854905052 0 0 0 0 -97.966105391059727 193.89698113348913 0 193.89698113348913 253.67762431898154 0 0 0 0 220.5951479142991 707.72277588301586 0 707.72277588301586 -144.96207297131696 0 0 0 0 -3.9631258708833705 3.4091911948384279 0 3.4091911948384279 -2.0074250813459926 0 0 0 0 -527.24138515270374 2.1618304901057854 0 2.1618304901057854 93.971244598511475 0 0 0 0 -3.355545297730032 33.009306778575592 0 33.009306778575592 -5.7966205177326628 0 0 0 0 -20.848971045655617 50.099634839109058 0 50.099634839109058 78.648846456599131 0 0 0 0 -11.497928171776795 6.1333449952684589 0 6.1333449952684589 -1.9929112578175676 0 0 0 0 -124.54669560219691 -99.228653213443977 0 -99.228653213443977 -7.8835765355152034 0 0 0 0 -302.80380898018007 197.65396704273917 0 197.65396704273917 -46.686520606063368 0 0 0 0 -148.43759630312292 328.14231876223312 0 328.14231876223312 -106.59539003659938 0 0 0 0 -177.13132448988935 505.83381518641727 0 505.83381518641727 -348.1073297521134 0 0 0 0 -661.99198056910075 334.38819748900778 0 334.38819748900778 9.2143093216254783 0 0 0 0 27.522537967681274 6.0252450415864587 0 6.0252450415864587 54.278593431101854 0 0 0 0 -0.71818165014246915 21.229264977302591 0 21.229264977302591 156.01998587223716 0 0 0 0 43.201613389837803 29.932636250647192 0 29.932636250647192 -18.325260719268044 0 0 0 0 48.324469772708653 53.114674413933244 0 53.114674413933244 39.302492048052954 0 0 0 0 -17.403599843155462 60.987010427814312 0 60.987010427814312 -11.367234674737119 0 0 0 0 -10.092935724697782 -37.570254614707665 0 -37.570254614707665 1.8223205384238099 0 0 0 0 -252.59278203571876 94.057707854066393 0 94.057707854066393 191.85772214783537 0 0 0 0 -469.80522048323292 269.65768517064089 0 269.65768517064089 -178.79198954006642 0 0 0 0 -308.07190312773946 -8.7386035007239116 0 -8.7386035007239116 26.808638224624701 0 0 0 0 -286.20885441797509 -114.82579443292889 0 -114.82579443292889 -21.565042327138144 0 0 0 0 -551.29392642559105 759.73942329411148 0 759.73942329411148 -359.57057777814771 0 0 0 0 -1637.8528629830266 764.01056480729403 0 764.01056480729403 168.58671289814083 0 0 0 0 69.064537349927377 531.18840014513989 0 531.18840014513989 561.02337191414335 0 0 0 0 60.441885695205201 350.42233275434228 0 350.42233275434228 666.93319379169316 0 0 0 0 -14.170535799988798 5.2739281167881096 0 5.2739281167881096 -0.43968702039459373 0 0 0 0 -141.00999419998652 59.286255928915125 0 59.286255928915125 515.30347360717133 0 0 0 0 26.220038112456677 97.582627323557972 0 97.582627323557972 191.90157489762436 0 0 0 0 -70.942124921568393 27.480251446918373 0 27.480251446918373 380.46140075204676 0 0 0 0 34.84391834399139 141.91439679425093 0 141.91439679425093 380.54977871670991 0 0 0 0 25.063849712047158 109.07620996492369 0 109.07620996492369 464.86258940193511 0 0 0 0 16.965129581387146 99.635119212970494 0 99.635119212970494 368.41601474837807 0 0 0 0 40.658529255939357 63.049067168069087 0 63.049067168069087 287.27377488140155 0 0 0 0 -0.34628699010227137 84.414796690227377 0 84.414796690227377 394.71648654083401 0 0 0 0 6.1324106619022132 6.3726599101610191 0 6.3726599101610191 162.3516950731173 0 0 0 0 -12.970624985407994 28.119700363078664 0 28.119700363078664 321.33432127782635 0 0 0 0 140.07437196272804 182.81763226005205 0 182.81763226005205 211.981084239349 0 0 0 0 -3.5643648093086107 5.6334253009171427 0 5.6334253009171427 -1.7749621462027534 0 0 0 0 1.7575225325290376 8.9500399008538807 0 8.9500399008538807 -12.967964480343767 0 0 0 0 -3.0747175249089196 12.124998764578777 0 12.124998764578777 1.921255788016424 0 0 0 0 0.67177516874289722 17.364397269808251 0 17.364397269808251 1.6092020835485528 0 0 0 0 78.464368660106629 102.19635459078563 0 102.19635459078563 314.88886974413981 0 0 0 0 96.739990949389949 192.96156429786083 0 192.96156429786083 406.31900016962754 0 0 0 0 61.980294328706805 168.84628824428364 0 168.84628824428364 517.83737005760486 0 0 0 0 -3.451243896567366 2.6201023019681458 0 2.6201023019681458 2.4284311171858377 0 0 0 0 6.2535706387516257 30.12145325736401 0 30.12145325736401 14.633551112048735 0 0 0 0 -13.415013528203374 4.0129228145474194 0 4.0129228145474194 2.5774076281614811 0 0 0 0 31.228599026688698 213.17212630745325 0 213.17212630745325 502.90562872453302 0 0 0 0 5.3714441542655784 10.351577450662219 0 10.351577450662219 7.5862928705894319 0 0 0 0 0.92390761802835186 16.561494613908508 0 16.561494613908508 1.1408623970128247 0 0 0 0 3.9045934149507957 13.955167906988208 0 13.955167906988208 1.6517648089438808 0 0 0 0 5.7164267520824978 16.761817162824627 0 16.761817162824627 -5.6195775518463051 0 0 0 0 8.4775736139652338 13.62523135435913 0 13.62523135435913 -2.9319789506589586 0 0 0 0 14.137444294105308 20.070301180564229 0 20.070301180564229 -9.0040218152680609 0 0 0 0 6.9821115566851404 49.928686023295086 0 49.928686023295086 43.698010767842788 0 0 0 0 5.7053225441557913 17.300873802710498 0 17.300873802710498 -31.580031649275043 0 0 0 0 54.913832239618614 73.635372127342634 0 73.635372127342634 172.14788510215658 0 0 0 0 -23.741454301977228 15.875443547301984 0 15.875443547301984 363.69026295331423 0 0 0 0 18.420057662732688 103.88044749382243 0 103.88044749382243 544.82332332645274 0 0 0 0 52.648017544438517 30.41657049846981 0 30.41657049846981 357.48224704862014 0 0 0 0 38.374892427802024 -7.7640666565166612 0 -7.7640666565166612 102.31539735085971 0 0 0 0 -37.868085805482224 100.96148523089323 0 100.96148523089323 407.11122805818377 0 0 0 0 0.0011632903781304549 1.4419617938266853 0 1.4419617938266853 3.1045126344315435 0 0 0 0 6.3884485626447152 8.9465079594524681 0 8.9465079594524681 8.2563394005644888 0 0 0 0 5.3774034456519075 16.164495466427979 0 16.164495466427979 16.501433689925761 0 0 0 0 4.5535896771338003 8.3600933019274635 0 8.3600933019274635 12.967303055775119 0 0 0 0 -0.76395261766811018 15.34611339703406 0 15.34611339703406 14.056862850637117 0 0 0 0 -4.3368348054227681 14.764733425787199 0 14.764733425787199 14.084257366987003 0 0 0 0 -2.8343609240109799 10.02436368294002 0 10.02436368294002 27.768797429074766 0 0 0 0 -0.35501421717284387 -0.19410316906999725 0 -0.19410316906999725 0.52757484426116719 0 0 0 0 25.508104417921004 14.263227902990366 0 14.263227902990366 393.69518553741 0 0 0 0 -8.104749326063029 11.294846642966149 0 11.294846642966149 28.64868678241055 0 0 0 0 -9.275000722382174 12.266680463728335 0 12.266680463728335 30.91203941187996 0 0 0 0 -12.608117948271683 10.925296329904086 0 10.925296329904086 48.403325492643489 0 0 0 0 0.43844482851320166 0.49632528160439549 0 0.49632528160439549 -0.033805988868145675 0 0 0 0 -28.942999344151758 -21.556166481396986 0 -21.556166481396986 16.41996867396665 0 0 0 0 -9.828544355561462 30.087473957315524 0 30.087473957315524 40.184130141846254 0 0 0 0 3.2236384293537412 21.764834780678939 0 21.764834780678939 -13.229931533839135 0 0 0 0 -5.7479746327553585 19.760902409805567 0 19.760902409805567 30.126960495865205 0 0 0 0 -4.5322324308071984 21.824209798410266 0 21.824209798410266 12.176159363334591 0 0 0 0 -1.3349734955409076 20.682433370040599 0 20.682433370040599 12.292557155393297 0 0 0 0 -6.1150412154283345 30.87346193493795 0 30.87346193493795 -43.208964124601152 0 0 0 0 -67.836563160899232 183.11805044434368 0 183.11805044434368 -31.6681104184172 0 0 0 0 -125.15039320678784 104.2781147246933 0 104.2781147246933 84.894952449856646 0 0 0 0 -154.99198328338622 277.34536775017841 0 277.34536775017841 -276.97800910028127 0 0 0 0 -140.66101680327898 125.30784067618487 0 125.30784067618487 -19.792772346485435 0 0 0 0 -88.448420186369731 86.368208210404191 0 86.368208210404191 -66.688679768389193 0 0 0 0 -106.76828306809125 -31.637704517730526 0 -31.637704517730526 -5.9752698974983893 0 0 0 0 -58.392421492294261 -15.410791669667788 0 -15.410791669667788 -13.863926963476843 0 0 0 0 -43.956632150754785 30.486479142888129 0 30.486479142888129 2.6798306452583347 0 0 0 0 -43.715971952352902 -6.1410908744910557 0 -6.1410908744910557 -21.871616549539795 0 0 0 0 -51.795822890276128 62.097477351379439 0 62.097477351379439 51.754120766647247 0 0 0 0 -83.446388438290569 18.42990794329944 0 18.42990794329944 61.868485198885537 0 0 0 0 2.6130289937002225 5.8175396409117859 0 5.8175396409117859 6.1885418417961731 0 0 0 0 -83.003277094397617 8.4970351202846359 0 8.4970351202846359 12.179934685509579 0 0 0 0 1.3758923663697313 2.441491980879519 0 2.441491980879519 1.722201807818454 0 0 0 0 41.28388433359612 -125.09594714431159 0 -125.09594714431159 630.88105899600123 0 0 0 0 60.664469979164096 -99.098015969113476 0 -99.098015969113476 342.47288277924235 0 0 0 0 -305.36028637769869 -89.007482570246793 0 -89.007482570246793 1156.2594042572564 0 0 0 0 21.91603942796155 153.83424414392539 0 153.83424414392539 -85.217732356753004 0 0 0 0 0.27718358831070589 2.534947544013864 0 2.534947544013864 3.3639017038010728 0 0 0 0 333.9007832420175 256.13655076052237 0 256.13655076052237 712.70261409415616 0 0 0 0 61.320422604400321 282.19710194630716 0 282.19710194630716 281.2684277889748 0 0 0 0 -3.3517911619027636 0.97622425349602793 0 0.97622425349602793 0.71821520243594428 0 0 0 0 -101.85068125642675 216.41889408267161 0 216.41889408267161 737.52291431485537 0 0 0 0 50.632076257573928 189.43939974145124 0 189.43939974145124 117.46720592439306 0 0 0 0 49.669773151822369 7.8974857785724453 0 7.8974857785724453 80.550674273561526 0 0 0 0 58.224086922853076 30.340473865084277 0 30.340473865084277 291.22799522897549 0 0 0 0 -9.0073932684972533 131.54494068858187 0 131.54494068858187 379.07099091915734 0 0 0 0 -9.1039254876727647 133.3473230710716 0 133.3473230710716 535.46450678012116 0 0 0 0 -138.79333055201641 -26.583468452696252 0 -26.583468452696252 496.51763346351981 0 0 0 0 -101.94110573095622 -9.3369686484456906 0 -9.3369686484456906 429.78210885415319 0 0 0 0 -72.78276824790828 -53.104133860262664 0 -53.104133860262664 460.79229216119165 0 0 0 0 -45.070108298743207 15.440740119591283 0 15.440740119591283 625.45536115659343 0 0 0 0 -40.128431471269323 -113.8299243224792 0 -113.8299243224792 358.09631653441465 0 0 0 0 2.783487657265141 -218.39783226568352 0 -218.39783226568352 517.29469928884282 0 0 0 0 -39.876279174309246 -119.42095752740408 0 -119.42095752740408 369.59581963286837 0 0 0 0 193.24831112371271 -283.93436819360795 0 -283.93436819360795 491.13263765315787 0 0 0 0 -0.58560548187324735 7.1912624787144317 0 7.1912624787144317 8.7593736036823344 0 0 0 0 98.963942412587471 276.57846309498024 0 276.57846309498024 -32.919885409886774 0 0 0 0 84.085979774808607 634.57789469272029 0 634.57789469272029 123.12172492406535 0 0 0 0 -224.78291894671952 435.9884523351684 0 435.9884523351684 102.40737283234057 0 0 0 0 -110.37229795968892 488.16011769417673 0 488.16011769417673 104.35792767564999 0 0 0 0 32.331219186963835 -166.22537820626712 0 -166.22537820626712 501.35053719404823 0 0 0 0 96.965647454634563 -273.01424301548286 0 -273.01424301548286 674.86791472959158 0 0 0 0 101.37913166747663 -209.49165666208285 0 -209.49165666208285 968.2389344492185 0 0 0 0 77.10307840682708 111.29046519694748 0 111.29046519694748 886.60361673533953 0 0 0 0 69.779169391640608 157.32287640489812 0 157.32287640489812 1189.5323851681587 0 0 0 0 -878.30186409804639 -241.83975972008193 0 -241.83975972008193 1539.2994684173791 0 0 0 0 -84.733270887145181 742.23320762189178 0 742.23320762189178 299.46824909744464 0 0 0 0 194.97750847339245 -5.7187821870338666 0 -5.7187821870338666 298.29641881474527 0 0 0 0 532.4115700347495 283.57012267032769 0 283.57012267032769 529.40223993188192 0 0 0 0 362.68171116430312 -307.98803810577601 0 -307.98803810577601 1001.2648974846161 0 0 0 0 44.208221980730059 131.07691120070376 0 131.07691120070376 177.98877554533465 0 0 0 0 5.6920311157465449 -37.014791707430959 0 -37.014791707430959 578.75552390200755 0 0 0 0 -0.86528100087886661 1.9165025286624555 0 1.9165025286624555 0.68252329922505828 0 0 0 0 -289.65555311115099 7.0993995741055187 0 7.0993995741055187 1084.4080244072975 0 0 0 0 50.049217192141214 -8.2915434273436404 0 -8.2915434273436404 34.675568449147249 0 0 0 0 -156.77382759131581 -37.715408865577047 0 -37.715408865577047 1020.7486129265162 0 0 0 0 249.37019017428702 -2.222501051332074 0 -2.222501051332074 577.23712534378865 0 0 0 0 -132.63790033692203 115.92126258559801 0 115.92126258559801 923.28322427970488 0 0 0 0 -5.6658260198296189 -0.20615097323873854 0 -0.20615097323873854 1.5985667677656057 0 0 0 0 -40.003362711267982 38.355753413188722 0 38.355753413188722 714.37014512512997 0 0 0 0 -16.149618048282264 11.529570770277132 0 11.529570770277132 42.158216505536984 0 0 0 0 -0.23666265673824594 5.4683606516127163 0 5.4683606516127163 1.1164933271890376 0 0 0 0 256.46860332961262 216.80320776129719 0 216.80320776129719 595.50249900684867 0 0 0 0 113.56849495848792 108.59443891323099 0 108.59443891323099 555.98107805452491 0 0 0 0 -195.55909555462767 67.252411076500721 0 67.252411076500721 756.66211017228488 0 0 0 0 -9.9479783660589938 2.6245674606408649 0 2.6245674606408649 6.7404467332650952 0 0 0 0 156.0336308031774 -26.3865716811124 0 -26.3865716811124 193.96336037265428 0 0 0 0 85.005344685077034 103.85140333393792 0 103.85140333393792 224.92917630431839 0 0 0 0 -112.83235478981078 -163.92441229074757 0 -163.92441229074757 315.65823232584808 0 0 0 0 -559.2118395268626 -1.7743244154407876 0 -1.7743244154407876 574.08527631522156 0 0 0 0 0.94163049415853894 6.9845509791176053 0 6.9845509791176053 -2.5433365048865468 0 0 0 0 -127.46031965027123 7.853603575451416 0 7.853603575451416 515.10195636669232 0 0 0 0 56.06210632838679 -1.1619401894131443 0 -1.1619401894131443 364.97953041585424 0 0 0 0 -120.27849908655207 108.31294403505308 0 108.31294403505308 670.11311776951334 0 0 0 0 237.02276703653763 126.0368151219991 0 126.0368151219991 187.23454617246171 0 0 0 0 -115.1050682212126 211.09863513838354 0 211.09863513838354 307.16238038163078 0 0 0 0 177.2303349666231 165.18047054393537 0 165.18047054393537 104.20421296172481 0 0 0 0 -705.34281509976643 532.21585797060106 0 532.21585797060106 819.87161497041416 0 0 0 0 -64.194669688045451 412.44790951327741 0 412.44790951327741 226.57432571290337 0 0 0 0 110.0787261141063 131.30519391909911 0 131.30519391909911 607.75503568993463 0 0 0 0 -149.55999374938438 302.35914118671644 0 302.35914118671644 199.13307365292064 0 0 0 0 -376.47469722056076 379.49182748099702 0 379.49182748099702 201.07627533795676 0 0 0 0 -369.42118950082227 606.56084668330368 0 606.56084668330368 269.02035330677609 0 0 0 0 -218.01316122581102 419.77106514410298 0 419.77106514410298 -0.47657348353095585 0 0 0 0 -206.25409839670124 305.72322538177104 0 305.72322538177104 35.453014465145316 0 0 0 0 -79.394413919166254 286.06649243242282 0 286.06649243242282 35.876687626157945 0 0 0 0 40.263545857387726 145.53056556020965 0 145.53056556020965 35.338987538478072 0 0 0 0 -2.7840103830071712 277.56965662959919 0 277.56965662959919 -217.78341420512879 0 0 0 0 -265.68358696457199 242.7505303557009 0 242.7505303557009 -50.384294131034039 0 0 0 0 1.1885361791360534 15.755723216573053 0 15.755723216573053 34.767550556355026 0 0 0 0 274.38001183930237 85.361555100697842 0 85.361555100697842 50.545773928026392 0 0 0 0 119.93178990837328 196.92048573671673 0 196.92048573671673 6.0778078822768293 0 0 0 0 3.3611471226644212 8.7507083991265535 0 8.7507083991265535 20.995149480805622 0 0 0 0 652.40207368877327 13.539192200349135 0 13.539192200349135 -213.82421627168878 0 0 0 0 268.40845426129317 -66.80442575287816 0 -66.80442575287816 15.915817796117324 0 0 0 0 -188.83218356205964 64.044443184708143 0 64.044443184708143 -107.23338529204921 0 0 0 0 45.194545967808267 275.88148696383087 0 275.88148696383087 -40.64317628311619 0 0 0 0 0.97115167496511901 0.56472087181578878 0 0.56472087181578878 -24.002732664962679 0 0 0 0 -772.56825364118401 310.7259307766617 0 310.7259307766617 5.8735640693848836 0 0 0 0 -487.61239594644206 444.93582785987292 0 444.93582785987292 -92.026782818345964 0 0 0 0 66.905576216671534 57.442639906142176 0 57.442639906142176 -80.257489548264857 0 0 0 0 110.89923672647728 76.392040316996827 0 76.392040316996827 -56.1484734355829 0 0 0 0 -1.6198210092639407 26.192750478940617 0 26.192750478940617 24.921343914546242 0 0 0 0 -61.85077461874971 133.05984181233089 0 133.05984181233089 211.41749476854125 0 0 0 0 26.265935241312036 -72.065842945186887 0 -72.065842945186887 169.30916959660681 0 0 0 0 -40.827061856321052 -109.67319090685396 0 -109.67319090685396 369.48914169137788 0 0 0 0 -5.6635684606235372 -107.56491542795266 0 -107.56491542795266 204.12248863543391 0 0 0 0 21.921869424835222 -170.81094134372324 0 -170.81094134372324 349.1210906269007 0 0 0 0 207.47790589016563 -237.89191427330479 0 -237.89191427330479 5.8483358997837058 0 0 0 0 91.212817307069599 -164.32206543793654 0 -164.32206543793654 126.57521668510162 0 0 0 0 192.97708613623831 -295.60397652595202 0 -295.60397652595202 176.85852596982659 0 0 0 0 117.60400481409124 -285.33844507655158 0 -285.33844507655158 395.67724335957246 0 0 0 0 -119.80561011355911 427.32969347985454 0 427.32969347985454 -99.63243182948645 0 0 0 0 -455.30173128410723 -166.82375105435858 0 -166.82375105435858 86.443867790381773 0 0 0 0 -184.12106888179778 221.74972969284499 0 221.74972969284499 -326.79789098325273 0 0 0 0 -657.96167393047244 165.94645942585885 0 165.94645942585885 -168.35981844982598 0 0 0 0 -532.32712774812694 259.75577588941451 0 259.75577588941451 -292.30873771143524 0 0 0 0 -451.59484581139697 31.948774271741058 0 31.948774271741058 -209.3752318157276 0 0 0 0 -865.40877381271912 511.04711284907353 0 511.04711284907353 -436.35784850994241 0 0 0 0 -2.0931569330294253 1.3515667858263818 0 1.3515667858263818 -0.81374183580133774 0 0 0 0 13.777173504595339 14.734522490220115 0 14.734522490220115 -41.362933098081385 0 0 0 0 -5.5930142680944108 21.983547649747273 0 21.983547649747273 -1.9642872948928964 0 0 0 0 -66.965055753711567 41.975128250031048 0 41.975128250031048 820.7097892566253 0 0 0 0 -112.43827367743324 -2.9629693383567428 0 -2.9629693383567428 789.9872530945031 0 0 0 0 8.0812240199229564 -129.22300770733636 0 -129.22300770733636 1053.8595331898614 0 0 0 0 65.810829154819658 159.84537710466975 0 159.84537710466975 807.04567650432364 0 0 0 0 2.2764578618734959 284.42018667901903 0 284.42018667901903 597.47045000400794 0 0 0 0 62.60962163395925 122.20733768652917 0 122.20733768652917 502.38746125562102 0 0 0 0 4.7389175990801959 22.368483559050219 0 22.368483559050219 569.63745447998008 0 0 0 0 -1.8187395093876155 1.9677283689094622 0 1.9677283689094622 0.58727569975227878 0 0 0 0 -49.446098402984717 36.520636434008338 0 36.520636434008338 658.25671836324182 0 0 0 0 39.190226306110389 173.24653210896031 0 173.24653210896031 350.55199215406901 0 0 0 0 -0.84722677914214728 137.39020559077107 0 137.39020559077107 470.44423143633867 0 0 0 0 10.8182017356703 44.372805198210699 0 44.372805198210699 -15.985378992312235 0 0 0 0 -3.1278630403092329 23.432271197168099 0 23.432271197168099 -1.3462300379108414 0 0 0 0 -53.18996308486021 67.985338638813118 0 67.985338638813118 660.9326431095551 0 0 0 0 -14.822976927902573 101.77912581143391 0 101.77912581143391 549.20517761345764 0 0 0 0 -5.4428783742971838 3.3514712711410972 0 3.3514712711410972 2.3515126401661903 0 0 0 0 -42.559683447403586 65.883487185268677 0 65.883487185268677 525.58594146288488 0 0 0 0 43.414917212581713 23.858750485989731 0 23.858750485989731 434.2119598636491 0 0 0 0 26.389296460227342 127.65878299190808 0 127.65878299190808 565.21326158952149 0 0 0 0 -66.548876550708883 -58.73178127308347 0 -58.73178127308347 779.71552402068846 0 0 0 0 95.683106169830808 62.203506421315979 0 62.203506421315979 569.62412912420041 0 0 0 0 0.68292255218258902 25.872578244451773 0 25.872578244451773 2.4264185752462302 0 0 0 0 -2.823245834203135 132.81328131087048 0 132.81328131087048 526.73814739831869 0 0 0 0 43.215777163029998 119.95535054110587 0 119.95535054110587 502.1040434164488 0 0 0 0 -7.7200047922303838 128.14885328494256 0 128.14885328494256 524.80247522671925 0 0 0 0 -11.828576555722975 38.488302613261112 0 38.488302613261112 28.643308723303562 0 0 0 0 -170.4669930562286 -12.086694147605158 0 -12.086694147605158 679.79082737065619 0 0 0 0 -25.609656912351738 54.176093353188207 0 54.176093353188207 10.786383948980074 0 0 0 0 -105.53865184121969 75.317745897822533 0 75.317745897822533 21.104559406065164 0 0 0 0 -16.646580062416888 48.170901940915428 0 48.170901940915428 6.5911172929290842 0 0 0 0 -14.222299509047389 68.700601878079397 0 68.700601878079397 -0.59210807107410801 0 0 0 0 -3.3308071387978089 49.331740206545874 0 49.331740206545874 -10.030009253932803 0 0 0 0 17.733204787265095 61.429203872388825 0 61.429203872388825 -3.8215221852988179 0 0 0 0 -8.2161468666063229 33.623392080629856 0 33.623392080629856 -16.933578195243172 0 0 0 0 28.649436225596673 38.898216518797199 0 38.898216518797199 -18.632034696722258 0 0 0 0 12.365189305661261 28.669922745011718 0 28.669922745011718 -15.640797589942849 0 0 0 0 95.893504014669816 25.688431407706958 0 25.688431407706958 -18.374761374992886 0 0 0 0 -914.95806922190241 309.76959081431323 0 309.76959081431323 91.315787202706815 0 0 0 0 23.706015831230616 26.788362853789749 0 26.788362853789749 -28.528429372643586 0 0 0 0 1.6440639353754589 4.1643842082319651 0 4.1643842082319651 -20.315427702165152 0 0 0 0 -931.32379623315865 213.02156974333957 0 213.02156974333957 183.04691096450551 0 0 0 0 -0.46876571670317002 0.33760467443706688 0 0.33760467443706688 -0.85121633329282531 0 0 0 0 0.26090048820087297 2.2084700313662218 0 2.2084700313662218 -7.6344888583267476 0 0 0 0 53.368357345259028 47.87556013118774 0 47.87556013118774 -8.2594605322046846 0 0 0 0 265.05957264928838 21.378357986290212 0 21.378357986290212 -11.933735909287748 0 0 0 0 116.4636826626197 131.11184392841369 0 131.11184392841369 30.712330521691911 0 0 0 0 -42.019820352131319 73.81689607115004 0 73.81689607115004 43.698182865609851 0 0 0 0 57.568724172545899 77.165217361069494 0 77.165217361069494 -7.8091538372536888 0 0 0 0 -36.473242596708559 54.278344640063779 0 54.278344640063779 -3.8056758765269478 0 0 0 0 -53.049104284047644 12.837828589995297 0 12.837828589995297 7.2463305357669014 0 0 0 0 -90.724061141402217 83.871764570208143 0 83.871764570208143 89.004912642256386 0 0 0 0 -88.599167576824584 107.96851206520569 0 107.96851206520569 72.379484114697334 0 0 0 0 -42.787609977524426 41.909413937860336 0 41.909413937860336 81.754272712969396 0 0 0 0 -198.79244113623463 111.41522697948858 0 111.41522697948858 106.16559445373969 0 0 0 0 -240.98367036614582 40.680860375050543 0 40.680860375050543 101.03417869785699 0 0 0 0 -929.6896088025411 345.69146679417827 0 345.69146679417827 6.7298304508040019 0 0 0 0 139.96116520054511 191.38762166312335 0 191.38762166312335 -439.76461807138185 0 0 0 0 -1.1712017721343559 -1.6940467852916061 0 -1.6940467852916061 -6.0540043186157249 0 0 0 0 175.701391708546 -48.299954240850184 0 -48.299954240850184 -129.72582835414141 0 0 0 0 -51.72381429391794 248.46050574975925 0 248.46050574975925 -260.79676783833929 0 0 0 0 182.17919387055167 202.80331483432474 0 202.80331483432474 100.86497729354414 0 0 0 0 -48.577144778305978 -13.467644741183904 0 -13.467644741183904 -36.626097222046269 0 0 0 0 -154.11031651520011 63.185425572966778 0 63.185425572966778 34.23253673799627 0 0 0 0 1.8892756503301242 4.6092090268632724 0 4.6092090268632724 10.219401805086619 0 0 0 0 713.37621614388604 -142.02711409327094 0 -142.02711409327094 -196.25203665002027 0 0 0 0 34.980570163855077 35.960975489312659 0 35.960975489312659 155.48220685762135 0 0 0 0 776.79509174058023 -51.203306296940127 0 -51.203306296940127 -35.550776594896888 0 0 0 0 -204.06420538383514 3.9135534497590925 0 3.9135534497590925 144.72068308203598 0 0 0 0 33.771702411570232 9.8652830793198518 0 9.8652830793198518 367.36292522583881 0 0 0 0 0.53616605990920319 0.4862255916622189 0 0.4862255916622189 3.3246510924726778 0 0 0 0 -237.87329913117668 -139.57410080012846 0 -139.57410080012846 131.33066812557809 0 0 0 0 27.347299076812874 62.442765544628855 0 62.442765544628855 234.51835178415922 0 0 0 0 -367.11145198652548 266.5782985242181 0 266.5782985242181 211.67869190688361 0 0 0 0 -71.608653047555435 129.39636772469203 0 129.39636772469203 273.30227112561988 0 0 0 0 136.79232278968175 377.38389664174792 0 377.38389664174792 270.00497344335599 0 0 0 0 59.273050274208799 137.76815619768786 0 137.76815619768786 139.81110651437575 0 0 0 0 -3.8823026425970966 254.56263607132314 0 254.56263607132314 37.972147430438781 0 0 0 0 58.333485770770039 177.20209327106386 0 177.20209327106386 -98.624012486310676 0 0 0 0 40.811577878996104 112.38676211338861 0 112.38676211338861 -164.5119953326157 0 0 0 0 -14.031259256558769 310.61767197080644 0 310.61767197080644 -270.80559318788437 0 0 0 0 73.000045319286073 86.647248316405239 0 86.647248316405239 -302.01430189193616 0 0 0 0 62.092876708147287 83.016825969303682 0 83.016825969303682 -131.58489814421227 0 0 0 0 -37.655578529047489 95.86407722696822 0 95.86407722696822 -92.09587121615732 0 0 0 0 -14.945287845586336 85.12796329682169 0 85.12796329682169 -87.066293912064793 0 0 0 0 -32.733049440358172 45.138765160323601 0 45.138765160323601 -4.9248463088824792 0 0 0 0 -92.261683658002767 82.967524188339667 0 82.967524188339667 35.980856708657484 0 0 0 0 18.352877416524279 54.675935890612891 0 54.675935890612891 -24.443703919426753 0 0 0 0 -63.697667314692808 11.066452907405619 0 11.066452907405619 138.55167734770384 0 0 0 0 -52.95025880103276 146.61677764772412 0 146.61677764772412 -87.041484090028462 0 0 0 0 -70.410433771838143 161.65943974563925 0 161.65943974563925 -130.38928876719001 0 0 0 0 -63.872337745644472 173.76328826897588 0 173.76328826897588 -145.76267474416818 0 0 0 0 -2.8842829018497902 0.070700067062789529 0 0.070700067062789529 9.3720701631729888 0 0 0 0 -4.3376365063993276 20.295360943970209 0 20.295360943970209 42.662111211849492 0 0 0 0 -53.644865177286192 132.12167004387447 0 132.12167004387447 -109.68946199135644 0 0 0 0 -47.83407374217677 147.12252148017433 0 147.12252148017433 -155.09773052714263 0 0 0 0 -201.51797722166702 157.22779212796195 0 157.22779212796195 -44.388807780735078 0 0 0 0 -5.7697710458887315 17.964612211057727 0 17.964612211057727 42.020235203894615 0 0 0 0 4.8607239228022081 88.039009031745991 0 88.039009031745991 -8.2871530679049101 0 0 0 0 -58.511418925492762 69.012671980542109 0 69.012671980542109 -9.8226522999939334 0 0 0 0 -26.616194494206866 73.849370336746688 0 73.849370336746688 -14.288603861188676 0 0 0 0 2.6272696902215102 97.787464602640739 0 97.787464602640739 -21.793714771214582 0 0 0 0 -25.261459134435427 96.052658379010609 0 96.052658379010609 -14.410873378128599 0 0 0 0 -227.67576744926373 245.85260027276581 0 245.85260027276581 9.0990955613160622 0 0 0 0 -221.65447475781002 256.23829410784674 0 256.23829410784674 16.928288123948732 0 0 0 0 -146.2073099106201 209.88633000186201 0 209.88633000186201 -25.392279258841882 0 0 0 0 -286.43113487229675 316.02520189481584 0 316.02520189481584 255.13599646148214 0 0 0 0 128.21510223731821 375.32001774659511 0 375.32001774659511 926.80134070074564 0 0 0 0 -530.6139564608111 10.42379640353829 0 10.42379640353829 -64.531191576948913 0 0 0 0 -4.3098740126328465 5.1816496981655931 0 5.1816496981655931 7.4005095677316888 0 0 0 0 -50.714111149191012 213.94000954261719 0 213.94000954261719 47.529406092427962 0 0 0 0 -42.774534704611142 224.02976243136072 0 224.02976243136072 -22.895765079992998 0 0 0 0 1.3547413329579285 319.55940956805352 0 319.55940956805352 148.95703490007509 0 0 0 0 -157.95881754039056 212.73135405045286 0 212.73135405045286 81.411085320076381 0 0 0 0 -45.091728488701847 200.6913908844308 0 200.6913908844308 52.647047160871807 0 0 0 0 10.076821514244102 285.09420538922393 0 285.09420538922393 243.85068703212528 0 0 0 0 -7.0670574464020319 130.22736660201554 0 130.22736660201554 457.85838847831474 0 0 0 0 69.585443730445263 351.8496587158495 0 351.8496587158495 206.09312639947893 0 0 0 0 -101.24064828104019 410.89321123781883 0 410.89321123781883 265.29960557512095 0 0 0 0 634.62678013994082 869.95108111147783 0 869.95108111147783 486.00480840649834 0 0 0 0 -84.385378188919276 378.47310226947593 0 378.47310226947593 270.30487695366446 0 0 0 0 -164.68354766391712 293.02786655081218 0 293.02786655081218 297.98642762684176 0 0 0 0 378.58195867354516 432.54741573250431 0 432.54741573250431 159.49259967175931 0 0 0 0 -87.340940831960324 184.01902058637825 0 184.01902058637825 59.768775289638143 0 0 0 0 210.57890861986016 158.12851604245952 0 158.12851604245952 -258.26916119425732 0 0 0 0 34.592112388423629 68.006572629263246 0 68.006572629263246 3.5204346291793627 0 0 0 0 544.49603715328703 276.2658036563862 0 276.2658036563862 77.941101512955356 0 0 0 0 785.18848651444932 87.326884476573468 0 87.326884476573468 226.10942237171548 0 0 0 0 246.54790213059096 36.833323293807553 0 36.833323293807553 -16.726634887556429 0 0 0 0 202.55484019146752 63.195681627912563 0 63.195681627912563 328.83918349805663 0 0 0 0 -100.18631982704756 20.225381595844738 0 20.225381595844738 -61.333903225924587 0 0 0 0 -126.11274585419073 -189.579225249101 0 -189.579225249101 -98.173516482696868 0 0 0 0 110.6506131577662 -48.275360874216858 0 -48.275360874216858 -135.15599583932908 0 0 0 0 -37.391564405539611 -68.762922429714308 0 -68.762922429714308 39.022979262001172 0 0 0 0 117.07503516470024 -10.55000322117121 0 -10.55000322117121 148.97727375331533 0 0 0 0 194.36117824677058 84.385503562909435 0 84.385503562909435 -58.055855055801658 0 0 0 0 36.953076820773276 60.595406702492255 0 60.595406702492255 86.85001671226928 0 0 0 0 255.03008110156952 227.60101878111527 0 227.60101878111527 147.1447769041315 0 0 0 0 135.24500000890293 166.14168091968259 0 166.14168091968259 258.58752221889881 0 0 0 0 194.15046676100701 77.87114209658148 0 77.87114209658148 -16.695995944377501 0 0 0 0 318.01962421479766 211.4367347525731 0 211.4367347525731 90.035722626529605 0 0 0 0 644.03356569267635 470.2350266853864 0 470.2350266853864 280.69107305227953 0 0 0 0 689.4479527003059 417.34400677488884 0 417.34400677488884 218.86928522894959 0 0 0 0 441.48075542951483 310.52413928724854 0 310.52413928724854 884.11069765952197 0 0 0 0 1417.0961731661846 654.55907105374899 0 654.55907105374899 244.19170070299879 0 0 0 0 1.0772566377979942 4.8156573155506166 0 4.8156573155506166 -5.2057051519931719 0 0 0 0 462.3945819145265 312.18501620551979 0 312.18501620551979 258.18956290155711 0 0 0 0 237.58667668699673 195.72332739420926 0 195.72332739420926 327.51513303545653 0 0 0 0 -12.100520410817182 8.960101914775386 0 8.960101914775386 -6.576650979419469 0 0 0 0 -90.845537072425941 236.20130956163848 0 236.20130956163848 357.54654075184226 0 0 0 0 -100.60121723875272 -173.28281123430679 0 -173.28281123430679 -198.9219668424812 0 0 0 0 -1.9317592120096378 -243.3504580223771 0 -243.3504580223771 -313.95914799446837 0 0 0 0 -192.20307991593654 -97.79401228054121 0 -97.79401228054121 -24.790527146720706 0 0 0 0 -24.81465049921826 10.798276994210028 0 10.798276994210028 -232.64311551882929 0 0 0 0 -28.310931812564377 -4.9929386526728194 0 -4.9929386526728194 118.92203233955297 0 0 0 0 11.960934469185304 1.0653086305173929 0 1.0653086305173929 -97.5507577266726 0 0 0 0 -94.422117539856117 -68.620983235035965 0 -68.620983235035965 -67.404023765007878 0 0 0 0 -91.737481579635642 -39.044863137929497 0 -39.044863137929497 -137.44404886198845 0 0 0 0 -52.970655539564177 110.19360940555998 0 110.19360940555998 -129.1667902222398 0 0 0 0 -290.6295396716705 93.034960285716807 0 93.034960285716807 -29.908353016280671 0 0 0 0 188.81040424760795 221.87239860610316 0 221.87239860610316 72.527064350931596 0 0 0 0 121.69374601134768 232.20949502565782 0 232.20949502565782 -52.849224198955653 0 0 0 0 11.113136387768463 16.874358113734161 0 16.874358113734161 -18.092128526739543 0 0 0 0 166.11792722296195 133.86524961529358 0 133.86524961529358 150.89828501570446 0 0 0 0 416.93913179667288 353.23229114032074 0 353.23229114032074 69.797664709414676 0 0 0 0 59.105167984471336 145.89141811722584 0 145.89141811722584 104.04001758980667 0 0 0 0 -16.960147238814898 84.928445762409865 0 84.928445762409865 -162.05884078848612 0 0 0 0 -125.38470325650997 369.38513573064483 0 369.38513573064483 -63.466644936807825 0 0 0 0 9.711249029096507 105.0897229961289 0 105.0897229961289 1.050862674775999 0 0 0 0 665.61858728422158 470.42613466564399 0 470.42613466564399 166.61522532928575 0 0 0 0 5.4601029477817065 84.150795374857807 0 84.150795374857807 25.266949135891991 0 0 0 0 -4.7647339423473127 20.994086553112012 0 20.994086553112012 -39.557501171653328 0 0 0 0 411.87053668373846 338.77824760517706 0 338.77824760517706 344.83991745315143 0 0 0 0 678.79037258063181 375.82257604107326 0 375.82257604107326 107.68916639433314 0 0 0 0 413.77975634058748 138.00865110181076 0 138.00865110181076 -50.765443727479578 0 0 0 0 883.32216067615082 577.5893973244838 0 577.5893973244838 39.795297391172426 0 0 0 0 849.05617356514995 79.577280367406274 0 79.577280367406274 86.707142431074317 0 0 0 0 97.438061094997465 108.00129474968088 0 108.00129474968088 19.410877591402823 0 0 0 0 -5.5297192494954999 17.055183165587003 0 17.055183165587003 -36.955555745569391 0 0 0 0 92.718594238336664 74.454558190473563 0 74.454558190473563 -10.620873508261866 0 0 0 0 15.508350901232916 45.779861176304621 0 45.779861176304621 13.382265269119443 0 0 0 0 1.0004653614651033 73.998910576416165 0 73.998910576416165 36.80237554377527 0 0 0 0 57.652893149854663 94.876276336513001 0 94.876276336513001 42.030479560640742 0 0 0 0 58.907795610630274 96.34543723979823 0 96.34543723979823 13.927807607815339 0 0 0 0 123.43113709581849 80.646245411091513 0 80.646245411091513 -5.1992374570800166 0 0 0 0 89.133774093086686 72.670004252238869 0 72.670004252238869 23.186133154155755 0 0 0 0 105.49006674483098 108.84957323304116 0 108.84957323304116 -43.242004429021108 0 0 0 0 152.45539300930614 149.07773773764802 0 149.07773773764802 -16.609055290675315 0 0 0 0 107.65426164055134 201.30344222419808 0 201.30344222419808 52.851050185797021 0 0 0 0 52.354703153043374 129.94523044143898 0 129.94523044143898 43.440304341745332 0 0 0 0 4.9304496945951541 102.57642573036901 0 102.57642573036901 45.168858083990926 0 0 0 0 103.86395341182833 108.67197421970627 0 108.67197421970627 16.739957967769442 0 0 0 0 51.062511427902791 346.96954247070607 0 346.96954247070607 -500.22055117790114 0 0 0 0 -2.922386300057596 1.5062173785620203 0 1.5062173785620203 0.013985396774305769 0 0 0 0 -258.69036540323759 280.24328603906531 0 280.24328603906531 -111.39980644958996 0 0 0 0 225.27884141905452 798.37905739746748 0 798.37905739746748 128.02515641122045 0 0 0 0 108.27876351509622 647.38200826139473 0 647.38200826139473 -53.093065017759727 0 0 0 0 92.361543171587982 389.79830880005647 0 389.79830880005647 732.99659541935398 0 0 0 0 396.60407404802027 434.99901925271479 0 434.99901925271479 751.79739023132061 0 0 0 0 123.02819615338433 75.007248391763312 0 75.007248391763312 -54.132049269232084 0 0 0 0 -5.1433668814411959 12.676195994857672 0 12.676195994857672 -23.662901058084834 0 0 0 0 156.10600060299839 121.08732696156949 0 121.08732696156949 -95.329179349620063 0 0 0 0 58.3535266169838 50.261424199255998 0 50.261424199255998 415.30394923031781 0 0 0 0 -3.6598346639766532 327.54117698096434 0 327.54117698096434 259.3022705195358 0 0 0 0 -1.9839215885466963 4.1879903744573781 0 4.1879903744573781 -7.9068915458668982 0 0 0 0 99.316479263838119 404.16477623066203 0 404.16477623066203 -355.77902746316613 0 0 0 0 47.007584327196128 -300.94009370337085 0 -300.94009370337085 -461.18194067149125 0 0 0 0 211.6318330410727 154.05187260920684 0 154.05187260920684 -75.792191603239189 0 0 0 0 813.58792778584257 277.09041299773776 0 277.09041299773776 -721.03204595527859 0 0 0 0 549.17721353327261 746.5052109612102 0 746.5052109612102 166.09072330306299 0 0 0 0 -353.79383365071772 -167.07844221936648 0 -167.07844221936648 74.167127946744586 0 0 0 0 -19.474767441231961 235.57785391423477 0 235.57785391423477 179.29521181913333 0 0 0 0 241.10064888321904 323.31897629692503 0 323.31897629692503 30.650118735123215 0 0 0 0 109.87488622666024 182.5541015212707 0 182.5541015212707 -41.381956109516977 0 0 0 0 207.16704685752666 228.9296583918931 0 228.9296583918931 -228.60516817222742 0 0 0 0 21.91688516258273 362.80864897759056 0 362.80864897759056 266.3988253098978 0 0 0 0 -61.96032649103654 264.44453206313165 0 264.44453206313165 189.98225174430081 0 0 0 0 -84.308923468135163 277.21063900027548 0 277.21063900027548 283.62387168881287 0 0 0 0 -228.74363888910011 270.28820834526232 0 270.28820834526232 300.50841115976527 0 0 0 0 -42.861716535915548 203.44022185696303 0 203.44022185696303 196.32295497526047 0 0 0 0 -144.30073999325214 223.7275999008807 0 223.7275999008807 245.67323819152443 0 0 0 0 -185.11746681954355 176.81737439773315 0 176.81737439773315 264.09895476103338 0 0 0 0 -316.82112206851616 231.36665064031422 0 231.36665064031422 330.22929232992647 0 0 0 0 -152.40117373116755 66.100338497835764 0 66.100338497835764 369.9205157130873 0 0 0 0 -337.94449383668598 63.165175822526976 0 63.165175822526976 409.02825370830396 0 0 0 0 -174.35760440923104 8.9667645286190236 0 8.9667645286190236 478.51530068296415 0 0 0 0 -132.34951764875132 14.649992655110509 0 14.649992655110509 412.12912571505149 0 0 0 0 -99.007532524661201 -2.8379366018561996 0 -2.8379366018561996 342.73939255253572 0 0 0 0 -74.186817862171665 -78.021724713160438 0 -78.021724713160438 476.85312740601057 0 0 0 0 -182.52215141306078 137.51279349854644 0 137.51279349854644 345.17407569681382 0 0 0 0 -173.83342263336908 145.43323820510341 0 145.43323820510341 350.60622058750619 0 0 0 0 -126.56808232599997 78.584429031576292 0 78.584429031576292 290.9769968673445 0 0 0 0 -103.95811722941562 49.939036248467346 0 49.939036248467346 325.98052650633144 0 0 0 0 -67.598141937269702 95.053507423453993 0 95.053507423453993 379.97712341570877 0 0 0 0 -1.5357404573217295 0.5064375474388898 0 0.5064375474388898 3.4776410991737237 0 0 0 0 -50.433550884190481 -62.378327796409394 0 -62.378327796409394 362.30529240893509 0 0 0 0 -37.194860413217611 -88.565637995961879 0 -88.565637995961879 390.23166596153533 0 0 0 0 -51.423458429723723 -38.756305436061666 0 -38.756305436061666 258.49544689506365 0 0 0 0 73.785697247359167 -39.737987154552684 0 -39.737987154552684 349.83184127825371 0 0 0 0 -102.93253821736744 102.13427723307268 0 102.13427723307268 388.14835986952801 0 0 0 0 45.718879127468199 -40.458348371305419 0 -40.458348371305419 -61.661333597154226 0 0 0 0 3.667958905980413 56.262998060637983 0 56.262998060637983 -62.71885884216681 0 0 0 0 -4.5484891936793446 23.498174527793772 0 23.498174527793772 30.808635159139293 0 0 0 0 -83.933936712913237 81.20601242560042 0 81.20601242560042 27.880694643896277 0 0 0 0 -53.243886912414609 -33.70442988930381 0 -33.70442988930381 101.05775928088769 0 0 0 0 0.64937598159985654 5.8047151277150792 0 5.8047151277150792 -0.94327130326226083 0 0 0 0 -70.541438641696459 32.740440134251571 0 32.740440134251571 15.839596927669845 0 0 0 0 -73.750211137645238 108.36522936401525 0 108.36522936401525 124.29011663687197 0 0 0 0 -74.304559455502385 74.715612502639488 0 74.715612502639488 73.327044481477969 0 0 0 0 4.1688648477465904 93.734556695430001 0 93.734556695430001 21.891718143861908 0 0 0 0 -108.79462631322531 134.24614110851871 0 134.24614110851871 150.85993781993511 0 0 0 0 -2.2255541187694234 136.90705359511026 0 136.90705359511026 122.07049360039491 0 0 0 0 -108.25739948674294 142.35241884444753 0 142.35241884444753 272.88043814062257 0 0 0 0 -128.92409989829412 61.850388103200203 0 61.850388103200203 172.20554264329712 0 0 0 0 
</DataArray>
<DataArray type="Float64" Name="cross_section_updated" format="ascii">
1 1 1 1 0.009120315914673445 1 1 1 1 1 1 1 1 1 1 1 1 1 1 1 1 1 1 1 1 1 1 1 0.00802680383790229 1 1 1 1 0.0089046927241839286 1 1 1 1 1 1 1 1 0.0097974175939255365 1 1 1 1 0.0090322557821163121 0.0098928405894066034 1 1 1 1 1 1 1 0.0098060511759614777 1 1 0.010696768010912162 0.010655005659957329 0.0081327893114436257 1 0.010965597261507167 0.010000734003590417 0.010627958683058979 1 1 1 0.010737374947347157 1 1 1 1 1 1 1 1 1 1 1 1 1 1 1 1 1 1 1 1 1 0.010749325319746459 1 1 1 1 1 1 0.009690958231712626 1 1 0.0097068956609349215 1 0.010084396620333943 1 1 1 1 0.0084766348511176089 1 1 0.0095465297560779466 1 1 0.0091229952151822506 1 1 1 0.010140017242854614 1 1 1 1 1 1 1 1 1 1 1 1 1 1 1 1 1 1 1 1 1 1 1 1 1 1 0.010552940081547087 1 1 1 0.00971603305486444 1 1 1 1 1 1 1 0.0091761281817851377 1 1 1 1 0.009507552837321416 1 1 1 0.0098403270585023586 1 1 1 1 1 1 1 1 1 1 1 1 0.0095543923868813222 1 0.0043492742355550644 1 1 1 0.0087413197494985405 1 1 1 1 1 1 1 1 1 1 1 1 0.0080855445544565866 0.006023340882519837 1 1 1 1 0.0099280665572834877 1 0.010257443452529253 1 1 1 1 1 1 1 1 1 1 1 1 1 1 1 1 1 1 1 1 1 1 1 1 0.010497064658358646 1 1 1 1 1 1 1 1 1 0.010203793341897201 1 0.0099483440950512425 1 1 1 1 1 0.010023314358827015 1 1 1 1 1 1 1 0.0084922752060733256 1 1 1 1 0.0095338709725627073 1 1 1 1 1 1 1 1 1 0.0031407532759021341 1 1 1 1 1 1 1 1 0.0029299058700849572 1 0.014330998667318243 1 1 0.0055292013520255954 1 1 1 1 1 0.0099308934073486822 1 1 1 1 1 0.012250340395689193 1 1 1 1 1 0.012048082289066614 1 1 1 1 1 1 1 1 1 1 0.010967047682143623 1 0.012004949658253701 1 1 1 1 0.013449694756053138 1 0.010431493115371063 1 1 1 0.010837488835180195 1 1 1 0.012503595291669794 1 1 1 1 1 1 0.0098414679839454369 1 1 0.0099764719972385701 1 1 1 1 1 1 1 1 1 1 1 0.01286451401733928 0.0057042798956007477 1 1 0.013416812203551077 1 1 1 1 1 1 1 0.006875822011223511 1 1 1 1 1 1 1 0.010001909356326591 1 0.010104334350490969 1 1 1 1 1 1 1 1 1 1 1 0.010162051620917711 1 1 1 1 1 1 0.010048023338224627 1 1 1 1 1 1 1 0.017287586362093342 1 1 0.016570349511365219 1 1 1 0.014406252450927299 1 1 1 1 1 1 0.011072318899606609 1 1 1 0.010453346391470227 1 1 1 0.0099736322754229844 1 1 0.010278334323948519 1 1 1 1 0.014081122335052203 0.010138160530524305 1 1 0.0041431520756641501 0.008077608263127551 1 1 1 1 0.011399975472096282 1 1 1 1 1 1 1 0.010445215392656635 1 1 1 1 0.0094331452204014562 1 1 1 1 1 1 1 0.0083399502112089449 1 1 1 0.0096477853072893215 1 0.0089204644183934114 1 0.01002006849823223 1 1 1 1 1 0.0096935801541203834 1 1 1 0.0097842716157751468 1 0.009928473927278858 1 1 0.0096475554169026326 1 1 0.010030832443699473 1 1 1 1 1 1 1 1 1 1 1 1 1 1 0.0098838296341994744 1 1 1 1 1 1 0.011803136802066204 1 0.011198488481263435 1 1 1 1 0.010995955455587429 1 1 1 1 0.0099900609320100406 1 1 1 1 1 1 0.010746861240296746 1 1 1 1 1 1 1 0.010005670424867408 1 1 1 1 1 0.0099983310136773362 1 1 1 1 0.00999272049406413 1 1 1 1 0.011556808221054963 1 1 1 1 1 1 1 0.010976758895637701 1 1 1 1 1 1 1 1 1 1 1 0.0092196156090257469 1 1 1 1 1 1 1 1 0.0092804870961449345 1 1 1 1 1 1 1 1 1 1 1 1 1 1 1 1 0.010103587771059408 1 1 1 1 1 1 1 1 1 1 1 1 1 1 1 1 1 1 1 1 1 1 1 1 1 1 1 1 1 1 1 1 1 1 1 1 1 1 1 1 1 1 1 1 1 1 1 1 1 1 1 1 1 1 1 1 1 1 1 1 0.010087074549696644 1 1 0.010068918480470385 1 1 1 1 1 1 1 1 1 0.010259199044335431 1 1 1 1 0.010172124494638784 1 1 1 1 1 1 1 1 1 1 1 1 1 1 1 0.010298676556336804 1 1 1 1 1 1 1 1 1 1 1 1 1 1 0.0097477215983087454 1 1 1 1 1 1 1 1 1 0.0099929556016470338 0.0093828318611481418 1 1 1 0.0099928771943937622 1 1 1 1 1 1 1 1 1 1 1 1 0.0093853350048558343 1 1 1 1 1 1 1 1 1 1 1 1 1 1 1 1 1 1 1 1 1 1 1 1 1 1 1 1 1 1 1 1 1 1 1 1 1 1 1 1 1 1 1 0.010573562868806209 1 1 1 1 1 1 0.0099344088356134279 1 1 0.010489026857181128 1 1 1 0.010503861904788546 1 1 1 1 1 1 1 1 1 1 1 1 1 1 1 1 1 1 1 1 1 1 1 1 1 1 1 1 1 1 1 1 1 1 1 1 1 1 1 1 1 1 1 1 1 1 1 1 1 1 1 1 1 1 1 1 1 1 1 1 1 1 0.0097505267732175532 1 1 1 1 1 1 1 1 1 1 1 1 0.010185748892822373 1 1 1 1 1 1 1 1 1 1 1 1 1 1 0.010705807493740848 1 0.0073210815874757921 1 1 0.0065435800269813185 1 1 1 0.01000031104720636 1 1 1 1 1 1 1 0.0054305954415614166 1 0.005452712967514671 1 1 1 1 1 0.010230847056700158 1 1 1 1 1 0.012367603671081747 1 1 1 1 1 0.0049505229367292477 0.0098921057646359483 1 1 1 1 1 0.0099944786262442208 1 1 1 0.003063643515095733 1 0.012976520673567374 1 1 1 0.0045887699323634975 1 0.014027149666128509 1 1 1 0.012993377569287659 1 0.0057366108560058682 1 1 1 1 0.0055655248483922372 1 1 1 1 1 1 1 1 1 1 0.00412369403542567 0.01007887547569411 1 0.020311880098177214 1 1 0.01276431634533476 1 1 0.0098193980529308611 1 1 1 1 0.010114016644348184 1 1 1 1 1 1 1 1 1 1 1 1 1 1 1 1 1 1 1 1 1 1 1 1 1 1 1 1 1 1 1 0.014930187065690248 1 0.0098360625888398029 0.010944705576106726 1 1 0.0093629614659349238 1 1 1 1 1 1 1 1 1 1 1 1 1 1 1 0.0099246969071197129 1 1 1 1 1 1 1 0.017634816737768507 1 1 1 1 1 1 1 0.009826554879390683 1 1 1 1 1 1 1 0.011438467337334991 1 1 0.0094816914217368264 1 1 1 1 1 0.009903708860322798 0.007638300476390452 1 1 1 1 1 0.0083159906832702326 1 1 1 1 0.01239222709584961 1 1 0.0099637103548437748 1 1 1 1 1 0.010834134353147831 0.0099119672819325665 1 1 1 1 1 1 1 1 1 1 1 1 0.0075999791571711656 1 1 1 1 1 1 1 1 1 1 1 1 1 1 1 1 1 1 1 1 1 1 1 1 0.0099144652651348489 1 1 1 1 0.010171485037987633 1 1 1 0.012494444021318805 1 1 1 1 1 1 1 0.013445763399201713 1 1 1 1 1 0.013376229678793525 1 1 1 1 1 1 1 1 1 1 1 1 1 1 1 1 1 1 0.0097094066873143776 1 1 1 1 1 1 1 1 1 1 1 0.010467016080407888 0.0089143047914710602 1 1 1 0.00961277100753191 0.010497792773316764 1 1 1 0.012513363208873413 1 1 0.013055125143741799 1 1 1 0.013904216686466575 1 0.009464434329858204 0.011217241198959987 1 1 1 1 1 1 1 1 1 1 1 1 0.012629527583310972 1 1 0.010720780668235357 1 1 0.010238689398980799 1 0.012059216208105603 1 1 1 0.010121983783647004 1 1 1 1 1 1 1 1 0.010000666346824236 1 1 1 1 1 0.010206645314436852 1 1 1 1 1 1 1 0.010015139370097738 1 1 1 1 1 1 1 1 0.0087130864008221776 1 0.0099921785720897133 1 1 1 1 0.0096800523018654785 1 0.010362959565917993 1 0.011700145345906496 1 0.0098387775752672522 1 1 1 1 1 1 1 0.010577558895673455 1 1 0.010037153070159566 1 0.010501418008573385 1 0.0098459910121960516 1 1 0.0099479620695802594 1 1 1 1 1 1 1 1 0.0099631699872500881 1 1 1 1 1 1 0.0099963953001711969 1 1 1 1 1 1 1 1 1 1 1 1 0.010168772779344843 1 1 1 0.01125207204234498 1 1 1 1 1 1 0.010238818747996505 1 1 1 1 1 1 1 1 1 1 1 1 1 1 1 1 1 1 1 1 1 1 1 1 1 1 1 0.010875840568640174 1 0.0099864311829467155 1 1 1 1 1 1 1 1 1 1 1 1 0.010680665559033825 1 1 0.0099081113575036489 1 1 0.0090469519988652485 1 1 1 1 1 1 1 1 1 1 1 0.008390598885414921 1 0.0085070552606990694 1 1 1 1 1 1 1 1 1 1 1 1 1 1 1 1 1 1 1 0.01070046273454058 1 1 1 1 0.0096483916623115173 1 1 1 1 0.0075078456400673333 1 1 0.0085511648092452836 0.0090868664621669946 1 1 1 1 1 1 1 1 1 1 1 1 1 0.0099811081650310243 1 1 1 1 1 1 1 1 1 0.0099392882221499002 1 0.011109592236955065 1 1 1 1 1 1 1 1 1 1 1 1 1 1 1 1 1 1 0.01109669303646107 1 1 1 1 1 1 1 1 1 1 1 1 1 1 1 1 1 1 1 1 1 1 1 1 1 1 1 1 1 1 1 1 1 1 1 1 1 1 1 1 1 1 1 1 0.010003599616872824 1 1 1 1 1 1 1 0.010874934011158851 1 1 1 1 1 1 1 1 1 1 0.010407758203583599 1 1 1 1 1 0.0095625865314070361 1 1 1 1 1 1 1 1 1 1 1 1 1 0.0091980860285337859 1 1 0.0090934073667043019 1 0.0094729447010429325 1 1 1 1 1 1 1 1 1 1 1 1 1 1 1 1 1 0.0060863116728816398 0.0099565751320993094 1 0.010332158319029939 1 1 1 1 1 1 0.0092554546022404378 0.0079792270933613275 1 0.0086716130423626133 1 1 1 1 1 1 0.010363304592683363 1 1 1 1 1 1 1 1 1 1 1 1 0.011314289606789239 1 1 0.009348690609262968 1 1 1 1 1 0.010872157968102356 1 0.01136789234288391 1 0.012235961194931731 1 1 1 1 1 1 1 1 1 1 1 0.013628826605182422 1 0.0099757343269066458 1 1 0.010011235079490591 1 1 1 1 1 1 1 1 1 0.010407767304038031 0.013708742348684974 1 1 1 1 0.014260275876360622 0.012585013128345585 1 1 1 0.014893787522617675 1 1 1 0.010601523008223443 1 1 1 1 1 0.012796008949213724 1 1 0.01194302346033323 1 0.012141201822128012 1 1 1 0.012266084766116635 1 1 1 1 1 1 0.012630474865382473 1 0.013096401223537227 0.0093689755271395159 1 1 1 1 1 1 1 0.011703266922400146 1 1 0.014957574054790552 1 0.0098724287472513814 1 1 1 1 1 1 1 1 1 1 1 1 1 1 1 1 1 1 1 1 1 1 1 1 1 0.011155768910383512 1 1 1 1 1 1 1 0.014024577976328372 1 1 1 1 0.010283747240298177 1 1 1 1 1 1 1 1 1 1 1 0.01038772059866744 1 1 1 1 1 1 1 1 1 0.01045186087058125 1 1 1 1 1 1 1 1 1 1 0.011923532016923104 1 1 0.011171348785634534 1 1 1 1 1 1 1 0.0134055066642189 1 1 1 0.01016523108573451 1 0.0068595768927874985 1 0.0063733556747371852 1 1 1 1 1 1 1 1 1 1 1 1 1 1 0.010059634211467782 1 1 1 0.011582126562062225 1 1 0.010133765625320925 1 1 1 1 1 1 1 1 1 1 1 1 1 0.0097236094920298 1 0.0080209337178811478 1 1 0.0096353724506930711 1 0.0099796928495571782 1 1 1 1 1 1 1 0.0096346843758814971 1 1 1 1 1 1 1 0.0078404657876205777 1 1 1 0.010001876595519262 1 1 1 1 1 1 0.010600366182805569 1 1 1 1 0.014126241081973901 1 1 1 1 1 1 1 1 1 1 1 0.0091678225392394803 1 1 1 1 1 0.007623684219113247 0.0092146783803278669 1 1 1 0.010158766846315493 0.014001473505308747 1 1 1 0.013345699298961154 1 1 0.013887097618332423 1 1 0.0067893887690390967 1 0.011598564299482606 0.015468070422951737 1 1 1 1 0.0048353282387826185 1 1 1 1 1 1 0.0098717256189448498 1 1 1 1 1 0.0096365419085127826 1 1 1 1 1 0.0099772136223841724 1 1 1 1 1 1 1 1 1 1 1 1 1 0.01009890702332733 1 1 1 1 1 0.010503599130900231 1 0.016570092577839857 1 1 1 1 1 1 0.015709698429668663 1 1 1 1 1 1 0.01325540060118607 0.0069100681289166622 0.010064203603747466 1 1 1 0.009951528464156369 1 1 1 1 1 1 1 1 1 1 1 0.010167022532951608 1 1 1 1 1 1 1 1 1 1 1 1 0.010805250151265103 0.010627302661900513 0.013849725999830217 1 1 0.010251034305429486 1 1 1 0.015867014057084586 1 1 0.012595158460798343 1 0.010599565053723677 1 0.010151986983471615 1 0.012977203128547816 0.018278895752374499 0.0099809105287502701 1 1 1 1 1 0.016114727492292518 1 1 0.013049125379412128 1 1 1 0.014824727637025692 1 0.0094112319865226179 1 1 1 1 0.0098587970789129325 1 1 1 1 1 1 1 0.012194886832703148 1 1 1 1 0.010037435560940985 1 1 1 1 1 1 1 0.01069746851921906 1 1 0.0099285811321439786 1 1 1 1 1 0.010552718083468806 1 1 1 1 1 1 1 1 1 0.011532719115459519 1 1 1 1 1 1 1 0.010453026796952581 1 1 1 1 1 0.010290187241014907 1 1 0.010884905696694494 1 1 1 1 1 1 1 1 1 1 1 1 1 1 1 1 1 1 1 1 1 1 1 1 1 1 1 1 1 1 1 1 1 1 1 1 1 1 1 1 0.010869026793665179 1 0.0099570207629562646 1 0.0097037757364998728 1 1 0.015358027507334431 1 1 1 1 1 1 1 1 1 0.009204219016333717 0.012972396545154356 1 1 1 1 0.014328492581527337 1 1 0.014797107215803105 1 1 1 1 1 0.0099458000081269482 1 1 1 0.012642259445401153 1 0.010600746928962852 0.011247549316716841 0.012571545739555344 1 1 1 1 1 1 1 1 1 1 1 1 1 1 1 1 1 1 1 1 1 1 1 1 1 1 1 0.010796049873978556 1 1 0.01129323688397748 1 1 0.010697035175308612 1 1 1 1 1 0.01073449385115495 1 1 0.01062513176882518 1 1 0.011987829122152058 0.0067997420415243544 1 0.011668834783954932 0.0071999081721980497 1 1 1 0.01000680004641669 1 0.010128258721041001 1 1 1 1 1 1 1 0.010859992980539065 1 1 1 1 1 1 1 1 1 1 1 1 1 1 1 1 1 1 1 1 1 1 1 1 1 1 1 1 1 1 1 1 1 1 1 1 1 1 1 1 1 1 0.0098165574795635365 1 1 1 1 1 1 0.010010279494451671 1 1 1 1 1 1 1 1 1 1 1 1 1 0.0095557369419304664 1 1 1 0.0087788708179972197 1 1 1 1 1 1 1 0.0079664187081013669 1 1 1 1 1 1 1 1 1 1 1 1 1 1 1 1 0.0092249928007293331 1 0.011217519697959569 1 1 0.0084501939171272768 1 1 1 1 0.009994927991052999 1 1 1 1 1 1 1 1 1 0.0087959727276777123 1 1 0.011141683376505482 1 0.0099460980650675334 1 1 1 1 1 0.0092785954980215187 1 1 0.0097581988586739228 1 1 1 1 1 0.0097317249738279824 1 1 1 0.0084454748312015222 1 1 1 1 0.0082520127053797142 1 1 1 0.0099087955764637792 1 1 1 1 1 1 0.011604371604006229 1 1 1 0.011928786552446901 1 1 0.010171431074763614 1 1 0.0078441588308371581 1 0.0056959897043493638 0.01088172843726308 1 1 1 1 1 1 1 1 1 1 1 1 1 1 1 1 1 1 1 1 1 1 1 1 1 1 1 1 1 1 1 1 1 1 1 1 1 1 1 1 1 1 1 0.010607653531181191 1 1 0.010068115509624276 1 1 1 0.010249843223986161 1 1 1 1 1 1 1 1 1 1 1 0.010018105520784453 1 1 1 1 1 1 1 1 0.0093603939550901665 1 1 1 1 1 1 1 1 1 1 0.0097391794623669353 1 1 0.010149934632956114 1 1 0.0099214817755756222 0.012318429363831465 1 1 0.0082344376477869949 1 1 1 1 1 1 1 1 1 1 1 1 1 0.0099359497510296581 1 1 0.0073408969449168544 1 1 1 1 1 1 1 1 0.009893370552773036 1 1 0.011396693895257739 0.009927265858072248 1 0.0071684720848532594 1 1 1 1 0.010056374847821653 1 1 1 1 0.013993439720887898 1 1 1 1 1 1 1 1 1 1 1 1 0.010114563696991955 1 1 1 0.0065547515263618605 1 1 1 1 1 1 0.0097405243346270175 1 1 1 1 0.010031028649591829 1 1 0.012781854723722936 0.01061781077385328 1 1 1 1 1 0.0058953694878345047 1 1 0.013245247110073334 1 1 1 1 1 1 1 0.0082951769902395653 1 0.01418962198924148 1 1 1 1 1 1 1 0.015211897499233143 1 1 1 1 1 1 0.015687136092655291 1 1 1 1 0.0099983574098502174 1 1 1 1 1 0.0087447099484564556 1 1 1 1 0.010032572589746502 1 1 1 1 1 1 1 1 1 1 0.010230481116987836 1 1 0.0082340512549868329 1 0.0095529165032258775 1 1 0.010648993587456846 0.010528439500114888 1 1 1 0.0099961587065054737 1 1 1 1 1 1 1 0.0093873468257353009 1 1 1 1 1 1 0.0097888552197625198 1 1 1 1 1 1 0.0095603106988079896 1 0.012404749203668099 0.010067745101390795 1 1 1 1 0.014675973976988726 1 1 1 0.009845620450792918 1 1 1 1 1 1 1 1 1 1 1 1 1 1 1 1 1 1 1 1 1 1 1 1 0.010205369567441334 1 1 0.010611343255228599 1 1 1 1 1 0.012721115739992399 0.0073910892466175849 1 1 0.0098889160698172884 1 1 1 1 0.0098176021942092493 1 0.0096789902393183396 1 1 1 1 0.0098760853780847698 1 1 1 1 1 1 1 0.0098803271190238927 1 1 1 1 1 1 0.010005998502882994 1 1 0.010571656050848349 1 1 0.011017402055639948 1 1 1 0.0080005014473468923 0.010769006171415215 1 1 0.00606128920251469 1 1 1 1 1 0.0060727977800063369 1 1 1 1 1 1 1 1 1 0.010083493221265652 0.0061768670714850652 1 1 0.0095805319669694626 1 1 1 1 1 1 1 1 1 0.0066750432520890279 1 1 0.0070924989390636463 1 0.010603056418067403 1 1 0.010628336105506501 1 0.0098340145753837843 1 1 1 0.0096031268213742325 1 1 0.010018611955056763 1 0.0063984259437448046 1 1 1 1 1 1 1 1 0.010348987719182239 1 0.010017524209855758 1 1 1 0.0096230511563570771 1 1 1 1 1 1 0.010074995059592112 1 1 1 1 1 0.0097962547700545192 1 0.0099996656670110623 0.0099402797255479618 1 1 1 1 1 0.010015045464799711 1 1 1 0.010121095732995428 1 0.0089327257530806333 1 1 1 1 1 1 1 1 1 0.0097381858587898135 1 1 0.0096153510754987525 0.0086051870066305748 1 1 1 0.0072662197035383257 1 1 1 1 0.0096146052870520887 1 0.0098762226245738861 1 1 1 1 1 1 1 1 0.010239268359718763 1 0.010834087950281714 1 1 1 1 1 1 1 1 1 1 1 0.009708880693694872 1 1 1 1 1 1 1 1 0.011596607380775831 1 0.0066010840823811801 0.010688061015448979 1 0.0095530416775922895 1 1 1 1 0.0093172062137650523 1 1 1 0.0098371335123849744 1 1 1 1 1 1 0.0096930794467933769 1 1 1 1 1 0.0065317744887454614 0.012664739975130465 1 1 1 1 1 1 1 1 1 0.0097273778493153999 1 1 1 1 1 1 1 1 1 1 0.0093357033693855819 1 1 1 1 1 0.0097617709229105912 1 0.01063358796100263 1 0.0073408968207932211 1 1 1 1 1 1 1 1 0.01086264292827629 1 1 1 1 1 1 1 1 1 1 1 1 1 1 1 1 1 1 1 1 0.0096076764233648665 1 1 1 1 1 1 1 1 1 0.0084382148886615917 1 1 1 1 1 0.0089487468208426825 1 1 1 1 1 1 1 0.01015620143549816 0.011084914797031725 1 1 0.010050715056821263 1 1 1 1 1 1 1 1 1 0.0098230807445844164 1 0.0099993987390526798 1 1 1 1 1 0.0099994565726249061 1 1 1 1 1 1 1 1 1 1 1 1 1 0.010682667610977654 0.010237902466622983 1 1 1 1 1 1 1 1 1 1 1 0.0094471697269007185 1 1 0.010045482051217913 1 0.010474572315570925 0.010741730066581186 1 0.0094357531772551496 1 0.010667900111582152 1 1 0.010000818722631585 1 1 1 1 0.010820719405735427 0.0107765211444611 1 1 1 1 1 1 1 1 1 1 1 1 0.0098983462196189208 1 1 1 1 1 1 1 0.010110355778184905 0.010417679090761599 1 0.0093183725004315193 1 0.011243949648822939 1 1 1 1 1 1 0.010316226146821775 1 0.009803632345705398 1 1 1 1 1 1 0.0099166078156900078 1 0.0099089734173028968 1 1 1 1 1 1 1 1 1 1 1 1 1 1 1 1 1 1 1 1 1 1 1 0.010290016197992493 1 1 1 0.010102883930067195 1 1 0.010024030906818044 1 1 0.012188867833969143 1 1 1 1 1 1 1 1 1 0.013035683597328214 1 1 1 0.008298672676593637 1 1 1 1 0.0084323359832354609 1 1 1 0.010219682853013437 1 1 1 0.012899096131678722 1 1 0.009974548501701647 1 1 1 1 1 1 1 1 0.010354523185665545 0.01103176656899053 0.0087219208958953937 1 0.010309893699458061 1 1 1 0.010103368428550769 1 1 1 1 1 1 0.0079357693563743836 0.012735244436516888 1 1 1 1 1 1 1 0.01316965473771226 1 1 0.012335353044256623 1 1 1 0.010179846940979578 1 1 1 0.012960372525487273 1 1 1 1 1 0.01507448654412866 1 1 1 1 1 1 0.01498513333270925 1 1 1 0.0095987861532593512 1 1 1 1 0.013238721993090924 1 0.0079665078424824582 0.011583408320130351 1 1 0.0098601505706519474 1 0.0086328973565292545 1 0.008301012040975983 1 1 0.011085791725011569 1 1 1 1 1 1 1 1 1 1 1 0.0098368127361601713 1 0.010031553575833128 1 1 1 1 1 1 1 1 1 1 1 1 1 1 1 1 1 1 0.010371003212845691 1 1 1 1 1 1 1 1 1 1 1 1 1 1 1 0.010777437194869177 1 1 1 1 1 0.011425025704506285 1 1 1 1 1 1 1 1 1 1 0.011669468097260854 1 1 1 1 1 1 0.0093858531050678897 1 1 1 1 1 1 1 1 1 1 1 1 1 1 1 1 1 1 1 1 1 1 1 1 1 1 1 1 1 1 1 0.010220905272130931 1 1 1 1 1 1 1 1 1 1 1 1 1 1 0.013713607387706522 0.01118245176031759 1 1 1 1 1 1 1 0.014349180392417258 1 1 1 1 1 0.01047956259651504 1 1 1 1 1 1 1 0.011880279165263423 1 1 1 1 0.010674310945789151 1 1 1 1 1 1 1 0.00040897096283368239 1 1 1 1 0.0070497357681940983 0.012855502173435326 1 0.014001180956120277 1 1 0.010280139965838429 0.012035555286063376 1 0.011939019341776248 1 1 0.012766471878319429 0.011193132467986967 1 1 1 1 1 1 1 1 0.0084020239477304581 1 1 1 1 1 1 1 1 1 1 1 1 1 1 0.0144497300887038 1 0.0075040046860458745 1 0.011000716755533631 1 1 0.0084260698919427102 1 1 0.0071858520257105148 1 0.01163217515599748 1 1 1 0.01076711262977079 0.010012882501237445 1 1 0.0099932640247649418 1 1 0.014211771701826914 1 1 1 1 1 1 1 1 1 1 1 0.0083928570863218074 1 1 1 1 1 1 1 1 1 1 1 1 1 1 1 1 1 1 1 1 1 1 1 1 1 1 1 1 0.0098737963957193954 1 1 1 1 0.0098980637329884949 1 1 1 1 1 0.014613337795444624 1 0.010530375403759468 1 0.012185441299390261 1 1 0.010072401177891568 1 1 1 1 0.010411088132328609 0.010113161363974658 1 1 1 1 1 1 1 1 1 1 1 0.01319916599915646 1 1 0.010332056325610149 1 1 1 1 1 1 0.010152209384630571 1 1 1 1 1 1 0.014379115088626895 1 1 1 1 1 1 1 1 1 1 1 0.0071967029008673487 1 1 1 1 0.013286499073853361 1 1 1 0.011656892047734584 1 1 1 1 1 0.010485047515590542 1 1 1 1 0.010630514666697833 1 1 0.011544154502771234 1 0.011855560861276041 1 1 1 1 1 1 1 1 1 1 0.011942648161875674 1 1 1 1 1 1 1 0.012501796223792772 1 1 1 1 1 1 1 1 1 1 1 1 1 1 1 1 1 1 0.0087812528032693814 0.013295266340485893 1 1 1 1 1 1 1 0.0068647404547782249 1 1 1 1 1 1 0.0092060856371873941 1 1 1 1 1 1 1 1 0.013673978914506344 1 1 0.013766997143266986 1 1 1 1 1 1 1 1 1 1 0.013400115203444878 1 1 1 1 1 1 1 1 1 1 1 1 1 1 1 1 1 0.0099957389010120554 0.012725260037963117 1 0.010789883267678879 1 1 1 1 1 0.014421389600552451 1 1 1 1 1 1 1 0.013486876541810969 1 1 1 1 1 1 1 1 1 1 1 1 1 1 0.009900961512086956 1 1 1 1 1 1 0.0096166371446674628 1 1 1 1 1 1 1 1 1 1 1 1 1 1 1 0.010250503912103064 1 1 0.0099208605107316879 1 0.010120274873562853 1 1 1 1 1 0.0097139925782485665 0.010381538483362195 1 1 1 1 0.0099050329002521153 0.0099992754480108977 1 1 1 1 1 1 1 1 1 1 0.0098257023829990651 1 1 1 1 1 1 1 1 1 0.0092391384586514459 1 1 0.011237988960799661 0.0094480524834264779 0.012468572796513368 1 1 0.012761235548263848 1 1 1 0.009884459347414826 1 1 1 1 0.015272854895875695 1 1 1 0.015585354714289385 1 1 1 1 1 1 1 0.010542089422471286 1 1 1 0.011316897335229519 1 1 1 1 1 1 1 1 1 1 1 1 1 1 0.011415328762179515 1 1 1 0.011011524062266968 1 1 1 1 1 1 0.011646768716603386 1 1 1 1 1 1 1 1 0.010255037439029615 1 1 1 1 1 1 1 1 1 1 1 1 1 1 1 1 1 1 1 1 1 1 1 0.010070954236433288 1 1 0.011482056438403701 1 1 0.010275943927058332 0.010539430860089464 1 1 0.0096621182922840554 1 1 1 1 1 1 1 1 0.0098859587127884674 1 1 1 1 1 1 1 1 1 1 0.009759939650441446 1 1 1 1 1 1 1 1 1 1 1 1 1 1 1 1 1 1 1 1 1 1 1 1 1 1 1 0.010359336603862127 1 0.010253623210624313 1 1 1 1 1 0.010144502940834597 1 1 0.0099473631653209209 1 1 0.010979810661933365 1 1 1 1 1 1 1 1 1 1 1 0.011029543228091698 1 1 1 0.012635800572097372 1 1 1 1 1 1 1 1 1 1 0.0096634116771665626 1 1 1 1 1 1 0.010836315757810163 1 1 1 1 1 1 1 1 0.010158094488038697 1 1 1 1 0.0094808907537403432 1 1 1 1 1 1 1 1 1 1 1 1 1 1 1 1 1 1 1 1 0.0099554045243618987 1 1 1 1 0.010382219586993487 1 1 1 1 1 1 1 1 1 1 1 1 1 0.010992874185541988 1 1 1 1 0.010211724517958973 1 1 1 1 1 0.010515809818228632 0.0097498101690202781 1 1 1 1 0.0099087880258301054 1 1 1 1 1 1 1 1 1 1 1 1 1 1 1 1 1 1 1 1 1 1 1 1 1 1 1 0.0081301422540461382 1 1 1 1 0.010489096575781572 1 1 1 1 1 0.010770623642725612 1 1 1 0.011096100901613351 1 1 1 1 1 1 1 1 0.0099004809801277321 1 1 1 1 1 1 0.010112148977099559 1 1 1 1 0.010014928479372749 1 1 1 1 1 1 1 1 1 1 1 0.008513289903958686 1 1 1 1 1 1 1 1 0.0093385547697239259 1 1 1 1 0.008064632151644489 1 1 1 1 0.010041372250645155 1 1 1 0.010013434528907137 1 1 1 1 1 1 1 1 1 0.0097440008507494666 1 0.0099938166559741595 1 1 1 1 0.0099935914810144362 1 0.0096793188911329965 1 1 1 1 1 0.0098163651405803569 1 1 0.0099941638733564934 1 1 0.0094336283325232653 1 1 0.0095922769656694735 1 1 0.0095663363530194868 0.0099594504795980227 0.010220183048715541 1 0.0093765103621327901 1 0.0099681222904022485 1 1 1 0.01010575908242525 1 1 0.0093837578265938346 0.010431499025551839 1 0.010079577478756745 1 0.010017286062842285 1 1 1 1 1 1 1 1 1 1 1 1 1 1 1 1 1 1 1 1 1 1 1 1 0.01048809335928844 1 1 1 1 1 1 1 1 1 1 1 1 1 1 1 1 1 1 1 1 1 0.009563896188391716 1 1 1 1 1 1 1 1 1 1 1 1 1 1 1 1 1 1 1 1 1 1 1 1 1 1 1 1 0.0087849528486066957 1 0.010386415590644835 1 1 1 1 1 1 1 1 1 1 1 1 1 1 1 1 1 1 1 1 1 1 1 0.0064195143180571165 1 1 0.0099923354250604744 1 1 1 0.0098320601578528403 1 1 1 0.0065367170461083975 1 1 1 1 1 1 1 1 1 1 1 1 1 1 1 1 0.0085732449174016432 1 0.00805495572496427 0.0088172462580721131 0.0099136772046700822 1 1 1 1 0.0080228236557438239 1 1 0.0099930481918454953 0.0087107751947492866 1 1 1 0.010045026937390039 0.0070792609115117467 1 1 1 1 1 1 1 1 0.010027535685837117 0.0059186247711848269 1 1 1 0.0094701281061522358 1 0.010069934456350857 1 1 1 0.005887411851617742 1 1 1 1 0.0100165546409695 1 0.0076208789415208016 1 1 1 1 1 1 1 1 1 1 1 1 1 0.0088524252002285114 1 1 0.010002360793448605 1 0.0019146750246651113 1 0.010930290507699409 0.0076061744384308405 1 1 1 1 1 0.0075963096599063959 0.0097702838329612046 1 1 1 1 0.0056521953824534114 1 1 1 1 1 1 0.0095341990178665226 1 0.0091167735041558645 1 1 1 0.011189553943232806 1 1 0.0099239741039941019 1 1 1 1 1 1 0.012965575754521655 1 0.0062390502480661452 1 1 1 1 0.0065174636806269413 1 1 1 1 1 1 1 0.012877410029315479 1 1 1 1 1 1 0.012887238082640425 1 1 0.0090486812850491174 1 1 0.010516444384628346 1 1 1 1 1 1 1 1 1 1 1 1 1 0.010883980195578711 1 1 1 1 1 1 1 0.010113843406339421 0.0069232207530917633 1 1 1 1 0.011441318340234272 1 1 1 1 1 1 1 0.011510070140834737 1 1 0.011414223420673192 1 0.0097498610756989006 1 0.0087779975501798783 0.010004754004334322 1 1 1 1 1 1 1 0.010548599922889864 1 1 1 1 0.011553532065365671 1 0.0052908788601705014 1 1 0.0078505368883525339 1 1 1 1 1 1 1 1 1 1 1 1 1 1 1 1 1 1 1 1 1 0.0097082190854308331 1 1 1 1 1 1 1 1 1 0.0095817399758160969 1 1 1 1 1 1 0.0090204852997733467 1 1 1 1 1 1 1 1 1 1 1 1 1 1 1 1 0.010032112741056243 1 1 1 1 1 0.0099845475614229739 1 1 1 1 1 1 1 1 1 1 1 1 1 1 1 1 1 1 1 1 1 0.0090928096088453078 1 1 1 1 1 0.0095902650226480611 1 1 1 1 1 1 1 1 0.0089976283432558722 1 1 1 1 1 1 1 1 1 1 1 1 0.0089351790548996609 1 1 1 1 0.0095588830192986241 1 1 1 1 0.0088629707856699835 1 1 1 1 1 1 1 1 1 1 1 1 0.009955412075077389 1 1 1 1 1 1 1 1 1 1 1 1 1 1 1 1 1 0.0096774206499872246 0.0072388414876103872 1 1 1 0.010085498350995061 1 0.0098778822645846816 1 0.0057969641911748797 1 1 0.010408236502690033 1 1 1 1 1 1 0.011168722985684838 1 0.010622316541733639 1 1 1 1 1 0.010207494009532175 1 0.0075859976042811153 1 1 1 1 1 1 1 1 1 1 1 1 1 1 1 1 1 1 0.0098544513684795804 1 1 1 1 1 0.0096209422556688684 1 1 1 1 1 1 1 1 1 1 1 1 1 1 1 0.0096225698631193114 1 1 0.009224110595506969 1 1 1 1 0.0090758330119226575 1 1 0.0075187955649472799 0.0092922796949159482 1 1 1 0.0089127648254864206 1 0.0079310703865211416 0.008317062156273973 1 1 0.0091027440805414323 1 0.010935528017162199 1 0.0095549643312250986 1 1 0.0089838726288683588 1 0.0086837155764027483 1 0.012744796171031379 1 1 1 1 1 0.0090163294997863477 1 1 1 1 1 1 1 0.0065572043824079444 0.0078252324042463062 1 1 1 0.0053971569523691421 1 0.0099069951238518715 1 1 1 1 1 1 1 0.0072959353268919743 1 1 1 1 1 0.00969118836782378 1 1 1 1 1 0.0093086545065721275 0.0076941583265801436 1 1 1 1 1 1 1 1 1 1 1 1 1 1 1 1 1 1 1 1 1 1 1 1 1 1 1 0.011069339961561805 1 1 0.010162151449159242 0.0093195667050054148 1 1 1 1 0.0099189721929709689 1 1 0.0099916018233224581 1 1 1 1 1 1 1 1 1 1 0.00990797070854719 1 1 1 0.0098414350372958617 1 1 1 0.0098295299228362762 1 0.0094898080006137094 1 1 1 1 1 1 0.010008933295220996 1 0.0099223485446643094 1 1 1 1 1 1 0.0099807371467432408 1 1 1 1 0.0099780547408634367 0.0098815977441379481 0.0098130081092691647 1 0.010016303103786246 1 1 1 1 1 1 1 0.0091905694758895092 1 1 1 1 1 1 1 1 1 1 1 0.010007079160681899 1 1 1 1 0.0097569469297148544 1 1 0.0092224380702968338 1 1 0.0098788749584108049 1 0.010000289932777566 1 0.010148097394243697 1 0.0098154842912858854 0.010049611117231072 1 1 0.0097747912060107862 1 0.010000020221593724 1 1 1 1 1 1 1 0.00039934848026629494 1 1 1 1 1 1 1 1 1 0.0015409182200557796 1 1 0.0099820106697581547 1 1 1 1 1 1 1 1 1 0.00090155745402270646 1 1 0.0099744967142934415 1 1 1 1 1 1 1 1 1 1 1 1 1 1 1 1 1 1 1 1 1 1 1 1 1 1 1 1 1 1 1 1 1 1 1 1 1 1 1 1 1 1 1 1 0.010019994178968738 0.01028133728320502 1 1 1 1 1 1 1 0.0090620703933975665 1 1 1 1.0408340855860843e-17 1 1 1 1 0.0009517087755807601 1 1 0.0072607334402062639 1 1 1 1 1 1 1 1 1 1 1 1 1 1 1 1 1 1 1 1 1 1 1 1 1 1 0.0108197914876046 1 0.010241544706373774 1 1 1 1 0.0098274776048606488 0.00059437890426358719 0.010872373103024184 1 1 1 1 1 0.010312059631298326 1 0.010273533938571515 1 1 1 1 1 1 1 1 1 1 1 1 1 1 1 1 1 1 1 0.010494439210702448 1 1 0.008379624879722599 1 1 1 1 1 1 1 1 1 1 1 1 1 1 1 1 1 1 1 1 1 1 0.0090737536289731864 1 1 1 1 0.0097128027625184507 0.012963825396730706 0.013904390369360042 1 1 1 1 1 1 0.0039047678922512485 1 1 1 1 1 1 1 1 1 1 1 1 1 1 1 1 0.0056772074515717315 1 1 1 1 0.010116918445394356 1 1 1 1 1 1 1 1 0.010211808254731253 1 1 1 1 1 1 1 1 0.0099634855297370348 1 0.0080552678169304396 1 1 0.01137808369260739 1 0.0096626487390211145 1 1 0.012214014283327294 1 1 0.011173413101024257 1 0.0099287671728994081 1 1 1 1 1 0.011910491360276288 1 1 1 1 1 0.010620121204165408 1 1 1 1 1 1 1 1 0.0060348666082659288 1 1 1 1 1 0.014690624501138441 1 1 0.0099965933037669246 0.0087025937327877886 1 0.010025710524755446 1 1 1 1 1 1 1 1 1 0.0096810840605020161 1 1 1 0.010033417566932771 1 1 1 0.0026003247680377369 1 1 0.0099563895831698401 1 1 1 1 1 1 1 1 1 1 1 1 1 1 1 1 1 1 1 0.0099852145667813971 0.0086373860697670276 1 0.014792941007758794 1 1 1 1 1 1 1 0.0098586631771599414 1 1 1 1 1 0.010073590961673458 1 0.010213385522154766 1 1 1 1 1 1 1 1 1 1 1 1 1 1 1 1 1 1 1 1 1 1 1 1 0.013633498994858623 1 0.010128975055661441 1 1 1 1 1 1 0.0047280249864377916 0.010280444320968498 1 1 1 0.012864455598957764 1 1 1 0.005878730422297378 1 1 1 0.0092640673210952831 1 0.0098907579972178934 1 1 1 1 1 1 1 1 1 1 1 1 1 0.012856395408047974 1 1 1 1 0.012897281124607862 1 1 1 1 1 1 1 1 1 1 1 1 1 0.011023129619946078 1 1 1 1 1 1 1 1 1 0.0099561985001227309 1 1 0.010286718050751228 0.012649098472641174 1 1 1 1 1 0.0101012295493883 1 1 1 1 1 1 1 0.0091902498651678152 1 1 1 1 1 1 1 0.008150545580177599 1 1 1 1 1 1 0.012986064532989967 0.0098727619632419245 1 0.0074705129224302818 1 1 1 1 1 1 0.010221327544383398 1 0.0099993285803759782 1 0.011556357130156963 1 1 1 1 0.0086918118204882024 1 0.010798004061540982 1 0.010001479985031458 1 1 1 1 1 1 1 1 1 1 1 1 1 1 1 1 1 0.0089105405395353571 1 1 1 1 0.0091616363314422009 1 1 1 1 1 0.010620882353442732 1 0.0088532372021540191 1 1 1 1 1 1 1 1 1 1 0.0094759451383017584 1 1 1 1 1 1 1 1 1 1 1 0.0080574010008468804 1 1 1 1 1 1 1 1 1 1 1 1 1 1 1 0.0095441495992171967 0.010070410823534819 1 1 0.0099409961373248673 1 1 0.010003861146152386 0.011039183814031787 1 1 1 1 0.010350430126341653 1 1 1 1 1 1 0.010538323762637207 0.010089543606306244 1 1 1 0.0098105611810311577 1 1 1 0.0085977074361025634 1 0.0098550294879996246 1 1 1 0.010952560411803368 1 1 0.010524928875198312 1 1 1 0.010002039127790891 1 1 1 1 1 1 1 1 1 1 1 1 1 1 1 1 1 1 1 0.01094628125897789 1 1 1 1 1 1 1 1 0.012383253501156263 1 1 1 1 1 1 1 0.013081134007396826 1 1 1 1 1 1 1 1 1 1 1 1 1 1 1 1 1 1 1 1 1 1 1 1 1 1 1 1 1 1 1 1 1 1 1 1 1 1 1 1 1 1 1 1 1 1 1 1 1 1 1 1 1 1 1 1 1 1 1 1 1 1 1 1 1 1 1 1 1 1 1 1 0.009900845933595203 1 1 1 1 1 1 1 0.0099745370735616345 1 1 1 1 1 1 1 0.0098550865503188693 1 1 1 1 1 1 1 1 1 1 1 1 1 1 1 1 1 1 1 1 1 1 1 1 1 1 1 1 1 1 1 1 1 0.010059099651927264 1 1 0.0099542406167236683 1 1 1 0.010084562578365633 1 1 1 1 1 1 1 1 1 1 1 1 0.0097251413274908553 1 1 1 1 1 1 1 1 1 1 1 1 1 1 1 1 1 1 1 1 1 1 1 1 1 1 1 1 1 1 1 1 1 1 1 1 1 1 1 1 0.0097255575188878469 1 1 1 1 1 1 1 1 1 1 1 1 1 1 1 1 1 1 1 0.010003341363742991 1 1 1 1 0.010032978034174741 1 1 0.01002963667043175 1 1 1 1 1 1 1 1 1 1 1 1 1 1 1 1 1 0.010120734040935725 1 0.010205054234854665 1 1 1 1 0.01006247455853587 1 1 1 1 1 1 1 1 1 1 1 1 1 1 1 1 1 1 1 1 1 1 1 1 1 1 1 1 1 1 1 1 1 1 1 1 1 1 1 1 1 1 1 1 1 1 1 1 1 1 1 1 1 1 1 1 1 1 1 1 1 1 1 1 1 1 1 1 1 1 1 1 1 1 1 1 1 1 1 1 1 1 1 1 1 1 1 1 1 1 1 1 1 1 1 1 1 1 1 1 1 1 1 1 1 1 1 1 1 1 1 0.01001639166392995 1 1 0.013126018857787042 1 1 0.008667939112001876 1 1 1 0.010552377234916126 1 1 1 1 1 0.0095934667895982324 1 1 1 1 1 1 1 1 1 0.010242778823417726 1 1 1 1 1 1 1 1 1 0.0103866674237417 1 1 1 1 1 1 1 1 1 1 1 1 1 1 1 1 1 1 1 1 1 1 1 1 1 1 1 1 1 1 1 1 0.0097383380609377332 1 1 1 1 1 1 1 1 1 1 1 1 1 1 1 1 1 1 1 1 1 1 1 1 1 1 1 1 1 1 1 1 1 1 1 1 1 1 1 1 1 1 1 1 1 1 0.010713043355221965 1 1 0.0095008252833290244 1 1 1 1 1 1 1 1 1 1 1 1 1 1 0.0097624872223912949 1 1 1 0.010326375931480261 1 1 1 1 1 1 1 1 1 1 1 1 1 1 1 1 1 1 1 1 1 1 1 1 1 1 1 1 1 1 1 1 1 1 1 1 1 1 1 1 1 1 1 1 1 1 1 1 1 1 1 1 1 1 1 1 1 1 1 1 1 1 1 1 0.010434900073893513 1 1 1 1 1 1 1 1 1 1 1 1 0.010250540635126499 1 1 1 1 1 0.0017217399947222455 0.01182797710065394 1 1 1 1 0.0059410951675428246 1 0.0085089656751912417 0.0081104712562827148 1 0.0022475593131268947 1 1 0.011804585835602567 1 0.010554938439517336 1 1 1 1 1 1 1 0.0047737043223534054 1 1 1 1 1 0.011288880082922025 1 1 1 1 0.0080512547264724177 1 1 1 0.010019436866302864 1 0.0074832311632293327 1 1 1 1 1 1 0.0090155801254251204 1 1 1 1 1 1 1 1 1 1 1 0.01319799373967771 1 1 1 1 1 1 0.011076589522225766 1 1 1 1 1 1 1 1 1 1 1 1 0.0061118811848992725 1 1 0.0075687257767576175 1 1 0.0091230651500961903 1 1 1 1 1 1 1 1 1 1 1 1 1 1 1 1 0.0097643910020422994 1 1 1 1 1 0.010038750915372421 1 1 1 1 1 1 1 1 1 1 1 1 1 1 1 0.009682547565484128 1 1 1 1 1 1 1 1 1 1 0.010463507498011598 1 1 1 1 1 1 1 0.010868979128759322 1 1 1 1 1 1 0.0098907247376367243 1 1 1 1 1 1 1 1 1 1 1 1 1 1 1 1 1 1 1 1 1 1 1 1 1 1 1 1 1 1 1 1 1 1 1 1 1 1 1 1 1 1 1 1 1 1 1 1 1 1 1 1 1 0.010247754658555399 1 1 1 1 1 1 1 1 1 1 1 1 1 1 1 1 1 1 1 1 1 1 1 1 1 1 1 1 0.0062770364169866498 1 1 1 1 1 1 1 1 1 0.0094271474499351103 1 1 1 1 1 1 0.00958100302895795 0.0060680729226904864 1 1 1 1 1 1 1 1 1 1 1 1 0.0099908990111678975 1 1 1 0.0064583353505069723 0.01001024123106662 1 1 1 1 1 1 1 1 1 1 1 1 1 1 1 1 0.0062927169150595701 0.010009275967345171 1 1 1 1 1 0.0099339743466583079 1 1 0.006216149065911304 1 1 1 1 1 0.010672330825157499 1 1 1 1 0.011040043824094391 1 1 1 1 1 1 1 1 1 0.0074155724836183299 1 1 1 1 1 1 1 1 1 1 1 1 1 1 1 1 1 1 1 1 1 1 0.010195143176311037 1 1 1 1 1 1 0.010120407174690437 1 1 1 1 1 1 1 1 1 1 1 1 0.0073539346914570942 1 1 1 0.010507944008051882 1 0.010318477565555987 1 1 1 1 1 1 0.010150339127804641 1 1 1 1 1 0.01011829571535817 1 1 1 1 1 1 1 1 1 1 1 0.012097433999895889 0.010825718374963692 1 1 1 1 1 1 1 1 1 1 1 0.0095180567534183958 1 1 1 1 1 1 1 1 1 1 1 1 0.010292115367171053 1 1 1 1 1 1 1 1 0.012848023831741395 1 1 0.01339479241606099 1 1 1 1 0.010016246941881489 0.0065975294056401226 1 1 1 1 0.010842457349045957 0.0075715519706015342 1 1 1 1 1 1 1 1 1 1 1 1 1 1 1 1 1 1 1 1 1 1 0.010297824155396448 1 1 1 1 1 1 1 1 0.011914872530657388 1 0.01005117098298563 1 1 1 1 1 1 1 1 1 1 1 1 1 0.012079068037946294 1 1 1 1 1 1 0.0074920730752113043 1 1 0.012305178672670548 0.009984430984596249 0.010016267377851728 1 1 1 1 1 1 1 0.0084037061046599824 0.0078803858282937237 1 1 1 1 1 0.010773467246949343 1 0.0082094354487931183 0.0079404204140678045 0.010581727609031196 1 1 0.0098958377646615314 1 1 1 1 1 1 0.0065276736213505781 1 1 1 0.010277462386357298 1 1 1 1 1 1 0.0077223534209271121 1 1 1 1 1 1 1 1 1 1 1 1 1 1 1 1 1 1 1 1 1 1 1 1 1 1 1 1 1 1 1 1 1 1 1 1 1 1 1 0.0051508488326665351 1 1 1 1 1 1 1 1 1 1 1 1 1 0.0039728448048309941 1 1 1 1 1 1 1 1 1 1 1 1 1 1 1 1 1 1 1 1 1 1 1 1 1 1 1 1 1 1 1 1 1 1 1 1 1 1 1 1 1 1 1 1 1 1 1 1 1 1 1 1 1 1 1 1 1 1 1 1 1 1 1 1 1 1 1 1 1 1 1 1 1 1 1 0.010442422562568223 1 1 1 1 0.009749718431395972 0.01009422538767628 1 1 1 1 1 1 1 0.0033221091572104167 0.010197817106330173 1 1 1 1 1 0.0097779113331751214 1 1 0.010371558969687431 1 1 1 1 1 1 0.0099720339876932934 1 1 1 1 1 1 1 1 1 1 0.0032821758595804711 1 1 1 1 1 1 1 1 1 1 1 0.009741965173797525 1 1 0.009372368417140016 1 1 1 0.0099952589140988833 1 1 1 1 0.0083935339902227908 1 1 1 1 1 1 1 1 1 1 1 1 1 1 1 1 1 1 1 1 1 1 1 1 1 1 1 1 1 1 1 1 1 1 1 1 1 1 1 1 1 1 1 1 1 1 1 1 1 1 1 1 1 1 1 1 1 1 1 1 1 1 1 1 1 1 1 1 1 1 1 1 1 1 1 1 1 1 0.0090401051315810166 1 1 1 1 0.0095382558593288935 1 1 1 1 0.0097619148578060432 1 1 0.010667383793042088 1 1 1 1 1 0.010275161306220438 1 1 1 1 1 1 0.0098498038236488825 1 1 1 1 0.010149733562277895 1 1 1 1 1 1 1 1 1 1 1 1 1 1 0.010048828364000053 1 0.0094473173970144667 1 1 1 1 1 1 1 1 1 1 1 1 1 1 1 1 1 1 1 1 0.0096947663201429907 1 1 1 0.0093641723839823429 1 1 1 1 1 1 1 1 1 1 1 1 1 1 1 1 1 0.0089359337207044337 1 1 1 1 1 0.0085979609907788981 1 1 1 1 0.0083236075556473808 1 1 0.0080382033292384497 1 1 1 1 1 1 1 1 1 1 0.0093521160205488132 1 1 1 1 1 1 1 1 1 1 0.0095241057747131389 1 1 0.010333949268747389 1 1 0.010059351274689123 1 1 0.0096884520356800112 1 1 1 1 1 1 1 1 1 1 0.0097337895583010283 1 1 0.010000113796300307 0.0097249072558128688 1 1 1 1 1 1 1 1 1 1 1 1 1 1 1 1 1 1 1 1 1 1 1 1 1 1 1 1 1 0.01007582142412128 1 1 1 1 1 1 1 1 0.010017571449184807 1 1 0.0095700459420849197 1 1 1 1 0.0099417356485578118 1 1 1 1 1 0.0091957002946425077 1 1 1 1 1 1 1 0.0095885773748673915 1 1 1 1 1 1 1 1 0.009607122919775125 1 1 1 1 1 1 1 1 1 1 1 1 1 1 1 1 1 1 1 1 1 1 1 1 1 1 1 1 1 1 1 1 1 1 1 1 1 1 1 1 1 1 1 1 1 1 1 1 1 1 1 1 1 1 1 0.011486386123475838 1 1 1 0.010737988153838933 1 1 1 1 1 1 0.0088471918124351321 1 0.011986491291841489 1 1 0.011300743435026097 1 1 1 0.010834902173896533 1 1 1 1 1 1 1 1 0.011580283795501837 1 1 0.012660263953268712 1 1 1 1 1 1 1 1 1 0.010443004437508428 1 1 1 1 1 1 1 1 1 1 1 1 1 1 1 1 1 1 1 1 1 1 1 1 1 0.0098554201470881647 1 1 1 0.010050838426308073 1 1 1 1 1 1 0.011141600761223966 1 0.0076399843964667499 1 1 0.0065588538568720732 1 1 1 0.006303966397332968 1 1 1 0.013714395063066298 0.0047432519498696929 1 1 1 0.0047831914468870152 0.013397539652469995 1 1 1 1 1 1 1 0.0031174523392185731 0.010001080100606421 1 1 0.01127444806496004 1 0.0072117306233648289 1 1 1 1 1 1 1 0.0071705654914333023 1 1 1 1 1 0.010618375507885105 1 1 1 1 1 1 1 1 1 0.0098348114704530191 1 1 0.0095528900194018947 1 1 1 1 1 1 1 1 0.010156411998210576 1 1 1 1 1 0.0095386977471729889 1 1 1 1 1 1 1 1 1 1 0.010034876862847633 1 1 1 0.0090295543987616335 1 1 1 1 1 1 1 1 1 1 1 1 0.0092947984343466419 1 1 1 1 0.010061263031997822 1 0.010183302942839699 1 0.0083871104772563175 1 1 1 1 1 1 1 1 1 1 1 1 1 1 1 1 1 0.0099970609572572425 1 1 1 0.0091863383884882265 1 0.0080632349052490171 1 0.011259621451513492 0.010085092005131344 1 1 1 1 1 1 1 0.0096183027320783619 0.008479349039662229 1 1 1 0.010283327979144646 1 0.0088474572404686966 1 1 1 1 1 1 1 1 1 1 1 0.0097269707453186034 1 0.010230351602566365 1 1 1 0.010778805971498058 1 1 1 1 1 1 1 1 1 1 0.0038336787953630203 0.0043898485332951164 1 1 1 1 0.0049150816557764054 1 1 1 1 0.011016431062304325 1 1 1 1 1 1 0.0067724693622749008 1 1 1 0.0098844449752475312 1 0.010019149454669373 1 1 1 1 0.0054883281077075362 1 1 1 1 1 1 1 1 0.0092864181748563961 1 1 1 1 1 1 1 1 1 1 1 1 1 1 1 1 0.0095998083171500419 1 1 0.0097129478844722363 1 0.0093635138408949947 1 1 1 1 1 1 1 1 0.0098882406247890724 1 1 1 1 1 0.0079797263331334543 1 1 1 1 1 0.0082747984103578205 1 1 1 1 1 1 1 1 0.0086598510127414204 1 1 1 1 1 1 0.0083003860191051115 0.0093081886131888818 1 1 1 1 1 1 1 1 0.0096172070464830041 1 1 1 1 1 1 0.01025407395661021 1 1 0.010753273827534784 1 1 0.007894315083087345 1 1 1 1 1 1 1 1 1 1 1 1 1 1 1 1 1 1 1 1 1 1 1 1 1 1 1 1 1 1 1 1 1 1 1 1 1 1 1 1 1 1 1 1 1 1 1 1 1 1 1 1 1 1 1 1 1 1 1 1 1 1 0.0089267845050591162 1 1 1 1 1 1 1 1 1 1 1 1 1 1 1 1 1 1 1 1 1 1 1 1 1 1 1 1 1 1 1 1 1 1 1 1 1 1 1 1 1 1 1 1 1 1 1 1 1 1 1 1 1 1 1 1 1 1 1 1 1 1 1 1 1 1 1 1 1 1 1 1 1 1 1 1 1 1 0.010450360694159295 1 1 1 0.0084043152062691986 1 1 1 1 1 0.0093063218307424898 0.0081030928156807618 1 1 0.0095640411692580612 1 1 1 1 1 1 0.010030890601603649 0.01397677842505566 1 1 1 1 1 1 1 1 1 1 1 1 1 1 1 1 1 0.0085016506734078255 1 1 1 1 1 1 1 1 1 1 1 1 1 1 1 0.0056643109367573432 0.0034208563099502255 1 1 1 1 1 1 1 1 1 1 1 1 1 1 1 1 1 1 1 0.010350078905816644 1 1 1 1 1 1 1 1 1 1 1 1 1 1 1 0.013171151077555397 1 1 1 0.011069229106082637 0.0052813405616948545 0.0059793141250261729 1 0.012296780862725256 1 1 1 0.012391076237807726 0.014158382775269042 1 1 0.0068005399560190551 1 1 0.0063236280346603488 1 1 1 1 0.010089767682422646 1 1 0.0067802065750886802 0.012028270779882253 1 1 1 1 1 1 0.0089067582672150061 1 1 1 1 1 1 1 1 1 1 1 0.015222062223442606 1 1 1 1 1 1 1 1 1 1 1 1 1 1 1 1 1 1 1 0.01587641715224726 1 0.0066970446616057798 1 1 1 1 1 1 1 1 1 1 1 1 1 1 1 1 1 1 1 1 1 0.011306072622343856 1 1 1 1 1 1 1 1 1 1 1 1 1 1 1 1 0.014342436708061672 1 0.010300538305391184 1 1 0.010915024939698394 1 1 1 1 1 1 1 1 1 1 1 1 1 1 0.010458301928004211 1 1 1 1 1 1 1 1 1 1 1 0.010241083591496676 1 1 1 1 1 1 1 1 1 1 1 1 0.0096158321037119812 1 1 1 1 1 1 1 1 1 1 1 1 1 0.0098369113791284823 1 1 1 1 1 1 1 1 1 1 1 1 1 1 1 1 1 1 1 1 1 1 1 0.010579960084462058 1 1 1 1 0.010570938035998562 1 1 1 1 1 1 1 1 1 1 1 0.010250473630724078 1 1 1 1 1 1 1 1 1 1 1 1 1 1 1 1 1 1 1 1 1 1 0.010161513939695381 1 1 1 1 0.010670141646002194 1 1 1 1 1 1 1 1 1 1 1 1 1 1 0.0099409840732484385 1 0.010074145063716108 1 1 1 0.012826833400177533 1 1 1 1 0.011910699357217561 0.010553565399140803 1 1 1 1 1 1 1 1 1 1 1 1 0.0097085602773770187 1 1 0.009575399286909354 1 1 1 1 1 1 1 1 1 1 1 1 1 1 1 1 1 1 1 1 1 1 1 1 1 1 1 1 1 1 1 1 1 1 0.0080121081132260366 1 1 1 1 0.0091032181993281544 1 1 1 1 1 0.0089602129985213615 1 1 1 0.0092341182686088066 1 1 1 1 0.0097167704730217672 1 1 1 1 0.0083482141065388503 1 1 1 0.0094393241926409542 1 1 1 1 1 1 0.0091414750858730149 1 1 1 1 1 1 1 0.0092354596920919425 0.0096160969718896375 1 1 1 1 1 1 1 0.0092841826547066554 1 1 1 1 0.0084863826182685429 1 1 1 1 0.0092089242488217014 1 1 1 1 1 1 1 1 1 1 1 1 1 1 1 1 1 1 1 1 1 0.0095778684694370966 1 1 1 1 1 1 1 1 1 1 1 1 1 1 0.019392338710977328 0.0070982195607174683 1 1 1 1 0.0094787059674449059 0.011286520549842796 1 1 0.0097912127103702614 1 1 1 1 1 1 1 1 1 1 1 1 1 0.0097063141852695642 1 1 1 1 1 1 1 0.01226622562109929 1 1 1 0.012085815823943941 1 1 1 1 1 0.011779492910441662 1 1 1 1 1 1 1 1 1 1 1 1 1 1 1 1 1 0.010265382154606789 1 1 1 1 1 1 1 1 1 1 1 1 1 1 1 1 1 0.01525666634405937 1 1 1 0.017317481192798037 1 1 1 1 1 1 1 1 1 1 1 1 1 1 1 1 1 1 1 1 1 1 1 1 1 1 1 1 1 1 1 1 1 1 1 1 1 1 1 1 1 1 1 1 1 1 1 1 0.0088158312049499057 1 1 1 1 1 0.0095762330066700707 1 1 1 1 1 1 1 1 0.0070655689155483242 1 1 0.010200063430063928 1 1 1 1 1 1 1 1 1 1 0.01081830188157018 1 0.0060101998941531889 0.010618813038833039 1 1 1 0.010200481845471517 1 1 1 1 1 0.0097349304214658129 0.0055999932698634113 1 1 1 1 1 1 1 1 1 1 1 1 1 1 1 0.0042526137220988726 1 1 1 1 0.010703206597073833 0.0099965044741220348 1 1 1 1 1 1 1 1 1 1 1 1 1 0.0047480135258047146 1 1 1 1 1 1 1 1 1 1 1 1 1 1 1 1 1 1 1 1 1 1 1 1 1 1 1 1 1 1 1 1 1 1 1 1 0.011802652068746563 1 1 1 1 1 1 1 1 1 1 1 1 1 1 1 1 1 1 1 1 1 0.011927826744515263 1 1 1 1 0.012519128326779946 1 1 1 1 1 1 1 1 1 0.008830308514714006 1 0.0092509229261766024 1 1 1 1 0.010154748300877458 1 1 1 0.0079132139760491535 1 1 1 1 0.010707866627693911 0.014083792776722249 0.0039223197879001744 1 0.012800015057286639 1 1 1 0.0093823417371204469 1 0.009544435488976797 1 1 1 1 0.0096704325282728452 1 1 1 1 0.010153825792459822 1 1 0.01271271012359769 1 1 1 1 0.0096693216015750847 1 1 1 1 1 1 1 1 1 1 1 1 1 1 1 1 1 1 1 0.010387849644045852 1 1 1 1 1 1 1 1 1 1 1 1 1 1 1 1 1 1 1 1 1 1 1 1 1 1 1 1 1 1 1 1 1 1 1 1 1 1 1 1 1 1 1 1 1 1 1 1 1 1 1 1 1 1 0.0083511805410104029 1 1 1 0.011328386865719334 0.011082335550385987 1 1 0.012389934891604251 0.010577463766250695 1 0.01111649937010863 0.011130334985431766 1 1 1 1 0.0095711574150330828 0.011117268043637342 1 1 0.010377098127211963 1 1 1 1 1 1 1 1 1 1 1 1 1 1 1 0.0095272797532197345 1 1 1 1 1 1 1 0.0097945896553016422 1 1 0.012819440287937578 1 1 1 0.010039970560373871 1 1 1 1 1 1 1 1 0.0073840968945514448 1 1 1 1 1 1 1 1 1 1 1 1 1 0.010093607849672066 1 1 1 1 1 0.010309257486665753 0.0088138397536106691 1 0.010042459869356918 1 1 0.0091937136102400313 1 1 1 1 1 0.0096382561654050139 1 1 1 1 1 1 0.0095253781139833758 1 1 1 1 1 1 1 1 1 1 0.0099313880687775143 1 1 1 0.0096085591465259051 1 1 1 1 1 1 1 0.009051424349460227 1 1 1 1 1 1 1 1 1 1 1 1 1 1 1 1 1 0.0098916858203477037 1 1 1 1 1 1 1 1 1 1 1 1 1 1 1 1 1 1 1 1 1 1 1 1 1 1 1 1 1 1 1 1 1 1 1 1 1 1 1 1 1 1 1 1 1 1 1 0.0098108766980007714 1 1 1 0.0099130939796569784 1 1 1 1 1 0.0099776741722221937 1 1 1 1 1 1 1 1 1 1 1 1 1 1 1 1 0.0098828791801468183 1 0.0098977129287302189 1 1 1 1 1 1 1 1 0.0071263163211150275 1 1 1 0.0096879285310795451 1 1 1 0.0071546486600567363 1 1 1 0.0095090776220415514 1 0.0098358029387577012 1 1 1 1 1 1 1 1 1 0.009918895746376992 1 1 1 1 0.0094744169471281305 1 1 1 1 1 1 1 1 0.0097202408925562492 1 0.01361968462291303 1 1 1 1 0.013355600607702894 1 1 1 1 1 1 1 1 0.0089066843934417009 1 1 1 1 0.0079057591732871347 1 1 1 1 1 1 0.010872774879302213 1 1 1 0.012691759624067602 1 1 1 1 1 1 1 1 1 1 1 1 1 1 1 1 1 1 1 1 1 0.0099777273608135913 1 1 1 1 1 1 1 1 1 1 1 1 1 1 1 1 0.0075336183132453088 1 1 1 1 1 0.0099077067249792438 1 1 1 1 0.0082938281651974248 1 1 1 1 1 1 1 0.0092024355289965394 1 1 1 1 1 1 1 1 1 1 1 1 1 1 1 1 1 1 1 1 0.014457037187150289 1 1 1 1 1 1 0.0098460819737687111 1 1 1 1 1 0.016124978764319911 1 1 1 0.0090475237766036339 1 1 1 1 1 1 1 1 1 1 1 0.0097240974280987172 0.010134159763222614 1 1 1 1 1 1 1 1 1 1 0.010597474567366502 1 1 0.010286724118767732 0.009881462751717824 1 1 1 1 1 1 0.010349935064050596 1 1 1 0.0099993030734920746 0.0100001605712179 0.0097299157220774989 1 1 0.010039078016628516 1 1 1 0.010160678215320488 1 0.010010955825771968 0.0092065119058266174 1 1 1 1 1 0.010626662673934497 0.010074613073456157 1 0.01006702500630695 0.0092453700695505521 1 0.010149144005225569 1 1 1 1 1 1 1 1 1 1 1 0.010528525367429757 1 1 1 0.010797152243080959 1 1 1 1 1 1 0.010088773945344472 1 1 1 1 1 1 1 0.0098770524139149569 1 0.0088340101317023693 1 1 1 1 0.012303018941022285 1 1 0.010990647164586215 1 0.0096151188046969625 0.011062194910542571 0.0089443943727052083 1 1 0.011484824567125351 1 1 1 1 1 0.0097803692902664885 1 1 0.01006055466812698 1 1 0.010184572555274307 1 1 0.0084457243541583606 0.0099999300156610616 1 1 1 1 1 1 1 1 1 1 0.0075515275136980274 1 1 1 1 1 1 1 0.0099696765905089441 0.0093127953825255551 1 1 1 1 1 1 1 0.0087620867819623409 1 1 1 1 0.009664663196193116 1 0.007585703116512044 1 0.0095477643619144795 1 0.0086754376767653445 0.011510546997326444 1 1 0.0089199998673911048 1 0.010109930538653694 1 1 0.0094612462107342005 1 1 0.010002760874471783 1 0.0098217366681357648 1 1 1 1 1 1 1 1 1 1 1 1 0.0098303494567256525 1 1 1 1 1 1 1 1 1 1 1 0.012525437475010904 1 1 0.0094183107283101475 1 1 1 0.0100000402074031 1 0.0158036920911587 1 1 1 1 0.0074364873474019565 1 1 1 1 1 1 1 1 1 1 1 1 1 0.0093816813631367093 0.012593257717762461 1 1 0.0098989733724677148 1 1 0.010168497767934735 0.0099474100418157751 1 1 1 1 1 1 1 1 1 0.01005878017715978 1 1 0.0089020418934379862 1 1 0.011417040196382507 0.011198029329088522 1 0.00998942417392059 1 1 0.0092536317666661941 1 1 0.011817973141405636 1 0.0086324565657039179 1 1 1 0.010014497777121791 1 1 1 1 1 1 1 1 1 1 1 1 1 1 1 0.0099551320402319846 1 1 1 1 1 1 0.010105666457297182 1 1 0.0093383584224994952 1 1 0.0093792369869381415 1 1 1 1 1 1 0.0099917306487289654 1 1 1 0.0089513435834032151 1 1 0.0096784848858539364 1 1 1 1 1 0.010155874848736045 1 1 0.010011617071665362 1 1 1 1 0.010657078645538227 1 0.01001655012388112 1 0.012938976133887174 1 1 1 0.01043892910570866 1 1 1 1 1 1 0.013904898426921886 1 0.0098728791592261576 1 1 1 1 1 1 1 1 1 1 1 0.0100672665184416 1 1 1 1 1 1 1 0.0099721934671807132 1 1 1 1 1 1 1 0.0084602433875068661 1 1 1 1 0.0097779837506785372 1 1 1 1 1 1 1 1 1 1 1 1 1 1 1 1 1 1 1 1 1 1 1 1 1 1 1 1 1 1 0.0098541245385185029 1 1 1 1 1 1 1 1 1 1 1 0.010556220506135208 1 1 0.011579478826471982 0.0095204159043990634 1 1 1 1 0.01271975500691722 1 1 0.009418109297152746 1 1 0.0084602248906404734 1 0.0079673795789469808 1 1 0.0093383610735809867 1 1 1 1 1 1 0.0095596247923874274 0.0090552288154869369 1 1 1 1 1 1 1 0.009996898907168917 1 1 1 0.0098111791701422264 1 1 1 1 1 1 1 1 1 1 1 1 1 1 1 0.0093175420619578883 1 1 1 1 1 0.0097403717347594974 1 1 1 1 1 1 1 1 1 1 1 1 1 0.011751128666068008 1 0.0092497285113892925 1 1 1 1 1 0.0091398704800778833 1 0.0097139026310248625 1 1 1 1 1 1 1 1 1 1 1 1 0.010984347708869918 1 0.0094142239290124219 1 1 1 1 0.009013438287569453 1 0.01007368584227342 1 1 1 0.010073878538193767 1 0.010165917860566817 1 1 0.008304936258915185 0.0087087869351054649 1 0.010326796183049807 0.011765703737611773 1 1 1 1 1 1 1 0.010030639388727558 1 1 1 1 1 0.01112518718464375 1 1 0.010006101733997713 1 0.011063668469497474 1 1 0.010456082989826004 1 1 1 1 1 1 0.012263941886255359 1 0.012656641461237527 1 0.00888254536850514 1 1 1 1 0.01197060419001671 1 0.0094977913437071897 0.0084384162313748436 1 1 1 1 1 1 1 1 1 1 1 1 0.0094900474324130218 0.015691360329416124 0.013637188002224269 1 1 1 1 1 1 1 1 1 1 1 1 1 1 1 1 1 1 0.0091773452423892232 1 1 1 1 0.0094502365837397708 1 1 1 1 1 1 1 1 1 0.0099899882756155495 0.0090192850298115752 1 1 0.0093950510754518875 1 1 1 1 1 0.011067890034088602 1 1 1 1 1 1 1 1 1 1 1 1 1 1 0.010353988573304823 1 1 1 1 1 1 1 1 1 1 1 1 1 1 1 1 1 1 1 0.0095109547392588558 1 1 1 1 1 1 1 0.0077216908983231847 1 1 1 1 1 0.0078895947661782959 1 1 1 1 1 1 1 1 1 1 1 1 1 1 0.0075750254447287425 1 1 1 1 1 1 1 1 1 1 0.0097842390327754873 1 1 1 1 0.010927350198148932 1 1 1 1 1 1 1 1 1 1 1 1 1 1 1 1 1 1 1 1 1 1 1 1 1 1 1 1 1 1 1 1 1 1 1 1 1 1 1 1 1 1 1 1 1 1 1 1 1 1 1 1 1 1 1 1 1 1 1 1 1 1 1 1 1 1 1 0.01059175596178067 1 1 1 1 1 0.010151909358102578 1 1 1 1 0.009721967525759094 1 1 1 1 1 1 1 1 1 1 1 1 1 1 1 1 1 1 1 1 1 1 1 1 1 1 1 1 1 1 0.0080432422087301902 1 1 1 0.0099975872321303207 1 1 1 1 1 1 1 1 1 1 1 1 1 1 1 1 1 1 1 1 1 1 0.0099237866826694335 1 1 1 1 0.010058551913780982 1 1 0.011216066557900722 1 1 0.010673967440487056 1 1 1 1 1 0.0090221717998465994 1 1 1 1 0.010000063144651553 0.0090025592675189812 1 1 0.0099761029701440612 1 1 1 1 0.0093509617683744627 0.010438480306702002 1 1 1 0.010007392421413274 0.010717939878169706 1 1 1 0.011700679926745356 0.010001762957563522 1 1 0.014421795995818349 1 1 1 1 1 0.0087219990725176093 1 1 0.010004293527461277 1 1 1 0.016754695234526638 1 0.0099935121877252203 1 1 1 1 1 1 1 1 1 1 1 1 1 1 1 0.01435782880552218 1 1 1 0.012996144384455607 1 1 1 1 1 1 1 1 1 1 1 0.0086775626449298211 1 1 0.010004569787932183 1 0.0089881993289654787 1 1 1 0.011385868267908144 0.010051120262792392 1 1 1 0.01442694961739468 1 1 1 1 0.013128767475510089 1 1 1 1 1 1 0.0090805548552670215 1 1 1 1 1 0.010137989467913718 1 0.0089569555970925065 1 1 1 1 1 1 1 1 0.0097562521498772131 1 1 1 1 1 1 1 1 1 1 1 1 1 1 1 1 1 1 1 0.0162684417704606 1 1 1 1 1 1 1 1 1 0.0099871328507405328 1 1 1 1 1 1 1 1 0.0098752039594941221 1 1 0.010042077543298424 1 1 1 1 1 1 1 1 1 1 1 1 1 1 1 1 1 1 1 1 1 0.017810718792725371 1 1 1 1 1 1 1 1 1 1 1 0.0095606456076528651 1 1 1 1 1 1 1 0.010555984466832662 1 1 1 1 1 1 1 1 1 1 1 0.0095544939737580228 1 1 1 1 1 0.0088533360893319479 1 1 1 1 1 1 1 1 1 1 1 1 0.010787741843151627 1 1 1 1 1 1 1 1 1 1 1 1 1 1 1 1 1 1 1 1 1 1 1 1 1 1 1 1 1 0.0098257888253701665 1 1 1 1 1 1 1 0.0090595105339755858 1 1 1 1 1 0.0081767834920501541 1 1 1 1 1 1 0.0098765440833341774 1 1 1 0.0099153579939256394 1 1 1 1 1 1 1 1 1 1 1 1 1 0.0093972743171935012 1 1 1 0.0099611860894085295 1 1 1 1 1 1 1 1 1 1 1 1 1 1 1 1 1 1 1 1 1 1 1 1 1 1 1 1 1 1 1 1 1 1 1 1 1 1 1 1 1 1 1 1 0.014364535650882856 1 1 1 1 1 1 0.011645743564301982 1 1 1 1 1 1 0.0096813683836935137 1 1 1 1 1 1 1 1 1 1 1 1 1 1 1 1 1 1 1 1 1 1 1 1 1 1 1 1 1 0.0090683167082650402 1 1 0.011502697132702968 1 1 0.012483644452692226 1 1 1 1 0.010276083307515515 1 1 1 0.013480149768754692 1 1 1 1 1 1 1 1 1 1 1 1 1 0.0097075668133874572 1 1 1 1 1 0.0086083830453703766 1 1 1 1 1 1 0.0098871244924036289 1 1 0.0051744810226006365 1 1 1 1 0.015458858809919537 1 1 1 1 1 1 1 1 0.010025463797697941 0.0051370019757870679 1 1 1 1 1 0.0098501933289841682 1 1 1 1 1 1 1 1 1 1 1 1 1 1 0.015998667337797357 1 1 1 1 1 1 0.0069670619944243849 1 1 1 1 0.010019588229642827 1 1 1 1 1 1 1 0.018295495884066995 1 1 1 1 1 0.01002455564888065 0.0099554097588321292 1 1 1 1 1 0.015153957458647917 1 1 1 1 1 1 1 1 1 1 1 1 1 1 1 1 1 1 1 1 1 1 1 1 1 1 1 1 1 0.011241259457441952 1 1 1 1 0.0098238256976998055 1 1 1 1 1 1 1 1 1 1 1 1 1 1 1 1 1 1 1 1 1 1 1 0.0093143444720418505 1 1 1 0.0080919030560679481 1 1 1 1 0.0099061134487541877 1 1 1 1 1 1 1 1 1 1 1 1 0.009764511037966505 1 1 1 0.0093584276253856867 1 1 1 0.0085554251732613256 1 1 1 1 1 1 1 1 1 1 1 1 1 1 1 1 1 1 1 0.0084654328430617022 1 1 1 1 1 1 1 1 1 1 1 0.0092030077642479193 1 1 1 1 1 1 0.010025269564908476 1 0.0087047264305139555 1 0.011483382023134928 1 1 1 1 1 1 1 1 1 1 1 1 1 0.0099476703960489458 0.011455505099797951 1 1 1 1 1 0.0099986760819720053 1 1 1 1 0.0099936677223809878 1 1 1 1 1 1 1 1 1 1 1 1 1 1 1 1 1 1 0.01085043936748299 1 0.0099464312797235208 1 1 1 1 0.010322048261701808 1 1 0.0096426453076769118 1 1 1 1 1 1 1 1 1 1 1 1 1 1 0.011187073461179874 1 1 1 1 1 1 1 1 1 1 1 1 1 1 1 1 0.0099056018844702141 1 1 1 1 1 0.0094809034183488371 1 1 0.009954883548874343 1 1 1 0.0089872772994336256 1 1 1 1 0.010002718148463907 1 1 1 1 1 1 1 1 1 1 1 1 1 1 1 1 1 1 0.013923957682297494 1 1 0.012351142169123808 1 1 1 1 0.0078214745382805227 1 1 1 1 0.012438575162747184 1 1 1 1 1 1 1 1 1 1 1 1 1 1 1 1 0.0099231074849670531 1 0.0092698304072640954 1 1 1 1 1 1 1 0.0098100807115925979 1 1 1 1 0.0095047676477111147 1 1 0.0094415194482852498 1 1 1 1 1 0.0098668116743860727 1 1 1 1 1 1 1 1 1 1 1 1 1 1 1 1 1 0.008194513601618908 1 0.0099284375577306863 0.0093436441150177071 1 1 1 1 1 1 1 1 1 1 1 1 1 1 0.0093418857842666146 1 1 1 1 1 0.011157545342807315 1 1 1 1 1 0.010340656879682058 1 1 1 1 1 1 1 1 1 1 1 1 1 1 1 1 1 1 1 1 1 0.0099575598316872169 0.014332580474752204 1 1 1 0.014006598958346012 1 1 1 1 1 1 1 1 1 1 1 0.0099389153309470991 1 1 1 1 1 1 1 1 1 1 1 1 1 1 1 1 1 1 1 1 1 1 1 1 1 1 1 1 1 1 1 1 1 1 1 0.010211345547884082 1 1 0.0081463153813158915 1 1 1 1 1 1 1 1 1 1 1 1 1 1 1 1 1 1 1 1 1 1 0.0051400600421828823 1 1 1 1 1 1 0.0056599027441793176 1 1 1 1 1 1 1 1 1 1 1 1 1 1 0.0096684148233905261 1 1 1 1 1 1 0.0070169088951972814 1 1 1 0.0089999623815398035 1 1 1 1 1 1 1 1 1 1 1 1 1 1 1 1 1 1 1 1 1 1 1 1 1 1 1 1 1 0.010191662858711238 1 1 1 1 1 1 1 0.012104625861919306 1 1 0.010542245318370922 1 1 1 1 1 1 1 1 
</DataArray>
</CellData>
</Piece>
</UnstructuredGrid>
</VTKFile>
